<?xml version="1.0"?>
<VTKFile type="UnstructuredGrid" version="0.1" byte_order="LittleEndian">
<UnstructuredGrid>
<Piece NumberOfPoints="29298" NumberOfCells="10292">
<Points>
<DataArray type="Float64" NumberOfComponents="3" format="ascii">
-0.5 -0.5 0 -0.46041872417458801 -0.5 0 -0.46747409196672429 -0.46635237475468022 0 -0.5 -0.5 0 -0.47372258576817777 -0.43851749806451917 0 -0.5 -0.40215818236599848 0 -0.46041872417458801 -0.5 0 -0.45819951653298502 -0.47586731236597812 0 -0.44675721301359778 -0.48480373329638887 0 -0.46041872417458801 -0.5 0 -0.45819951653298502 -0.47586731236597812 0 -0.46747409196672429 -0.46635237475468022 0 -0.45819951653298502 -0.47586731236597812 0 -0.44828410186158879 -0.47258213323486548 0 -0.46452775127951579 -0.46410508109993431 0 -0.45819951653298502 -0.47586731236597812 0 -0.46747409196672429 -0.46635237475468022 0 -0.46452775127951579 -0.46410508109993431 0 -0.44828410186158879 -0.47258213323486548 0 -0.438075559351217 -0.46231173044867119 0 -0.43444593250288521 -0.48115586522433568 0 -0.45819951653298502 -0.47586731236597812 0 -0.44828410186158879 -0.47258213323486548 0 -0.44675721301359778 -0.48480373329638887 0 -0.44828410186158879 -0.47258213323486548 0 -0.44675721301359778 -0.48480373329638887 0 -0.43444593250288521 -0.48115586522433568 0 -0.46041872417458801 -0.5 0 -0.44675721301359778 -0.48480373329638887 0 -0.43081630565455131 -0.49999999999999978 0 -0.44279155480728871 -0.43782743559164239 0 -0.438075559351217 -0.46231173044867119 0 -0.44279155480728871 -0.43782743559164239 0 -0.438075559351217 -0.46231173044867119 0 -0.45500087781297488 -0.44743734919765232 0 -0.438075559351217 -0.46231173044867119 0 -0.46452775127951579 -0.46410508109993431 0 -0.44828410186158879 -0.47258213323486548 0 -0.438075559351217 -0.46231173044867119 0 -0.46452775127951579 -0.46410508109993431 0 -0.438075559351217 -0.46231173044867119 0 -0.46452775127951579 -0.46410508109993431 0 -0.45500087781297488 -0.44743734919765232 0 -0.46747409196672429 -0.46635237475468022 0 -0.46452775127951579 -0.46410508109993431 0 -0.47372258576817777 -0.43851749806451917 0 -0.46452775127951579 -0.46410508109993431 0 -0.45500087781297488 -0.44743734919765232 0 -0.47372258576817777 -0.43851749806451917 0 -0.46747409196672429 -0.46635237475468022 0 -0.47372258576817777 -0.43851749806451917 0 -0.5 -0.5 0 -0.46747409196672429 -0.46635237475468022 0 -0.47372258576817777 -0.43851749806451917 0 -0.47372258576817777 -0.43851749806451917 0 -0.47997107956963109 -0.41068262137435829 0 -0.5 -0.40215818236599848 0 -0.47372258576817777 -0.43851749806451917 0 -0.47997107956963109 -0.41068262137435829 0 -0.45990318050858159 -0.42553720605681872 0 -0.47372258576817777 -0.43851749806451917 0 -0.47997107956963109 -0.41068262137435829 0 -0.47997107956963109 -0.41068262137435829 0 -0.48621957337108462 -0.38284774468419719 0 -0.5 -0.40215818236599848 0 -0.47997107956963109 -0.41068262137435829 0 -0.48621957337108462 -0.38284774468419719 0 -0.47997107956963109 -0.41068262137435829 0 -0.48621957337108462 -0.38284774468419719 0 -0.46061798818106148 -0.38950224539549477 0 -0.48621957337108462 -0.38284774468419719 0 -0.46061798818106148 -0.38950224539549477 0 -0.46314646492496542 -0.36348021062215441 0 -0.46061798818106148 -0.38950224539549477 0 -0.45295563401162209 -0.37624745073812571 0 -0.46314646492496542 -0.36348021062215441 0 -0.46061798818106148 -0.38950224539549477 0 -0.46314646492496542 -0.36348021062215441 0 -0.46061798818106148 -0.38950224539549477 0 -0.45222354571942802 -0.38885884587758401 0 -0.45295563401162209 -0.37624745073812571 0 -0.46061798818106148 -0.38950224539549477 0 -0.46042543483005888 -0.40541519137812682 0 -0.45222354571942802 -0.38885884587758401 0 -0.47997107956963109 -0.41068262137435829 0 -0.46061798818106148 -0.38950224539549477 0 -0.46042543483005888 -0.40541519137812682 0 -0.46042543483005888 -0.40541519137812682 0 -0.45222354571942802 -0.38885884587758401 0 -0.44750755026335842 -0.41334314073461309 0 -0.45222354571942802 -0.38885884587758401 0 -0.44750755026335842 -0.41334314073461309 0 -0.43944708140057082 -0.39943917350740538 0 -0.45222354571942802 -0.38885884587758401 0 -0.44750755026335842 -0.41334314073461309 0 -0.43944708140057082 -0.39943917350740538 0 -0.45222354571942802 -0.38885884587758401 0 -0.43991806855136362 -0.38484112519593899 0 -0.43991806855136362 -0.38484112519593899 0 -0.45295563401162209 -0.37624745073812571 0 -0.43984316204505469 -0.36909794372703719 0 -0.45222354571942802 -0.38885884587758401 0 -0.43991806855136362 -0.38484112519593899 0 -0.45295563401162209 -0.37624745073812571 0 -0.45500087781297488 -0.44743734919765232 0 -0.47372258576817777 -0.43851749806451917 0 -0.45990318050858159 -0.42553720605681872 0 -0.47997107956963109 -0.41068262137435829 0 -0.46042543483005888 -0.40541519137812682 0 -0.45990318050858159 -0.42553720605681872 0 -0.46042543483005888 -0.40541519137812682 0 -0.45990318050858159 -0.42553720605681872 0 -0.44750755026335842 -0.41334314073461309 0 -0.43944708140057082 -0.39943917350740538 0 -0.44750755026335842 -0.41334314073461309 0 -0.43046448816499949 -0.41343251458703728 0 -0.44279155480728871 -0.43782743559164239 0 -0.44750755026335842 -0.41334314073461309 0 -0.43046448816499949 -0.41343251458703728 0 -0.44279155480728871 -0.43782743559164239 0 -0.45500087781297488 -0.44743734919765232 0 -0.45990318050858159 -0.42553720605681872 0 -0.44279155480728871 -0.43782743559164239 0 -0.44750755026335842 -0.41334314073461309 0 -0.44279155480728871 -0.43782743559164239 0 -0.45990318050858159 -0.42553720605681872 0 -0.44750755026335842 -0.41334314073461309 0 -0.44279155480728871 -0.43782743559164239 0 -0.43046448816499949 -0.41343251458703728 0 -0.41386943218760641 -0.42464906852793988 0 -0.44279155480728871 -0.43782743559164239 0 -0.41386943218760641 -0.42464906852793988 0 -0.423125636324716 -0.44634012224188169 0 -0.43046448816499949 -0.41343251458703728 0 -0.41386943218760641 -0.42464906852793988 0 -0.41325406299604162 -0.40270262648220378 0 -0.41386943218760641 -0.42464906852793988 0 -0.41325406299604162 -0.40270262648220378 0 -0.39647706496066432 -0.40356677437860439 0 -0.43991806855136362 -0.38484112519593899 0 -0.42768557797177481 -0.38192216189686012 0 -0.43984316204505469 -0.36909794372703719 0 -0.43991806855136362 -0.38484112519593899 0 -0.42768557797177481 -0.38192216189686012 0 -0.4271217543037043 -0.39672024114185411 0 -0.42768557797177481 -0.38192216189686012 0 -0.4271217543037043 -0.39672024114185411 0 -0.41422573019701941 -0.38747486131003228 0 -0.43046448816499949 -0.41343251458703728 0 -0.4271217543037043 -0.39672024114185411 0 -0.41325406299604162 -0.40270262648220378 0 -0.43944708140057082 -0.39943917350740538 0 -0.43046448816499949 -0.41343251458703728 0 -0.4271217543037043 -0.39672024114185411 0 -0.43944708140057082 -0.39943917350740538 0 -0.43991806855136362 -0.38484112519593899 0 -0.4271217543037043 -0.39672024114185411 0 -0.41325406299604162 -0.40270262648220378 0 -0.41422573019701941 -0.38747486131003228 0 -0.3973659081622557 -0.39037229894775521 0 -0.4271217543037043 -0.39672024114185411 0 -0.41325406299604162 -0.40270262648220378 0 -0.41422573019701941 -0.38747486131003228 0 -0.42768557797177481 -0.38192216189686012 0 -0.41422573019701941 -0.38747486131003228 0 -0.4173191747617318 -0.37147663810943821 0 -0.41422573019701941 -0.38747486131003228 0 -0.4038116012304574 -0.37792315688141909 0 -0.4173191747617318 -0.37147663810943821 0 -0.3973659081622557 -0.39037229894775521 0 -0.4038116012304574 -0.37792315688141909 0 -0.39154030978956561 -0.3744609372448135 0 -0.3973659081622557 -0.39037229894775521 0 -0.38554988889744463 -0.3844337879503838 0 -0.39154030978956561 -0.3744609372448135 0 -0.41422573019701941 -0.38747486131003228 0 -0.3973659081622557 -0.39037229894775521 0 -0.4038116012304574 -0.37792315688141909 0 -0.41325406299604162 -0.40270262648220378 0 -0.3973659081622557 -0.39037229894775521 0 -0.39647706496066432 -0.40356677437860439 0 -0.3973659081622557 -0.39037229894775521 0 -0.39647706496066432 -0.40356677437860439 0 -0.38009500019605358 -0.39439078473986727 0 -0.39647706496066432 -0.40356677437860439 0 -0.38009500019605358 -0.39439078473986727 0 -0.37855821513367782 -0.40980771242859643 0 -0.38009500019605358 -0.39439078473986727 0 -0.37855821513367782 -0.40980771242859643 0 -0.36904983326882818 -0.39985468805073809 0 -0.3973659081622557 -0.39037229894775521 0 -0.38009500019605358 -0.39439078473986727 0 -0.38554988889744463 -0.3844337879503838 0 -0.38009500019605358 -0.39439078473986727 0 -0.38554988889744463 -0.3844337879503838 0 -0.37376125972292512 -0.38039979218528158 0 -0.38554988889744463 -0.3844337879503838 0 -0.38120614903516797 -0.37422622318350918 0 -0.37376125972292512 -0.38039979218528158 0 -0.38554988889744463 -0.3844337879503838 0 -0.39154030978956561 -0.3744609372448135 0 -0.38120614903516797 -0.37422622318350918 0 -0.41386943218760641 -0.42464906852793988 0 -0.38611327022433489 -0.42560937872863358 0 -0.40066823844991428 -0.44414861722684718 0 -0.39647706496066432 -0.40356677437860439 0 -0.38611327022433489 -0.42560937872863358 0 -0.41386943218760641 -0.42464906852793988 0 -0.39647706496066432 -0.40356677437860439 0 -0.38611327022433489 -0.42560937872863358 0 -0.37855821513367782 -0.40980771242859643 0 -0.38611327022433489 -0.42560937872863358 0 -0.37090144580233381 -0.4250987793791331 0 -0.39647706496066432 -0.40356677437860439 0 -0.37855821513367782 -0.40980771242859643 0 -0.38611327022433489 -0.42560937872863358 0 -0.38611327022433489 -0.42560937872863358 0 -0.37574947548800558 -0.44765198307866277 0 -0.37090144580233381 -0.4250987793791331 0 -0.38611327022433489 -0.42560937872863358 0 -0.37574947548800558 -0.44765198307866277 0 -0.37574947548800558 -0.44765198307866277 0 -0.40066823844991428 -0.44414861722684718 0 -0.38841682257859361 -0.45894507077171542 0 -0.38611327022433489 -0.42560937872863358 0 -0.37574947548800558 -0.44765198307866277 0 -0.40066823844991428 -0.44414861722684718 0 -0.40066823844991428 -0.44414861722684718 0 -0.38841682257859361 -0.45894507077171542 0 -0.41324619096490528 -0.46062840061019322 0 -0.38841682257859361 -0.45894507077171542 0 -0.39977863244955208 -0.47534652349279161 0 -0.41324619096490528 -0.46062840061019322 0 -0.38841682257859361 -0.45894507077171542 0 -0.41324619096490528 -0.46062840061019322 0 -0.37574947548800558 -0.44765198307866277 0 -0.38841682257859361 -0.45894507077171542 0 -0.36538568075167621 -0.46969458742869219 0 -0.38841682257859361 -0.45894507077171542 0 -0.38238649144304337 -0.48092833609651681 0 -0.36538568075167621 -0.46969458742869219 0 -0.38841682257859361 -0.45894507077171542 0 -0.38238649144304337 -0.48092833609651681 0 -0.39977863244955208 -0.47534652349279161 0 -0.38238649144304337 -0.48092833609651681 0 -0.40111973828255448 -0.5 0 -0.37142317091055771 -0.5 0 -0.38238649144304337 -0.48092833609651681 0 -0.40111973828255448 -0.5 0 -0.39977863244955208 -0.47534652349279161 0 -0.40111973828255448 -0.5 0 -0.39977863244955208 -0.47534652349279161 0 -0.41496669313073409 -0.48259362293292141 0 -0.39977863244955208 -0.47534652349279161 0 -0.41496669313073409 -0.48259362293292141 0 -0.41324619096490528 -0.46062840061019322 0 -0.41496669313073409 -0.48259362293292141 0 -0.43444593250288521 -0.48115586522433568 0 -0.41324619096490528 -0.46062840061019322 0 -0.40111973828255448 -0.5 0 -0.41496669313073409 -0.48259362293292141 0 -0.43081630565455131 -0.49999999999999978 0 -0.41496669313073409 -0.48259362293292141 0 -0.43081630565455131 -0.49999999999999978 0 -0.43444593250288521 -0.48115586522433568 0 -0.43081630565455131 -0.49999999999999978 0 -0.43444593250288521 -0.48115586522433568 0 -0.44675721301359778 -0.48480373329638887 0 -0.43081630565455131 -0.49999999999999978 0 -0.43444593250288521 -0.48115586522433568 0 -0.438075559351217 -0.46231173044867119 0 -0.43444593250288521 -0.48115586522433568 0 -0.438075559351217 -0.46231173044867119 0 -0.423125636324716 -0.44634012224188169 0 -0.41324619096490528 -0.46062840061019322 0 -0.438075559351217 -0.46231173044867119 0 -0.43444593250288521 -0.48115586522433568 0 -0.41324619096490528 -0.46062840061019322 0 -0.438075559351217 -0.46231173044867119 0 -0.41324619096490528 -0.46062840061019322 0 -0.44279155480728871 -0.43782743559164239 0 -0.438075559351217 -0.46231173044867119 0 -0.423125636324716 -0.44634012224188169 0 -0.41386943218760641 -0.42464906852793988 0 -0.40066823844991428 -0.44414861722684718 0 -0.423125636324716 -0.44634012224188169 0 -0.40066823844991428 -0.44414861722684718 0 -0.423125636324716 -0.44634012224188169 0 -0.41324619096490528 -0.46062840061019322 0 -0.48933906433256152 -0.28464296803053368 0 -0.5 -0.33243153857065072 0 -0.50000000000000155 -0.2473336705449882 0 -0.44485247883738982 -0.26116397149622111 0 -0.43498649548547852 -0.25282224765555178 0 -0.44164891654744198 -0.2450584551682439 0 -0.44485247883738982 -0.26116397149622111 0 -0.45783156572408301 -0.27283209572463307 0 -0.444541753922024 -0.28649950623877679 0 -0.44485247883738982 -0.26116397149622111 0 -0.444541753922024 -0.28649950623877679 0 -0.43375534180759312 -0.28465166160636102 0 -0.44485247883738982 -0.26116397149622111 0 -0.43375534180759312 -0.28465166160636102 0 -0.45783156572408301 -0.27283209572463307 0 -0.47219834717732501 -0.2703219898463512 0 -0.47073189515667702 -0.28541410630213337 0 -0.45783156572408301 -0.27283209572463307 0 -0.46095441007604793 -0.25848998864844891 0 -0.47219834717732501 -0.2703219898463512 0 -0.44485247883738982 -0.26116397149622111 0 -0.46095441007604793 -0.25848998864844891 0 -0.4559496158671873 -0.23767628138608149 0 -0.44485247883738982 -0.26116397149622111 0 -0.45783156572408301 -0.27283209572463307 0 -0.46095441007604793 -0.25848998864844891 0 -0.48009332590390569 -0.26065871860717138 0 -0.48933906433256152 -0.28464296803053368 0 -0.50000000000000155 -0.2473336705449882 0 -0.46095441007604793 -0.25848998864844891 0 -0.48009332590390569 -0.26065871860717138 0 -0.47219834717732501 -0.2703219898463512 0 -0.46095441007604793 -0.25848998864844891 0 -0.48009332590390569 -0.26065871860717138 0 -0.47797480793359443 -0.24250497596553491 0 -0.48009332590390569 -0.26065871860717138 0 -0.50000000000000155 -0.2473336705449882 0 -0.47797480793359443 -0.24250497596553491 0 -0.48009332590390569 -0.26065871860717138 0 -0.47219834717732501 -0.2703219898463512 0 -0.48933906433256152 -0.28464296803053368 0 -0.47219834717732501 -0.2703219898463512 0 -0.47073189515667702 -0.28541410630213337 0 -0.48933906433256152 -0.28464296803053368 0 -0.47219834717732501 -0.2703219898463512 0 -0.47073189515667702 -0.28541410630213337 0 -0.47073189515667702 -0.28541410630213337 0 -0.48933906433256152 -0.28464296803053368 0 -0.48933906433256152 -0.28464296803053368 0 -0.48206859447550288 -0.30348118849469791 0 -0.5 -0.33243153857065072 0 -0.47073189515667702 -0.28541410630213337 0 -0.48933906433256152 -0.28464296803053368 0 -0.48206859447550288 -0.30348118849469791 0 -0.47073189515667702 -0.28541410630213337 0 -0.48206859447550288 -0.30348118849469791 0 -0.46820341841277319 -0.31143614107547363 0 -0.47073189515667702 -0.28541410630213337 0 -0.46820341841277319 -0.31143614107547363 0 -0.46820341841277319 -0.31143614107547363 0 -0.4556821397470554 -0.2958210107658123 0 -0.44822230101558741 -0.30628183892115057 0 -0.47073189515667702 -0.28541410630213337 0 -0.46820341841277319 -0.31143614107547363 0 -0.4556821397470554 -0.2958210107658123 0 -0.47073189515667702 -0.28541410630213337 0 -0.444541753922024 -0.28649950623877679 0 -0.45783156572408301 -0.27283209572463307 0 -0.47073189515667702 -0.28541410630213337 0 -0.444541753922024 -0.28649950623877679 0 -0.47073189515667702 -0.28541410630213337 0 -0.4556821397470554 -0.2958210107658123 0 -0.444541753922024 -0.28649950623877679 0 -0.4556821397470554 -0.2958210107658123 0 -0.444541753922024 -0.28649950623877679 0 -0.44517218561600169 -0.29734062845633052 0 -0.444541753922024 -0.28649950623877679 0 -0.44517218561600169 -0.29734062845633052 0 -0.43224254777934012 -0.30076015789958238 0 -0.44517218561600169 -0.29734062845633052 0 -0.44822230101558741 -0.30628183892115057 0 -0.43224254777934012 -0.30076015789958238 0 -0.44822230101558741 -0.30628183892115057 0 -0.43343191245233231 -0.31989541096196727 0 -0.43224254777934012 -0.30076015789958238 0 -0.4556821397470554 -0.2958210107658123 0 -0.44517218561600169 -0.29734062845633052 0 -0.44822230101558741 -0.30628183892115057 0 -0.48621957337108462 -0.38284774468419719 0 -0.5 -0.40215818236599848 0 -0.5 -0.33243153857065072 0 -0.44822230101558741 -0.30628183892115057 0 -0.45158168064744242 -0.32216039836058091 0 -0.43343191245233231 -0.31989541096196727 0 -0.45158168064744242 -0.32216039836058091 0 -0.44237582968764999 -0.33573042499549882 0 -0.43343191245233231 -0.31989541096196727 0 -0.44237582968764999 -0.33573042499549882 0 -0.4656749416688693 -0.33745817584881388 0 -0.44238729333591031 -0.35241270171695149 0 -0.45158168064744242 -0.32216039836058091 0 -0.44237582968764999 -0.33573042499549882 0 -0.4656749416688693 -0.33745817584881388 0 -0.46820341841277319 -0.31143614107547363 0 -0.44822230101558741 -0.30628183892115057 0 -0.45158168064744242 -0.32216039836058091 0 -0.46820341841277319 -0.31143614107547363 0 -0.4656749416688693 -0.33745817584881388 0 -0.46820341841277319 -0.31143614107547363 0 -0.45158168064744242 -0.32216039836058091 0 -0.4656749416688693 -0.33745817584881388 0 -0.48206859447550288 -0.30348118849469791 0 -0.46820341841277319 -0.31143614107547363 0 -0.5 -0.33243153857065072 0 -0.46820341841277319 -0.31143614107547363 0 -0.4656749416688693 -0.33745817584881388 0 -0.5 -0.33243153857065072 0 -0.4656749416688693 -0.33745817584881388 0 -0.5 -0.33243153857065072 0 -0.46314646492496542 -0.36348021062215441 0 -0.48621957337108462 -0.38284774468419719 0 -0.5 -0.33243153857065072 0 -0.46314646492496542 -0.36348021062215441 0 -0.4656749416688693 -0.33745817584881388 0 -0.46314646492496542 -0.36348021062215441 0 -0.44238729333591031 -0.35241270171695149 0 -0.4656749416688693 -0.33745817584881388 0 -0.46314646492496542 -0.36348021062215441 0 -0.45295563401162209 -0.37624745073812571 0 -0.46314646492496542 -0.36348021062215441 0 -0.43984316204505469 -0.36909794372703719 0 -0.46314646492496542 -0.36348021062215441 0 -0.44238729333591031 -0.35241270171695149 0 -0.43984316204505469 -0.36909794372703719 0 -0.44238729333591031 -0.35241270171695149 0 -0.43984316204505469 -0.36909794372703719 0 -0.42291089481166799 -0.35826172265199352 0 -0.43984316204505469 -0.36909794372703719 0 -0.42291089481166799 -0.35826172265199352 0 -0.4173191747617318 -0.37147663810943821 0 -0.42768557797177481 -0.38192216189686012 0 -0.43984316204505469 -0.36909794372703719 0 -0.4173191747617318 -0.37147663810943821 0 -0.44238729333591031 -0.35241270171695149 0 -0.42684157415505491 -0.3466284791748247 0 -0.42291089481166799 -0.35826172265199352 0 -0.44237582968764999 -0.33573042499549882 0 -0.44238729333591031 -0.35241270171695149 0 -0.42684157415505491 -0.3466284791748247 0 -0.42291089481166799 -0.35826172265199352 0 -0.41187894310721429 -0.34437042115660021 0 -0.40927526189181668 -0.35592641192760061 0 -0.42684157415505491 -0.3466284791748247 0 -0.42291089481166799 -0.35826172265199352 0 -0.41187894310721429 -0.34437042115660021 0 -0.41187894310721429 -0.34437042115660021 0 -0.40927526189181668 -0.35592641192760061 0 -0.4023895206850121 -0.34843646569759879 0 -0.40927526189181668 -0.35592641192760061 0 -0.4173191747617318 -0.37147663810943821 0 -0.402626770801777 -0.36643469149253799 0 -0.42291089481166799 -0.35826172265199352 0 -0.40927526189181668 -0.35592641192760061 0 -0.4173191747617318 -0.37147663810943821 0 -0.4038116012304574 -0.37792315688141909 0 -0.4173191747617318 -0.37147663810943821 0 -0.402626770801777 -0.36643469149253799 0 -0.4038116012304574 -0.37792315688141909 0 -0.402626770801777 -0.36643469149253799 0 -0.39154030978956561 -0.3744609372448135 0 -0.40927526189181668 -0.35592641192760061 0 -0.402626770801777 -0.36643469149253799 0 -0.39741046929993568 -0.35633521350398129 0 -0.402626770801777 -0.36643469149253799 0 -0.39238769084681052 -0.36340667136804089 0 -0.39741046929993568 -0.35633521350398129 0 -0.402626770801777 -0.36643469149253799 0 -0.39238769084681052 -0.36340667136804089 0 -0.39154030978956561 -0.3744609372448135 0 -0.39238769084681052 -0.36340667136804089 0 -0.39154030978956561 -0.3744609372448135 0 -0.38342569540122873 -0.36536539672438201 0 -0.39154030978956561 -0.3744609372448135 0 -0.38342569540122873 -0.36536539672438201 0 -0.38120614903516797 -0.37422622318350918 0 -0.39238769084681052 -0.36340667136804089 0 -0.38342569540122873 -0.36536539672438201 0 -0.38525021433194939 -0.3558753510925291 0 -0.38342569540122873 -0.36536539672438201 0 -0.37554994196041808 -0.3580875508336912 0 -0.38525021433194939 -0.3558753510925291 0 -0.38342569540122873 -0.36536539672438201 0 -0.37554994196041808 -0.3580875508336912 0 -0.37436054982250588 -0.36883970961726431 0 -0.38120614903516797 -0.37422622318350918 0 -0.37436054982250588 -0.36883970961726431 0 -0.37376125972292512 -0.38039979218528158 0 -0.38342569540122873 -0.36536539672438201 0 -0.38120614903516797 -0.37422622318350918 0 -0.37436054982250588 -0.36883970961726431 0 -0.37900516355689678 -0.34513562489116278 0 -0.37554994196041808 -0.3580875508336912 0 -0.38525021433194939 -0.3558753510925291 0 -0.37900516355689678 -0.34513562489116278 0 -0.3927062741502127 -0.3490512185154705 0 -0.38835861048012787 -0.34007832384620978 0 -0.37900516355689678 -0.34513562489116278 0 -0.38525021433194939 -0.3558753510925291 0 -0.3927062741502127 -0.3490512185154705 0 -0.3927062741502127 -0.3490512185154705 0 -0.39741046929993568 -0.35633521350398129 0 -0.4023895206850121 -0.34843646569759879 0 -0.39238769084681052 -0.36340667136804089 0 -0.38525021433194939 -0.3558753510925291 0 -0.39741046929993568 -0.35633521350398129 0 -0.38525021433194939 -0.3558753510925291 0 -0.3927062741502127 -0.3490512185154705 0 -0.39741046929993568 -0.35633521350398129 0 -0.40927526189181668 -0.35592641192760061 0 -0.39741046929993568 -0.35633521350398129 0 -0.4023895206850121 -0.34843646569759879 0 -0.3927062741502127 -0.3490512185154705 0 -0.4023895206850121 -0.34843646569759879 0 -0.40067665497588068 -0.33649906338434138 0 -0.41187894310721429 -0.34437042115660021 0 -0.4023895206850121 -0.34843646569759879 0 -0.40067665497588068 -0.33649906338434138 0 -0.40067665497588068 -0.33649906338434138 0 -0.38763032270515602 -0.33034983568717891 0 -0.39554459744696818 -0.32281406272967489 0 -0.40067665497588068 -0.33649906338434138 0 -0.38835861048012787 -0.34007832384620978 0 -0.38763032270515602 -0.33034983568717891 0 -0.3927062741502127 -0.3490512185154705 0 -0.40067665497588068 -0.33649906338434138 0 -0.38835861048012787 -0.34007832384620978 0 -0.38835861048012787 -0.34007832384620978 0 -0.38763032270515602 -0.33034983568717891 0 -0.37769435705814042 -0.3331825175471162 0 -0.38763032270515602 -0.33034983568717891 0 -0.37769435705814042 -0.3331825175471162 0 -0.38253192411370829 -0.32105763806260412 0 -0.37900516355689678 -0.34513562489116278 0 -0.38835861048012787 -0.34007832384620978 0 -0.37769435705814042 -0.3331825175471162 0 -0.38253192411370829 -0.32105763806260412 0 -0.38274652455608532 -0.30973031748420599 0 -0.37496129393649419 -0.31368223541798762 0 -0.38253192411370829 -0.32105763806260412 0 -0.36792354938230382 -0.32386776959441188 0 -0.37496129393649419 -0.31368223541798762 0 -0.37769435705814042 -0.3331825175471162 0 -0.38253192411370829 -0.32105763806260412 0 -0.36792354938230382 -0.32386776959441188 0 -0.38763032270515602 -0.33034983568717891 0 -0.38253192411370829 -0.32105763806260412 0 -0.39554459744696818 -0.32281406272967489 0 -0.38253192411370829 -0.32105763806260412 0 -0.39033177599187657 -0.31440076301917508 0 -0.38274652455608532 -0.30973031748420599 0 -0.38253192411370829 -0.32105763806260412 0 -0.39033177599187657 -0.31440076301917508 0 -0.39554459744696818 -0.32281406272967489 0 -0.39033177599187657 -0.31440076301917508 0 -0.39554459744696818 -0.32281406272967489 0 -0.39785240150170098 -0.31162894017446541 0 -0.40067665497588068 -0.33649906338434138 0 -0.39554459744696818 -0.32281406272967489 0 -0.40819329956451478 -0.32012814386238547 0 -0.39554459744696818 -0.32281406272967489 0 -0.40819329956451478 -0.32012814386238547 0 -0.39785240150170098 -0.31162894017446541 0 -0.40819329956451478 -0.32012814386238547 0 -0.4201217823407507 -0.32273265244075477 0 -0.41942068450360381 -0.31054298993253499 0 -0.40819329956451478 -0.32012814386238547 0 -0.4201217823407507 -0.32273265244075477 0 -0.41689837727749629 -0.33359660732772151 0 -0.40067665497588068 -0.33649906338434138 0 -0.40819329956451478 -0.32012814386238547 0 -0.41689837727749629 -0.33359660732772151 0 -0.41187894310721429 -0.34437042115660021 0 -0.40067665497588068 -0.33649906338434138 0 -0.41689837727749629 -0.33359660732772151 0 -0.42684157415505491 -0.3466284791748247 0 -0.41187894310721429 -0.34437042115660021 0 -0.41689837727749629 -0.33359660732772151 0 -0.4201217823407507 -0.32273265244075477 0 -0.41689837727749629 -0.33359660732772151 0 -0.42913681442491808 -0.33261761440170279 0 -0.44237582968764999 -0.33573042499549882 0 -0.42913681442491808 -0.33261761440170279 0 -0.43343191245233231 -0.31989541096196727 0 -0.42684157415505491 -0.3466284791748247 0 -0.41689837727749629 -0.33359660732772151 0 -0.42913681442491808 -0.33261761440170279 0 -0.44237582968764999 -0.33573042499549882 0 -0.42684157415505491 -0.3466284791748247 0 -0.42913681442491808 -0.33261761440170279 0 -0.4201217823407507 -0.32273265244075477 0 -0.43343191245233231 -0.31989541096196727 0 -0.41942068450360381 -0.31054298993253499 0 -0.4201217823407507 -0.32273265244075477 0 -0.42913681442491808 -0.33261761440170279 0 -0.43343191245233231 -0.31989541096196727 0 -0.43224254777934012 -0.30076015789958238 0 -0.4160668251635648 -0.29980250954959858 0 -0.41942068450360381 -0.31054298993253499 0 -0.43343191245233231 -0.31989541096196727 0 -0.43224254777934012 -0.30076015789958238 0 -0.41942068450360381 -0.31054298993253499 0 -0.444541753922024 -0.28649950623877679 0 -0.41835161268737098 -0.28758490617542071 0 -0.444541753922024 -0.28649950623877679 0 -0.43375534180759312 -0.28465166160636102 0 -0.41835161268737098 -0.28758490617542071 0 -0.444541753922024 -0.28649950623877679 0 -0.43224254777934012 -0.30076015789958238 0 -0.41835161268737098 -0.28758490617542071 0 -0.43224254777934012 -0.30076015789958238 0 -0.41835161268737098 -0.28758490617542071 0 -0.4160668251635648 -0.29980250954959858 0 -0.43375534180759312 -0.28465166160636102 0 -0.41835161268737098 -0.28758490617542071 0 -0.4297292752643363 -0.27572574137895273 0 -0.41835161268737098 -0.28758490617542071 0 -0.40505727922980389 -0.28331949647603499 0 -0.41438402675714803 -0.27867540090718113 0 -0.41835161268737098 -0.28758490617542071 0 -0.4160668251635648 -0.29980250954959858 0 -0.40343422490656061 -0.29608194849703479 0 -0.4160668251635648 -0.29980250954959858 0 -0.4065050367831034 -0.30570628918095272 0 -0.40343422490656061 -0.29608194849703479 0 -0.40819329956451478 -0.32012814386238547 0 -0.41942068450360381 -0.31054298993253499 0 -0.4065050367831034 -0.30570628918095272 0 -0.4160668251635648 -0.29980250954959858 0 -0.41942068450360381 -0.31054298993253499 0 -0.4065050367831034 -0.30570628918095272 0 -0.4065050367831034 -0.30570628918095272 0 -0.39623215686020952 -0.3005286080128472 0 -0.39785240150170098 -0.31162894017446541 0 -0.40819329956451478 -0.32012814386238547 0 -0.4065050367831034 -0.30570628918095272 0 -0.39785240150170098 -0.31162894017446541 0 -0.4065050367831034 -0.30570628918095272 0 -0.39623215686020952 -0.3005286080128472 0 -0.40343422490656061 -0.29608194849703479 0 -0.39623215686020952 -0.3005286080128472 0 -0.39480089499776888 -0.29507109030731771 0 -0.40343422490656061 -0.29608194849703479 0 -0.39623215686020952 -0.3005286080128472 0 -0.39010012836495972 -0.30593955767358261 0 -0.38883933031549289 -0.29536683958898718 0 -0.39623215686020952 -0.3005286080128472 0 -0.38883933031549289 -0.29536683958898718 0 -0.39480089499776888 -0.29507109030731771 0 -0.39033177599187657 -0.31440076301917508 0 -0.39785240150170098 -0.31162894017446541 0 -0.39010012836495972 -0.30593955767358261 0 -0.39623215686020952 -0.3005286080128472 0 -0.39785240150170098 -0.31162894017446541 0 -0.39010012836495972 -0.30593955767358261 0 -0.39010012836495972 -0.30593955767358261 0 -0.38219631653721181 -0.30232970776850882 0 -0.38274652455608532 -0.30973031748420599 0 -0.39033177599187657 -0.31440076301917508 0 -0.39010012836495972 -0.30593955767358261 0 -0.38274652455608532 -0.30973031748420599 0 -0.38219631653721181 -0.30232970776850882 0 -0.38883933031549289 -0.29536683958898718 0 -0.36917733310789991 -0.29963953866627441 0 -0.39010012836495972 -0.30593955767358261 0 -0.38219631653721181 -0.30232970776850882 0 -0.38883933031549289 -0.29536683958898718 0 -0.38219631653721181 -0.30232970776850882 0 -0.37502205455869969 -0.30689835277755623 0 -0.36917733310789991 -0.29963953866627441 0 -0.37502205455869969 -0.30689835277755623 0 -0.38274652455608532 -0.30973031748420599 0 -0.37496129393649419 -0.31368223541798762 0 -0.38219631653721181 -0.30232970776850882 0 -0.37502205455869969 -0.30689835277755623 0 -0.38274652455608532 -0.30973031748420599 0 -0.3911137205670927 -0.28403377499603361 0 -0.3846443043826398 -0.27733038263380672 0 -0.36917733310789991 -0.29963953866627441 0 -0.3911137205670927 -0.28403377499603361 0 -0.36917733310789991 -0.29963953866627441 0 -0.38883933031549289 -0.29536683958898718 0 -0.3911137205670927 -0.28403377499603361 0 -0.36917733310789991 -0.29963953866627441 0 -0.41835161268737098 -0.28758490617542071 0 -0.39216147145271801 -0.28867030611206462 0 -0.41835161268737098 -0.28758490617542071 0 -0.39216147145271801 -0.28867030611206462 0 -0.40505727922980389 -0.28331949647603499 0 -0.41835161268737098 -0.28758490617542071 0 -0.39216147145271801 -0.28867030611206462 0 -0.40343422490656061 -0.29608194849703479 0 -0.3911137205670927 -0.28403377499603361 0 -0.39216147145271801 -0.28867030611206462 0 -0.40505727922980389 -0.28331949647603499 0 -0.38883933031549289 -0.29536683958898718 0 -0.3911137205670927 -0.28403377499603361 0 -0.39216147145271801 -0.28867030611206462 0 -0.39216147145271801 -0.28867030611206462 0 -0.39480089499776888 -0.29507109030731771 0 -0.40343422490656061 -0.29608194849703479 0 -0.38883933031549289 -0.29536683958898718 0 -0.39216147145271801 -0.28867030611206462 0 -0.39480089499776888 -0.29507109030731771 0 -0.3846443043826398 -0.27733038263380672 0 -0.39083757795583213 -0.26529247284791552 0 -0.40840051962943591 -0.26278064963318287 0 -0.3911137205670927 -0.28403377499603361 0 -0.39930216315136352 -0.27314320464720399 0 -0.41305010802628561 -0.26842801132579269 0 -0.3911137205670927 -0.28403377499603361 0 -0.40505727922980389 -0.28331949647603499 0 -0.41305010802628561 -0.26842801132579269 0 -0.3846443043826398 -0.27733038263380672 0 -0.40840051962943591 -0.26278064963318287 0 -0.39930216315136352 -0.27314320464720399 0 -0.3846443043826398 -0.27733038263380672 0 -0.40840051962943591 -0.26278064963318287 0 -0.3911137205670927 -0.28403377499603361 0 -0.41305010802628561 -0.26842801132579269 0 -0.3911137205670927 -0.28403377499603361 0 -0.39930216315136352 -0.27314320464720399 0 -0.3846443043826398 -0.27733038263380672 0 -0.3846443043826398 -0.27733038263380672 0 -0.38093008954995311 -0.26776953663982711 0 -0.39083757795583213 -0.26529247284791552 0 -0.3846443043826398 -0.27733038263380672 0 -0.38093008954995311 -0.26776953663982711 0 -0.37596625357951058 -0.27382313945543851 0 -0.38093008954995311 -0.26776953663982711 0 -0.37596625357951058 -0.27382313945543851 0 -0.37287103718914549 -0.2686891774741561 0 -0.38093008954995311 -0.26776953663982711 0 -0.37327982704898077 -0.26214359768186779 0 -0.37287103718914549 -0.2686891774741561 0 -0.3846443043826398 -0.27733038263380672 0 -0.37596625357951058 -0.27382313945543851 0 -0.37041276913235271 -0.28062154151437452 0 -0.37908475899651162 -0.25861785707064727 0 -0.37327982704898077 -0.26214359768186779 0 -0.37382784469199809 -0.25255299355580002 0 -0.37908475899651162 -0.25861785707064727 0 -0.37382784469199809 -0.25255299355580002 0 -0.38220465509505391 -0.2453862558345459 0 -0.38093008954995311 -0.26776953663982711 0 -0.37908475899651162 -0.25861785707064727 0 -0.37327982704898077 -0.26214359768186779 0 -0.38093008954995311 -0.26776953663982711 0 -0.37908475899651162 -0.25861785707064727 0 -0.38436771192387509 -0.26221845474046013 0 -0.38093008954995311 -0.26776953663982711 0 -0.38436771192387509 -0.26221845474046013 0 -0.39083757795583213 -0.26529247284791552 0 -0.37908475899651162 -0.25861785707064727 0 -0.38436771192387509 -0.26221845474046013 0 -0.38903805502888011 -0.25783536093713461 0 -0.38436771192387509 -0.26221845474046013 0 -0.38903805502888011 -0.25783536093713461 0 -0.39083757795583213 -0.26529247284791552 0 -0.37908475899651162 -0.25861785707064727 0 -0.38903805502888011 -0.25783536093713461 0 -0.38220465509505391 -0.2453862558345459 0 -0.38903805502888011 -0.25783536093713461 0 -0.39980713000764739 -0.25281121590483963 0 -0.39320617752625442 -0.24585335226367991 0 -0.39083757795583213 -0.26529247284791552 0 -0.3983555323592145 -0.25968740414381519 0 -0.40840051962943591 -0.26278064963318287 0 -0.38903805502888011 -0.25783536093713461 0 -0.3983555323592145 -0.25968740414381519 0 -0.39980713000764739 -0.25281121590483963 0 -0.38903805502888011 -0.25783536093713461 0 -0.39083757795583213 -0.26529247284791552 0 -0.3983555323592145 -0.25968740414381519 0 -0.3983555323592145 -0.25968740414381519 0 -0.40359125726209222 -0.25711017124304442 0 -0.40840051962943591 -0.26278064963318287 0 -0.39980713000764739 -0.25281121590483963 0 -0.40359125726209222 -0.25711017124304442 0 -0.4078018470520709 -0.2531614152903397 0 -0.3983555323592145 -0.25968740414381519 0 -0.39980713000764739 -0.25281121590483963 0 -0.40359125726209222 -0.25711017124304442 0 -0.4078018470520709 -0.2531614152903397 0 -0.40840051962943591 -0.26278064963318287 0 -0.41578820806797528 -0.2484958297920084 0 -0.40840051962943591 -0.26278064963318287 0 -0.42214846450435789 -0.25806545631177169 0 -0.43215673487623202 -0.24823091663255911 0 -0.40359125726209222 -0.25711017124304442 0 -0.4078018470520709 -0.2531614152903397 0 -0.40840051962943591 -0.26278064963318287 0 -0.4197869720444854 -0.25041636405616802 0 -0.40840051962943591 -0.26278064963318287 0 -0.43215673487623202 -0.24823091663255911 0 -0.40840051962943591 -0.26278064963318287 0 -0.43215673487623202 -0.24823091663255911 0 -0.4197869720444854 -0.25041636405616802 0 -0.40840051962943591 -0.26278064963318287 0 -0.41578820806797528 -0.2484958297920084 0 -0.40840051962943591 -0.26278064963318287 0 -0.41305010802628561 -0.26842801132579269 0 -0.42214846450435789 -0.25806545631177169 0 -0.39930216315136352 -0.27314320464720399 0 -0.40840051962943591 -0.26278064963318287 0 -0.41305010802628561 -0.26842801132579269 0 -0.40505727922980389 -0.28331949647603499 0 -0.41305010802628561 -0.26842801132579269 0 -0.41438402675714803 -0.27867540090718113 0 -0.41305010802628561 -0.26842801132579269 0 -0.41438402675714803 -0.27867540090718113 0 -0.42107710708513157 -0.27536918965147628 0 -0.41835161268737098 -0.28758490617542071 0 -0.41438402675714803 -0.27867540090718113 0 -0.42107710708513157 -0.27536918965147628 0 -0.41305010802628561 -0.26842801132579269 0 -0.42107710708513157 -0.27536918965147628 0 -0.42489318287672012 -0.26593880819910309 0 -0.44485247883738982 -0.26116397149622111 0 -0.43375534180759312 -0.28465166160636102 0 -0.4297292752643363 -0.27572574137895273 0 -0.42107710708513157 -0.27536918965147628 0 -0.4297292752643363 -0.27572574137895273 0 -0.43045902090998511 -0.26713578416359179 0 -0.42107710708513157 -0.27536918965147628 0 -0.42489318287672012 -0.26593880819910309 0 -0.43045902090998511 -0.26713578416359179 0 -0.41835161268737098 -0.28758490617542071 0 -0.42107710708513157 -0.27536918965147628 0 -0.4297292752643363 -0.27572574137895273 0 -0.44485247883738982 -0.26116397149622111 0 -0.4297292752643363 -0.27572574137895273 0 -0.43045902090998511 -0.26713578416359179 0 -0.41305010802628561 -0.26842801132579269 0 -0.43498649548547852 -0.25282224765555178 0 -0.41305010802628561 -0.26842801132579269 0 -0.43498649548547852 -0.25282224765555178 0 -0.42214846450435789 -0.25806545631177169 0 -0.44485247883738982 -0.26116397149622111 0 -0.43045902090998511 -0.26713578416359179 0 -0.43498649548547852 -0.25282224765555178 0 -0.41305010802628561 -0.26842801132579269 0 -0.42489318287672012 -0.26593880819910309 0 -0.43498649548547852 -0.25282224765555178 0 -0.42489318287672012 -0.26593880819910309 0 -0.43045902090998511 -0.26713578416359179 0 -0.43498649548547852 -0.25282224765555178 0 -0.43498649548547852 -0.25282224765555178 0 -0.42214846450435789 -0.25806545631177169 0 -0.43215673487623202 -0.24823091663255911 0 -0.32034024124292237 -0.27424960049472452 0 -0.33188287507836628 -0.25144687983635688 0 -0.33188287507836628 -0.25144687983635688 0 -0.30822270907570759 -0.25868279318866538 0 -0.31461339992943471 -0.24091525041458581 0 -0.32034024124292237 -0.27424960049472452 0 -0.33188287507836628 -0.25144687983635688 0 -0.30822270907570759 -0.25868279318866538 0 -0.32034024124292237 -0.27424960049472452 0 -0.33574891981718641 -0.27767764844166998 0 -0.33902896267449623 -0.26600389856786771 0 -0.32034024124292237 -0.27424960049472452 0 -0.33574891981718641 -0.27767764844166998 0 -0.3318048869400439 -0.28914410918271372 0 -0.33574891981718641 -0.27767764844166998 0 -0.34357451063556083 -0.27252727335051419 0 -0.34565448001625149 -0.28467157397777471 0 -0.33574891981718641 -0.27767764844166998 0 -0.34357451063556083 -0.27252727335051419 0 -0.33902896267449623 -0.26600389856786771 0 -0.34357451063556083 -0.27252727335051419 0 -0.33902896267449623 -0.26600389856786771 0 -0.3475258802463525 -0.26427666564867119 0 -0.32034024124292237 -0.27424960049472452 0 -0.33902896267449623 -0.26600389856786771 0 -0.33188287507836628 -0.25144687983635688 0 -0.33902896267449623 -0.26600389856786771 0 -0.34404735253277591 -0.24256037382710849 0 -0.33902896267449623 -0.26600389856786771 0 -0.347448714500246 -0.25534600023974963 0 -0.34404735253277591 -0.24256037382710849 0 -0.33902896267449623 -0.26600389856786771 0 -0.33188287507836628 -0.25144687983635688 0 -0.34404735253277591 -0.24256037382710849 0 -0.347448714500246 -0.25534600023974963 0 -0.35133787250422799 -0.25929485509486028 0 -0.35508395309772589 -0.24354324406268901 0 -0.35133787250422799 -0.25929485509486028 0 -0.35558386352192178 -0.26747820392123861 0 -0.35508395309772589 -0.24354324406268901 0 -0.35558386352192178 -0.26747820392123861 0 -0.35508395309772589 -0.24354324406268901 0 -0.347448714500246 -0.25534600023974963 0 -0.3475258802463525 -0.26427666564867119 0 -0.35133787250422799 -0.25929485509486028 0 -0.33902896267449623 -0.26600389856786771 0 -0.347448714500246 -0.25534600023974963 0 -0.3475258802463525 -0.26427666564867119 0 -0.3475258802463525 -0.26427666564867119 0 -0.35133787250422799 -0.25929485509486028 0 -0.3510469511548937 -0.26583016160195327 0 -0.35133787250422799 -0.25929485509486028 0 -0.35558386352192178 -0.26747820392123861 0 -0.3510469511548937 -0.26583016160195327 0 -0.35558386352192178 -0.26747820392123861 0 -0.3680147300752396 -0.24595335410024541 0 -0.35508395309772589 -0.24354324406268901 0 -0.35558386352192178 -0.26747820392123861 0 -0.3680147300752396 -0.24595335410024541 0 -0.3665038261957892 -0.25969281417855489 0 -0.35558386352192178 -0.26747820392123861 0 -0.3680147300752396 -0.24595335410024541 0 -0.3665038261957892 -0.25969281417855489 0 -0.36074660599287722 -0.26734646615244378 0 -0.35558386352192178 -0.26747820392123861 0 -0.3665038261957892 -0.25969281417855489 0 -0.36755769755492662 -0.2643291542922091 0 -0.36074660599287722 -0.26734646615244378 0 -0.3665038261957892 -0.25969281417855489 0 -0.37327982704898077 -0.26214359768186779 0 -0.37382784469199809 -0.25255299355580002 0 -0.3665038261957892 -0.25969281417855489 0 -0.36755769755492662 -0.2643291542922091 0 -0.37327982704898077 -0.26214359768186779 0 -0.36755769755492662 -0.2643291542922091 0 -0.37327982704898077 -0.26214359768186779 0 -0.37287103718914549 -0.2686891774741561 0 -0.3665038261957892 -0.25969281417855489 0 -0.37382784469199809 -0.25255299355580002 0 -0.3680147300752396 -0.24595335410024541 0 -0.36955570651579772 -0.27467773736789192 0 -0.37041276913235271 -0.28062154151437452 0 -0.36581792530467622 -0.27933368364411731 0 -0.37596625357951058 -0.27382313945543851 0 -0.36955570651579772 -0.27467773736789192 0 -0.37041276913235271 -0.28062154151437452 0 -0.37596625357951058 -0.27382313945543851 0 -0.36955570651579772 -0.27467773736789192 0 -0.37287103718914549 -0.2686891774741561 0 -0.36755769755492662 -0.2643291542922091 0 -0.37287103718914549 -0.2686891774741561 0 -0.36752678441010078 -0.27040701428879221 0 -0.36955570651579772 -0.27467773736789192 0 -0.36752678441010078 -0.27040701428879221 0 -0.36473946947900038 -0.27519186783047273 0 -0.36955570651579772 -0.27467773736789192 0 -0.37287103718914549 -0.2686891774741561 0 -0.36752678441010078 -0.27040701428879221 0 -0.36752678441010078 -0.27040701428879221 0 -0.3641388555323109 -0.26829150134884211 0 -0.36168390699929448 -0.27144530149071189 0 -0.36752678441010078 -0.27040701428879221 0 -0.36168390699929448 -0.27144530149071189 0 -0.36473946947900038 -0.27519186783047273 0 -0.36755769755492662 -0.2643291542922091 0 -0.36752678441010078 -0.27040701428879221 0 -0.3641388555323109 -0.26829150134884211 0 -0.36755769755492662 -0.2643291542922091 0 -0.3641388555323109 -0.26829150134884211 0 -0.36074660599287722 -0.26734646615244378 0 -0.3641388555323109 -0.26829150134884211 0 -0.36074660599287722 -0.26734646615244378 0 -0.36168390699929448 -0.27144530149071189 0 -0.36074660599287722 -0.26734646615244378 0 -0.36168390699929448 -0.27144530149071189 0 -0.35903956331126508 -0.27119715449221238 0 -0.36168390699929448 -0.27144530149071189 0 -0.35924029243625327 -0.27487002724690252 0 -0.35903956331126508 -0.27119715449221238 0 -0.36168390699929448 -0.27144530149071189 0 -0.36473946947900038 -0.27519186783047273 0 -0.35924029243625327 -0.27487002724690252 0 -0.37041276913235271 -0.28062154151437452 0 -0.36581792530467622 -0.27933368364411731 0 -0.36237676703699639 -0.28371464473814217 0 -0.36473946947900038 -0.27519186783047273 0 -0.3600639694122183 -0.28037322049539393 0 -0.35924029243625327 -0.27487002724690252 0 -0.36955570651579772 -0.27467773736789192 0 -0.36473946947900038 -0.27519186783047273 0 -0.36581792530467622 -0.27933368364411731 0 -0.36473946947900038 -0.27519186783047273 0 -0.36581792530467622 -0.27933368364411731 0 -0.3600639694122183 -0.28037322049539393 0 -0.36581792530467622 -0.27933368364411731 0 -0.3600639694122183 -0.28037322049539393 0 -0.36237676703699639 -0.28371464473814217 0 -0.35558386352192178 -0.26747820392123861 0 -0.34877085931348778 -0.27098601814952611 0 -0.34565448001625149 -0.28467157397777471 0 -0.3600639694122183 -0.28037322049539393 0 -0.35924029243625327 -0.27487002724690252 0 -0.35305018210632849 -0.27935382640184009 0 -0.35558386352192178 -0.26747820392123861 0 -0.34565448001625149 -0.28467157397777471 0 -0.35305018210632849 -0.27935382640184009 0 -0.35558386352192178 -0.26747820392123861 0 -0.34565448001625149 -0.28467157397777471 0 -0.35924029243625327 -0.27487002724690252 0 -0.35305018210632849 -0.27935382640184009 0 -0.3568043889435592 -0.2727995329557088 0 -0.35305018210632849 -0.27935382640184009 0 -0.35558386352192178 -0.26747820392123861 0 -0.3568043889435592 -0.2727995329557088 0 -0.36074660599287722 -0.26734646615244378 0 -0.35558386352192178 -0.26747820392123861 0 -0.35747200693783721 -0.26819237665423401 0 -0.36074660599287722 -0.26734646615244378 0 -0.35747200693783721 -0.26819237665423401 0 -0.35708241712806321 -0.26987150810212418 0 -0.36074660599287722 -0.26734646615244378 0 -0.35708241712806321 -0.26987150810212418 0 -0.35903956331126508 -0.27119715449221238 0 -0.35558386352192178 -0.26747820392123861 0 -0.35747200693783721 -0.26819237665423401 0 -0.35708241712806321 -0.26987150810212418 0 -0.35558386352192178 -0.26747820392123861 0 -0.35708241712806321 -0.26987150810212418 0 -0.3568043889435592 -0.2727995329557088 0 -0.35708241712806321 -0.26987150810212418 0 -0.35903956331126508 -0.27119715449221238 0 -0.3568043889435592 -0.2727995329557088 0 -0.35924029243625327 -0.27487002724690252 0 -0.35903956331126508 -0.27119715449221238 0 -0.3568043889435592 -0.2727995329557088 0 -0.35558386352192178 -0.26747820392123861 0 -0.3510469511548937 -0.26583016160195327 0 -0.34877085931348778 -0.27098601814952611 0 -0.34357451063556083 -0.27252727335051419 0 -0.3475258802463525 -0.26427666564867119 0 -0.34877085931348778 -0.27098601814952611 0 -0.3475258802463525 -0.26427666564867119 0 -0.3510469511548937 -0.26583016160195327 0 -0.34877085931348778 -0.27098601814952611 0 -0.34357451063556083 -0.27252727335051419 0 -0.34877085931348778 -0.27098601814952611 0 -0.34565448001625149 -0.28467157397777471 0 -0.35305018210632849 -0.27935382640184009 0 -0.34565448001625149 -0.28467157397777471 0 -0.35470108219989099 -0.28636466240239461 0 -0.34565448001625149 -0.28467157397777471 0 -0.34624671895703318 -0.29516808017082607 0 -0.35470108219989099 -0.28636466240239461 0 -0.34624671895703318 -0.29516808017082607 0 -0.35470108219989099 -0.28636466240239461 0 -0.3608880891358438 -0.2918801156344305 0 -0.35470108219989099 -0.28636466240239461 0 -0.36237676703699639 -0.28371464473814217 0 -0.3608880891358438 -0.2918801156344305 0 -0.3600639694122183 -0.28037322049539393 0 -0.35305018210632849 -0.27935382640184009 0 -0.35470108219989099 -0.28636466240239461 0 -0.3600639694122183 -0.28037322049539393 0 -0.35470108219989099 -0.28636466240239461 0 -0.36237676703699639 -0.28371464473814217 0 -0.3846443043826398 -0.27733038263380672 0 -0.3608880891358438 -0.2918801156344305 0 -0.36917733310789991 -0.29963953866627441 0 -0.37041276913235271 -0.28062154151437452 0 -0.36237676703699639 -0.28371464473814217 0 -0.3608880891358438 -0.2918801156344305 0 -0.3846443043826398 -0.27733038263380672 0 -0.37041276913235271 -0.28062154151437452 0 -0.3608880891358438 -0.2918801156344305 0 -0.3846443043826398 -0.27733038263380672 0 -0.3608880891358438 -0.2918801156344305 0 -0.37502205455869969 -0.30689835277755623 0 -0.36917733310789991 -0.29963953866627441 0 -0.36579692030970301 -0.31013884472687708 0 -0.37502205455869969 -0.30689835277755623 0 -0.36579692030970301 -0.31013884472687708 0 -0.37496129393649419 -0.31368223541798762 0 -0.3608880891358438 -0.2918801156344305 0 -0.36917733310789991 -0.29963953866627441 0 -0.36018593801734677 -0.30353670344297368 0 -0.36917733310789991 -0.29963953866627441 0 -0.36018593801734677 -0.30353670344297368 0 -0.36579692030970301 -0.31013884472687708 0 -0.36018593801734677 -0.30353670344297368 0 -0.36579692030970301 -0.31013884472687708 0 -0.35516959979727442 -0.30939906212729368 0 -0.34624671895703318 -0.29516808017082607 0 -0.3608880891358438 -0.2918801156344305 0 -0.33713187388904697 -0.30642984863505313 0 -0.3608880891358438 -0.2918801156344305 0 -0.34989774773601329 -0.30662595605999288 0 -0.33713187388904697 -0.30642984863505313 0 -0.36018593801734677 -0.30353670344297368 0 -0.35516959979727442 -0.30939906212729368 0 -0.34989774773601329 -0.30662595605999288 0 -0.3608880891358438 -0.2918801156344305 0 -0.33713187388904697 -0.30642984863505313 0 -0.35516959979727442 -0.30939906212729368 0 -0.34989774773601329 -0.30662595605999288 0 -0.35116824345130798 -0.31255280130383128 0 -0.3608880891358438 -0.2918801156344305 0 -0.36018593801734677 -0.30353670344297368 0 -0.34989774773601329 -0.30662595605999288 0 -0.34989774773601329 -0.30662595605999288 0 -0.34627746271268961 -0.31547090655481369 0 -0.35116824345130798 -0.31255280130383128 0 -0.34989774773601329 -0.30662595605999288 0 -0.33713187388904697 -0.30642984863505313 0 -0.34627746271268961 -0.31547090655481369 0 -0.33087613125852089 -0.31026124113799097 0 -0.33572509651058119 -0.30186494403431058 0 -0.33087613125852089 -0.31026124113799097 0 -0.33572509651058119 -0.30186494403431058 0 -0.32788039174688433 -0.30340360419996792 0 -0.33713187388904697 -0.30642984863505313 0 -0.33087613125852089 -0.31026124113799097 0 -0.33572509651058119 -0.30186494403431058 0 -0.33713187388904697 -0.30642984863505313 0 -0.33087613125852089 -0.31026124113799097 0 -0.33119272832279928 -0.31930574818550728 0 -0.33713187388904697 -0.30642984863505313 0 -0.33087613125852089 -0.31026124113799097 0 -0.33572509651058119 -0.30186494403431058 0 -0.32982210904669479 -0.29671961402946723 0 -0.32788039174688433 -0.30340360419996792 0 -0.34624671895703318 -0.29516808017082607 0 -0.33713187388904697 -0.30642984863505313 0 -0.33572509651058119 -0.30186494403431058 0 -0.33713187388904697 -0.30642984863505313 0 -0.33572509651058119 -0.30186494403431058 0 -0.34565448001625149 -0.28467157397777471 0 -0.34624671895703318 -0.29516808017082607 0 -0.33572509651058119 -0.30186494403431058 0 -0.34565448001625149 -0.28467157397777471 0 -0.33572509651058119 -0.30186494403431058 0 -0.3318048869400439 -0.28914410918271372 0 -0.34565448001625149 -0.28467157397777471 0 -0.33572509651058119 -0.30186494403431058 0 -0.33574891981718641 -0.27767764844166998 0 -0.34565448001625149 -0.28467157397777471 0 -0.3318048869400439 -0.28914410918271372 0 -0.33572509651058119 -0.30186494403431058 0 -0.3318048869400439 -0.28914410918271372 0 -0.33572509651058119 -0.30186494403431058 0 -0.3318048869400439 -0.28914410918271372 0 -0.32982210904669479 -0.29671961402946723 0 -0.32034024124292237 -0.27424960049472452 0 -0.32259928468707327 -0.29765208760139911 0 -0.3087976074074783 -0.29705232115309232 0 -0.32034024124292237 -0.27424960049472452 0 -0.3087976074074783 -0.29705232115309232 0 -0.3318048869400439 -0.28914410918271372 0 -0.32982210904669479 -0.29671961402946723 0 -0.32259928468707327 -0.29765208760139911 0 -0.32034024124292237 -0.27424960049472452 0 -0.3318048869400439 -0.28914410918271372 0 -0.32259928468707327 -0.29765208760139911 0 -0.31809128454357072 -0.31014026916809229 0 -0.32259928468707327 -0.29765208760139911 0 -0.3087976074074783 -0.29705232115309232 0 -0.33087613125852089 -0.31026124113799097 0 -0.31809128454357072 -0.31014026916809229 0 -0.32788039174688433 -0.30340360419996792 0 -0.31809128454357072 -0.31014026916809229 0 -0.32788039174688433 -0.30340360419996792 0 -0.32259928468707327 -0.29765208760139911 0 -0.32982210904669479 -0.29671961402946723 0 -0.32788039174688433 -0.30340360419996792 0 -0.32259928468707327 -0.29765208760139911 0 -0.33087613125852089 -0.31026124113799097 0 -0.31740079570577318 -0.33359465661761639 0 -0.31246286337928808 -0.32153863227663171 0 -0.33087613125852089 -0.31026124113799097 0 -0.31740079570577318 -0.33359465661761639 0 -0.33087613125852089 -0.31026124113799097 0 -0.31246286337928808 -0.32153863227663171 0 -0.33087613125852089 -0.31026124113799097 0 -0.31740079570577318 -0.33359465661761639 0 -0.33119272832279928 -0.31930574818550728 0 -0.33087613125852089 -0.31026124113799097 0 -0.31809128454357072 -0.31014026916809229 0 -0.31246286337928808 -0.32153863227663171 0 -0.31740079570577318 -0.33359465661761639 0 -0.32417157549571451 -0.33828040389395381 0 -0.31715042266862958 -0.35725505960240028 0 -0.32417157549571451 -0.33828040389395381 0 -0.33119272832279928 -0.31930574818550728 0 -0.31740079570577318 -0.33359465661761639 0 -0.32417157549571451 -0.33828040389395381 0 -0.33119272832279928 -0.31930574818550728 0 -0.32417157549571451 -0.33828040389395381 0 -0.33357373088512149 -0.33211132028775192 0 -0.33119272832279928 -0.31930574818550728 0 -0.32417157549571451 -0.33828040389395381 0 -0.33357373088512149 -0.33211132028775192 0 -0.33610701312678792 -0.34123127908084783 0 -0.33357373088512149 -0.33211132028775192 0 -0.33610701312678792 -0.34123127908084783 0 -0.34416875563440857 -0.32926408974953919 0 -0.33357373088512149 -0.33211132028775192 0 -0.33119272832279928 -0.31930574818550728 0 -0.34416875563440857 -0.32926408974953919 0 -0.33713187388904697 -0.30642984863505313 0 -0.34416875563440857 -0.32926408974953919 0 -0.33713187388904697 -0.30642984863505313 0 -0.33119272832279928 -0.31930574818550728 0 -0.34416875563440857 -0.32926408974953919 0 -0.33713187388904697 -0.30642984863505313 0 -0.34627746271268961 -0.31547090655481369 0 -0.34416875563440857 -0.32926408974953919 0 -0.34627746271268961 -0.31547090655481369 0 -0.35116824345130798 -0.31255280130383128 0 -0.35502919685696632 -0.31877609996161971 0 -0.34627746271268961 -0.31547090655481369 0 -0.35502919685696632 -0.31877609996161971 0 -0.34416875563440857 -0.32926408974953919 0 -0.35502919685696632 -0.31877609996161971 0 -0.35675450567380168 -0.33268651145338862 0 -0.34416875563440857 -0.32926408974953919 0 -0.35516959979727442 -0.30939906212729368 0 -0.35116824345130798 -0.31255280130383128 0 -0.35502919685696632 -0.31877609996161971 0 -0.36579692030970301 -0.31013884472687708 0 -0.35516959979727442 -0.30939906212729368 0 -0.35502919685696632 -0.31877609996161971 0 -0.36579692030970301 -0.31013884472687708 0 -0.35502919685696632 -0.31877609996161971 0 -0.36792354938230382 -0.32386776959441188 0 -0.35502919685696632 -0.31877609996161971 0 -0.36792354938230382 -0.32386776959441188 0 -0.35675450567380168 -0.33268651145338862 0 -0.36579692030970301 -0.31013884472687708 0 -0.36792354938230382 -0.32386776959441188 0 -0.37496129393649419 -0.31368223541798762 0 -0.37900516355689678 -0.34513562489116278 0 -0.37769435705814042 -0.3331825175471162 0 -0.36544538911555929 -0.33942626709734641 0 -0.37769435705814042 -0.3331825175471162 0 -0.36792354938230382 -0.32386776959441188 0 -0.36544538911555929 -0.33942626709734641 0 -0.36792354938230382 -0.32386776959441188 0 -0.36544538911555929 -0.33942626709734641 0 -0.35675450567380168 -0.33268651145338862 0 -0.34416875563440857 -0.32926408974953919 0 -0.35120563737977062 -0.35209833086402542 0 -0.35675450567380168 -0.33268651145338862 0 -0.34416875563440857 -0.32926408974953919 0 -0.35120563737977062 -0.35209833086402542 0 -0.33610701312678792 -0.34123127908084783 0 -0.34416875563440857 -0.32926408974953919 0 -0.35120563737977062 -0.35209833086402542 0 -0.36544538911555929 -0.33942626709734641 0 -0.35675450567380168 -0.33268651145338862 0 -0.35120563737977062 -0.35209833086402542 0 -0.36544538911555929 -0.33942626709734641 0 -0.35120563737977062 -0.35209833086402542 0 -0.36735745520318142 -0.35150493065846389 0 -0.35120563737977062 -0.35209833086402542 0 -0.36735745520318142 -0.35150493065846389 0 -0.36558114400326203 -0.36277687960609339 0 -0.37554994196041808 -0.3580875508336912 0 -0.36735745520318142 -0.35150493065846389 0 -0.36558114400326203 -0.36277687960609339 0 -0.37900516355689678 -0.34513562489116278 0 -0.37554994196041808 -0.3580875508336912 0 -0.36735745520318142 -0.35150493065846389 0 -0.37900516355689678 -0.34513562489116278 0 -0.36544538911555929 -0.33942626709734641 0 -0.36735745520318142 -0.35150493065846389 0 -0.37436054982250588 -0.36883970961726431 0 -0.36558114400326203 -0.36277687960609339 0 -0.36653106021996917 -0.37330910808461082 0 -0.37436054982250588 -0.36883970961726431 0 -0.36653106021996917 -0.37330910808461082 0 -0.37376125972292512 -0.38039979218528158 0 -0.37554994196041808 -0.3580875508336912 0 -0.37436054982250588 -0.36883970961726431 0 -0.36558114400326203 -0.36277687960609339 0 -0.36653106021996917 -0.37330910808461082 0 -0.35836833896333631 -0.37541927794748609 0 -0.36558114400326203 -0.36277687960609339 0 -0.36653106021996917 -0.37330910808461082 0 -0.35836833896333631 -0.37541927794748609 0 -0.35120563737977062 -0.35209833086402542 0 -0.35836833896333631 -0.37541927794748609 0 -0.33960739919807659 -0.36518285428665881 0 -0.35836833896333631 -0.37541927794748609 0 -0.34067485925329988 -0.37999327312380982 0 -0.35120563737977062 -0.35209833086402542 0 -0.36558114400326203 -0.36277687960609339 0 -0.35836833896333631 -0.37541927794748609 0 -0.35120563737977062 -0.35209833086402542 0 -0.33960739919807659 -0.36518285428665881 0 -0.35836833896333631 -0.37541927794748609 0 -0.33960739919807659 -0.36518285428665881 0 -0.32652049759753299 -0.37057963892112677 0 -0.34067485925329988 -0.37999327312380982 0 -0.33960739919807659 -0.36518285428665881 0 -0.32652049759753299 -0.37057963892112677 0 -0.32712880020552371 -0.36083710938107599 0 -0.33960739919807659 -0.36518285428665881 0 -0.33387208162720011 -0.35265620145140308 0 -0.32712880020552371 -0.36083710938107599 0 -0.33610701312678792 -0.34123127908084783 0 -0.35120563737977062 -0.35209833086402542 0 -0.33387208162720011 -0.35265620145140308 0 -0.35120563737977062 -0.35209833086402542 0 -0.33960739919807659 -0.36518285428665881 0 -0.33387208162720011 -0.35265620145140308 0 -0.32417157549571451 -0.33828040389395381 0 -0.33610701312678792 -0.34123127908084783 0 -0.33387208162720011 -0.35265620145140308 0 -0.31740079570577318 -0.33359465661761639 0 -0.31715042266862958 -0.35725505960240028 0 -0.30392546015302713 -0.35692807209724259 0 -0.32417157549571451 -0.33828040389395381 0 -0.31715042266862958 -0.35725505960240028 0 -0.33387208162720011 -0.35265620145140308 0 -0.31715042266862958 -0.35725505960240028 0 -0.32712880020552371 -0.36083710938107599 0 -0.32417157549571451 -0.33828040389395381 0 -0.33387208162720011 -0.35265620145140308 0 -0.31715042266862958 -0.35725505960240028 0 -0.31715042266862958 -0.35725505960240028 0 -0.31012926984154482 -0.37622971531084698 0 -0.31715042266862958 -0.35725505960240028 0 -0.32652049759753299 -0.37057963892112677 0 -0.31012926984154482 -0.37622971531084698 0 -0.31715042266862958 -0.35725505960240028 0 -0.32652049759753299 -0.37057963892112677 0 -0.32712880020552371 -0.36083710938107599 0 -0.30694315158246871 -0.35829718569675661 0 -0.30254148609603082 -0.35932451273195032 0 -0.31012926984154482 -0.37622971531084698 0 -0.30254148609603082 -0.35932451273195032 0 -0.31012926984154482 -0.37622971531084698 0 -0.31715042266862958 -0.35725505960240028 0 -0.30694315158246871 -0.35829718569675661 0 -0.31012926984154482 -0.37622971531084698 0 -0.30030147417916031 -0.36320323831403822 0 -0.30013936615211873 -0.3552103375617941 0 -0.29528899231213063 -0.38336225581223971 0 -0.30030147417916031 -0.36320323831403822 0 -0.30209755322185861 -0.37206870803913339 0 -0.29528899231213063 -0.38336225581223971 0 -0.30013936615211873 -0.3552103375617941 0 -0.29528899231213063 -0.38336225581223971 0 -0.30209755322185861 -0.37206870803913339 0 -0.30254148609603082 -0.35932451273195032 0 -0.31012926984154482 -0.37622971531084698 0 -0.30030147417916031 -0.36320323831403822 0 -0.30209755322185861 -0.37206870803913339 0 -0.30254148609603082 -0.35932451273195032 0 -0.30030147417916031 -0.36320323831403822 0 -0.30254148609603082 -0.35932451273195032 0 -0.30392546015302713 -0.35692807209724259 0 -0.30013936615211873 -0.3552103375617941 0 -0.30345569214315937 -0.33596214324284168 0 -0.31740079570577318 -0.33359465661761639 0 -0.30392546015302713 -0.35692807209724259 0 -0.31715042266862958 -0.35725505960240028 0 -0.30694315158246871 -0.35829718569675661 0 -0.30392546015302713 -0.35692807209724259 0 -0.30013936615211873 -0.3552103375617941 0 -0.30345569214315937 -0.33596214324284168 0 -0.30013936615211873 -0.3552103375617941 0 -0.29427329111672329 -0.34090338796417619 0 -0.30345569214315937 -0.33596214324284168 0 -0.30694315158246871 -0.35829718569675661 0 -0.30392546015302713 -0.35692807209724259 0 -0.30013936615211873 -0.3552103375617941 0 -0.29427329111672329 -0.34090338796417619 0 -0.30030147417916031 -0.36320323831403822 0 -0.30254148609603082 -0.35932451273195032 0 -0.30013936615211873 -0.3552103375617941 0 -0.30694315158246871 -0.35829718569675661 0 -0.30254148609603082 -0.35932451273195032 0 -0.30392546015302713 -0.35692807209724259 0 -0.30254148609603082 -0.35932451273195032 0 -0.30392546015302713 -0.35692807209724259 0 -0.30013936615211873 -0.3552103375617941 0 -0.30254148609603082 -0.35932451273195032 0 -0.30013936615211873 -0.3552103375617941 0 -0.30392546015302713 -0.35692807209724259 0 -0.30013936615211873 -0.3552103375617941 0 -0.30254148609603082 -0.35932451273195032 0 -0.30392546015302713 -0.35692807209724259 0 -0.30013936615211873 -0.3552103375617941 0 -0.2756363276208198 -0.34409341455390852 0 -0.30013936615211873 -0.3552103375617941 0 -0.2756363276208198 -0.34409341455390852 0 -0.29427329111672329 -0.34090338796417619 0 -0.30013936615211873 -0.3552103375617941 0 -0.27502354569873511 -0.36132746443282021 0 -0.2756363276208198 -0.34409341455390852 0 -0.30013936615211873 -0.3552103375617941 0 -0.28153111102238798 -0.37263903616197019 0 -0.29098662418677401 -0.37681692419347729 0 -0.30013936615211873 -0.3552103375617941 0 -0.28153111102238798 -0.37263903616197019 0 -0.27502354569873511 -0.36132746443282021 0 -0.30013936615211873 -0.3552103375617941 0 -0.29528899231213063 -0.38336225581223971 0 -0.29098662418677401 -0.37681692419347729 0 -0.28153111102238798 -0.37263903616197019 0 -0.27502354569873511 -0.36132746443282021 0 -0.27073783464623241 -0.37667471460480589 0 -0.27502354569873511 -0.36132746443282021 0 -0.26095897901188581 -0.37003000453940338 0 -0.27073783464623241 -0.37667471460480589 0 -0.26095897901188581 -0.37003000453940338 0 -0.26081931491172988 -0.35316824303750771 0 -0.2460023022026411 -0.36224307152110841 0 -0.2592047447232026 -0.38680084736461973 0 -0.2460023022026411 -0.36224307152110841 0 -0.27502354569873511 -0.36132746443282021 0 -0.26095897901188581 -0.37003000453940338 0 -0.26081931491172988 -0.35316824303750771 0 -0.26095897901188581 -0.37003000453940338 0 -0.2592047447232026 -0.38680084736461973 0 -0.2460023022026411 -0.36224307152110841 0 -0.26081931491172988 -0.35316824303750771 0 -0.2460023022026411 -0.36224307152110841 0 -0.24377862724592991 -0.35810682846981901 0 -0.26081931491172988 -0.35316824303750771 0 -0.25299703868895912 -0.33382206670913711 0 -0.24377862724592991 -0.35810682846981901 0 -0.26081931491172988 -0.35316824303750771 0 -0.2460023022026411 -0.36224307152110841 0 -0.27502354569873511 -0.36132746443282021 0 -0.26081931491172988 -0.35316824303750771 0 -0.2756363276208198 -0.34409341455390852 0 -0.26081931491172988 -0.35316824303750771 0 -0.2756363276208198 -0.34409341455390852 0 -0.2756363276208198 -0.34409341455390852 0 -0.25299703868895912 -0.33382206670913711 0 -0.27823215795338091 -0.32481954637883531 0 -0.2756363276208198 -0.34409341455390852 0 -0.25299703868895912 -0.33382206670913711 0 -0.26081931491172988 -0.35316824303750771 0 -0.2756363276208198 -0.34409341455390852 0 -0.25299703868895912 -0.33382206670913711 0 -0.25299703868895912 -0.33382206670913711 0 -0.2631733871945095 -0.30701373855214081 0 -0.24360540713082579 -0.32081459247988048 0 -0.25299703868895912 -0.33382206670913711 0 -0.2631733871945095 -0.30701373855214081 0 -0.25299703868895912 -0.33382206670913711 0 -0.27823215795338091 -0.32481954637883531 0 -0.2631733871945095 -0.30701373855214081 0 -0.27823215795338091 -0.32481954637883531 0 -0.28185591492682172 -0.30898503830205259 0 -0.2631733871945095 -0.30701373855214081 0 -0.27823215795338091 -0.32481954637883531 0 -0.29404959550005422 -0.33281602341527061 0 -0.29725497357203429 -0.31985504181146002 0 -0.27823215795338091 -0.32481954637883531 0 -0.29725497357203429 -0.31985504181146002 0 -0.28185591492682172 -0.30898503830205259 0 -0.2756363276208198 -0.34409341455390852 0 -0.29404959550005422 -0.33281602341527061 0 -0.2756363276208198 -0.34409341455390852 0 -0.27823215795338091 -0.32481954637883531 0 -0.29404959550005422 -0.33281602341527061 0 -0.2756363276208198 -0.34409341455390852 0 -0.29427329111672329 -0.34090338796417619 0 -0.29404959550005422 -0.33281602341527061 0 -0.31740079570577318 -0.33359465661761639 0 -0.30392546015302713 -0.35692807209724259 0 -0.30345569214315937 -0.33596214324284168 0 -0.29404959550005422 -0.33281602341527061 0 -0.30345569214315937 -0.33596214324284168 0 -0.30684223668206873 -0.33097786388809008 0 -0.29404959550005422 -0.33281602341527061 0 -0.30684223668206873 -0.33097786388809008 0 -0.31246286337928808 -0.32153863227663171 0 -0.29427329111672329 -0.34090338796417619 0 -0.29404959550005422 -0.33281602341527061 0 -0.30345569214315937 -0.33596214324284168 0 -0.31740079570577318 -0.33359465661761639 0 -0.30345569214315937 -0.33596214324284168 0 -0.30684223668206873 -0.33097786388809008 0 -0.31740079570577318 -0.33359465661761639 0 -0.30684223668206873 -0.33097786388809008 0 -0.31246286337928808 -0.32153863227663171 0 -0.29404959550005422 -0.33281602341527061 0 -0.31246286337928808 -0.32153863227663171 0 -0.29725497357203429 -0.31985504181146002 0 -0.31809128454357072 -0.31014026916809229 0 -0.31246286337928808 -0.32153863227663171 0 -0.29725497357203429 -0.31985504181146002 0 -0.29404959550005422 -0.33281602341527061 0 -0.31246286337928808 -0.32153863227663171 0 -0.29725497357203429 -0.31985504181146002 0 -0.3087976074074783 -0.29705232115309232 0 -0.29725497357203429 -0.31985504181146002 0 -0.3087976074074783 -0.29705232115309232 0 -0.29175813829428138 -0.29853730415038698 0 -0.31809128454357072 -0.31014026916809229 0 -0.29725497357203429 -0.31985504181146002 0 -0.3087976074074783 -0.29705232115309232 0 -0.32034024124292237 -0.27424960049472452 0 -0.3087976074074783 -0.29705232115309232 0 -0.3029223601971035 -0.28542930916453019 0 -0.3087976074074783 -0.29705232115309232 0 -0.3029223601971035 -0.28542930916453019 0 -0.29175813829428138 -0.29853730415038698 0 -0.29175813829428138 -0.29853730415038698 0 -0.27886091761990239 -0.29469956061743968 0 -0.27974170176675378 -0.27642435675843269 0 -0.29175813829428138 -0.29853730415038698 0 -0.27974170176675378 -0.27642435675843269 0 -0.29291541172053259 -0.28265987040717488 0 -0.29175813829428138 -0.29853730415038698 0 -0.27974170176675378 -0.27642435675843269 0 -0.3029223601971035 -0.28542930916453019 0 -0.29291541172053259 -0.28265987040717488 0 -0.29175813829428138 -0.29853730415038698 0 -0.29175813829428138 -0.29853730415038698 0 -0.28185591492682172 -0.30898503830205259 0 -0.27886091761990239 -0.29469956061743968 0 -0.29725497357203429 -0.31985504181146002 0 -0.29175813829428138 -0.29853730415038698 0 -0.28185591492682172 -0.30898503830205259 0 -0.28185591492682172 -0.30898503830205259 0 -0.2631733871945095 -0.30701373855214081 0 -0.27886091761990239 -0.29469956061743968 0 -0.2631733871945095 -0.30701373855214081 0 -0.25150620891688957 -0.29671190529847857 0 -0.24154087261896171 -0.30509679822178848 0 -0.2631733871945095 -0.30701373855214081 0 -0.25150620891688957 -0.29671190529847857 0 -0.26014900791929918 -0.28790390568308771 0 -0.2631733871945095 -0.30701373855214081 0 -0.26014900791929918 -0.28790390568308771 0 -0.27334973570005983 -0.28020541039514441 0 -0.26014900791929918 -0.28790390568308771 0 -0.25500366536127361 -0.28040897753500388 0 -0.24704595407450111 -0.28488916192179159 0 -0.25150620891688957 -0.29671190529847857 0 -0.26014900791929918 -0.28790390568308771 0 -0.24704595407450111 -0.28488916192179159 0 -0.26014900791929918 -0.28790390568308771 0 -0.27334973570005983 -0.28020541039514441 0 -0.2629852702850381 -0.27847103513044619 0 -0.26014900791929918 -0.28790390568308771 0 -0.2629852702850381 -0.27847103513044619 0 -0.25500366536127361 -0.28040897753500388 0 -0.27886091761990239 -0.29469956061743968 0 -0.27974170176675378 -0.27642435675843269 0 -0.27334973570005983 -0.28020541039514441 0 -0.2631733871945095 -0.30701373855214081 0 -0.27334973570005983 -0.28020541039514441 0 -0.2631733871945095 -0.30701373855214081 0 -0.27886091761990239 -0.29469956061743968 0 -0.27334973570005983 -0.28020541039514441 0 -0.27974170176675378 -0.27642435675843269 0 -0.26773919820457859 -0.27097280269900192 0 -0.26772526523922652 -0.25431140936647811 0 -0.27974170176675378 -0.27642435675843269 0 -0.26773919820457859 -0.27097280269900192 0 -0.27334973570005983 -0.28020541039514441 0 -0.27974170176675378 -0.27642435675843269 0 -0.26772526523922652 -0.25431140936647811 0 -0.28205337854097629 -0.26720279570626088 0 -0.26773919820457859 -0.27097280269900192 0 -0.27334973570005983 -0.28020541039514441 0 -0.2629852702850381 -0.27847103513044619 0 -0.26773919820457859 -0.27097280269900192 0 -0.2629852702850381 -0.27847103513044619 0 -0.25850705641092581 -0.27200262533673941 0 -0.2629852702850381 -0.27847103513044619 0 -0.25850705641092581 -0.27200262533673941 0 -0.25500366536127361 -0.28040897753500388 0 -0.26773919820457859 -0.27097280269900192 0 -0.25850705641092581 -0.27200262533673941 0 -0.26197004023289339 -0.26403696580659958 0 -0.25850705641092581 -0.27200262533673941 0 -0.25299644359707452 -0.25851950246286298 0 -0.24478160024726039 -0.27126628069458419 0 -0.25850705641092581 -0.27200262533673941 0 -0.25500366536127361 -0.28040897753500388 0 -0.24478160024726039 -0.27126628069458419 0 -0.25299644359707452 -0.25851950246286298 0 -0.26197004023289339 -0.26403696580659958 0 -0.26772526523922652 -0.25431140936647811 0 -0.25850705641092581 -0.27200262533673941 0 -0.25299644359707452 -0.25851950246286298 0 -0.26197004023289339 -0.26403696580659958 0 -0.25299644359707452 -0.25851950246286298 0 -0.26772526523922652 -0.25431140936647811 0 -0.27974170176675378 -0.27642435675843269 0 -0.26772526523922652 -0.25431140936647811 0 -0.26772526523922652 -0.25431140936647811 0 -0.29116933258433042 -0.2476133298905312 0 -0.26773919820457859 -0.27097280269900192 0 -0.26197004023289339 -0.26403696580659958 0 -0.26772526523922652 -0.25431140936647811 0 -0.26772526523922652 -0.25431140936647811 0 -0.29053000329888973 -0.26322424887852192 0 -0.28205337854097629 -0.26720279570626088 0 -0.26772526523922652 -0.25431140936647811 0 -0.29053000329888973 -0.26322424887852192 0 -0.29116933258433042 -0.2476133298905312 0 -0.29053000329888973 -0.26322424887852192 0 -0.30822270907570759 -0.25868279318866538 0 -0.29116933258433042 -0.2476133298905312 0 -0.29053000329888973 -0.26322424887852192 0 -0.28205337854097629 -0.26720279570626088 0 -0.29021654385903539 -0.27485116782161118 0 -0.27974170176675378 -0.27642435675843269 0 -0.28205337854097629 -0.26720279570626088 0 -0.29021654385903539 -0.27485116782161118 0 -0.29291541172053259 -0.28265987040717488 0 -0.27974170176675378 -0.27642435675843269 0 -0.29021654385903539 -0.27485116782161118 0 -0.29291541172053259 -0.28265987040717488 0 -0.29021654385903539 -0.27485116782161118 0 -0.30080040232030281 -0.27464744961727239 0 -0.29053000329888973 -0.26322424887852192 0 -0.29021654385903539 -0.27485116782161118 0 -0.30080040232030281 -0.27464744961727239 0 -0.32034024124292237 -0.27424960049472452 0 -0.30080040232030281 -0.27464744961727239 0 -0.30822270907570759 -0.25868279318866538 0 -0.32034024124292237 -0.27424960049472452 0 -0.3029223601971035 -0.28542930916453019 0 -0.30080040232030281 -0.27464744961727239 0 -0.3029223601971035 -0.28542930916453019 0 -0.29291541172053259 -0.28265987040717488 0 -0.30080040232030281 -0.27464744961727239 0 -0.29053000329888973 -0.26322424887852192 0 -0.30080040232030281 -0.27464744961727239 0 -0.30822270907570759 -0.25868279318866538 0 -0.32829519487322462 -0.45348191246011771 0 -0.33564223006728372 -0.46159064500568892 0 -0.32873221886834869 -0.46642187675406521 0 -0.32829519487322462 -0.45348191246011771 0 -0.33564223006728372 -0.46159064500568892 0 -0.33726375000661879 -0.45352888090126692 0 -0.33564223006728372 -0.46159064500568892 0 -0.32873221886834869 -0.46642187675406521 0 -0.339909687785033 -0.47062967385505478 0 -0.33564223006728372 -0.46159064500568892 0 -0.339909687785033 -0.47062967385505478 0 -0.34541779642965631 -0.45716688094274849 0 -0.33726375000661879 -0.45352888090126692 0 -0.3432006447049783 -0.44991108399237928 0 -0.34541779642965631 -0.45716688094274849 0 -0.33564223006728372 -0.46159064500568892 0 -0.33726375000661879 -0.45352888090126692 0 -0.34541779642965631 -0.45716688094274849 0 -0.33766231498518717 -0.44782616048125462 0 -0.32801561842794552 -0.44243403391167702 0 -0.32689135617110698 -0.43143995287742543 0 -0.33766231498518717 -0.44782616048125462 0 -0.33678467390124639 -0.43561662202362661 0 -0.32689135617110698 -0.43143995287742543 0 -0.33766231498518717 -0.44782616048125462 0 -0.32689135617110698 -0.43143995287742543 0 -0.33726375000661879 -0.45352888090126692 0 -0.3432006447049783 -0.44991108399237928 0 -0.33766231498518717 -0.44782616048125462 0 -0.3432006447049783 -0.44991108399237928 0 -0.34782525252529389 -0.43919290258460281 0 -0.33678467390124639 -0.43561662202362661 0 -0.3432006447049783 -0.44991108399237928 0 -0.33766231498518717 -0.44782616048125462 0 -0.33678467390124639 -0.43561662202362661 0 -0.3432006447049783 -0.44991108399237928 0 -0.33678467390124639 -0.43561662202362661 0 -0.32829519487322462 -0.45348191246011771 0 -0.33726375000661879 -0.45352888090126692 0 -0.33130281459245398 -0.44787832521363119 0 -0.32829519487322462 -0.45348191246011771 0 -0.33130281459245398 -0.44787832521363119 0 -0.32801561842794552 -0.44243403391167702 0 -0.33766231498518717 -0.44782616048125462 0 -0.33130281459245398 -0.44787832521363119 0 -0.32801561842794552 -0.44243403391167702 0 -0.33726375000661879 -0.45352888090126692 0 -0.33766231498518717 -0.44782616048125462 0 -0.33130281459245398 -0.44787832521363119 0 -0.32829519487322462 -0.45348191246011771 0 -0.32801561842794552 -0.44243403391167702 0 -0.31850150104480851 -0.44913504478441169 0 -0.32801561842794552 -0.44243403391167702 0 -0.31678777868173441 -0.43836023175093752 0 -0.31850150104480851 -0.44913504478441169 0 -0.31678777868173441 -0.43836023175093752 0 -0.31850150104480851 -0.44913504478441169 0 -0.30348617896306168 -0.44716981502760061 0 -0.31850150104480851 -0.44913504478441169 0 -0.32026755133986728 -0.46225175206177188 0 -0.31249599199218292 -0.45616249331809411 0 -0.32026755133986728 -0.46225175206177188 0 -0.32087673991514359 -0.47236025662428233 0 -0.30485931206519779 -0.46236385409118391 0 -0.32026755133986728 -0.46225175206177188 0 -0.30485931206519779 -0.46236385409118391 0 -0.31249599199218292 -0.45616249331809411 0 -0.32829519487322462 -0.45348191246011771 0 -0.31850150104480851 -0.44913504478441169 0 -0.32026755133986728 -0.46225175206177188 0 -0.32829519487322462 -0.45348191246011771 0 -0.32873221886834869 -0.46642187675406521 0 -0.32026755133986728 -0.46225175206177188 0 -0.32873221886834869 -0.46642187675406521 0 -0.32026755133986728 -0.46225175206177188 0 -0.32087673991514359 -0.47236025662428233 0 -0.31253971170819173 -0.48078640309266207 0 -0.32087673991514359 -0.47236025662428233 0 -0.30485931206519779 -0.46236385409118391 0 -0.31253971170819173 -0.48078640309266207 0 -0.32087673991514359 -0.47236025662428233 0 -0.32604446521611791 -0.48567228330006079 0 -0.32087673991514359 -0.47236025662428233 0 -0.32604446521611791 -0.48567228330006079 0 -0.33281718029313828 -0.4766653704459497 0 -0.32873221886834869 -0.46642187675406521 0 -0.32087673991514359 -0.47236025662428233 0 -0.33281718029313828 -0.4766653704459497 0 -0.31253971170819173 -0.48078640309266207 0 -0.32604446521611791 -0.48567228330006079 0 -0.31203003616656427 -0.5 0 -0.32604446521611791 -0.48567228330006079 0 -0.34172660353856099 -0.5 0 -0.31203003616656427 -0.5 0 -0.32604446521611791 -0.48567228330006079 0 -0.33998572386686821 -0.48629693075889208 0 -0.34172660353856099 -0.5 0 -0.32873221886834869 -0.46642187675406521 0 -0.33281718029313828 -0.4766653704459497 0 -0.339909687785033 -0.47062967385505478 0 -0.32604446521611791 -0.48567228330006079 0 -0.33998572386686821 -0.48629693075889208 0 -0.33281718029313828 -0.4766653704459497 0 -0.33998572386686821 -0.48629693075889208 0 -0.33281718029313828 -0.4766653704459497 0 -0.34631913378329959 -0.4783000219506599 0 -0.33281718029313828 -0.4766653704459497 0 -0.339909687785033 -0.47062967385505478 0 -0.34631913378329959 -0.4783000219506599 0 -0.34631913378329959 -0.4783000219506599 0 -0.35502188601534679 -0.49173719177872138 0 -0.36538568075167621 -0.46969458742869219 0 -0.339909687785033 -0.47062967385505478 0 -0.34631913378329959 -0.4783000219506599 0 -0.35122858692569853 -0.46557008281061663 0 -0.34631913378329959 -0.4783000219506599 0 -0.36538568075167621 -0.46969458742869219 0 -0.35122858692569853 -0.46557008281061663 0 -0.34172660353856099 -0.5 0 -0.35502188601534679 -0.49173719177872138 0 -0.37142317091055771 -0.5 0 -0.33998572386686821 -0.48629693075889208 0 -0.34172660353856099 -0.5 0 -0.35502188601534679 -0.49173719177872138 0 -0.33998572386686821 -0.48629693075889208 0 -0.34631913378329959 -0.4783000219506599 0 -0.35502188601534679 -0.49173719177872138 0 -0.38238649144304337 -0.48092833609651681 0 -0.37142317091055771 -0.5 0 -0.36881629076136158 -0.4847652413595962 0 -0.35502188601534679 -0.49173719177872138 0 -0.37142317091055771 -0.5 0 -0.36881629076136158 -0.4847652413595962 0 -0.38238649144304337 -0.48092833609651681 0 -0.36881629076136158 -0.4847652413595962 0 -0.36538568075167621 -0.46969458742869219 0 -0.35502188601534679 -0.49173719177872138 0 -0.36538568075167621 -0.46969458742869219 0 -0.35502188601534679 -0.49173719177872138 0 -0.36881629076136158 -0.4847652413595962 0 -0.36538568075167621 -0.46969458742869219 0 -0.37574947548800558 -0.44765198307866277 0 -0.36538568075167621 -0.46969458742869219 0 -0.35917687483082578 -0.45209947203688122 0 -0.37574947548800558 -0.44765198307866277 0 -0.36538568075167621 -0.46969458742869219 0 -0.36538568075167621 -0.46969458742869219 0 -0.35122858692569853 -0.46557008281061663 0 -0.35917687483082578 -0.45209947203688122 0 -0.34541779642965631 -0.45716688094274849 0 -0.35122858692569853 -0.46557008281061663 0 -0.35917687483082578 -0.45209947203688122 0 -0.339909687785033 -0.47062967385505478 0 -0.34541779642965631 -0.45716688094274849 0 -0.35122858692569853 -0.46557008281061663 0 -0.35150280068715573 -0.44683832799735201 0 -0.35917687483082578 -0.45209947203688122 0 -0.36147395483582151 -0.43500663758666791 0 -0.3432006447049783 -0.44991108399237928 0 -0.34782525252529389 -0.43919290258460281 0 -0.35150280068715573 -0.44683832799735201 0 -0.3432006447049783 -0.44991108399237928 0 -0.34541779642965631 -0.45716688094274849 0 -0.35150280068715573 -0.44683832799735201 0 -0.34541779642965631 -0.45716688094274849 0 -0.35150280068715573 -0.44683832799735201 0 -0.35917687483082578 -0.45209947203688122 0 -0.34782525252529389 -0.43919290258460281 0 -0.35150280068715573 -0.44683832799735201 0 -0.36147395483582151 -0.43500663758666791 0 -0.37574947548800558 -0.44765198307866277 0 -0.35917687483082578 -0.45209947203688122 0 -0.36147395483582151 -0.43500663758666791 0 -0.37574947548800558 -0.44765198307866277 0 -0.36147395483582151 -0.43500663758666791 0 -0.37090144580233381 -0.4250987793791331 0 -0.36147395483582151 -0.43500663758666791 0 -0.37090144580233381 -0.4250987793791331 0 -0.35825503138417941 -0.42139952893919708 0 -0.37855821513367782 -0.40980771242859643 0 -0.37090144580233381 -0.4250987793791331 0 -0.36525872774798401 -0.41111743551304109 0 -0.37855821513367782 -0.40980771242859643 0 -0.36525872774798401 -0.41111743551304109 0 -0.36904983326882818 -0.39985468805073809 0 -0.36525872774798401 -0.41111743551304109 0 -0.35395198416596418 -0.40994661781015101 0 -0.35992125157200211 -0.40171843142090052 0 -0.37090144580233381 -0.4250987793791331 0 -0.36525872774798401 -0.41111743551304109 0 -0.35825503138417941 -0.42139952893919708 0 -0.35825503138417941 -0.42139952893919708 0 -0.35395198416596418 -0.40994661781015101 0 -0.34900501807246909 -0.41858568696340059 0 -0.36525872774798401 -0.41111743551304109 0 -0.35825503138417941 -0.42139952893919708 0 -0.35395198416596418 -0.40994661781015101 0 -0.35395198416596418 -0.40994661781015101 0 -0.34385264307708402 -0.40972291554555779 0 -0.34900501807246909 -0.41858568696340059 0 -0.34385264307708402 -0.40972291554555779 0 -0.34900501807246909 -0.41858568696340059 0 -0.34070285009637469 -0.4180588959101037 0 -0.34900501807246909 -0.41858568696340059 0 -0.34592132896666739 -0.42816439882077129 0 -0.34070285009637469 -0.4180588959101037 0 -0.35825503138417941 -0.42139952893919708 0 -0.34900501807246909 -0.41858568696340059 0 -0.34592132896666739 -0.42816439882077129 0 -0.36147395483582151 -0.43500663758666791 0 -0.34592132896666739 -0.42816439882077129 0 -0.34782525252529389 -0.43919290258460281 0 -0.36147395483582151 -0.43500663758666791 0 -0.34592132896666739 -0.42816439882077129 0 -0.36147395483582151 -0.43500663758666791 0 -0.35825503138417941 -0.42139952893919708 0 -0.34592132896666739 -0.42816439882077129 0 -0.36653106021996917 -0.37330910808461082 0 -0.355709737333537 -0.38439558649302619 0 -0.35836833896333631 -0.37541927794748609 0 -0.36653106021996917 -0.37330910808461082 0 -0.36529357244793659 -0.38403965019298841 0 -0.355709737333537 -0.38439558649302619 0 -0.36653106021996917 -0.37330910808461082 0 -0.37376125972292512 -0.38039979218528158 0 -0.36529357244793659 -0.38403965019298841 0 -0.37376125972292512 -0.38039979218528158 0 -0.36978486801480359 -0.38968665449479412 0 -0.36529357244793659 -0.38403965019298841 0 -0.38009500019605358 -0.39439078473986727 0 -0.37376125972292512 -0.38039979218528158 0 -0.36978486801480359 -0.38968665449479412 0 -0.36529357244793659 -0.38403965019298841 0 -0.36068093694844822 -0.39240710970722931 0 -0.355709737333537 -0.38439558649302619 0 -0.36978486801480359 -0.38968665449479412 0 -0.36529357244793659 -0.38403965019298841 0 -0.36068093694844822 -0.39240710970722931 0 -0.36068093694844822 -0.39240710970722931 0 -0.36904983326882818 -0.39985468805073809 0 -0.35992125157200211 -0.40171843142090052 0 -0.36978486801480359 -0.38968665449479412 0 -0.36068093694844822 -0.39240710970722931 0 -0.36904983326882818 -0.39985468805073809 0 -0.38009500019605358 -0.39439078473986727 0 -0.36978486801480359 -0.38968665449479412 0 -0.36904983326882818 -0.39985468805073809 0 -0.36525872774798401 -0.41111743551304109 0 -0.36904983326882818 -0.39985468805073809 0 -0.35992125157200211 -0.40171843142090052 0 -0.35395198416596418 -0.40994661781015101 0 -0.35992125157200211 -0.40171843142090052 0 -0.34693147216871761 -0.39596152560563758 0 -0.35395198416596418 -0.40994661781015101 0 -0.34385264307708402 -0.40972291554555779 0 -0.34693147216871761 -0.39596152560563758 0 -0.36068093694844822 -0.39240710970722931 0 -0.35992125157200211 -0.40171843142090052 0 -0.34693147216871761 -0.39596152560563758 0 -0.36068093694844822 -0.39240710970722931 0 -0.34693147216871761 -0.39596152560563758 0 -0.355709737333537 -0.38439558649302619 0 -0.355709737333537 -0.38439558649302619 0 -0.35836833896333631 -0.37541927794748609 0 -0.34067485925329988 -0.37999327312380982 0 -0.34693147216871761 -0.39596152560563758 0 -0.355709737333537 -0.38439558649302619 0 -0.34067485925329988 -0.37999327312380982 0 -0.35836833896333631 -0.37541927794748609 0 -0.34067485925329988 -0.37999327312380982 0 -0.34693147216871761 -0.39596152560563758 0 -0.34067485925329988 -0.37999327312380982 0 -0.33268569085836341 -0.39371602977388798 0 -0.32652049759753299 -0.37057963892112677 0 -0.34067485925329988 -0.37999327312380982 0 -0.32303582124475172 -0.37837001637969853 0 -0.34067485925329988 -0.37999327312380982 0 -0.33268569085836341 -0.39371602977388798 0 -0.31481865828663058 -0.38667743816300909 0 -0.33840978389109899 -0.40194811286804022 0 -0.32259368069207173 -0.40399979910894179 0 -0.33518553217082858 -0.41101037669750368 0 -0.33268569085836341 -0.39371602977388798 0 -0.33840978389109899 -0.40194811286804022 0 -0.32259368069207173 -0.40399979910894179 0 -0.34693147216871761 -0.39596152560563758 0 -0.33268569085836341 -0.39371602977388798 0 -0.33840978389109899 -0.40194811286804022 0 -0.34385264307708402 -0.40972291554555779 0 -0.34693147216871761 -0.39596152560563758 0 -0.33840978389109899 -0.40194811286804022 0 -0.32259368069207173 -0.40399979910894179 0 -0.31377307194719922 -0.39755280549180683 0 -0.31612039735702691 -0.41505374527359618 0 -0.32259368069207173 -0.40399979910894179 0 -0.31377307194719922 -0.39755280549180683 0 -0.31481865828663058 -0.38667743816300909 0 -0.33268569085836341 -0.39371602977388798 0 -0.32259368069207173 -0.40399979910894179 0 -0.31481865828663058 -0.38667743816300909 0 -0.32259368069207173 -0.40399979910894179 0 -0.31481865828663058 -0.38667743816300909 0 -0.32652049759753299 -0.37057963892112677 0 -0.32303582124475172 -0.37837001637969853 0 -0.31012926984154482 -0.37622971531084698 0 -0.34067485925329988 -0.37999327312380982 0 -0.31481865828663058 -0.38667743816300909 0 -0.34067485925329988 -0.37999327312380982 0 -0.31481865828663058 -0.38667743816300909 0 -0.32303582124475172 -0.37837001637969853 0 -0.31481865828663058 -0.38667743816300909 0 -0.32303582124475172 -0.37837001637969853 0 -0.31012926984154482 -0.37622971531084698 0 -0.33678467390124639 -0.43561662202362661 0 -0.33036870309751382 -0.42132216005487422 0 -0.33678467390124639 -0.43561662202362661 0 -0.33036870309751382 -0.42132216005487422 0 -0.32689135617110698 -0.43143995287742543 0 -0.34782525252529389 -0.43919290258460281 0 -0.34592132896666739 -0.42816439882077129 0 -0.33678467390124639 -0.43561662202362661 0 -0.34592132896666739 -0.42816439882077129 0 -0.33678467390124639 -0.43561662202362661 0 -0.33036870309751382 -0.42132216005487422 0 -0.34592132896666739 -0.42816439882077129 0 -0.33036870309751382 -0.42132216005487422 0 -0.34592132896666739 -0.42816439882077129 0 -0.34070285009637469 -0.4180588959101037 0 -0.33036870309751382 -0.42132216005487422 0 -0.32259368069207173 -0.40399979910894179 0 -0.33518553217082858 -0.41101037669750368 0 -0.33036870309751382 -0.42132216005487422 0 -0.34385264307708402 -0.40972291554555779 0 -0.33840978389109899 -0.40194811286804022 0 -0.33518553217082858 -0.41101037669750368 0 -0.34385264307708402 -0.40972291554555779 0 -0.34070285009637469 -0.4180588959101037 0 -0.33518553217082858 -0.41101037669750368 0 -0.34070285009637469 -0.4180588959101037 0 -0.33518553217082858 -0.41101037669750368 0 -0.33036870309751382 -0.42132216005487422 0 -0.33036870309751382 -0.42132216005487422 0 -0.31612039735702691 -0.41505374527359618 0 -0.32259368069207173 -0.40399979910894179 0 -0.33036870309751382 -0.42132216005487422 0 -0.31612039735702691 -0.41505374527359618 0 -0.32259368069207173 -0.40399979910894179 0 -0.33036870309751382 -0.42132216005487422 0 -0.33036870309751382 -0.42132216005487422 0 -0.31612039735702691 -0.41505374527359618 0 -0.32689135617110698 -0.43143995287742543 0 -0.31612039735702691 -0.41505374527359618 0 -0.31419521235522752 -0.42772949798997217 0 -0.32689135617110698 -0.43143995287742543 0 -0.31612039735702691 -0.41505374527359618 0 -0.32689135617110698 -0.43143995287742543 0 -0.32801561842794552 -0.44243403391167702 0 -0.31678777868173441 -0.43836023175093752 0 -0.32689135617110698 -0.43143995287742543 0 -0.31678777868173441 -0.43836023175093752 0 -0.31419521235522752 -0.42772949798997217 0 -0.32689135617110698 -0.43143995287742543 0 -0.31678777868173441 -0.43836023175093752 0 -0.31419521235522752 -0.42772949798997217 0 -0.30656827729091157 -0.43244640560542907 0 -0.30656827729091157 -0.43244640560542907 0 -0.30460825227535782 -0.42134715444247323 0 -0.29056525806054567 -0.4291014298230883 0 -0.30656827729091157 -0.43244640560542907 0 -0.29056525806054567 -0.4291014298230883 0 -0.30348617896306168 -0.44716981502760061 0 -0.31419521235522752 -0.42772949798997217 0 -0.30656827729091157 -0.43244640560542907 0 -0.30460825227535782 -0.42134715444247323 0 -0.31612039735702691 -0.41505374527359618 0 -0.31419521235522752 -0.42772949798997217 0 -0.30460825227535782 -0.42134715444247323 0 -0.31612039735702691 -0.41505374527359618 0 -0.29861328519625602 -0.40735164772986049 0 -0.29861328519625602 -0.40735164772986049 0 -0.30460825227535782 -0.42134715444247323 0 -0.29056525806054567 -0.4291014298230883 0 -0.31612039735702691 -0.41505374527359618 0 -0.29861328519625602 -0.40735164772986049 0 -0.30460825227535782 -0.42134715444247323 0 -0.29861328519625602 -0.40735164772986049 0 -0.28834155574350862 -0.42368567680663621 0 -0.2916812324797019 -0.40430195308515338 0 -0.28834155574350862 -0.42368567680663621 0 -0.2916812324797019 -0.40430195308515338 0 -0.29861328519625602 -0.40735164772986049 0 -0.29056525806054567 -0.4291014298230883 0 -0.28469584148538057 -0.41072449433634878 0 -0.28834155574350862 -0.42368567680663621 0 -0.2916812324797019 -0.40430195308515338 0 -0.29861328519625602 -0.40735164772986049 0 -0.28834155574350862 -0.42368567680663621 0 -0.29056525806054567 -0.4291014298230883 0 -0.28469584148538057 -0.41072449433634878 0 -0.2916812324797019 -0.40430195308515338 0 -0.27970807944097043 -0.4060397755018908 0 -0.28469584148538057 -0.41072449433634878 0 -0.28233891957231072 -0.4168549772280209 0 -0.2777197394754497 -0.41217915896875162 0 -0.28233891957231072 -0.4168549772280209 0 -0.28834155574350862 -0.42368567680663621 0 -0.27774969961353357 -0.42230827276822969 0 -0.28469584148538057 -0.41072449433634878 0 -0.28233891957231072 -0.4168549772280209 0 -0.28834155574350862 -0.42368567680663621 0 -0.28834155574350862 -0.42368567680663621 0 -0.27924634423751882 -0.43231963276243301 0 -0.28534916759849049 -0.44319790701125139 0 -0.28834155574350862 -0.42368567680663621 0 -0.28534916759849049 -0.44319790701125139 0 -0.28834155574350862 -0.42368567680663621 0 -0.27924634423751882 -0.43231963276243301 0 -0.27774969961353357 -0.42230827276822969 0 -0.28834155574350862 -0.42368567680663621 0 -0.29056525806054567 -0.4291014298230883 0 -0.28534916759849049 -0.44319790701125139 0 -0.29056525806054567 -0.4291014298230883 0 -0.28534916759849049 -0.44319790701125139 0 -0.30209755322185861 -0.37206870803913339 0 -0.30311350298749112 -0.38135249651146652 0 -0.29528899231213063 -0.38336225581223971 0 -0.31012926984154482 -0.37622971531084698 0 -0.30535837795801157 -0.38912304396237579 0 -0.31481865828663058 -0.38667743816300909 0 -0.31012926984154482 -0.37622971531084698 0 -0.30209755322185861 -0.37206870803913339 0 -0.30311350298749112 -0.38135249651146652 0 -0.31012926984154482 -0.37622971531084698 0 -0.30311350298749112 -0.38135249651146652 0 -0.31012926984154482 -0.37622971531084698 0 -0.30535837795801157 -0.38912304396237579 0 -0.31481865828663058 -0.38667743816300909 0 -0.31012926984154482 -0.37622971531084698 0 -0.30535837795801157 -0.38912304396237579 0 -0.31481865828663058 -0.38667743816300909 0 -0.30535837795801157 -0.38912304396237579 0 -0.30311350298749112 -0.38135249651146652 0 -0.30535837795801157 -0.38912304396237579 0 -0.29998819589764469 -0.39051130603646039 0 -0.30311350298749112 -0.38135249651146652 0 -0.29998819589764469 -0.39051130603646039 0 -0.29528899231213063 -0.38336225581223971 0 -0.30535837795801157 -0.38912304396237579 0 -0.29998819589764469 -0.39051130603646039 0 -0.29998819589764469 -0.39051130603646039 0 -0.29528899231213063 -0.38336225581223971 0 -0.31612039735702691 -0.41505374527359618 0 -0.3030954811387378 -0.39523851945578742 0 -0.31612039735702691 -0.41505374527359618 0 -0.29861328519625602 -0.40735164772986049 0 -0.3030954811387378 -0.39523851945578742 0 -0.31377307194719922 -0.39755280549180683 0 -0.31612039735702691 -0.41505374527359618 0 -0.3030954811387378 -0.39523851945578742 0 -0.29998819589764469 -0.39051130603646039 0 -0.29819039211823273 -0.39426303918305672 0 -0.3030954811387378 -0.39523851945578742 0 -0.29998819589764469 -0.39051130603646039 0 -0.29378078441060901 -0.39211600283236908 0 -0.29998819589764469 -0.39051130603646039 0 -0.29819039211823273 -0.39426303918305672 0 -0.29378078441060901 -0.39211600283236908 0 -0.29819039211823273 -0.39426303918305672 0 -0.3030954811387378 -0.39523851945578742 0 -0.2966903124620639 -0.39889113767723372 0 -0.29998819589764469 -0.39051130603646039 0 -0.3030954811387378 -0.39523851945578742 0 -0.30535837795801157 -0.38912304396237579 0 -0.3030954811387378 -0.39523851945578742 0 -0.30535837795801157 -0.38912304396237579 0 -0.29998819589764469 -0.39051130603646039 0 -0.3030954811387378 -0.39523851945578742 0 -0.31377307194719922 -0.39755280549180683 0 -0.30535837795801157 -0.38912304396237579 0 -0.3030954811387378 -0.39523851945578742 0 -0.31377307194719922 -0.39755280549180683 0 -0.31481865828663058 -0.38667743816300909 0 -0.30535837795801157 -0.38912304396237579 0 -0.29861328519625602 -0.40735164772986049 0 -0.3030954811387378 -0.39523851945578742 0 -0.29861328519625602 -0.40735164772986049 0 -0.3030954811387378 -0.39523851945578742 0 -0.2966903124620639 -0.39889113767723372 0 -0.2916812324797019 -0.40430195308515338 0 -0.27463004710705952 -0.39680043645749491 0 -0.27970807944097043 -0.4060397755018908 0 -0.2916812324797019 -0.40430195308515338 0 -0.27463004710705952 -0.39680043645749491 0 -0.2916812324797019 -0.40430195308515338 0 -0.28501153478454427 -0.39438296818609919 0 -0.27463004710705952 -0.39680043645749491 0 -0.29861328519625602 -0.40735164772986049 0 -0.2966903124620639 -0.39889113767723372 0 -0.2916812324797019 -0.40430195308515338 0 -0.29861328519625602 -0.40735164772986049 0 -0.2916812324797019 -0.40430195308515338 0 -0.28501153478454427 -0.39438296818609919 0 -0.29378078441060901 -0.39211600283236908 0 -0.2916812324797019 -0.40430195308515338 0 -0.29378078441060901 -0.39211600283236908 0 -0.2916812324797019 -0.40430195308515338 0 -0.28501153478454427 -0.39438296818609919 0 -0.29378078441060901 -0.39211600283236908 0 -0.2966903124620639 -0.39889113767723372 0 -0.2916812324797019 -0.40430195308515338 0 -0.29378078441060901 -0.39211600283236908 0 -0.29819039211823273 -0.39426303918305672 0 -0.2966903124620639 -0.39889113767723372 0 -0.29378078441060901 -0.39211600283236908 0 -0.29378078441060901 -0.39211600283236908 0 -0.29528899231213063 -0.38336225581223971 0 -0.29378078441060901 -0.39211600283236908 0 -0.29528899231213063 -0.38336225581223971 0 -0.28591598007814539 -0.38454617792540852 0 -0.29998819589764469 -0.39051130603646039 0 -0.29378078441060901 -0.39211600283236908 0 -0.29528899231213063 -0.38336225581223971 0 -0.28501153478454427 -0.39438296818609919 0 -0.29378078441060901 -0.39211600283236908 0 -0.28591598007814539 -0.38454617792540852 0 -0.28501153478454427 -0.39438296818609919 0 -0.28591598007814539 -0.38454617792540852 0 -0.27839665958567272 -0.38914340684817539 0 -0.28153111102238798 -0.37263903616197019 0 -0.28591598007814539 -0.38454617792540852 0 -0.29098662418677401 -0.37681692419347729 0 -0.28153111102238798 -0.37263903616197019 0 -0.28591598007814539 -0.38454617792540852 0 -0.27730241918010828 -0.38157080933592519 0 -0.29528899231213063 -0.38336225581223971 0 -0.28591598007814539 -0.38454617792540852 0 -0.29098662418677401 -0.37681692419347729 0 -0.29528899231213063 -0.38336225581223971 0 -0.29098662418677401 -0.37681692419347729 0 -0.27073783464623241 -0.37667471460480589 0 -0.27730241918010828 -0.38157080933592519 0 -0.27040620824107497 -0.38768012579409689 0 -0.28153111102238798 -0.37263903616197019 0 -0.27073783464623241 -0.37667471460480589 0 -0.27730241918010828 -0.38157080933592519 0 -0.28591598007814539 -0.38454617792540852 0 -0.27730241918010828 -0.38157080933592519 0 -0.27839665958567272 -0.38914340684817539 0 -0.27730241918010828 -0.38157080933592519 0 -0.27839665958567272 -0.38914340684817539 0 -0.27040620824107497 -0.38768012579409689 0 -0.27073783464623241 -0.37667471460480589 0 -0.27040620824107497 -0.38768012579409689 0 -0.2592047447232026 -0.38680084736461973 0 -0.27040620824107497 -0.38768012579409689 0 -0.27463004710705952 -0.39680043645749491 0 -0.26276919670061988 -0.39720507200095689 0 -0.28501153478454427 -0.39438296818609919 0 -0.27839665958567272 -0.38914340684817539 0 -0.27463004710705952 -0.39680043645749491 0 -0.27839665958567272 -0.38914340684817539 0 -0.27040620824107497 -0.38768012579409689 0 -0.27463004710705952 -0.39680043645749491 0 -0.27463004710705952 -0.39680043645749491 0 -0.27970807944097043 -0.4060397755018908 0 -0.26981353665726082 -0.40619283466170558 0 -0.27463004710705952 -0.39680043645749491 0 -0.26981353665726082 -0.40619283466170558 0 -0.26276919670061988 -0.39720507200095689 0 -0.26276919670061988 -0.39720507200095689 0 -0.25576693522964739 -0.40915399643003719 0 -0.24679370824547431 -0.39660219129778729 0 -0.26276919670061988 -0.39720507200095689 0 -0.2592047447232026 -0.38680084736461973 0 -0.24679370824547431 -0.39660219129778729 0 -0.26981353665726082 -0.40619283466170558 0 -0.26276919670061988 -0.39720507200095689 0 -0.25576693522964739 -0.40915399643003719 0 -0.2592047447232026 -0.38680084736461973 0 -0.24679370824547431 -0.39660219129778729 0 -0.244747899488584 -0.38057329054419903 0 -0.26095897901188581 -0.37003000453940338 0 -0.27073783464623241 -0.37667471460480589 0 -0.2592047447232026 -0.38680084736461973 0 -0.27040620824107497 -0.38768012579409689 0 -0.26276919670061988 -0.39720507200095689 0 -0.2592047447232026 -0.38680084736461973 0 -0.26811582188462768 -0.4322800320455647 0 -0.27774969961353357 -0.42230827276822969 0 -0.26651503655094938 -0.41815591515934819 0 -0.26811582188462768 -0.4322800320455647 0 -0.27924634423751882 -0.43231963276243301 0 -0.27654124398938368 -0.44039164248994689 0 -0.26811582188462768 -0.4322800320455647 0 -0.27924634423751882 -0.43231963276243301 0 -0.27774969961353357 -0.42230827276822969 0 -0.28233891957231072 -0.4168549772280209 0 -0.27774969961353357 -0.42230827276822969 0 -0.2777197394754497 -0.41217915896875162 0 -0.27774969961353357 -0.42230827276822969 0 -0.2777197394754497 -0.41217915896875162 0 -0.26651503655094938 -0.41815591515934819 0 -0.27970807944097043 -0.4060397755018908 0 -0.26981353665726082 -0.40619283466170558 0 -0.2777197394754497 -0.41217915896875162 0 -0.28469584148538057 -0.41072449433634878 0 -0.27970807944097043 -0.4060397755018908 0 -0.2777197394754497 -0.41217915896875162 0 -0.26981353665726082 -0.40619283466170558 0 -0.2777197394754497 -0.41217915896875162 0 -0.26651503655094938 -0.41815591515934819 0 -0.26651503655094938 -0.41815591515934819 0 -0.25576693522964739 -0.40915399643003719 0 -0.25378751279796252 -0.42777966276414292 0 -0.26981353665726082 -0.40619283466170558 0 -0.26651503655094938 -0.41815591515934819 0 -0.25576693522964739 -0.40915399643003719 0 -0.26811582188462768 -0.4322800320455647 0 -0.25378751279796252 -0.42777966276414292 0 -0.25661497371879699 -0.44383835042080372 0 -0.26811582188462768 -0.4322800320455647 0 -0.26651503655094938 -0.41815591515934819 0 -0.25378751279796252 -0.42777966276414292 0 -0.26811582188462768 -0.4322800320455647 0 -0.26195227942346833 -0.45924540724590007 0 -0.25378751279796252 -0.42777966276414292 0 -0.25661497371879699 -0.44383835042080372 0 -0.2403206514339086 -0.44443776135919028 0 -0.25661497371879699 -0.44383835042080372 0 -0.26195227942346833 -0.45924540724590007 0 -0.2403206514339086 -0.44443776135919028 0 -0.26811582188462768 -0.4322800320455647 0 -0.25661497371879699 -0.44383835042080372 0 -0.26195227942346833 -0.45924540724590007 0 -0.26195227942346833 -0.45924540724590007 0 -0.2452496448979663 -0.47006360154846771 0 -0.28251723092483499 -0.45085121191631589 0 -0.27446920378912421 -0.47260099400954342 0 -0.27742868868105042 -0.44922143155519972 0 -0.28251723092483499 -0.45085121191631589 0 -0.27446920378912421 -0.47260099400954342 0 -0.26195227942346833 -0.45924540724590007 0 -0.27742868868105042 -0.44922143155519972 0 -0.27446920378912421 -0.47260099400954342 0 -0.26195227942346833 -0.45924540724590007 0 -0.27742868868105042 -0.44922143155519972 0 -0.26811582188462768 -0.4322800320455647 0 -0.26195227942346833 -0.45924540724590007 0 -0.27654124398938368 -0.44039164248994689 0 -0.26195227942346833 -0.45924540724590007 0 -0.27742868868105042 -0.44922143155519972 0 -0.27654124398938368 -0.44039164248994689 0 -0.27924634423751882 -0.43231963276243301 0 -0.27654124398938368 -0.44039164248994689 0 -0.28534916759849049 -0.44319790701125139 0 -0.27742868868105042 -0.44922143155519972 0 -0.27654124398938368 -0.44039164248994689 0 -0.28534916759849049 -0.44319790701125139 0 -0.28534916759849049 -0.44319790701125139 0 -0.28251723092483499 -0.45085121191631589 0 -0.30348617896306168 -0.44716981502760061 0 -0.28251723092483499 -0.45085121191631589 0 -0.29513174497006378 -0.45696682627136598 0 -0.30348617896306168 -0.44716981502760061 0 -0.29056525806054567 -0.4291014298230883 0 -0.28534916759849049 -0.44319790701125139 0 -0.30348617896306168 -0.44716981502760061 0 -0.27742868868105042 -0.44922143155519972 0 -0.28534916759849049 -0.44319790701125139 0 -0.28251723092483499 -0.45085121191631589 0 -0.28534916759849049 -0.44319790701125139 0 -0.28251723092483499 -0.45085121191631589 0 -0.28251723092483499 -0.45085121191631589 0 -0.28966425792716088 -0.4674824240503635 0 -0.27446920378912421 -0.47260099400954342 0 -0.28251723092483499 -0.45085121191631589 0 -0.28966425792716088 -0.4674824240503635 0 -0.29513174497006378 -0.45696682627136598 0 -0.28966425792716088 -0.4674824240503635 0 -0.29513174497006378 -0.45696682627136598 0 -0.30485931206519779 -0.46236385409118391 0 -0.29513174497006378 -0.45696682627136598 0 -0.30485931206519779 -0.46236385409118391 0 -0.30348617896306168 -0.44716981502760061 0 -0.28966425792716088 -0.4674824240503635 0 -0.30485931206519779 -0.46236385409118391 0 -0.30485931206519779 -0.46236385409118391 0 -0.31249599199218292 -0.45616249331809411 0 -0.30348617896306168 -0.44716981502760061 0 -0.31850150104480851 -0.44913504478441169 0 -0.31249599199218292 -0.45616249331809411 0 -0.30348617896306168 -0.44716981502760061 0 -0.31678777868173441 -0.43836023175093752 0 -0.30656827729091157 -0.43244640560542907 0 -0.30348617896306168 -0.44716981502760061 0 -0.31203003616656427 -0.5 0 -0.30055663252922388 -0.4784848581388304 0 -0.28662431939014549 -0.48357142632110439 0 -0.31253971170819173 -0.48078640309266207 0 -0.31203003616656427 -0.5 0 -0.30055663252922388 -0.4784848581388304 0 -0.31253971170819173 -0.48078640309266207 0 -0.30485931206519779 -0.46236385409118391 0 -0.30055663252922388 -0.4784848581388304 0 -0.28966425792716088 -0.4674824240503635 0 -0.30485931206519779 -0.46236385409118391 0 -0.30055663252922388 -0.4784848581388304 0 -0.28966425792716088 -0.4674824240503635 0 -0.28662431939014549 -0.48357142632110439 0 -0.27446920378912421 -0.47260099400954342 0 -0.28966425792716088 -0.4674824240503635 0 -0.30055663252922388 -0.4784848581388304 0 -0.28662431939014549 -0.48357142632110439 0 -0.28966425792716088 -0.4674824240503635 0 -0.27446920378912421 -0.47260099400954342 0 -0.31203003616656427 -0.5 0 -0.28662431939014549 -0.48357142632110439 0 -0.28233346879456772 -0.5 0 -0.28233346879456772 -0.5 0 -0.27025592863155201 -0.48398736423801791 0 -0.252636901422571 -0.49999999999999989 0 -0.28662431939014549 -0.48357142632110439 0 -0.28233346879456772 -0.5 0 -0.27025592863155201 -0.48398736423801791 0 -0.27446920378912421 -0.47260099400954342 0 -0.25760075004302002 -0.47828326139853922 0 -0.27446920378912421 -0.47260099400954342 0 -0.27025592863155201 -0.48398736423801791 0 -0.25760075004302002 -0.47828326139853922 0 -0.28662431939014549 -0.48357142632110439 0 -0.27446920378912421 -0.47260099400954342 0 -0.27025592863155201 -0.48398736423801791 0 -0.27446920378912421 -0.47260099400954342 0 -0.27025592863155201 -0.48398736423801791 0 -0.26195227942346833 -0.45924540724590007 0 -0.27446920378912421 -0.47260099400954342 0 -0.25760075004302002 -0.47828326139853922 0 -0.26195227942346833 -0.45924540724590007 0 -0.25760075004302002 -0.47828326139853922 0 -0.26195227942346833 -0.45924540724590007 0 -0.25760075004302002 -0.47828326139853922 0 -0.2452496448979663 -0.47006360154846771 0 -0.25760075004302002 -0.47828326139853922 0 -0.24748601426825689 -0.48169048734268638 0 -0.2452496448979663 -0.47006360154846771 0 -0.25760075004302002 -0.47828326139853922 0 -0.24748601426825689 -0.48169048734268638 0 -0.27025592863155201 -0.48398736423801791 0 -0.25760075004302002 -0.47828326139853922 0 -0.252636901422571 -0.49999999999999989 0 -0.252636901422571 -0.49999999999999989 0 -0.25100775121625468 -0.49999999999999528 0 -0.24748601426825689 -0.48169048734268638 0 -0.25760075004302002 -0.47828326139853922 0 -0.252636901422571 -0.49999999999999989 0 -0.24748601426825689 -0.48169048734268638 0 -0.25760075004302002 -0.47828326139853922 0 -0.252636901422571 -0.49999999999999989 0 -0.24748601426825689 -0.48169048734268638 0 -0.2282444056986582 -0.48817217004653529 0 -0.25100775121625468 -0.49999999999999528 0 -0.24038731861822091 -0.49241849357716472 0 -0.2299949003212419 -0.5 0 -0.24038731861822091 -0.49241849357716472 0 -0.24748601426825689 -0.48169048734268638 0 -0.2282444056986582 -0.48817217004653529 0 -0.25100775121625468 -0.49999999999999528 0 -0.24748601426825689 -0.48169048734268638 0 -0.25100775121625468 -0.49999999999999528 0 -0.24038731861822091 -0.49241849357716472 0 -0.24748601426825689 -0.48169048734268638 0 -0.24748601426825689 -0.48169048734268638 0 -0.2452496448979663 -0.47006360154846771 0 -0.22638970887156809 -0.48227906684858968 0 -0.2452496448979663 -0.47006360154846771 0 -0.22638970887156809 -0.48227906684858968 0 -0.24748601426825689 -0.48169048734268638 0 -0.2452496448979663 -0.47006360154846771 0 -0.24748601426825689 -0.48169048734268638 0 -0.22638970887156809 -0.48227906684858968 0 -0.2282444056986582 -0.48817217004653529 0 -0.2452496448979663 -0.47006360154846771 0 -0.22638970887156809 -0.48227906684858968 0 -0.2273916416632335 -0.46059091063869267 0 -0.21997971150395751 -0.49543877765749628 0 -0.2282444056986582 -0.48817217004653529 0 -0.209002797129061 -0.49465385275038892 0 -0.21997971150395751 -0.49543877765749628 0 -0.2299949003212419 -0.5 0 -0.208982049426229 -0.50000000000000355 0 -0.22638970887156809 -0.48227906684858968 0 -0.2282444056986582 -0.48817217004653529 0 -0.209002797129061 -0.49465385275038892 0 -0.21997971150395751 -0.49543877765749628 0 -0.22646295436756261 -0.49447927098431149 0 -0.2282444056986582 -0.48817217004653529 0 -0.21997971150395751 -0.49543877765749628 0 -0.22646295436756261 -0.49447927098431149 0 -0.2299949003212419 -0.5 0 -0.22646295436756261 -0.49447927098431149 0 -0.2299949003212419 -0.5 0 -0.23127239475142089 -0.4937674836520029 0 -0.24038731861822091 -0.49241849357716472 0 -0.2299949003212419 -0.5 0 -0.23127239475142089 -0.4937674836520029 0 -0.24038731861822091 -0.49241849357716472 0 -0.23127239475142089 -0.4937674836520029 0 -0.2282444056986582 -0.48817217004653529 0 -0.22646295436756261 -0.49447927098431149 0 -0.23127239475142089 -0.4937674836520029 0 -0.2282444056986582 -0.48817217004653529 0 -0.2452496448979663 -0.47006360154846771 0 -0.2403206514339086 -0.44443776135919028 0 -0.2452496448979663 -0.47006360154846771 0 -0.2403206514339086 -0.44443776135919028 0 -0.2273916416632335 -0.46059091063869267 0 -0.26195227942346833 -0.45924540724590007 0 -0.2452496448979663 -0.47006360154846771 0 -0.2403206514339086 -0.44443776135919028 0 -0.22638970887156809 -0.48227906684858968 0 -0.2273916416632335 -0.46059091063869267 0 -0.21358204474534301 -0.46318994273179342 0 -0.2403206514339086 -0.44443776135919028 0 -0.21507164530136891 -0.44475421719515418 0 -0.22271589348175369 -0.43034426812875881 0 -0.2403206514339086 -0.44443776135919028 0 -0.2273916416632335 -0.46059091063869267 0 -0.21507164530136891 -0.44475421719515418 0 -0.21507164530136891 -0.44475421719515418 0 -0.19686156097863591 -0.45405216860144532 0 -0.20030633205524989 -0.43436801131330288 0 -0.21507164530136891 -0.44475421719515418 0 -0.21358204474534301 -0.46318994273179342 0 -0.19686156097863591 -0.45405216860144532 0 -0.21358204474534301 -0.46318994273179342 0 -0.19686156097863591 -0.45405216860144532 0 -0.2021956669119086 -0.47427335037508522 0 -0.2273916416632335 -0.46059091063869267 0 -0.21507164530136891 -0.44475421719515418 0 -0.21358204474534301 -0.46318994273179342 0 -0.19686156097863591 -0.45405216860144532 0 -0.2021956669119086 -0.47427335037508522 0 -0.17947637882829609 -0.47606307703603878 0 -0.19686156097863591 -0.45405216860144532 0 -0.2021956669119086 -0.47427335037508522 0 -0.19686156097863591 -0.45405216860144532 0 -0.20030633205524989 -0.43436801131330288 0 -0.19152745504536101 -0.43383098682780591 0 -0.19686156097863591 -0.45405216860144532 0 -0.1756956179223696 -0.45313983716461448 0 -0.19152745504536101 -0.43383098682780591 0 -0.19686156097863591 -0.45405216860144532 0 -0.19152745504536101 -0.43383098682780591 0 -0.22638970887156809 -0.48227906684858968 0 -0.209002797129061 -0.49465385275038892 0 -0.20752977284517909 -0.49449453214872569 0 -0.2282444056986582 -0.48817217004653529 0 -0.209002797129061 -0.49465385275038892 0 -0.22638970887156809 -0.48227906684858968 0 -0.20752977284517909 -0.49449453214872569 0 -0.20752977284517909 -0.49449453214872569 0 -0.2021956669119086 -0.47427335037508522 0 -0.208982049426229 -0.50000000000000355 0 -0.209002797129061 -0.49465385275038892 0 -0.20752977284517909 -0.49449453214872569 0 -0.208982049426229 -0.50000000000000355 0 -0.20752977284517909 -0.49449453214872569 0 -0.21997971150395751 -0.49543877765749628 0 -0.208982049426229 -0.50000000000000355 0 -0.209002797129061 -0.49465385275038892 0 -0.22638970887156809 -0.48227906684858968 0 -0.20752977284517909 -0.49449453214872569 0 -0.2021956669119086 -0.47427335037508522 0 -0.22638970887156809 -0.48227906684858968 0 -0.21358204474534301 -0.46318994273179342 0 -0.2021956669119086 -0.47427335037508522 0 -0.2021956669119086 -0.47427335037508522 0 -0.19582083789867419 -0.48804608107840303 0 -0.17947637882829609 -0.47606307703603878 0 -0.208982049426229 -0.50000000000000355 0 -0.20752977284517909 -0.49449453214872569 0 -0.18376972979375211 -0.5 0 -0.20752977284517909 -0.49449453214872569 0 -0.19582083789867419 -0.48804608107840303 0 -0.18376972979375211 -0.5 0 -0.20752977284517909 -0.49449453214872569 0 -0.2021956669119086 -0.47427335037508522 0 -0.19582083789867419 -0.48804608107840303 0 -0.18376972979375211 -0.5 0 -0.1618471422416734 -0.48253188554014242 0 -0.17947637882829609 -0.47606307703603878 0 -0.19582083789867419 -0.48804608107840303 0 -0.18376972979375211 -0.5 0 -0.17947637882829609 -0.47606307703603878 0 -0.18376972979375211 -0.5 0 -0.15855741016127509 -0.5 0 -0.1618471422416734 -0.48253188554014242 0 -0.1618471422416734 -0.48253188554014242 0 -0.17947637882829609 -0.47606307703603878 0 -0.1584323046218086 -0.46452351947720377 0 -0.19686156097863591 -0.45405216860144532 0 -0.17947637882829609 -0.47606307703603878 0 -0.1756956179223696 -0.45313983716461448 0 -0.1756956179223696 -0.45313983716461448 0 -0.17068268333244119 -0.43255586327935991 0 -0.19152745504536101 -0.43383098682780591 0 -0.1756956179223696 -0.45313983716461448 0 -0.15938607793349471 -0.44620939260152609 0 -0.17068268333244119 -0.43255586327935991 0 -0.1756956179223696 -0.45313983716461448 0 -0.15938607793349471 -0.44620939260152609 0 -0.1584323046218086 -0.46452351947720377 0 -0.17947637882829609 -0.47606307703603878 0 -0.1756956179223696 -0.45313983716461448 0 -0.1584323046218086 -0.46452351947720377 0 -0.15938607793349471 -0.44620939260152609 0 -0.1584323046218086 -0.46452351947720377 0 -0.14118977906428781 -0.45025768721690529 0 -0.1584323046218086 -0.46452351947720377 0 -0.14118977906428781 -0.45025768721690529 0 -0.14066360552603391 -0.47612691614253783 0 -0.15938607793349471 -0.44620939260152609 0 -0.14118977906428781 -0.45025768721690529 0 -0.14983791161952181 -0.43128073973090658 0 -0.14118977906428781 -0.45025768721690529 0 -0.12899313990660249 -0.43000561618245092 0 -0.11363557702568269 -0.45333707745496737 0 -0.14118977906428781 -0.45025768721690529 0 -0.14066360552603391 -0.47612691614253783 0 -0.11363557702568269 -0.45333707745496737 0 -0.1333450905287982 -0.5 0 -0.14066360552603391 -0.47612691614253783 0 -0.11794329649893839 -0.48197487990695581 0 -0.15855741016127509 -0.5 0 -0.1333450905287982 -0.5 0 -0.14066360552603391 -0.47612691614253783 0 -0.15855741016127509 -0.5 0 -0.1618471422416734 -0.48253188554014242 0 -0.14066360552603391 -0.47612691614253783 0 -0.1618471422416734 -0.48253188554014242 0 -0.1584323046218086 -0.46452351947720377 0 -0.14066360552603391 -0.47612691614253783 0 -0.14918098417055611 -0.39933591225401699 0 -0.1450836739202539 -0.38146578034887879 0 -0.13156764266953189 -0.39419180846104918 0 -0.14918098417055611 -0.39933591225401699 0 -0.1450836739202539 -0.38146578034887879 0 -0.16617915400390579 -0.38893621782499188 0 -0.1450836739202539 -0.38146578034887879 0 -0.12985547058759039 -0.38221115646869708 0 -0.13156764266953189 -0.39419180846104918 0 -0.12985547058759039 -0.38221115646869708 0 -0.13156764266953189 -0.39419180846104918 0 -0.11447303716370121 -0.38805330211236078 0 -0.1450836739202539 -0.38146578034887879 0 -0.12985547058759039 -0.38221115646869708 0 -0.13270532185108841 -0.36987828221726371 0 -0.12985547058759039 -0.38221115646869708 0 -0.13270532185108841 -0.36987828221726371 0 -0.12093249032275399 -0.37630073243888962 0 -0.14918098417055611 -0.39933591225401699 0 -0.13156764266953189 -0.39419180846104918 0 -0.13094498148683609 -0.40599212159877102 0 -0.13156764266953189 -0.39419180846104918 0 -0.13094498148683609 -0.40599212159877102 0 -0.1204832726865103 -0.40099454946493029 0 -0.14918098417055611 -0.39933591225401699 0 -0.13094498148683609 -0.40599212159877102 0 -0.13908706203857879 -0.41467076421823351 0 -0.13094498148683609 -0.40599212159877102 0 -0.12604238146509139 -0.41885400096579239 0 -0.13908706203857879 -0.41467076421823351 0 -0.13094498148683609 -0.40599212159877102 0 -0.12604238146509139 -0.41885400096579239 0 -0.11968978679134649 -0.41107029338891687 0 -0.12604238146509139 -0.41885400096579239 0 -0.13908706203857879 -0.41467076421823351 0 -0.12899313990660249 -0.43000561618245092 0 -0.12899313990660249 -0.43000561618245092 0 -0.14983791161952181 -0.43128073973090658 0 -0.14118977906428781 -0.45025768721690529 0 -0.12899313990660249 -0.43000561618245092 0 -0.14983791161952181 -0.43128073973090658 0 -0.13908706203857879 -0.41467076421823351 0 -0.12899313990660249 -0.43000561618245092 0 -0.14983791161952181 -0.43128073973090658 0 -0.12899313990660249 -0.43000561618245092 0 -0.1237441851603739 -0.42968452531641471 0 -0.12604238146509139 -0.41885400096579239 0 -0.12899313990660249 -0.43000561618245092 0 -0.1237441851603739 -0.42968452531641471 0 -0.13908706203857879 -0.41467076421823351 0 -0.12899313990660249 -0.43000561618245092 0 -0.13908706203857879 -0.41467076421823351 0 -0.14983791161952181 -0.43128073973090658 0 -0.15464413834413571 -0.41742983927333072 0 -0.14918098417055611 -0.39933591225401699 0 -0.13908706203857879 -0.41467076421823351 0 -0.15464413834413571 -0.41742983927333072 0 -0.14918098417055611 -0.39933591225401699 0 -0.13908706203857879 -0.41467076421823351 0 -0.15464413834413571 -0.41742983927333072 0 -0.16804827216196361 -0.40905368322052482 0 -0.17068268333244119 -0.43255586327935991 0 -0.14918098417055611 -0.39933591225401699 0 -0.15464413834413571 -0.41742983927333072 0 -0.16804827216196361 -0.40905368322052482 0 -0.15938607793349471 -0.44620939260152609 0 -0.14983791161952181 -0.43128073973090658 0 -0.17068268333244119 -0.43255586327935991 0 -0.14983791161952181 -0.43128073973090658 0 -0.17068268333244119 -0.43255586327935991 0 -0.14983791161952181 -0.43128073973090658 0 -0.15464413834413571 -0.41742983927333072 0 -0.17068268333244119 -0.43255586327935991 0 -0.17068268333244119 -0.43255586327935991 0 -0.19152745504536101 -0.43383098682780591 0 -0.17068268333244119 -0.43255586327935991 0 -0.1869794129890992 -0.41658971222914948 0 -0.19152745504536101 -0.43383098682780591 0 -0.1869794129890992 -0.41658971222914948 0 -0.18243137093283521 -0.39934843763049382 0 -0.16804827216196361 -0.40905368322052482 0 -0.17068268333244119 -0.43255586327935991 0 -0.1869794129890992 -0.41658971222914948 0 -0.16804827216196361 -0.40905368322052482 0 -0.1869794129890992 -0.41658971222914948 0 -0.18243137093283521 -0.39934843763049382 0 -0.16804827216196361 -0.40905368322052482 0 -0.18243137093283521 -0.39934843763049382 0 -0.16617915400390579 -0.38893621782499188 0 -0.18243137093283521 -0.39934843763049382 0 -0.16617915400390579 -0.38893621782499188 0 -0.1882485337792571 -0.38577168791960781 0 -0.14918098417055611 -0.39933591225401699 0 -0.16804827216196361 -0.40905368322052482 0 -0.16617915400390579 -0.38893621782499188 0 -0.16617915400390579 -0.38893621782499188 0 -0.15841537024425509 -0.36855882599209278 0 -0.17248245143377669 -0.3747837348953118 0 -0.1450836739202539 -0.38146578034887879 0 -0.16617915400390579 -0.38893621782499188 0 -0.15841537024425509 -0.36855882599209278 0 -0.16617915400390579 -0.38893621782499188 0 -0.1882485337792571 -0.38577168791960781 0 -0.17248245143377669 -0.3747837348953118 0 -0.1882485337792571 -0.38577168791960781 0 -0.17248245143377669 -0.3747837348953118 0 -0.18493513207215029 -0.37123071705684929 0 -0.1882485337792571 -0.38577168791960781 0 -0.204835820648987 -0.38936949461208792 0 -0.20453734078969599 -0.37087534012515561 0 -0.1882485337792571 -0.38577168791960781 0 -0.20453734078969599 -0.37087534012515561 0 -0.18493513207215029 -0.37123071705684929 0 -0.18243137093283521 -0.39934843763049382 0 -0.1882485337792571 -0.38577168791960781 0 -0.1976400024637687 -0.40313487076280757 0 -0.1882485337792571 -0.38577168791960781 0 -0.1976400024637687 -0.40313487076280757 0 -0.204835820648987 -0.38936949461208792 0 -0.1976400024637687 -0.40313487076280757 0 -0.21313158075568811 -0.40090467750516129 0 -0.204835820648987 -0.38936949461208792 0 -0.1976400024637687 -0.40313487076280757 0 -0.21313158075568811 -0.40090467750516129 0 -0.20888203033879779 -0.41405532671328249 0 -0.21313158075568811 -0.40090467750516129 0 -0.21835330676092871 -0.38877122119239682 0 -0.204835820648987 -0.38936949461208792 0 -0.21835330676092871 -0.38877122119239682 0 -0.2265441112129572 -0.37281351989140432 0 -0.20453734078969599 -0.37087534012515561 0 -0.21835330676092871 -0.38877122119239682 0 -0.204835820648987 -0.38936949461208792 0 -0.20453734078969599 -0.37087534012515561 0 -0.1869794129890992 -0.41658971222914948 0 -0.19152745504536101 -0.43383098682780591 0 -0.19935974559713199 -0.42300257050879919 0 -0.1869794129890992 -0.41658971222914948 0 -0.19152745504536101 -0.43383098682780591 0 -0.20030633205524989 -0.43436801131330288 0 -0.19152745504536101 -0.43383098682780591 0 -0.19935974559713199 -0.42300257050879919 0 -0.20030633205524989 -0.43436801131330288 0 -0.19152745504536101 -0.43383098682780591 0 -0.1869794129890992 -0.41658971222914948 0 -0.18243137093283521 -0.39934843763049382 0 -0.1976400024637687 -0.40313487076280757 0 -0.19935974559713199 -0.42300257050879919 0 -0.19821529784719941 -0.41419562005350968 0 -0.20888203033879779 -0.41405532671328249 0 -0.1869794129890992 -0.41658971222914948 0 -0.19935974559713199 -0.42300257050879919 0 -0.19821529784719941 -0.41419562005350968 0 -0.1869794129890992 -0.41658971222914948 0 -0.1976400024637687 -0.40313487076280757 0 -0.19821529784719941 -0.41419562005350968 0 -0.1976400024637687 -0.40313487076280757 0 -0.19821529784719941 -0.41419562005350968 0 -0.20888203033879779 -0.41405532671328249 0 -0.21313158075568811 -0.40090467750516129 0 -0.20888203033879779 -0.41405532671328249 0 -0.22166545647152541 -0.41477792313803807 0 -0.20888203033879779 -0.41405532671328249 0 -0.21062146468177639 -0.42686837700205332 0 -0.22166545647152541 -0.41477792313803807 0 -0.19935974559713199 -0.42300257050879919 0 -0.20888203033879779 -0.41405532671328249 0 -0.21062146468177639 -0.42686837700205332 0 -0.21507164530136891 -0.44475421719515418 0 -0.21062146468177639 -0.42686837700205332 0 -0.22271589348175369 -0.43034426812875881 0 -0.21507164530136891 -0.44475421719515418 0 -0.20030633205524989 -0.43436801131330288 0 -0.21062146468177639 -0.42686837700205332 0 -0.20030633205524989 -0.43436801131330288 0 -0.19935974559713199 -0.42300257050879919 0 -0.21062146468177639 -0.42686837700205332 0 -0.21062146468177639 -0.42686837700205332 0 -0.22271589348175369 -0.43034426812875881 0 -0.22166545647152541 -0.41477792313803807 0 -0.2403206514339086 -0.44443776135919028 0 -0.22271589348175369 -0.43034426812875881 0 -0.2353916579698449 -0.41881192116991389 0 -0.22166545647152541 -0.41477792313803807 0 -0.2353916579698449 -0.41881192116991389 0 -0.22719945433311969 -0.40178260350599848 0 -0.22271589348175369 -0.43034426812875881 0 -0.22166545647152541 -0.41477792313803807 0 -0.2353916579698449 -0.41881192116991389 0 -0.25576693522964739 -0.40915399643003719 0 -0.2353916579698449 -0.41881192116991389 0 -0.24679370824547431 -0.39660219129778729 0 -0.25576693522964739 -0.40915399643003719 0 -0.25378751279796252 -0.42777966276414292 0 -0.2353916579698449 -0.41881192116991389 0 -0.25378751279796252 -0.42777966276414292 0 -0.2403206514339086 -0.44443776135919028 0 -0.2353916579698449 -0.41881192116991389 0 -0.2403206514339086 -0.44443776135919028 0 -0.2353916579698449 -0.41881192116991389 0 -0.21835330676092871 -0.38877122119239682 0 -0.23046266450577971 -0.39318608098063801 0 -0.2265441112129572 -0.37281351989140432 0 -0.23046266450577971 -0.39318608098063801 0 -0.2265441112129572 -0.37281351989140432 0 -0.23046266450577971 -0.39318608098063801 0 -0.23725575419103509 -0.36759998283563622 0 -0.2265441112129572 -0.37281351989140432 0 -0.21313158075568811 -0.40090467750516129 0 -0.21835330676092871 -0.38877122119239682 0 -0.22719945433311969 -0.40178260350599848 0 -0.2353916579698449 -0.41881192116991389 0 -0.23046266450577971 -0.39318608098063801 0 -0.2353916579698449 -0.41881192116991389 0 -0.22719945433311969 -0.40178260350599848 0 -0.23046266450577971 -0.39318608098063801 0 -0.21835330676092871 -0.38877122119239682 0 -0.22719945433311969 -0.40178260350599848 0 -0.23046266450577971 -0.39318608098063801 0 -0.21313158075568811 -0.40090467750516129 0 -0.22166545647152541 -0.41477792313803807 0 -0.22719945433311969 -0.40178260350599848 0 -0.22719945433311969 -0.40178260350599848 0 -0.23046266450577971 -0.39318608098063801 0 -0.2353916579698449 -0.41881192116991389 0 -0.23046266450577971 -0.39318608098063801 0 -0.24679370824547431 -0.39660219129778729 0 -0.23046266450577971 -0.39318608098063801 0 -0.244747899488584 -0.38057329054419903 0 -0.2410593474444202 -0.3652704338858237 0 -0.23046266450577971 -0.39318608098063801 0 -0.2410593474444202 -0.3652704338858237 0 -0.23725575419103509 -0.36759998283563622 0 -0.2592047447232026 -0.38680084736461973 0 -0.244747899488584 -0.38057329054419903 0 -0.2460023022026411 -0.36224307152110841 0 -0.23046266450577971 -0.39318608098063801 0 -0.2410593474444202 -0.3652704338858237 0 -0.23046266450577971 -0.39318608098063801 0 -0.24679370824547431 -0.39660219129778729 0 -0.244747899488584 -0.38057329054419903 0 -0.244747899488584 -0.38057329054419903 0 -0.2460023022026411 -0.36224307152110841 0 -0.2410593474444202 -0.3652704338858237 0 -0.2460023022026411 -0.36224307152110841 0 -0.2410593474444202 -0.3652704338858237 0 -0.2460023022026411 -0.36224307152110841 0 -0.2410593474444202 -0.3652704338858237 0 -0.24377862724592991 -0.35810682846981901 0 -0.2410593474444202 -0.3652704338858237 0 -0.24377862724592991 -0.35810682846981901 0 -0.2460023022026411 -0.36224307152110841 0 -0.24377862724592991 -0.35810682846981901 0 -0.2410593474444202 -0.3652704338858237 0 -0.23725575419103509 -0.36759998283563622 0 -0.23701736817527641 -0.35569496724222521 0 -0.2410593474444202 -0.3652704338858237 0 -0.23701736817527641 -0.35569496724222521 0 -0.24377862724592991 -0.35810682846981901 0 -0.2410593474444202 -0.3652704338858237 0 -0.23725575419103509 -0.36759998283563622 0 -0.2265441112129572 -0.37281351989140432 0 -0.22262555792013411 -0.35244095880217091 0 -0.23725575419103509 -0.36759998283563622 0 -0.2265441112129572 -0.37281351989140432 0 -0.22262555792013411 -0.35244095880217091 0 -0.22262555792013411 -0.35244095880217091 0 -0.23701736817527641 -0.35569496724222521 0 -0.23336514533586669 -0.33873677977621192 0 -0.22262555792013411 -0.35244095880217091 0 -0.23701736817527641 -0.35569496724222521 0 -0.23725575419103509 -0.36759998283563622 0 -0.22262555792013411 -0.35244095880217091 0 -0.23701736817527641 -0.35569496724222521 0 -0.23701736817527641 -0.35569496724222521 0 -0.24377862724592991 -0.35810682846981901 0 -0.23336514533586669 -0.33873677977621192 0 -0.25299703868895912 -0.33382206670913711 0 -0.24377862724592991 -0.35810682846981901 0 -0.24377862724592991 -0.35810682846981901 0 -0.23336514533586669 -0.33873677977621192 0 -0.25299703868895912 -0.33382206670913711 0 -0.24377862724592991 -0.35810682846981901 0 -0.23336514533586669 -0.33873677977621192 0 -0.25299703868895912 -0.33382206670913711 0 -0.22763203278919261 -0.32231407282005331 0 -0.23336514533586669 -0.33873677977621192 0 -0.24360540713082579 -0.32081459247988048 0 -0.23555629798485059 -0.31605184782680512 0 -0.22763203278919261 -0.32231407282005331 0 -0.25299703868895912 -0.33382206670913711 0 -0.24360540713082579 -0.32081459247988048 0 -0.22763203278919261 -0.32231407282005331 0 -0.25299703868895912 -0.33382206670913711 0 -0.22763203278919261 -0.32231407282005331 0 -0.24360540713082579 -0.32081459247988048 0 -0.23555629798485059 -0.31605184782680512 0 -0.24154087261896171 -0.30509679822178848 0 -0.22763203278919261 -0.32231407282005331 0 -0.22295166342580261 -0.31936673108260522 0 -0.23336514533586669 -0.33873677977621192 0 -0.22763203278919261 -0.32231407282005331 0 -0.22295166342580261 -0.31936673108260522 0 -0.22975603219394361 -0.31151916599568602 0 -0.23555629798485059 -0.31605184782680512 0 -0.22763203278919261 -0.32231407282005331 0 -0.22975603219394361 -0.31151916599568602 0 -0.22653528170768869 -0.32787483719069771 0 -0.2178222453206749 -0.32746853350879251 0 -0.22653528170768869 -0.32787483719069771 0 -0.22295166342580261 -0.31936673108260522 0 -0.2178222453206749 -0.32746853350879251 0 -0.22653528170768869 -0.32787483719069771 0 -0.22295166342580261 -0.31936673108260522 0 -0.23336514533586669 -0.33873677977621192 0 -0.22262555792013411 -0.35244095880217091 0 -0.23336514533586669 -0.33873677977621192 0 -0.2178222453206749 -0.32746853350879251 0 -0.22295166342580261 -0.31936673108260522 0 -0.23336514533586669 -0.33873677977621192 0 -0.22262555792013411 -0.35244095880217091 0 -0.2178222453206749 -0.32746853350879251 0 -0.22653528170768869 -0.32787483719069771 0 -0.23336514533586669 -0.33873677977621192 0 -0.2178222453206749 -0.32746853350879251 0 -0.22262555792013411 -0.35244095880217091 0 -0.2178222453206749 -0.32746853350879251 0 -0.19957745336066909 -0.3472297501054073 0 -0.2178222453206749 -0.32746853350879251 0 -0.21253818151573889 -0.29999668238899851 0 -0.2178222453206749 -0.32746853350879251 0 -0.21253818151573889 -0.29999668238899851 0 -0.1980494735725207 -0.31098446202146568 0 -0.22295166342580261 -0.31936673108260522 0 -0.2178222453206749 -0.32746853350879251 0 -0.21253818151573889 -0.29999668238899851 0 -0.2178222453206749 -0.32746853350879251 0 -0.1887374245133322 -0.32611225892704121 0 -0.1887374245133322 -0.32611225892704121 0 -0.1980494735725207 -0.31098446202146568 0 -0.18177076353132871 -0.31151253466574502 0 -0.2178222453206749 -0.32746853350879251 0 -0.1887374245133322 -0.32611225892704121 0 -0.1980494735725207 -0.31098446202146568 0 -0.2178222453206749 -0.32746853350879251 0 -0.1887374245133322 -0.32611225892704121 0 -0.19957745336066909 -0.3472297501054073 0 -0.1887374245133322 -0.32611225892704121 0 -0.19957745336066909 -0.3472297501054073 0 -0.17652934880120411 -0.34201854140864407 0 -0.19957745336066909 -0.3472297501054073 0 -0.18884343381515531 -0.35838521860273581 0 -0.17652934880120411 -0.34201854140864407 0 -0.19957745336066909 -0.3472297501054073 0 -0.18884343381515531 -0.35838521860273581 0 -0.20453734078969599 -0.37087534012515561 0 -0.19957745336066909 -0.3472297501054073 0 -0.17652934880120411 -0.34201854140864407 0 -0.18884343381515531 -0.35838521860273581 0 -0.20453734078969599 -0.37087534012515561 0 -0.18493513207215029 -0.37123071705684929 0 -0.2265441112129572 -0.37281351989140432 0 -0.22262555792013411 -0.35244095880217091 0 -0.20453734078969599 -0.37087534012515561 0 -0.22262555792013411 -0.35244095880217091 0 -0.19957745336066909 -0.3472297501054073 0 -0.22262555792013411 -0.35244095880217091 0 -0.19957745336066909 -0.3472297501054073 0 -0.20453734078969599 -0.37087534012515561 0 -0.22641788391325321 -0.26609482917591371 0 -0.2305738397104786 -0.23852602789213109 0 -0.22641788391325321 -0.26609482917591371 0 -0.21660475357700959 -0.25507434199911633 0 -0.2305738397104786 -0.23852602789213109 0 -0.2399648233912737 -0.2555988223921688 0 -0.22641788391325321 -0.26609482917591371 0 -0.2305738397104786 -0.23852602789213109 0 -0.2399648233912737 -0.2555988223921688 0 -0.24478160024726039 -0.27126628069458419 0 -0.22641788391325321 -0.26609482917591371 0 -0.25299644359707452 -0.25851950246286298 0 -0.2399648233912737 -0.2555988223921688 0 -0.24478160024726039 -0.27126628069458419 0 -0.25299644359707452 -0.25851950246286298 0 -0.2399648233912737 -0.2555988223921688 0 -0.24456523742333311 -0.24298281553316639 0 -0.24478160024726039 -0.27126628069458419 0 -0.22641788391325321 -0.26609482917591371 0 -0.2353388535850495 -0.28166023015784952 0 -0.24478160024726039 -0.27126628069458419 0 -0.2353388535850495 -0.28166023015784952 0 -0.24704595407450111 -0.28488916192179159 0 -0.25500366536127361 -0.28040897753500388 0 -0.24478160024726039 -0.27126628069458419 0 -0.24704595407450111 -0.28488916192179159 0 -0.22641788391325321 -0.26609482917591371 0 -0.2222619281160278 -0.29366363045969618 0 -0.2353388535850495 -0.28166023015784952 0 -0.22641788391325321 -0.26609482917591371 0 -0.2222619281160278 -0.29366363045969618 0 -0.20757961293226121 -0.27421708113486842 0 -0.22641788391325321 -0.26609482917591371 0 -0.2222619281160278 -0.29366363045969618 0 -0.2222619281160278 -0.29366363045969618 0 -0.2353388535850495 -0.28166023015784952 0 -0.2361869015742048 -0.29238724853726161 0 -0.2222619281160278 -0.29366363045969618 0 -0.2361869015742048 -0.29238724853726161 0 -0.23017308610071671 -0.30104162483689773 0 -0.2353388535850495 -0.28166023015784952 0 -0.24704595407450111 -0.28488916192179159 0 -0.2361869015742048 -0.29238724853726161 0 -0.24704595407450111 -0.28488916192179159 0 -0.24416934174205759 -0.2941241400944194 0 -0.2361869015742048 -0.29238724853726161 0 -0.25150620891688957 -0.29671190529847857 0 -0.24704595407450111 -0.28488916192179159 0 -0.24416934174205759 -0.2941241400944194 0 -0.24416934174205759 -0.2941241400944194 0 -0.2361869015742048 -0.29238724853726161 0 -0.24154087261896171 -0.30509679822178848 0 -0.2361869015742048 -0.29238724853726161 0 -0.24154087261896171 -0.30509679822178848 0 -0.23017308610071671 -0.30104162483689773 0 -0.2631733871945095 -0.30701373855214081 0 -0.24360540713082579 -0.32081459247988048 0 -0.24154087261896171 -0.30509679822178848 0 -0.25150620891688957 -0.29671190529847857 0 -0.24416934174205759 -0.2941241400944194 0 -0.24154087261896171 -0.30509679822178848 0 -0.23555629798485059 -0.31605184782680512 0 -0.24154087261896171 -0.30509679822178848 0 -0.22975603219394361 -0.31151916599568602 0 -0.22975603219394361 -0.31151916599568602 0 -0.23017308610071671 -0.30104162483689773 0 -0.22353617827044581 -0.30511756695277681 0 -0.24154087261896171 -0.30509679822178848 0 -0.22975603219394361 -0.31151916599568602 0 -0.23017308610071671 -0.30104162483689773 0 -0.22295166342580261 -0.31936673108260522 0 -0.22353617827044581 -0.30511756695277681 0 -0.21253818151573889 -0.29999668238899851 0 -0.2222619281160278 -0.29366363045969618 0 -0.22353617827044581 -0.30511756695277681 0 -0.21253818151573889 -0.29999668238899851 0 -0.2222619281160278 -0.29366363045969618 0 -0.23017308610071671 -0.30104162483689773 0 -0.22353617827044581 -0.30511756695277681 0 -0.22295166342580261 -0.31936673108260522 0 -0.22975603219394361 -0.31151916599568602 0 -0.22353617827044581 -0.30511756695277681 0 -0.22295166342580261 -0.31936673108260522 0 -0.21253818151573889 -0.29999668238899851 0 -0.21253818151573889 -0.29999668238899851 0 -0.1980494735725207 -0.31098446202146568 0 -0.1991058216570358 -0.29646064652123671 0 -0.1980494735725207 -0.31098446202146568 0 -0.18489960599671551 -0.29644585272573842 0 -0.18177076353132871 -0.31151253466574502 0 -0.1980494735725207 -0.31098446202146568 0 -0.1991058216570358 -0.29646064652123671 0 -0.18489960599671551 -0.29644585272573842 0 -0.1991058216570358 -0.29646064652123671 0 -0.20093602554316869 -0.27841558894874391 0 -0.18489960599671551 -0.29644585272573842 0 -0.20093602554316869 -0.27841558894874391 0 -0.18034131060680519 -0.27542690187426289 0 -0.18489960599671551 -0.29644585272573842 0 -0.21253818151573889 -0.29999668238899851 0 -0.1991058216570358 -0.29646064652123671 0 -0.20093602554316869 -0.27841558894874391 0 -0.2222619281160278 -0.29366363045969618 0 -0.21253818151573889 -0.29999668238899851 0 -0.20757961293226121 -0.27421708113486842 0 -0.21253818151573889 -0.29999668238899851 0 -0.20757961293226121 -0.27421708113486842 0 -0.21253818151573889 -0.29999668238899851 0 -0.20093602554316869 -0.27841558894874391 0 -0.21253818151573889 -0.29999668238899851 0 -0.20757961293226121 -0.27421708113486842 0 -0.20093602554316869 -0.27841558894874391 0 -0.20093602554316869 -0.27841558894874391 0 -0.18933386957059889 -0.25683449550848919 0 -0.18034131060680519 -0.27542690187426289 0 -0.20093602554316869 -0.27841558894874391 0 -0.18933386957059889 -0.25683449550848919 0 -0.20757961293226121 -0.27421708113486842 0 -0.20093602554316869 -0.27841558894874391 0 -0.18933386957059889 -0.25683449550848919 0 -0.20757961293226121 -0.27421708113486842 0 -0.18933386957059889 -0.25683449550848919 0 -0.20262104434878389 -0.2484374798807383 0 -0.20757961293226121 -0.27421708113486842 0 -0.20488228512787229 -0.25223142847060898 0 -0.21660475357700959 -0.25507434199911633 0 -0.22641788391325321 -0.26609482917591371 0 -0.20757961293226121 -0.27421708113486842 0 -0.21660475357700959 -0.25507434199911633 0 -0.20488228512787229 -0.25223142847060898 0 -0.20262104434878389 -0.2484374798807383 0 -0.20757961293226121 -0.27421708113486842 0 -0.20262104434878389 -0.2484374798807383 0 -0.20757961293226121 -0.27421708113486842 0 -0.20488228512787229 -0.25223142847060898 0 -0.20262104434878389 -0.2484374798807383 0 -0.16905252216868019 -0.25613820074362248 0 -0.1627540001104664 -0.27268581766329619 0 -0.15408580470717839 -0.26129309964391018 0 -0.16905252216868019 -0.25613820074362248 0 -0.15408580470717839 -0.26129309964391018 0 -0.15770655761944219 -0.24753195129691111 0 -0.18933386957059889 -0.25683449550848919 0 -0.16905252216868019 -0.25613820074362248 0 -0.17240093000016751 -0.2399074743415513 0 -0.18933386957059889 -0.25683449550848919 0 -0.16905252216868019 -0.25613820074362248 0 -0.18034131060680519 -0.27542690187426289 0 -0.1627540001104664 -0.27268581766329619 0 -0.16461523481359691 -0.28916265523971618 0 -0.14567512825607129 -0.28140823081496941 0 -0.18034131060680519 -0.27542690187426289 0 -0.1627540001104664 -0.27268581766329619 0 -0.16461523481359691 -0.28916265523971618 0 -0.16905252216868019 -0.25613820074362248 0 -0.18034131060680519 -0.27542690187426289 0 -0.1627540001104664 -0.27268581766329619 0 -0.18034131060680519 -0.27542690187426289 0 -0.16461523481359691 -0.28916265523971618 0 -0.18489960599671551 -0.29644585272573842 0 -0.16461523481359691 -0.28916265523971618 0 -0.18489960599671551 -0.29644585272573842 0 -0.16735378367408971 -0.30552638687797939 0 -0.18489960599671551 -0.29644585272573842 0 -0.18177076353132871 -0.31151253466574502 0 -0.16735378367408971 -0.30552638687797939 0 -0.18177076353132871 -0.31151253466574502 0 -0.16735378367408971 -0.30552638687797939 0 -0.17086487573525061 -0.31615365639959681 0 -0.16735378367408971 -0.30552638687797939 0 -0.14734492975912539 -0.30278438059509921 0 -0.15680980325151259 -0.31286111718192833 0 -0.16461523481359691 -0.28916265523971618 0 -0.16735378367408971 -0.30552638687797939 0 -0.14734492975912539 -0.30278438059509921 0 -0.16735378367408971 -0.30552638687797939 0 -0.17086487573525061 -0.31615365639959681 0 -0.15680980325151259 -0.31286111718192833 0 -0.14734492975912539 -0.30278438059509921 0 -0.15680980325151259 -0.31286111718192833 0 -0.14535571492740251 -0.31517761073123379 0 -0.14734492975912539 -0.30278438059509921 0 -0.1324034550217382 -0.31208686177031281 0 -0.14535571492740251 -0.31517761073123379 0 -0.14734492975912539 -0.30278438059509921 0 -0.1324034550217382 -0.31208686177031281 0 -0.1240072126963065 -0.29805138080035298 0 -0.14567512825607129 -0.28140823081496941 0 -0.12949158947917319 -0.27227839422252509 0 -0.1240072126963065 -0.29805138080035298 0 -0.14734492975912539 -0.30278438059509921 0 -0.14567512825607129 -0.28140823081496941 0 -0.1240072126963065 -0.29805138080035298 0 -0.12949158947917319 -0.27227839422252509 0 -0.1240072126963065 -0.29805138080035298 0 -0.16461523481359691 -0.28916265523971618 0 -0.14734492975912539 -0.30278438059509921 0 -0.14567512825607129 -0.28140823081496941 0 -0.1627540001104664 -0.27268581766329619 0 -0.14567512825607129 -0.28140823081496941 0 -0.15408580470717839 -0.26129309964391018 0 -0.14567512825607129 -0.28140823081496941 0 -0.14011655107410961 -0.26228725149448001 0 -0.15408580470717839 -0.26129309964391018 0 -0.14567512825607129 -0.28140823081496941 0 -0.12949158947917319 -0.27227839422252509 0 -0.14011655107410961 -0.26228725149448001 0 -0.12949158947917319 -0.27227839422252509 0 -0.14011655107410961 -0.26228725149448001 0 -0.13186864264527029 -0.25209333300237979 0 -0.12949158947917319 -0.27227839422252509 0 -0.13186864264527029 -0.25209333300237979 0 -0.11610315498634841 -0.25620128443524648 0 -0.14011655107410961 -0.26228725149448001 0 -0.13186864264527029 -0.25209333300237979 0 -0.14554826146612651 -0.2474766242342207 0 -0.14011655107410961 -0.26228725149448001 0 -0.15408580470717839 -0.26129309964391018 0 -0.14554826146612651 -0.2474766242342207 0 -0.15408580470717839 -0.26129309964391018 0 -0.14554826146612651 -0.2474766242342207 0 -0.15770655761944219 -0.24753195129691111 0 -0.16226629960254499 -0.35115961650781852 0 -0.17346890282696781 -0.35965846742291813 0 -0.17652934880120411 -0.34201854140864407 0 -0.16226629960254499 -0.35115961650781852 0 -0.15841537024425509 -0.36855882599209278 0 -0.14842004862455149 -0.35376876769533461 0 -0.16226629960254499 -0.35115961650781852 0 -0.15841537024425509 -0.36855882599209278 0 -0.17346890282696781 -0.35965846742291813 0 -0.15841537024425509 -0.36855882599209278 0 -0.17346890282696781 -0.35965846742291813 0 -0.17248245143377669 -0.3747837348953118 0 -0.17346890282696781 -0.35965846742291813 0 -0.17248245143377669 -0.3747837348953118 0 -0.18493513207215029 -0.37123071705684929 0 -0.18884343381515531 -0.35838521860273581 0 -0.17346890282696781 -0.35965846742291813 0 -0.18493513207215029 -0.37123071705684929 0 -0.18884343381515531 -0.35838521860273581 0 -0.17346890282696781 -0.35965846742291813 0 -0.17652934880120411 -0.34201854140864407 0 -0.1887374245133322 -0.32611225892704121 0 -0.17652934880120411 -0.34201854140864407 0 -0.15965260370598949 -0.32475598434529002 0 -0.1887374245133322 -0.32611225892704121 0 -0.18177076353132871 -0.31151253466574502 0 -0.17086487573525061 -0.31615365639959681 0 -0.1887374245133322 -0.32611225892704121 0 -0.15965260370598949 -0.32475598434529002 0 -0.1887374245133322 -0.32611225892704121 0 -0.17086487573525061 -0.31615365639959681 0 -0.15965260370598949 -0.32475598434529002 0 -0.17086487573525061 -0.31615365639959681 0 -0.15965260370598949 -0.32475598434529002 0 -0.15680980325151259 -0.31286111718192833 0 -0.17652934880120411 -0.34201854140864407 0 -0.1534812442417392 -0.33680733271188101 0 -0.16226629960254499 -0.35115961650781852 0 -0.17652934880120411 -0.34201854140864407 0 -0.1534812442417392 -0.33680733271188101 0 -0.17652934880120411 -0.34201854140864407 0 -0.15965260370598949 -0.32475598434529002 0 -0.1534812442417392 -0.33680733271188101 0 -0.1534812442417392 -0.33680733271188101 0 -0.14045855894767079 -0.33286907982751379 0 -0.13364578042510869 -0.34442267227318257 0 -0.15965260370598949 -0.32475598434529002 0 -0.1534812442417392 -0.33680733271188101 0 -0.14045855894767079 -0.33286907982751379 0 -0.15965260370598949 -0.32475598434529002 0 -0.13056778289864679 -0.32339970976353882 0 -0.15965260370598949 -0.32475598434529002 0 -0.14535571492740251 -0.31517761073123379 0 -0.13056778289864679 -0.32339970976353882 0 -0.15965260370598949 -0.32475598434529002 0 -0.13056778289864679 -0.32339970976353882 0 -0.14045855894767079 -0.33286907982751379 0 -0.15965260370598949 -0.32475598434529002 0 -0.15680980325151259 -0.31286111718192833 0 -0.14535571492740251 -0.31517761073123379 0 -0.1324034550217382 -0.31208686177031281 0 -0.14535571492740251 -0.31517761073123379 0 -0.13056778289864679 -0.32339970976353882 0 -0.13056778289864679 -0.32339970976353882 0 -0.12724668346308779 -0.33482263663968498 0 -0.1185228359134398 -0.32382436737818088 0 -0.1324034550217382 -0.31208686177031281 0 -0.13056778289864679 -0.32339970976353882 0 -0.1185228359134398 -0.32382436737818088 0 -0.14045855894767079 -0.33286907982751379 0 -0.12724668346308779 -0.33482263663968498 0 -0.13364578042510869 -0.34442267227318257 0 -0.13056778289864679 -0.32339970976353882 0 -0.14045855894767079 -0.33286907982751379 0 -0.12724668346308779 -0.33482263663968498 0 -0.13608618631206551 -0.35927344557271751 0 -0.13364578042510869 -0.34442267227318257 0 -0.1230496859960637 -0.36229672676489699 0 -0.13608618631206551 -0.35927344557271751 0 -0.13364578042510869 -0.34442267227318257 0 -0.14842004862455149 -0.35376876769533461 0 -0.1534812442417392 -0.33680733271188101 0 -0.13364578042510869 -0.34442267227318257 0 -0.14842004862455149 -0.35376876769533461 0 -0.16226629960254499 -0.35115961650781852 0 -0.1534812442417392 -0.33680733271188101 0 -0.14842004862455149 -0.35376876769533461 0 -0.1450836739202539 -0.38146578034887879 0 -0.15841537024425509 -0.36855882599209278 0 -0.1449701798355629 -0.36644347324729137 0 -0.15841537024425509 -0.36855882599209278 0 -0.14842004862455149 -0.35376876769533461 0 -0.1449701798355629 -0.36644347324729137 0 -0.13608618631206551 -0.35927344557271751 0 -0.14842004862455149 -0.35376876769533461 0 -0.1449701798355629 -0.36644347324729137 0 -0.1450836739202539 -0.38146578034887879 0 -0.1449701798355629 -0.36644347324729137 0 -0.13270532185108841 -0.36987828221726371 0 -0.13608618631206551 -0.35927344557271751 0 -0.1449701798355629 -0.36644347324729137 0 -0.13270532185108841 -0.36987828221726371 0 -0.13608618631206551 -0.35927344557271751 0 -0.13270532185108841 -0.36987828221726371 0 -0.1230496859960637 -0.36229672676489699 0 -0.13270532185108841 -0.36987828221726371 0 -0.1230496859960637 -0.36229672676489699 0 -0.12093249032275399 -0.37630073243888962 0 -0.1230496859960637 -0.36229672676489699 0 -0.1130384591305732 -0.34959735395600883 0 -0.1075540823477065 -0.37537034053383689 0 -0.1130384591305732 -0.34959735395600883 0 -0.1075540823477065 -0.37537034053383689 0 -0.1230496859960637 -0.36229672676489699 0 -0.12093249032275399 -0.37630073243888962 0 -0.1075540823477065 -0.37537034053383689 0 -0.089124007019643237 -0.37354420806398708 0 -0.089968304967658591 -0.35505452549318339 0 -0.1075540823477065 -0.37537034053383689 0 -0.1130384591305732 -0.34959735395600883 0 -0.089968304967658591 -0.35505452549318339 0 -0.1075540823477065 -0.37537034053383689 0 -0.1130384591305732 -0.34959735395600883 0 -0.1032296461860252 -0.33511000031336918 0 -0.089968304967658591 -0.35505452549318339 0 -0.13364578042510869 -0.34442267227318257 0 -0.1230496859960637 -0.36229672676489699 0 -0.1130384591305732 -0.34959735395600883 0 -0.12724668346308779 -0.33482263663968498 0 -0.13364578042510869 -0.34442267227318257 0 -0.1130384591305732 -0.34959735395600883 0 -0.12724668346308779 -0.33482263663968498 0 -0.1130384591305732 -0.34959735395600883 0 -0.1185228359134398 -0.32382436737818088 0 -0.1130384591305732 -0.34959735395600883 0 -0.1185228359134398 -0.32382436737818088 0 -0.1032296461860252 -0.33511000031336918 0 -0.1130384591305732 -0.34959735395600883 0 -0.1185228359134398 -0.32382436737818088 0 -0.1185228359134398 -0.32382436737818088 0 -0.1052055460291338 -0.31747852934551118 0 -0.1240072126963065 -0.29805138080035298 0 -0.1052055460291338 -0.31747852934551118 0 -0.085554229768956241 -0.3283911170103862 0 -0.094713805580941404 -0.30201578122526651 0 -0.1052055460291338 -0.31747852934551118 0 -0.1032296461860252 -0.33511000031336918 0 -0.085554229768956241 -0.3283911170103862 0 -0.1185228359134398 -0.32382436737818088 0 -0.1052055460291338 -0.31747852934551118 0 -0.1032296461860252 -0.33511000031336918 0 -0.085554229768956241 -0.3283911170103862 0 -0.072279408321336447 -0.34524796160835203 0 -0.089968304967658591 -0.35505452549318339 0 -0.1032296461860252 -0.33511000031336918 0 -0.085554229768956241 -0.3283911170103862 0 -0.089968304967658591 -0.35505452549318339 0 -0.085554229768956241 -0.3283911170103862 0 -0.069402970358777821 -0.30563453465978929 0 -0.059043191696463833 -0.3314533122971372 0 -0.069402970358777821 -0.30563453465978929 0 -0.059043191696463833 -0.3314533122971372 0 -0.085554229768956241 -0.3283911170103862 0 -0.072279408321336447 -0.34524796160835203 0 -0.059043191696463833 -0.3314533122971372 0 -0.072279408321336447 -0.34524796160835203 0 -0.069003253429060718 -0.36322446147924781 0 -0.048683413034149831 -0.35727208993448523 0 -0.072279408321336447 -0.34524796160835203 0 -0.069003253429060718 -0.36322446147924781 0 -0.089968304967658591 -0.35505452549318339 0 -0.069003253429060718 -0.36322446147924781 0 -0.089124007019643237 -0.37354420806398708 0 -0.073467766996772391 -0.3814500999253248 0 -0.069003253429060718 -0.36322446147924781 0 -0.089124007019643237 -0.37354420806398708 0 -0.089968304967658591 -0.35505452549318339 0 -0.094648936121322372 -0.25719087650937139 0 -0.11610315498634841 -0.25620128443524648 0 -0.11248140091563261 -0.23963277876114389 0 -0.094648936121322372 -0.25719087650937139 0 -0.11610315498634841 -0.25620128443524648 0 -0.10297454546388859 -0.27643176105135647 0 -0.12949158947917319 -0.27227839422252509 0 -0.11610315498634841 -0.25620128443524648 0 -0.10297454546388859 -0.27643176105135647 0 -0.10297454546388859 -0.27643176105135647 0 -0.1240072126963065 -0.29805138080035298 0 -0.094713805580941404 -0.30201578122526651 0 -0.12949158947917319 -0.27227839422252509 0 -0.10297454546388859 -0.27643176105135647 0 -0.1240072126963065 -0.29805138080035298 0 -0.1324034550217382 -0.31208686177031281 0 -0.1185228359134398 -0.32382436737818088 0 -0.1240072126963065 -0.29805138080035298 0 -0.1185228359134398 -0.32382436737818088 0 -0.1240072126963065 -0.29805138080035298 0 -0.1052055460291338 -0.31747852934551118 0 -0.1240072126963065 -0.29805138080035298 0 -0.094713805580941404 -0.30201578122526651 0 -0.085554229768956241 -0.3283911170103862 0 -0.094713805580941404 -0.30201578122526651 0 -0.069402970358777821 -0.30563453465978929 0 -0.069402970358777821 -0.30563453465978929 0 -0.0797627490210919 -0.27981575702244121 0 -0.05570383692112528 -0.29164250342164988 0 -0.069402970358777821 -0.30563453465978929 0 -0.0797627490210919 -0.27981575702244121 0 -0.094713805580941404 -0.30201578122526651 0 -0.069402970358777821 -0.30563453465978929 0 -0.0797627490210919 -0.27981575702244121 0 -0.10297454546388859 -0.27643176105135647 0 -0.094713805580941404 -0.30201578122526651 0 -0.0797627490210919 -0.27981575702244121 0 -0.094648936121322372 -0.25719087650937139 0 -0.10297454546388859 -0.27643176105135647 0 -0.082177484218620062 -0.26552622341186888 0 -0.10297454546388859 -0.27643176105135647 0 -0.0797627490210919 -0.27981575702244121 0 -0.082177484218620062 -0.26552622341186888 0 -0.0797627490210919 -0.27981575702244121 0 -0.082177484218620062 -0.26552622341186888 0 -0.058782750912104387 -0.27026415708336038 0 -0.0797627490210919 -0.27981575702244121 0 -0.058782750912104387 -0.27026415708336038 0 -0.05570383692112528 -0.29164250342164988 0 -0.069901999805711768 -0.25534959832076543 0 -0.082177484218620062 -0.26552622341186888 0 -0.058782750912104387 -0.27026415708336038 0 -0.069901999805711768 -0.25534959832076543 0 -0.083061394198631885 -0.25231299141374219 0 -0.082177484218620062 -0.26552622341186888 0 -0.094648936121322372 -0.25719087650937139 0 -0.083061394198631885 -0.25231299141374219 0 -0.082177484218620062 -0.26552622341186888 0 -0.094648936121322372 -0.25719087650937139 0 -0.083061394198631885 -0.25231299141374219 0 -0.091532858120709271 -0.24289377847047311 0 -0.036339718242798663 -0.26583544472838699 0 -0.018804125696618709 -0.2505286077479259 0 -0.050739868253730509 -0.24646922590884929 0 -0.069901999805711768 -0.25534959832076543 0 -0.058782750912104387 -0.27026415708336038 0 -0.050739868253730509 -0.24646922590884929 0 -0.058782750912104387 -0.27026415708336038 0 -0.036339718242798663 -0.26583544472838699 0 -0.050739868253730509 -0.24646922590884929 0 -0.058782750912104387 -0.27026415708336038 0 -0.036339718242798663 -0.26583544472838699 0 -0.036087740154305409 -0.28608556569205162 0 -0.036087740154305409 -0.28608556569205162 0 -0.05570383692112528 -0.29164250342164988 0 -0.041323068065378311 -0.31194337154703061 0 -0.058782750912104387 -0.27026415708336038 0 -0.036087740154305409 -0.28608556569205162 0 -0.05570383692112528 -0.29164250342164988 0 -0.069402970358777821 -0.30563453465978929 0 -0.05570383692112528 -0.29164250342164988 0 -0.041323068065378311 -0.31194337154703061 0 -0.036087740154305409 -0.28608556569205162 0 -0.041323068065378311 -0.31194337154703061 0 -0.020335493301629461 -0.30026236225600478 0 -0.020335493301629461 -0.30026236225600478 0 -0.00099669197394388351 -0.3087205103267594 0 0.00095968447781457202 -0.28794634655103107 0 -0.020335493301629461 -0.30026236225600478 0 -0.017707849585834681 -0.27647518834516083 0 0.00095968447781457202 -0.28794634655103107 0 -0.036087740154305409 -0.28608556569205162 0 -0.020335493301629461 -0.30026236225600478 0 -0.017707849585834681 -0.27647518834516083 0 -0.036339718242798663 -0.26583544472838699 0 -0.036087740154305409 -0.28608556569205162 0 -0.017707849585834681 -0.27647518834516083 0 -0.017707849585834681 -0.27647518834516083 0 0.00095968447781457202 -0.28794634655103107 0 0.0048410001038069238 -0.26607636639245469 0 -0.018804125696618709 -0.2505286077479259 0 0.0048410001038069238 -0.26607636639245469 0 0.0096229953273914148 -0.2417426688876598 0 -0.017707849585834681 -0.27647518834516083 0 -0.018804125696618709 -0.2505286077479259 0 0.0048410001038069238 -0.26607636639245469 0 -0.036339718242798663 -0.26583544472838699 0 -0.017707849585834681 -0.27647518834516083 0 -0.018804125696618709 -0.2505286077479259 0 -0.048683413034149831 -0.35727208993448523 0 -0.036103626039545582 -0.33642088702337303 0 -0.019093956091466632 -0.35169648299592893 0 -0.048683413034149831 -0.35727208993448523 0 -0.021597714725874361 -0.37520402400042252 0 -0.049338474213755742 -0.38139255792623789 0 -0.069003253429060718 -0.36322446147924781 0 -0.048683413034149831 -0.35727208993448523 0 -0.049338474213755742 -0.38139255792623789 0 -0.072279408321336447 -0.34524796160835203 0 -0.048683413034149831 -0.35727208993448523 0 -0.059043191696463833 -0.3314533122971372 0 -0.048683413034149831 -0.35727208993448523 0 -0.059043191696463833 -0.3314533122971372 0 -0.048683413034149831 -0.35727208993448523 0 -0.059043191696463833 -0.3314533122971372 0 -0.036103626039545582 -0.33642088702337303 0 -0.069402970358777821 -0.30563453465978929 0 -0.041323068065378311 -0.31194337154703061 0 -0.059043191696463833 -0.3314533122971372 0 -0.041323068065378311 -0.31194337154703061 0 -0.059043191696463833 -0.3314533122971372 0 -0.036103626039545582 -0.33642088702337303 0 -0.036103626039545582 -0.33642088702337303 0 -0.012374501310269291 -0.32973917834228328 0 -0.019093956091466632 -0.35169648299592893 0 -0.041323068065378311 -0.31194337154703061 0 -0.020335493301629461 -0.30026236225600478 0 -0.012374501310269291 -0.32973917834228328 0 -0.041323068065378311 -0.31194337154703061 0 -0.036103626039545582 -0.33642088702337303 0 -0.012374501310269291 -0.32973917834228328 0 -0.00099669197394388351 -0.3087205103267594 0 -0.012374501310269291 -0.32973917834228328 0 0.01235625904661445 -0.32349751453283321 0 -0.012374501310269291 -0.32973917834228328 0 0.01235625904661445 -0.32349751453283321 0 -0.020335493301629461 -0.30026236225600478 0 -0.00099669197394388351 -0.3087205103267594 0 -0.012374501310269291 -0.32973917834228328 0 -0.012374501310269291 -0.32973917834228328 0 -0.019093956091466632 -0.35169648299592893 0 0.0039484790034304256 -0.34229917506297192 0 -0.019093956091466632 -0.35169648299592893 0 -0.002490395708879795 -0.36117497802836229 0 0.0039484790034304256 -0.34229917506297192 0 -0.048683413034149831 -0.35727208993448523 0 -0.019093956091466632 -0.35169648299592893 0 -0.021597714725874361 -0.37520402400042252 0 -0.002490395708879795 -0.36117497802836229 0 -0.021597714725874361 -0.37520402400042252 0 0.0071573240810073246 -0.3785539547048164 0 -0.019093956091466632 -0.35169648299592893 0 -0.002490395708879795 -0.36117497802836229 0 -0.021597714725874361 -0.37520402400042252 0 -0.0062829033893789252 -0.39530308145853871 0 -0.021597714725874361 -0.37520402400042252 0 0.0071573240810073246 -0.3785539547048164 0 -0.0062829033893789252 -0.39530308145853871 0 -0.019036860936441771 -0.41161134742830552 0 0.01073878042323523 -0.40901460405261397 0 -0.0062829033893789252 -0.39530308145853871 0 -0.034780787818197753 -0.39988166453462148 0 -0.019036860936441771 -0.41161134742830552 0 -0.0062829033893789252 -0.39530308145853871 0 -0.021597714725874361 -0.37520402400042252 0 -0.034780787818197753 -0.39988166453462148 0 -0.021597714725874361 -0.37520402400042252 0 -0.034780787818197753 -0.39988166453462148 0 -0.049338474213755742 -0.38139255792623789 0 -0.034780787818197753 -0.39988166453462148 0 -0.049338474213755742 -0.38139255792623789 0 -0.065437951641509465 -0.40228969637409279 0 -0.040685558062751002 -0.42552547745525782 0 -0.065437951641509465 -0.40228969637409279 0 -0.074521243018857319 -0.42985983569705383 0 -0.040685558062751002 -0.42552547745525782 0 -0.054545345946435328 -0.45076310248940032 0 -0.074521243018857319 -0.42985983569705383 0 -0.034780787818197753 -0.39988166453462148 0 -0.040685558062751002 -0.42552547745525782 0 -0.065437951641509465 -0.40228969637409279 0 -0.034780787818197753 -0.39988166453462148 0 -0.040685558062751002 -0.42552547745525782 0 -0.019036860936441771 -0.41161134742830552 0 -0.040685558062751002 -0.42552547745525782 0 -0.017187509758502618 -0.43018940868168781 0 -0.023950429641773061 -0.45048121520080781 0 -0.040685558062751002 -0.42552547745525782 0 -0.017187509758502618 -0.43018940868168781 0 -0.019036860936441771 -0.41161134742830552 0 -0.019036860936441771 -0.41161134742830552 0 -0.001223291168959903 -0.42551787017524489 0 0.01073878042323523 -0.40901460405261397 0 -0.017187509758502618 -0.43018940868168781 0 -0.019036860936441771 -0.41161134742830552 0 -0.001223291168959903 -0.42551787017524489 0 -0.017187509758502618 -0.43018940868168781 0 -0.001223291168959903 -0.42551787017524489 0 -0.0017335022559463321 -0.44294690443588852 0 -0.0017335022559463321 -0.44294690443588852 0 -0.00048262364615160141 -0.46154445275086259 0 -0.023950429641773061 -0.45048121520080781 0 -0.017187509758502618 -0.43018940868168781 0 -0.0017335022559463321 -0.44294690443588852 0 -0.023950429641773061 -0.45048121520080781 0 -0.00048262364615160141 -0.46154445275086259 0 -0.023950429641773061 -0.45048121520080781 0 -0.015672792429850681 -0.47111431750202648 0 -0.023950429641773061 -0.45048121520080781 0 -0.015672792429850681 -0.47111431750202648 0 -0.034569448874013427 -0.47166636928174682 0 -0.0145935518015915 -0.49256963607409332 0 -0.02574414955039955 -0.5 0 0.0028440013063228981 -0.49999999999999822 0 -0.0145935518015915 -0.49256963607409332 0 -0.0047679081857238109 -0.47930991420262192 0 0.0053629893529604936 -0.48717195375217709 0 -0.0145935518015915 -0.49256963607409332 0 0.0053629893529604936 -0.48717195375217709 0 0.0028440013063228981 -0.49999999999999822 0 -0.00048262364615160141 -0.46154445275086259 0 -0.0047679081857238109 -0.47930991420262192 0 -0.015672792429850681 -0.47111431750202648 0 -0.0145935518015915 -0.49256963607409332 0 -0.0047679081857238109 -0.47930991420262192 0 -0.015672792429850681 -0.47111431750202648 0 -0.0145935518015915 -0.49256963607409332 0 -0.038790545736024501 -0.4882011554587431 0 -0.034569448874013427 -0.47166636928174682 0 -0.0145935518015915 -0.49256963607409332 0 -0.034569448874013427 -0.47166636928174682 0 -0.0145935518015915 -0.49256963607409332 0 -0.015672792429850681 -0.47111431750202648 0 -0.034569448874013427 -0.47166636928174682 0 -0.0145935518015915 -0.49256963607409332 0 -0.02574414955039955 -0.5 0 -0.038790545736024501 -0.4882011554587431 0 -0.02574414955039955 -0.5 0 -0.038790545736024501 -0.4882011554587431 0 -0.054332300407122058 -0.5 0 -0.038790545736024501 -0.4882011554587431 0 -0.034569448874013427 -0.47166636928174682 0 -0.064713278046995948 -0.47676977193787562 0 -0.038790545736024501 -0.4882011554587431 0 -0.054332300407122058 -0.5 0 -0.064713278046995948 -0.47676977193787562 0 -0.040685558062751002 -0.42552547745525782 0 -0.023950429641773061 -0.45048121520080781 0 -0.054545345946435328 -0.45076310248940032 0 -0.023950429641773061 -0.45048121520080781 0 -0.034569448874013427 -0.47166636928174682 0 -0.054545345946435328 -0.45076310248940032 0 -0.034569448874013427 -0.47166636928174682 0 -0.054545345946435328 -0.45076310248940032 0 -0.034569448874013427 -0.47166636928174682 0 -0.054545345946435328 -0.45076310248940032 0 -0.064713278046995948 -0.47676977193787562 0 -0.054545345946435328 -0.45076310248940032 0 -0.088309160714030999 -0.44937936284342 0 -0.064713278046995948 -0.47676977193787562 0 -0.088309160714030999 -0.44937936284342 0 -0.064713278046995948 -0.47676977193787562 0 -0.098278014144763934 -0.47666853872748483 0 -0.054545345946435328 -0.45076310248940032 0 -0.074521243018857319 -0.42985983569705383 0 -0.054545345946435328 -0.45076310248940032 0 -0.088309160714030999 -0.44937936284342 0 -0.074521243018857319 -0.42985983569705383 0 -0.064713278046995948 -0.47676977193787562 0 -0.082920451263844397 -0.50000000000000178 0 -0.098278014144763934 -0.47666853872748483 0 -0.054332300407122058 -0.5 0 -0.064713278046995948 -0.47676977193787562 0 -0.082920451263844397 -0.50000000000000178 0 -0.082920451263844397 -0.50000000000000178 0 -0.098278014144763934 -0.47666853872748483 0 -0.082920451263844397 -0.50000000000000178 0 -0.1081327708963213 -0.5 0 -0.098278014144763934 -0.47666853872748483 0 -0.1081327708963213 -0.5 0 -0.098278014144763934 -0.47666853872748483 0 -0.11794329649893839 -0.48197487990695581 0 -0.14066360552603391 -0.47612691614253783 0 -0.11794329649893839 -0.48197487990695581 0 -0.11363557702568269 -0.45333707745496737 0 -0.098278014144763934 -0.47666853872748483 0 -0.11794329649893839 -0.48197487990695581 0 -0.11363557702568269 -0.45333707745496737 0 -0.1333450905287982 -0.5 0 -0.1081327708963213 -0.5 0 -0.11794329649893839 -0.48197487990695581 0 -0.088309160714030999 -0.44937936284342 0 -0.11363557702568269 -0.45333707745496737 0 -0.10760843189631281 -0.43677482080998359 0 -0.088309160714030999 -0.44937936284342 0 -0.097560285516467865 -0.42648765338822558 0 -0.10760843189631281 -0.43677482080998359 0 -0.098278014144763934 -0.47666853872748483 0 -0.11363557702568269 -0.45333707745496737 0 -0.088309160714030999 -0.44937936284342 0 -0.098278014144763934 -0.47666853872748483 0 -0.11363557702568269 -0.45333707745496737 0 -0.11363557702568269 -0.45333707745496737 0 -0.1237441851603739 -0.42968452531641471 0 -0.10760843189631281 -0.43677482080998359 0 -0.12899313990660249 -0.43000561618245092 0 -0.11363557702568269 -0.45333707745496737 0 -0.1237441851603739 -0.42968452531641471 0 -0.12899313990660249 -0.43000561618245092 0 -0.11363557702568269 -0.45333707745496737 0 -0.1237441851603739 -0.42968452531641471 0 -0.1139223402559949 -0.42196091199000851 0 -0.10760843189631281 -0.43677482080998359 0 -0.12604238146509139 -0.41885400096579239 0 -0.1237441851603739 -0.42968452531641471 0 -0.1139223402559949 -0.42196091199000851 0 -0.1139223402559949 -0.42196091199000851 0 -0.097560285516467865 -0.42648765338822558 0 -0.10760843189631281 -0.43677482080998359 0 -0.1139223402559949 -0.42196091199000851 0 -0.097560285516467865 -0.42648765338822558 0 -0.11010431041755001 -0.40958721320819153 0 -0.097560285516467865 -0.42648765338822558 0 -0.094497140091279339 -0.40895656890470722 0 -0.11010431041755001 -0.40958721320819153 0 -0.11010431041755001 -0.40958721320819153 0 -0.11968978679134649 -0.41107029338891687 0 -0.1204832726865103 -0.40099454946493029 0 -0.1139223402559949 -0.42196091199000851 0 -0.11010431041755001 -0.40958721320819153 0 -0.11968978679134649 -0.41107029338891687 0 -0.12604238146509139 -0.41885400096579239 0 -0.1139223402559949 -0.42196091199000851 0 -0.11968978679134649 -0.41107029338891687 0 -0.11010431041755001 -0.40958721320819153 0 -0.1204832726865103 -0.40099454946493029 0 -0.11447303716370121 -0.38805330211236078 0 -0.13156764266953189 -0.39419180846104918 0 -0.1204832726865103 -0.40099454946493029 0 -0.11447303716370121 -0.38805330211236078 0 -0.13094498148683609 -0.40599212159877102 0 -0.11968978679134649 -0.41107029338891687 0 -0.1204832726865103 -0.40099454946493029 0 -0.12985547058759039 -0.38221115646869708 0 -0.12093249032275399 -0.37630073243888962 0 -0.11447303716370121 -0.38805330211236078 0 -0.12093249032275399 -0.37630073243888962 0 -0.11447303716370121 -0.38805330211236078 0 -0.1075540823477065 -0.37537034053383689 0 -0.089124007019643237 -0.37354420806398708 0 -0.1075540823477065 -0.37537034053383689 0 -0.090774691288952825 -0.3889616701754473 0 -0.11447303716370121 -0.38805330211236078 0 -0.1075540823477065 -0.37537034053383689 0 -0.090774691288952825 -0.3889616701754473 0 -0.094497140091279339 -0.40895656890470722 0 -0.11010431041755001 -0.40958721320819153 0 -0.11447303716370121 -0.38805330211236078 0 -0.094497140091279339 -0.40895656890470722 0 -0.11447303716370121 -0.38805330211236078 0 -0.094497140091279339 -0.40895656890470722 0 -0.11447303716370121 -0.38805330211236078 0 -0.090774691288952825 -0.3889616701754473 0 -0.094497140091279339 -0.40895656890470722 0 -0.090774691288952825 -0.3889616701754473 0 -0.065437951641509465 -0.40228969637409279 0 -0.089124007019643237 -0.37354420806398708 0 -0.090774691288952825 -0.3889616701754473 0 -0.073467766996772391 -0.3814500999253248 0 -0.069003253429060718 -0.36322446147924781 0 -0.049338474213755742 -0.38139255792623789 0 -0.073467766996772391 -0.3814500999253248 0 -0.049338474213755742 -0.38139255792623789 0 -0.073467766996772391 -0.3814500999253248 0 -0.065437951641509465 -0.40228969637409279 0 -0.090774691288952825 -0.3889616701754473 0 -0.073467766996772391 -0.3814500999253248 0 -0.065437951641509465 -0.40228969637409279 0 -0.088309160714030999 -0.44937936284342 0 -0.097560285516467865 -0.42648765338822558 0 -0.074521243018857319 -0.42985983569705383 0 -0.094497140091279339 -0.40895656890470722 0 -0.065437951641509465 -0.40228969637409279 0 -0.074521243018857319 -0.42985983569705383 0 -0.097560285516467865 -0.42648765338822558 0 -0.094497140091279339 -0.40895656890470722 0 -0.074521243018857319 -0.42985983569705383 0 -0.094497140091279339 -0.40895656890470722 0 -0.074521243018857319 -0.42985983569705383 0 -0.084920459822239086 -0.081448454320413408 0 -0.073051529861589845 -0.095207263380746837 0 -0.090372068090109406 -0.10256702268993551 0 -0.084920459822239086 -0.081448454320413408 0 -0.090372068090109406 -0.10256702268993551 0 -0.1024078336591867 -0.087985104803007794 0 -0.084920459822239086 -0.081448454320413408 0 -0.099907056365137928 -0.066332409892067914 0 -0.076250231035157018 -0.05933608143204621 0 -0.084920459822239086 -0.081448454320413408 0 -0.068616679817757625 -0.080167949106406303 0 -0.076250231035157018 -0.05933608143204621 0 -0.068616679817757625 -0.080167949106406303 0 -0.076250231035157018 -0.05933608143204621 0 -0.053985250739965858 -0.067790593848723976 0 -0.068616679817757625 -0.080167949106406303 0 -0.073051529861589845 -0.095207263380746837 0 -0.054875927629836299 -0.097057352550101089 0 -0.084920459822239086 -0.081448454320413408 0 -0.068616679817757625 -0.080167949106406303 0 -0.073051529861589845 -0.095207263380746837 0 -0.073209314966520903 -0.113273935362879 0 -0.054875927629836299 -0.097057352550101089 0 -0.073051529861589845 -0.095207263380746837 0 -0.073209314966520903 -0.113273935362879 0 -0.054875927629836299 -0.097057352550101089 0 -0.073209314966520903 -0.113273935362879 0 -0.091542702303205326 -0.1294905181756571 0 -0.068826910421613555 -0.12750477262994331 0 -0.073209314966520903 -0.113273935362879 0 -0.055350846746747978 -0.1126627234263524 0 -0.068826910421613555 -0.12750477262994331 0 -0.073209314966520903 -0.113273935362879 0 -0.090372068090109406 -0.10256702268993551 0 -0.091542702303205326 -0.1294905181756571 0 -0.073209314966520903 -0.113273935362879 0 -0.091542702303205326 -0.1294905181756571 0 -0.073051529861589845 -0.095207263380746837 0 -0.073209314966520903 -0.113273935362879 0 -0.090372068090109406 -0.10256702268993551 0 -0.090372068090109406 -0.10256702268993551 0 -0.1169524152959812 -0.109475176175515 0 -0.1024078336591867 -0.087985104803007794 0 -0.090372068090109406 -0.10256702268993551 0 -0.1169524152959812 -0.109475176175515 0 -0.091542702303205326 -0.1294905181756571 0 -0.1169524152959812 -0.109475176175515 0 -0.11401766186949661 -0.13884789141392259 0 -0.1169524152959812 -0.109475176175515 0 -0.11988716872246589 -0.080102460937107184 0 -0.1169524152959812 -0.109475176175515 0 -0.11988716872246589 -0.080102460937107184 0 -0.13208478411253441 -0.10034529383993269 0 -0.1169524152959812 -0.109475176175515 0 -0.11988716872246589 -0.080102460937107184 0 -0.1024078336591867 -0.087985104803007794 0 -0.084920459822239086 -0.081448454320413408 0 -0.1024078336591867 -0.087985104803007794 0 -0.099907056365137928 -0.066332409892067914 0 -0.11988716872246589 -0.080102460937107184 0 -0.1024078336591867 -0.087985104803007794 0 -0.099907056365137928 -0.066332409892067914 0 -0.11988716872246589 -0.080102460937107184 0 -0.1228219221489505 -0.050729745698699383 0 -0.11988716872246589 -0.080102460937107184 0 -0.099907056365137928 -0.066332409892067914 0 -0.1228219221489505 -0.050729745698699383 0 -0.1228219221489505 -0.050729745698699383 0 -0.1151991738617443 -0.026588295223576881 0 -0.09289683788474809 -0.03976849344197711 0 -0.099907056365137928 -0.066332409892067914 0 -0.1228219221489505 -0.050729745698699383 0 -0.09289683788474809 -0.03976849344197711 0 -0.1229846482582518 -0.0055933252605166392 0 -0.1151991738617443 -0.026588295223576881 0 -0.094088428313765265 -0.01080549152202971 0 -0.1151991738617443 -0.026588295223576881 0 -0.094088428313765265 -0.01080549152202971 0 -0.09289683788474809 -0.03976849344197711 0 -0.1229846482582518 -0.0055933252605166392 0 -0.094088428313765265 -0.01080549152202971 0 -0.1104540955244408 0.01018848165599631 0 -0.094088428313765265 -0.01080549152202971 0 -0.068742186924726043 -0.0086194903703009189 0 -0.081085172306247816 0.0025859021146267891 0 -0.094088428313765265 -0.01080549152202971 0 -0.072319926331146603 -0.028056065744145629 0 -0.09289683788474809 -0.03976849344197711 0 -0.094088428313765265 -0.01080549152202971 0 -0.072319926331146603 -0.028056065744145629 0 -0.068742186924726043 -0.0086194903703009189 0 -0.072319926331146603 -0.028056065744145629 0 -0.068742186924726043 -0.0086194903703009189 0 -0.048847299978387618 -0.01128300255117305 0 -0.072319926331146603 -0.028056065744145629 0 -0.076250231035157018 -0.05933608143204621 0 -0.053094573850095611 -0.038523835147346738 0 -0.072319926331146603 -0.028056065744145629 0 -0.09289683788474809 -0.03976849344197711 0 -0.076250231035157018 -0.05933608143204621 0 -0.099907056365137928 -0.066332409892067914 0 -0.09289683788474809 -0.03976849344197711 0 -0.076250231035157018 -0.05933608143204621 0 -0.053094573850095611 -0.038523835147346738 0 -0.037480318648389993 -0.058439413961918478 0 -0.053985250739965858 -0.067790593848723976 0 -0.076250231035157018 -0.05933608143204621 0 -0.053094573850095611 -0.038523835147346738 0 -0.053985250739965858 -0.067790593848723976 0 -0.053094573850095611 -0.038523835147346738 0 -0.053985250739965858 -0.067790593848723976 0 -0.053094573850095611 -0.038523835147346738 0 -0.031005099569431881 -0.025874362716016341 0 -0.024842346609541242 -0.044371958700549073 0 -0.053094573850095611 -0.038523835147346738 0 -0.037480318648389993 -0.058439413961918478 0 -0.024842346609541242 -0.044371958700549073 0 -0.068742186924726043 -0.0086194903703009189 0 -0.048847299978387618 -0.01128300255117305 0 -0.054869737487993592 0.0029178759522425 0 -0.048847299978387618 -0.01128300255117305 0 -0.041481366433000169 -0.00038453264990213708 0 -0.054869737487993592 0.0029178759522425 0 -0.072319926331146603 -0.028056065744145629 0 -0.053094573850095611 -0.038523835147346738 0 -0.048847299978387618 -0.01128300255117305 0 -0.053094573850095611 -0.038523835147346738 0 -0.048847299978387618 -0.01128300255117305 0 -0.031005099569431881 -0.025874362716016341 0 -0.048847299978387618 -0.01128300255117305 0 -0.041481366433000169 -0.00038453264990213708 0 -0.030170774266785251 -0.008565583351997327 0 -0.048847299978387618 -0.01128300255117305 0 -0.030170774266785251 -0.008565583351997327 0 -0.031005099569431881 -0.025874362716016341 0 -0.041481366433000169 -0.00038453264990213708 0 -0.030170774266785251 -0.008565583351997327 0 -0.030866146421930661 0.0051013618911337584 0 -0.030170774266785251 -0.008565583351997327 0 -0.015607125497560921 -0.011235037348270289 0 -0.017914414946056188 0.0017887383250859701 0 -0.030170774266785251 -0.008565583351997327 0 -0.017914414946056188 0.0017887383250859701 0 -0.030866146421930661 0.0051013618911337584 0 -0.030170774266785251 -0.008565583351997327 0 -0.023678216039401241 -0.01745595090630549 0 -0.015607125497560921 -0.011235037348270289 0 -0.031005099569431881 -0.025874362716016341 0 -0.023678216039401241 -0.01745595090630549 0 -0.0137327067306781 -0.022488028886469419 0 -0.030170774266785251 -0.008565583351997327 0 -0.031005099569431881 -0.025874362716016341 0 -0.023678216039401241 -0.01745595090630549 0 -0.031005099569431881 -0.025874362716016341 0 -0.0137327067306781 -0.022488028886469419 0 -0.013200620094350069 -0.035369219061225872 0 -0.023678216039401241 -0.01745595090630549 0 -0.0137327067306781 -0.022488028886469419 0 -0.015607125497560921 -0.011235037348270289 0 -0.004476297631638846 -0.026131926890842441 0 -0.0137327067306781 -0.022488028886469419 0 -0.013200620094350069 -0.035369219061225872 0 -0.004476297631638846 -0.026131926890842441 0 -0.004047477331530447 -0.016636231309710429 0 0.0051119717631370387 -0.022346314211481949 0 -0.004476297631638846 -0.026131926890842441 0 -0.004047477331530447 -0.016636231309710429 0 -0.0137327067306781 -0.022488028886469419 0 -0.004047477331530447 -0.016636231309710429 0 -0.0137327067306781 -0.022488028886469419 0 -0.015607125497560921 -0.011235037348270289 0 -0.015607125497560921 -0.011235037348270289 0 -0.0016637341516267971 -0.002949234294761292 0 -0.017914414946056188 0.0017887383250859701 0 -0.004047477331530447 -0.016636231309710429 0 -0.015607125497560921 -0.011235037348270289 0 -0.0016637341516267971 -0.002949234294761292 0 -0.037480318648389993 -0.058439413961918478 0 -0.024842346609541242 -0.044371958700549073 0 -0.019384080481310451 -0.065663455290816547 0 -0.031005099569431881 -0.025874362716016341 0 -0.024842346609541242 -0.044371958700549073 0 -0.013200620094350069 -0.035369219061225872 0 -0.004476297631638846 -0.026131926890842441 0 -0.013200620094350069 -0.035369219061225872 0 0.0034873442352273418 -0.033819840985324548 0 -0.024842346609541242 -0.044371958700549073 0 -0.013200620094350069 -0.035369219061225872 0 -0.0016381569070474391 -0.049966506661174373 0 -0.013200620094350069 -0.035369219061225872 0 -0.0016381569070474391 -0.049966506661174373 0 0.0034873442352273418 -0.033819840985324548 0 -0.0016381569070474391 -0.049966506661174373 0 -0.019384080481310451 -0.065663455290816547 0 -0.0016381569070474391 -0.049966506661174373 0 -0.0024740827135137089 -0.066048241574000729 0 -0.019384080481310451 -0.065663455290816547 0 -0.024842346609541242 -0.044371958700549073 0 -0.0016381569070474391 -0.049966506661174373 0 -0.019384080481310451 -0.065663455290816547 0 -0.0024740827135137089 -0.066048241574000729 0 -0.0084861465490325798 -0.079153840751582771 0 0.0075159774620815563 -0.076024487720319611 0 -0.0024740827135137089 -0.066048241574000729 0 -0.0084861465490325798 -0.079153840751582771 0 -0.019384080481310451 -0.065663455290816547 0 -0.0084861465490325798 -0.079153840751582771 0 -0.01252845712093071 -0.091817805847596745 0 0.001033098092474416 -0.088183934302761627 0 -0.01252845712093071 -0.091817805847596745 0 -0.00087162142712868609 -0.098914230723018651 0 0.001033098092474416 -0.088183934302761627 0 -0.0084861465490325798 -0.079153840751582771 0 -0.01252845712093071 -0.091817805847596745 0 -0.02094588724696294 -0.082418546021921613 0 -0.02094588724696294 -0.082418546021921613 0 -0.037130004055573471 -0.081360403920458707 0 -0.027200748027967479 -0.094097224299153237 0 -0.01252845712093071 -0.091817805847596745 0 -0.02094588724696294 -0.082418546021921613 0 -0.027200748027967479 -0.094097224299153237 0 -0.02094588724696294 -0.082418546021921613 0 -0.019384080481310451 -0.065663455290816547 0 -0.037130004055573471 -0.081360403920458707 0 -0.0084861465490325798 -0.079153840751582771 0 -0.02094588724696294 -0.082418546021921613 0 -0.019384080481310451 -0.065663455290816547 0 -0.019384080481310451 -0.065663455290816547 0 -0.037130004055573471 -0.081360403920458707 0 -0.037480318648389993 -0.058439413961918478 0 -0.019384080481310451 -0.065663455290816547 0 -0.037130004055573471 -0.081360403920458707 0 -0.037480318648389993 -0.058439413961918478 0 -0.037130004055573471 -0.081360403920458707 0 -0.053985250739965858 -0.067790593848723976 0 -0.037130004055573471 -0.081360403920458707 0 -0.054875927629836299 -0.097057352550101089 0 -0.037130004055573471 -0.081360403920458707 0 -0.054875927629836299 -0.097057352550101089 0 -0.041590478002256903 -0.098056303949659057 0 -0.037130004055573471 -0.081360403920458707 0 -0.041590478002256903 -0.098056303949659057 0 -0.027200748027967479 -0.094097224299153237 0 -0.053985250739965858 -0.067790593848723976 0 -0.054875927629836299 -0.097057352550101089 0 -0.037130004055573471 -0.081360403920458707 0 -0.053985250739965858 -0.067790593848723976 0 -0.054875927629836299 -0.097057352550101089 0 -0.068616679817757625 -0.080167949106406303 0 -0.053985250739965858 -0.067790593848723976 0 -0.054875927629836299 -0.097057352550101089 0 -0.055350846746747978 -0.1126627234263524 0 -0.04581363523795709 -0.1214723919342431 0 -0.055825765863659872 -0.12826809430260369 0 -0.055350846746747978 -0.1126627234263524 0 -0.055825765863659872 -0.12826809430260369 0 -0.055350846746747978 -0.1126627234263524 0 -0.055825765863659872 -0.12826809430260369 0 -0.068826910421613555 -0.12750477262994331 0 -0.073209314966520903 -0.113273935362879 0 -0.055350846746747978 -0.1126627234263524 0 -0.054875927629836299 -0.097057352550101089 0 -0.055350846746747978 -0.1126627234263524 0 -0.054875927629836299 -0.097057352550101089 0 -0.055350846746747978 -0.1126627234263524 0 -0.054875927629836299 -0.097057352550101089 0 -0.041590478002256903 -0.098056303949659057 0 -0.055350846746747978 -0.1126627234263524 0 -0.041590478002256903 -0.098056303949659057 0 -0.033940868200495022 -0.1079954375928487 0 -0.041590478002256903 -0.098056303949659057 0 -0.033940868200495022 -0.1079954375928487 0 -0.027200748027967479 -0.094097224299153237 0 -0.055350846746747978 -0.1126627234263524 0 -0.033940868200495022 -0.1079954375928487 0 -0.04581363523795709 -0.1214723919342431 0 -0.033940868200495022 -0.1079954375928487 0 -0.04581363523795709 -0.1214723919342431 0 -0.035162458712647872 -0.12600369589465771 0 -0.033940868200495022 -0.1079954375928487 0 -0.021767860600555258 -0.1225402800634172 0 -0.01539285461228892 -0.10631546354330861 0 -0.033940868200495022 -0.1079954375928487 0 -0.021767860600555258 -0.1225402800634172 0 -0.035162458712647872 -0.12600369589465771 0 -0.033940868200495022 -0.1079954375928487 0 -0.027200748027967479 -0.094097224299153237 0 -0.01539285461228892 -0.10631546354330861 0 -0.033940868200495022 -0.1079954375928487 0 -0.01539285461228892 -0.10631546354330861 0 -0.01252845712093071 -0.091817805847596745 0 -0.027200748027967479 -0.094097224299153237 0 -0.01539285461228892 -0.10631546354330861 0 -0.01539285461228892 -0.10631546354330861 0 -0.00087162142712868609 -0.098914230723018651 0 0.0031551589759171821 -0.10463548949376809 0 -0.01539285461228892 -0.10631546354330861 0 0.0031551589759171821 -0.10463548949376809 0 -0.01252845712093071 -0.091817805847596745 0 -0.01539285461228892 -0.10631546354330861 0 -0.00087162142712868609 -0.098914230723018651 0 -0.021767860600555258 -0.1225402800634172 0 -0.01539285461228892 -0.10631546354330861 0 -0.0047205678392477426 -0.12093393385180171 0 -0.01539285461228892 -0.10631546354330861 0 -0.0047205678392477426 -0.12093393385180171 0 0.0031551589759171821 -0.10463548949376809 0 -0.0047205678392477426 -0.12093393385180171 0 -0.01279532851949269 -0.1349257854666234 0 0.001792487512032919 -0.13702172144501751 0 -0.021767860600555258 -0.1225402800634172 0 -0.0047205678392477426 -0.12093393385180171 0 -0.01279532851949269 -0.1349257854666234 0 -0.021767860600555258 -0.1225402800634172 0 -0.01279532851949269 -0.1349257854666234 0 -0.028778031976600379 -0.14135632415599639 0 -0.021767860600555258 -0.1225402800634172 0 -0.028778031976600379 -0.14135632415599639 0 -0.035162458712647872 -0.12600369589465771 0 -0.01279532851949269 -0.1349257854666234 0 -0.028778031976600379 -0.14135632415599639 0 -0.010502669693092969 -0.15277666781688409 0 -0.028778031976600379 -0.14135632415599639 0 -0.010502669693092969 -0.15277666781688409 0 -0.03348110476040865 -0.1629580341310278 0 -0.01279532851949269 -0.1349257854666234 0 -0.010502669693092969 -0.15277666781688409 0 0.001792487512032919 -0.13702172144501751 0 -0.010502669693092969 -0.15277666781688409 0 0.0079424845942499232 -0.15244881847954789 0 0.001792487512032919 -0.13702172144501751 0 -0.010502669693092969 -0.15277666781688409 0 -0.017624756583517431 -0.17635489522251729 0 0.0060903572207618986 -0.1689237778187937 0 -5.7340653001114007e-05 -0.18571861917824961 0 -0.017624756583517431 -0.17635489522251729 0 -0.01332417259761275 -0.19771245324370959 0 -0.017624756583517431 -0.17635489522251729 0 0.0060903572207618986 -0.1689237778187937 0 -5.7340653001114007e-05 -0.18571861917824961 0 -0.017624756583517431 -0.17635489522251729 0 0.0060903572207618986 -0.1689237778187937 0 -0.017624756583517431 -0.17635489522251729 0 -0.041339870387796712 -0.18378601262624089 0 -0.01332417259761275 -0.19771245324370959 0 -0.017624756583517431 -0.17635489522251729 0 -0.03348110476040865 -0.1629580341310278 0 -0.041339870387796712 -0.18378601262624089 0 -0.017624756583517431 -0.17635489522251729 0 -0.041339870387796712 -0.18378601262624089 0 -0.010502669693092969 -0.15277666781688409 0 -0.017624756583517431 -0.17635489522251729 0 -0.03348110476040865 -0.1629580341310278 0 -0.03348110476040865 -0.1629580341310278 0 -0.05577639070252903 -0.17048424542456039 0 -0.046864909218915403 -0.15299005953996769 0 -0.03348110476040865 -0.1629580341310278 0 -0.041339870387796712 -0.18378601262624089 0 -0.05577639070252903 -0.17048424542456039 0 -0.041339870387796712 -0.18378601262624089 0 -0.05577639070252903 -0.17048424542456039 0 -0.06505498419207606 -0.1912171300299646 0 -0.05577639070252903 -0.17048424542456039 0 -0.046864909218915403 -0.15299005953996769 0 -0.072226984566844538 -0.15818219379061729 0 -0.060892165260772013 -0.14066579929350939 0 -0.045642411156163659 -0.1359333933609464 0 -0.046864909218915403 -0.15299005953996769 0 -0.060892165260772013 -0.14066579929350939 0 -0.046864909218915403 -0.15299005953996769 0 -0.072226984566844538 -0.15818219379061729 0 -0.060892165260772013 -0.14066579929350939 0 -0.055825765863659872 -0.12826809430260369 0 -0.068826910421613555 -0.12750477262994331 0 -0.04581363523795709 -0.1214723919342431 0 -0.055825765863659872 -0.12826809430260369 0 -0.045642411156163659 -0.1359333933609464 0 -0.060892165260772013 -0.14066579929350939 0 -0.055825765863659872 -0.12826809430260369 0 -0.045642411156163659 -0.1359333933609464 0 -0.028778031976600379 -0.14135632415599639 0 -0.045642411156163659 -0.1359333933609464 0 -0.035162458712647872 -0.12600369589465771 0 -0.04581363523795709 -0.1214723919342431 0 -0.045642411156163659 -0.1359333933609464 0 -0.035162458712647872 -0.12600369589465771 0 -0.028778031976600379 -0.14135632415599639 0 -0.045642411156163659 -0.1359333933609464 0 -0.046864909218915403 -0.15299005953996769 0 -0.028778031976600379 -0.14135632415599639 0 -0.03348110476040865 -0.1629580341310278 0 -0.046864909218915403 -0.15299005953996769 0 -0.018804125696618709 -0.2505286077479259 0 -0.010876713287168681 -0.22582585185717829 0 -0.032169860842904033 -0.2317109604543984 0 -0.018804125696618709 -0.2505286077479259 0 -0.010876713287168681 -0.22582585185717829 0 0.0096229953273914148 -0.2417426688876598 0 -0.010876713287168681 -0.22582585185717829 0 0.0096229953273914148 -0.2417426688876598 0 -0.010876713287168681 -0.22582585185717829 0 -0.031376421901728617 -0.2099090348266969 0 -0.032169860842904033 -0.2317109604543984 0 -0.010876713287168681 -0.22582585185717829 0 -0.01332417259761275 -0.19771245324370959 0 -0.031376421901728617 -0.2099090348266969 0 -0.010876713287168681 -0.22582585185717829 0 -0.031376421901728617 -0.2099090348266969 0 -0.010876713287168681 -0.22582585185717829 0 -0.01332417259761275 -0.19771245324370959 0 0.0051179138250316966 -0.20931114953373001 0 -5.7340653001114007e-05 -0.18571861917824961 0 -0.01332417259761275 -0.19771245324370959 0 0.0051179138250316966 -0.20931114953373001 0 -0.041339870387796712 -0.18378601262624089 0 -0.01332417259761275 -0.19771245324370959 0 -0.031376421901728617 -0.2099090348266969 0 -0.041339870387796712 -0.18378601262624089 0 -0.05309587098647553 -0.20798641260553821 0 -0.031376421901728617 -0.2099090348266969 0 -0.041339870387796712 -0.18378601262624089 0 -0.05309587098647553 -0.20798641260553821 0 -0.06505498419207606 -0.1912171300299646 0 -0.041339870387796712 -0.18378601262624089 0 -0.06505498419207606 -0.1912171300299646 0 -0.05309587098647553 -0.20798641260553821 0 -0.031376421901728617 -0.2099090348266969 0 -0.047840951872672427 -0.22497207348157611 0 -0.018804125696618709 -0.2505286077479259 0 -0.032169860842904033 -0.2317109604543984 0 -0.050739868253730509 -0.24646922590884929 0 -0.031376421901728617 -0.2099090348266969 0 -0.032169860842904033 -0.2317109604543984 0 -0.047840951872672427 -0.22497207348157611 0 -0.05309587098647553 -0.20798641260553821 0 -0.047840951872672427 -0.22497207348157611 0 -0.066008866006037559 -0.2247046930535222 0 -0.047840951872672427 -0.22497207348157611 0 -0.050739868253730509 -0.24646922590884929 0 -0.066008866006037559 -0.2247046930535222 0 -0.032169860842904033 -0.2317109604543984 0 -0.047840951872672427 -0.22497207348157611 0 -0.050739868253730509 -0.24646922590884929 0 -0.091532858120709271 -0.24289377847047311 0 -0.075407138648058633 -0.23985773074365829 0 -0.084797634970756416 -0.22147329023243709 0 -0.083061394198631885 -0.25231299141374219 0 -0.091532858120709271 -0.24289377847047311 0 -0.075407138648058633 -0.23985773074365829 0 -0.069901999805711768 -0.25534959832076543 0 -0.083061394198631885 -0.25231299141374219 0 -0.075407138648058633 -0.23985773074365829 0 -0.050739868253730509 -0.24646922590884929 0 -0.075407138648058633 -0.23985773074365829 0 -0.066008866006037559 -0.2247046930535222 0 -0.069901999805711768 -0.25534959832076543 0 -0.050739868253730509 -0.24646922590884929 0 -0.075407138648058633 -0.23985773074365829 0 -0.075407138648058633 -0.23985773074365829 0 -0.066008866006037559 -0.2247046930535222 0 -0.084797634970756416 -0.22147329023243709 0 -0.091532858120709271 -0.24289377847047311 0 -0.084797634970756416 -0.22147329023243709 0 -0.10276223760618371 -0.22562701675992211 0 -0.084797634970756416 -0.22147329023243709 0 -0.08703080238379729 -0.2009957803948218 0 -0.098941638306571864 -0.21050019586067439 0 -0.084797634970756416 -0.22147329023243709 0 -0.071197631707828585 -0.2092754612632568 0 -0.08703080238379729 -0.2009957803948218 0 -0.05309587098647553 -0.20798641260553821 0 -0.066008866006037559 -0.2247046930535222 0 -0.071197631707828585 -0.2092754612632568 0 -0.066008866006037559 -0.2247046930535222 0 -0.084797634970756416 -0.22147329023243709 0 -0.071197631707828585 -0.2092754612632568 0 -0.071197631707828585 -0.2092754612632568 0 -0.06505498419207606 -0.1912171300299646 0 -0.08703080238379729 -0.2009957803948218 0 -0.06505498419207606 -0.1912171300299646 0 -0.08703080238379729 -0.2009957803948218 0 -0.07421151833938068 -0.1767161727684729 0 -0.05309587098647553 -0.20798641260553821 0 -0.071197631707828585 -0.2092754612632568 0 -0.06505498419207606 -0.1912171300299646 0 -0.08703080238379729 -0.2009957803948218 0 -0.1061258994804638 -0.19604463686681969 0 -0.098941638306571864 -0.21050019586067439 0 -0.08703080238379729 -0.2009957803948218 0 -0.1061258994804638 -0.19604463686681969 0 -0.08703080238379729 -0.2009957803948218 0 -0.1061258994804638 -0.19604463686681969 0 -0.094026596472914142 -0.17631902831885399 0 -0.1139916170916581 -0.20836025504937111 0 -0.12522099657713071 -0.191093493338819 0 -0.1061258994804638 -0.19604463686681969 0 -0.12522099657713071 -0.191093493338819 0 -0.1061258994804638 -0.19604463686681969 0 -0.1139916170916581 -0.20836025504937111 0 -0.12522099657713071 -0.191093493338819 0 -0.1139916170916581 -0.20836025504937111 0 -0.12892214791875289 -0.20714851576289259 0 -0.12522099657713071 -0.191093493338819 0 -0.1061258994804638 -0.19604463686681969 0 -0.11290685344571411 -0.18289912756367929 0 -0.12522099657713071 -0.191093493338819 0 -0.1139916170916581 -0.20836025504937111 0 -0.10276223760618371 -0.22562701675992211 0 -0.116319961743217 -0.2221593611850981 0 -0.1139916170916581 -0.20836025504937111 0 -0.116319961743217 -0.2221593611850981 0 -0.12892214791875289 -0.20714851576289259 0 -0.1139916170916581 -0.20836025504937111 0 -0.10276223760618371 -0.22562701675992211 0 -0.1139916170916581 -0.20836025504937111 0 -0.098941638306571864 -0.21050019586067439 0 -0.10276223760618371 -0.22562701675992211 0 -0.1061258994804638 -0.19604463686681969 0 -0.1139916170916581 -0.20836025504937111 0 -0.098941638306571864 -0.21050019586067439 0 -0.091532858120709271 -0.24289377847047311 0 -0.10276223760618371 -0.22562701675992211 0 -0.084797634970756416 -0.22147329023243709 0 -0.098941638306571864 -0.21050019586067439 0 -0.10276223760618371 -0.22562701675992211 0 -0.11248140091563261 -0.23963277876114389 0 -0.13031386570994291 -0.2220746810129163 0 -0.10276223760618371 -0.22562701675992211 0 -0.116319961743217 -0.2221593611850981 0 -0.11248140091563261 -0.23963277876114389 0 -0.116319961743217 -0.2221593611850981 0 -0.11248140091563261 -0.23963277876114389 0 -0.13031386570994291 -0.2220746810129163 0 -0.11248140091563261 -0.23963277876114389 0 -0.12579655330005099 -0.24121254208488949 0 -0.13031386570994291 -0.2220746810129163 0 -0.13186864264527029 -0.25209333300237979 0 -0.11610315498634841 -0.25620128443524648 0 -0.12579655330005099 -0.24121254208488949 0 -0.11610315498634841 -0.25620128443524648 0 -0.11248140091563261 -0.23963277876114389 0 -0.12579655330005099 -0.24121254208488949 0 -0.091532858120709271 -0.24289377847047311 0 -0.10276223760618371 -0.22562701675992211 0 -0.11248140091563261 -0.23963277876114389 0 -0.094648936121322372 -0.25719087650937139 0 -0.091532858120709271 -0.24289377847047311 0 -0.11248140091563261 -0.23963277876114389 0 -0.094648936121322372 -0.25719087650937139 0 -0.11248140091563261 -0.23963277876114389 0 -0.091542702303205326 -0.1294905181756571 0 -0.076140667388775313 -0.14066756521865831 0 -0.09438862661430264 -0.15208665868242799 0 -0.076140667388775313 -0.14066756521865831 0 -0.072226984566844538 -0.15818219379061729 0 -0.09438862661430264 -0.15208665868242799 0 -0.091542702303205326 -0.1294905181756571 0 -0.068826910421613555 -0.12750477262994331 0 -0.076140667388775313 -0.14066756521865831 0 -0.060892165260772013 -0.14066579929350939 0 -0.068826910421613555 -0.12750477262994331 0 -0.076140667388775313 -0.14066756521865831 0 -0.060892165260772013 -0.14066579929350939 0 -0.076140667388775313 -0.14066756521865831 0 -0.072226984566844538 -0.15818219379061729 0 -0.05577639070252903 -0.17048424542456039 0 -0.072226984566844538 -0.15818219379061729 0 -0.07421151833938068 -0.1767161727684729 0 -0.05577639070252903 -0.17048424542456039 0 -0.06505498419207606 -0.1912171300299646 0 -0.07421151833938068 -0.1767161727684729 0 -0.08703080238379729 -0.2009957803948218 0 -0.07421151833938068 -0.1767161727684729 0 -0.094026596472914142 -0.17631902831885399 0 -0.072226984566844538 -0.15818219379061729 0 -0.07421151833938068 -0.1767161727684729 0 -0.094026596472914142 -0.17631902831885399 0 -0.072226984566844538 -0.15818219379061729 0 -0.094026596472914142 -0.17631902831885399 0 -0.09438862661430264 -0.15208665868242799 0 -0.094026596472914142 -0.17631902831885399 0 -0.1110829084430119 -0.1682206066523303 0 -0.09438862661430264 -0.15208665868242799 0 -0.094026596472914142 -0.17631902831885399 0 -0.11290685344571411 -0.18289912756367929 0 -0.1110829084430119 -0.1682206066523303 0 -0.1061258994804638 -0.19604463686681969 0 -0.094026596472914142 -0.17631902831885399 0 -0.11290685344571411 -0.18289912756367929 0 -0.11290685344571411 -0.18289912756367929 0 -0.1110829084430119 -0.1682206066523303 0 -0.14016707815021939 -0.1681117756612962 0 -0.1110829084430119 -0.1682206066523303 0 -0.11401766186949661 -0.13884789141392259 0 -0.1110829084430119 -0.1682206066523303 0 -0.11401766186949661 -0.13884789141392259 0 -0.12995789994682649 -0.1509192734098681 0 -0.1110829084430119 -0.1682206066523303 0 -0.09438862661430264 -0.15208665868242799 0 -0.11401766186949661 -0.13884789141392259 0 -0.091542702303205326 -0.1294905181756571 0 -0.09438862661430264 -0.15208665868242799 0 -0.11401766186949661 -0.13884789141392259 0 -0.1169524152959812 -0.109475176175515 0 -0.091542702303205326 -0.1294905181756571 0 -0.11401766186949661 -0.13884789141392259 0 -0.1169524152959812 -0.109475176175515 0 -0.11401766186949661 -0.13884789141392259 0 -0.1319725165178541 -0.13265700904038599 0 -0.1319725165178541 -0.13265700904038599 0 -0.14358540631873221 -0.12977317260242671 0 -0.1415635245991371 -0.11698596747277221 0 -0.1319725165178541 -0.13265700904038599 0 -0.14358540631873221 -0.12977317260242671 0 -0.14782559579047919 -0.1419440353354374 0 -0.14358540631873221 -0.12977317260242671 0 -0.15297998836745841 -0.12750567856111131 0 -0.14782559579047919 -0.1419440353354374 0 -0.15297998836745841 -0.12750567856111131 0 -0.14782559579047919 -0.1419440353354374 0 -0.1628856224947165 -0.13593824003670499 0 -0.1551131597233065 -0.14513005798377229 0 -0.14782559579047919 -0.1419440353354374 0 -0.14016707815021939 -0.1681117756612962 0 -0.14782559579047919 -0.1419440353354374 0 -0.12995789994682649 -0.1509192734098681 0 -0.14016707815021939 -0.1681117756612962 0 -0.11401766186949661 -0.13884789141392259 0 -0.1319725165178541 -0.13265700904038599 0 -0.12995789994682649 -0.1509192734098681 0 -0.1319725165178541 -0.13265700904038599 0 -0.14782559579047919 -0.1419440353354374 0 -0.12995789994682649 -0.1509192734098681 0 -0.1110829084430119 -0.1682206066523303 0 -0.12995789994682649 -0.1509192734098681 0 -0.14016707815021939 -0.1681117756612962 0 -0.14016707815021939 -0.1681117756612962 0 -0.150034477792654 -0.18465963723923859 0 -0.12522099657713071 -0.191093493338819 0 -0.11290685344571411 -0.18289912756367929 0 -0.14016707815021939 -0.1681117756612962 0 -0.12522099657713071 -0.191093493338819 0 -0.14016707815021939 -0.1681117756612962 0 -0.12522099657713071 -0.191093493338819 0 -0.14016707815021939 -0.1681117756612962 0 -0.15400757941546589 -0.17293787960907639 0 -0.150034477792654 -0.18465963723923859 0 -0.14016707815021939 -0.1681117756612962 0 -0.15400757941546589 -0.17293787960907639 0 -0.15872243725168031 -0.16326407238923549 0 -0.1551131597233065 -0.14513005798377229 0 -0.14016707815021939 -0.1681117756612962 0 -0.1551131597233065 -0.14513005798377229 0 -0.14016707815021939 -0.1681117756612962 0 -0.15872243725168031 -0.16326407238923549 0 -0.15400757941546589 -0.17293787960907639 0 -0.15872243725168031 -0.16326407238923549 0 -0.16513367002986529 -0.17281063624143189 0 -0.15872243725168031 -0.16326407238923549 0 -0.1710187416052798 -0.16433711662822889 0 -0.16513367002986529 -0.17281063624143189 0 -0.1710187416052798 -0.16433711662822889 0 -0.16513367002986529 -0.17281063624143189 0 -0.17484795900817771 -0.17822578113965939 0 -0.15872243725168031 -0.16326407238923549 0 -0.1710187416052798 -0.16433711662822889 0 -0.16437107995121991 -0.15542417664619049 0 -0.150034477792654 -0.18465963723923859 0 -0.1648640614460046 -0.18508816592595809 0 -0.17484795900817771 -0.17822578113965939 0 -0.150034477792654 -0.18465963723923859 0 -0.16513367002986529 -0.17281063624143189 0 -0.17484795900817771 -0.17822578113965939 0 -0.150034477792654 -0.18465963723923859 0 -0.1648640614460046 -0.18508816592595809 0 -0.1659787952985626 -0.18695848551646019 0 -0.150034477792654 -0.18465963723923859 0 -0.17484795900817771 -0.17822578113965939 0 -0.15400757941546589 -0.17293787960907639 0 -0.150034477792654 -0.18465963723923859 0 -0.16513367002986529 -0.17281063624143189 0 -0.1659787952985626 -0.18695848551646019 0 -0.17484795900817771 -0.17822578113965939 0 -0.1648640614460046 -0.18508816592595809 0 -0.1659787952985626 -0.18695848551646019 0 -0.17484795900817771 -0.17822578113965939 0 -0.1648640614460046 -0.18508816592595809 0 -0.1659787952985626 -0.18695848551646019 0 -0.17484795900817771 -0.17822578113965939 0 -0.19172728586150961 -0.17384916187012481 0 -0.17484795900817771 -0.17822578113965939 0 -0.18614116283346219 -0.16710633248563639 0 -0.19172728586150961 -0.17384916187012481 0 -0.17484795900817771 -0.17822578113965939 0 -0.18413525637609149 -0.18411571840584531 0 -0.19172728586150961 -0.17384916187012481 0 -0.1761353585063016 -0.18530034885373081 0 -0.17484795900817771 -0.17822578113965939 0 -0.18413525637609149 -0.18411571840584531 0 -0.1659787952985626 -0.18695848551646019 0 -0.1761353585063016 -0.18530034885373081 0 -0.17484795900817771 -0.17822578113965939 0 -0.17484795900817771 -0.17822578113965939 0 -0.18614116283346219 -0.16710633248563639 0 -0.1761353585063016 -0.18530034885373081 0 -0.18413525637609149 -0.18411571840584531 0 -0.17957942334237489 -0.1919014103529581 0 -0.1710187416052798 -0.16433711662822889 0 -0.18614116283346219 -0.16710633248563639 0 -0.17262998122461301 -0.14896545958352531 0 -0.18614116283346219 -0.16710633248563639 0 -0.17262998122461301 -0.14896545958352531 0 -0.19743436665874689 -0.1559868838316133 0 -0.1710187416052798 -0.16433711662822889 0 -0.17484795900817771 -0.17822578113965939 0 -0.18614116283346219 -0.16710633248563639 0 -0.17262998122461301 -0.14896545958352531 0 -0.19743436665874689 -0.1559868838316133 0 -0.17262998122461301 -0.14896545958352531 0 -0.19109322556454719 -0.13832040142295751 0 -0.19743436665874689 -0.1559868838316133 0 -0.17262998122461301 -0.14896545958352531 0 -0.1762392399454496 -0.13300076254338819 0 -0.19109322556454719 -0.13832040142295751 0 -0.1762392399454496 -0.13300076254338819 0 -0.19109322556454719 -0.13832040142295751 0 -0.19217549732123901 -0.121548435812575 0 -0.17262998122461301 -0.14896545958352531 0 -0.1762392399454496 -0.13300076254338819 0 -0.1628856224947165 -0.13593824003670499 0 -0.1762392399454496 -0.13300076254338819 0 -0.1628856224947165 -0.13593824003670499 0 -0.16603465620396551 -0.12494099135846901 0 -0.15297998836745841 -0.12750567856111131 0 -0.1628856224947165 -0.13593824003670499 0 -0.16603465620396551 -0.12494099135846901 0 -0.1551131597233065 -0.14513005798377229 0 -0.15872243725168031 -0.16326407238923549 0 -0.16437107995121991 -0.15542417664619049 0 -0.1551131597233065 -0.14513005798377229 0 -0.17262998122461301 -0.14896545958352531 0 -0.16437107995121991 -0.15542417664619049 0 -0.14782559579047919 -0.1419440353354374 0 -0.17262998122461301 -0.14896545958352531 0 -0.1628856224947165 -0.13593824003670499 0 -0.1551131597233065 -0.14513005798377229 0 -0.14782559579047919 -0.1419440353354374 0 -0.17262998122461301 -0.14896545958352531 0 -0.14782559579047919 -0.1419440353354374 0 -0.17262998122461301 -0.14896545958352531 0 -0.1710187416052798 -0.16433711662822889 0 -0.17262998122461301 -0.14896545958352531 0 -0.16437107995121991 -0.15542417664619049 0 -0.14554826146612651 -0.2474766242342207 0 -0.15265653073135829 -0.2337800900312744 0 -0.15770655761944219 -0.24753195129691111 0 -0.14554826146612651 -0.2474766242342207 0 -0.1382157022430609 -0.236060633212761 0 -0.15265653073135829 -0.2337800900312744 0 -0.13186864264527029 -0.25209333300237979 0 -0.12579655330005099 -0.24121254208488949 0 -0.1382157022430609 -0.236060633212761 0 -0.13186864264527029 -0.25209333300237979 0 -0.14554826146612651 -0.2474766242342207 0 -0.1382157022430609 -0.236060633212761 0 -0.12579655330005099 -0.24121254208488949 0 -0.1382157022430609 -0.236060633212761 0 -0.13031386570994291 -0.2220746810129163 0 -0.1382157022430609 -0.236060633212761 0 -0.13031386570994291 -0.2220746810129163 0 -0.14542752676530921 -0.22294519829380299 0 -0.1382157022430609 -0.236060633212761 0 -0.14542752676530921 -0.22294519829380299 0 -0.15265653073135829 -0.2337800900312744 0 -0.14542752676530921 -0.22294519829380299 0 -0.15265653073135829 -0.2337800900312744 0 -0.15780520463793049 -0.2182940039473745 0 -0.14542752676530921 -0.22294519829380299 0 -0.14814633050425319 -0.20451658326468869 0 -0.15780520463793049 -0.2182940039473745 0 -0.13031386570994291 -0.2220746810129163 0 -0.14542752676530921 -0.22294519829380299 0 -0.14814633050425319 -0.20451658326468869 0 -0.13031386570994291 -0.2220746810129163 0 -0.14814633050425319 -0.20451658326468869 0 -0.12892214791875289 -0.20714851576289259 0 -0.13031386570994291 -0.2220746810129163 0 -0.14814633050425319 -0.20451658326468869 0 -0.116319961743217 -0.2221593611850981 0 -0.13031386570994291 -0.2220746810129163 0 -0.12892214791875289 -0.20714851576289259 0 -0.14814633050425319 -0.20451658326468869 0 -0.12892214791875289 -0.20714851576289259 0 -0.12522099657713071 -0.191093493338819 0 -0.150034477792654 -0.18465963723923859 0 -0.12522099657713071 -0.191093493338819 0 -0.150034477792654 -0.18465963723923859 0 -0.14814633050425319 -0.20451658326468869 0 -0.12522099657713071 -0.191093493338819 0 -0.150034477792654 -0.18465963723923859 0 -0.1659787952985626 -0.18695848551646019 0 -0.14814633050425319 -0.20451658326468869 0 -0.1659787952985626 -0.18695848551646019 0 -0.17745640891063749 -0.2062158226303813 0 -0.1659787952985626 -0.18695848551646019 0 -0.14814633050425319 -0.20451658326468869 0 -0.1659787952985626 -0.18695848551646019 0 -0.17745640891063749 -0.2062158226303813 0 -0.1630638029121142 -0.20451251195199149 0 -0.1659787952985626 -0.18695848551646019 0 -0.14814633050425319 -0.20451658326468869 0 -0.1630638029121142 -0.20451251195199149 0 -0.1659787952985626 -0.18695848551646019 0 -0.17957942334237489 -0.1919014103529581 0 -0.17745640891063749 -0.2062158226303813 0 -0.1659787952985626 -0.18695848551646019 0 -0.1761353585063016 -0.18530034885373081 0 -0.17957942334237489 -0.1919014103529581 0 -0.17957942334237489 -0.1919014103529581 0 -0.17745640891063749 -0.2062158226303813 0 -0.19329353765279189 -0.20273369621322429 0 -0.18413525637609149 -0.18411571840584531 0 -0.17957942334237489 -0.1919014103529581 0 -0.19059703355009691 -0.1900832090756456 0 -0.17745640891063749 -0.2062158226303813 0 -0.17137382435198631 -0.22342713441366771 0 -0.17917295861728089 -0.2236958723075288 0 -0.17745640891063749 -0.2062158226303813 0 -0.17917295861728089 -0.2236958723075288 0 -0.1889340225227186 -0.2254731597442988 0 -0.17745640891063749 -0.2062158226303813 0 -0.1889340225227186 -0.2254731597442988 0 -0.17745640891063749 -0.2062158226303813 0 -0.16721149487088149 -0.21275080119072121 0 -0.17137382435198631 -0.22342713441366771 0 -0.16721149487088149 -0.21275080119072121 0 -0.15780520463793049 -0.2182940039473745 0 -0.17137382435198631 -0.22342713441366771 0 -0.17745640891063749 -0.2062158226303813 0 -0.16721149487088149 -0.21275080119072121 0 -0.1630638029121142 -0.20451251195199149 0 -0.14814633050425319 -0.20451658326468869 0 -0.1630638029121142 -0.20451251195199149 0 -0.15780520463793049 -0.2182940039473745 0 -0.16721149487088149 -0.21275080119072121 0 -0.1630638029121142 -0.20451251195199149 0 -0.15780520463793049 -0.2182940039473745 0 -0.15265653073135829 -0.2337800900312744 0 -0.15780520463793049 -0.2182940039473745 0 -0.1658675827398636 -0.2317072389853666 0 -0.1658675827398636 -0.2317072389853666 0 -0.17137382435198631 -0.22342713441366771 0 -0.17773171359802739 -0.23525340206823539 0 -0.15780520463793049 -0.2182940039473745 0 -0.1658675827398636 -0.2317072389853666 0 -0.17137382435198631 -0.22342713441366771 0 -0.17773171359802739 -0.23525340206823539 0 -0.18965516251003231 -0.2414996343004403 0 -0.1889340225227186 -0.2254731597442988 0 -0.17773171359802739 -0.23525340206823539 0 -0.1889340225227186 -0.2254731597442988 0 -0.17917295861728089 -0.2236958723075288 0 -0.17773171359802739 -0.23525340206823539 0 -0.1889340225227186 -0.2254731597442988 0 -0.17137382435198631 -0.22342713441366771 0 -0.17917295861728089 -0.2236958723075288 0 -0.17773171359802739 -0.23525340206823539 0 -0.17137382435198631 -0.22342713441366771 0 -0.17773171359802739 -0.23525340206823539 0 -0.1658675827398636 -0.2317072389853666 0 -0.17240093000016751 -0.2399074743415513 0 -0.17773171359802739 -0.23525340206823539 0 -0.18933386957059889 -0.25683449550848919 0 -0.17773171359802739 -0.23525340206823539 0 -0.18965516251003231 -0.2414996343004403 0 -0.18933386957059889 -0.25683449550848919 0 -0.17240093000016751 -0.2399074743415513 0 -0.17773171359802739 -0.23525340206823539 0 -0.18933386957059889 -0.25683449550848919 0 -0.17773171359802739 -0.23525340206823539 0 -0.17240093000016751 -0.2399074743415513 0 -0.17773171359802739 -0.23525340206823539 0 -0.16905252216868019 -0.25613820074362248 0 -0.17240093000016751 -0.2399074743415513 0 -0.16353682465190239 -0.24181299107974519 0 -0.1658675827398636 -0.2317072389853666 0 -0.17240093000016751 -0.2399074743415513 0 -0.16353682465190239 -0.24181299107974519 0 -0.15265653073135829 -0.2337800900312744 0 -0.16353682465190239 -0.24181299107974519 0 -0.15770655761944219 -0.24753195129691111 0 -0.15265653073135829 -0.2337800900312744 0 -0.1658675827398636 -0.2317072389853666 0 -0.16353682465190239 -0.24181299107974519 0 -0.16905252216868019 -0.25613820074362248 0 -0.16353682465190239 -0.24181299107974519 0 -0.15770655761944219 -0.24753195129691111 0 -0.21150805409762569 -0.2422940444111642 0 -0.21358700047679441 -0.22498847113631751 0 -0.2305738397104786 -0.23852602789213109 0 -0.20488228512787229 -0.25223142847060898 0 -0.21660475357700959 -0.25507434199911633 0 -0.21150805409762569 -0.2422940444111642 0 -0.21150805409762569 -0.2422940444111642 0 -0.20262104434878389 -0.2484374798807383 0 -0.199748355293038 -0.233502367632625 0 -0.20488228512787229 -0.25223142847060898 0 -0.21150805409762569 -0.2422940444111642 0 -0.20262104434878389 -0.2484374798807383 0 -0.20262104434878389 -0.2484374798807383 0 -0.18965516251003231 -0.2414996343004403 0 -0.1889340225227186 -0.2254731597442988 0 -0.20262104434878389 -0.2484374798807383 0 -0.1889340225227186 -0.2254731597442988 0 -0.20262104434878389 -0.2484374798807383 0 -0.199748355293038 -0.233502367632625 0 -0.1889340225227186 -0.2254731597442988 0 -0.18933386957059889 -0.25683449550848919 0 -0.20262104434878389 -0.2484374798807383 0 -0.18965516251003231 -0.2414996343004403 0 -0.20262104434878389 -0.2484374798807383 0 -0.199748355293038 -0.233502367632625 0 -0.1889340225227186 -0.2254731597442988 0 -0.1968756662372928 -0.21856725538451149 0 -0.199748355293038 -0.233502367632625 0 -0.1889340225227186 -0.2254731597442988 0 -0.1968756662372928 -0.21856725538451149 0 -0.199748355293038 -0.233502367632625 0 -0.1968756662372928 -0.21856725538451149 0 -0.199748355293038 -0.233502367632625 0 -0.21358700047679441 -0.22498847113631751 0 -0.1968756662372928 -0.21856725538451149 0 -0.21150805409762569 -0.2422940444111642 0 -0.199748355293038 -0.233502367632625 0 -0.21358700047679441 -0.22498847113631751 0 -0.1968756662372928 -0.21856725538451149 0 -0.2146313814201519 -0.20303792797274109 0 -0.21358700047679441 -0.22498847113631751 0 -0.2146313814201519 -0.20303792797274109 0 -0.22334420055709089 -0.2134945078797135 0 -0.21358700047679441 -0.22498847113631751 0 -0.1968756662372928 -0.21856725538451149 0 -0.2146313814201519 -0.20303792797274109 0 -0.17745640891063749 -0.2062158226303813 0 -0.1968756662372928 -0.21856725538451149 0 -0.19329353765279189 -0.20273369621322429 0 -0.17745640891063749 -0.2062158226303813 0 -0.1889340225227186 -0.2254731597442988 0 -0.1968756662372928 -0.21856725538451149 0 -0.1968756662372928 -0.21856725538451149 0 -0.19329353765279189 -0.20273369621322429 0 -0.2146313814201519 -0.20303792797274109 0 -0.17957942334237489 -0.1919014103529581 0 -0.19329353765279189 -0.20273369621322429 0 -0.19059703355009691 -0.1900832090756456 0 -0.19329353765279189 -0.20273369621322429 0 -0.19059703355009691 -0.1900832090756456 0 -0.2019862940381898 -0.18904516679605321 0 -0.19329353765279189 -0.20273369621322429 0 -0.2019862940381898 -0.18904516679605321 0 -0.2146313814201519 -0.20303792797274109 0 -0.2019862940381898 -0.18904516679605321 0 -0.2146313814201519 -0.20303792797274109 0 -0.2178439466097627 -0.18758980537489719 0 -0.2146313814201519 -0.20303792797274109 0 -0.227502339927768 -0.202108116416922 0 -0.23240076785222721 -0.18752425963689481 0 -0.2146313814201519 -0.20303792797274109 0 -0.2178439466097627 -0.18758980537489719 0 -0.23240076785222721 -0.18752425963689481 0 -0.2146313814201519 -0.20303792797274109 0 -0.23240076785222721 -0.18752425963689481 0 -0.227502339927768 -0.202108116416922 0 -0.2347329755047739 -0.1935981716635399 0 -0.23567387908912599 -0.2051248580633325 0 -0.227502339927768 -0.202108116416922 0 -0.23240076785222721 -0.18752425963689481 0 -0.2347329755047739 -0.1935981716635399 0 -0.2347329755047739 -0.1935981716635399 0 -0.2395379069393474 -0.1876040672579658 0 -0.24358299375608869 -0.19587478054186239 0 -0.2347329755047739 -0.1935981716635399 0 -0.24358299375608869 -0.19587478054186239 0 -0.24573040541625801 -0.21383591756451939 0 -0.23240076785222721 -0.18752425963689481 0 -0.2347329755047739 -0.1935981716635399 0 -0.2395379069393474 -0.1876040672579658 0 -0.24968431970358079 -0.19908319888389009 0 -0.24358299375608869 -0.19587478054186239 0 -0.24573040541625801 -0.21383591756451939 0 -0.24968431970358079 -0.19908319888389009 0 -0.24358299375608869 -0.19587478054186239 0 -0.24822936121648331 -0.185252547339397 0 -0.2395379069393474 -0.1876040672579658 0 -0.24358299375608869 -0.19587478054186239 0 -0.24822936121648331 -0.185252547339397 0 -0.23567387908912599 -0.2051248580633325 0 -0.24573040541625801 -0.21383591756451939 0 -0.23472979550770401 -0.21095722660834881 0 -0.2347329755047739 -0.1935981716635399 0 -0.24573040541625801 -0.21383591756451939 0 -0.24573040541625801 -0.21383591756451939 0 -0.23472979550770401 -0.21095722660834881 0 -0.24256324509009691 -0.22819606145317009 0 -0.2347329755047739 -0.1935981716635399 0 -0.23567387908912599 -0.2051248580633325 0 -0.24573040541625801 -0.21383591756451939 0 -0.24968431970358079 -0.19908319888389009 0 -0.24573040541625801 -0.21383591756451939 0 -0.25373063328139828 -0.20791507636346049 0 -0.227502339927768 -0.202108116416922 0 -0.23567387908912599 -0.2051248580633325 0 -0.23472979550770401 -0.21095722660834881 0 -0.227502339927768 -0.202108116416922 0 -0.23472979550770401 -0.21095722660834881 0 -0.22334420055709089 -0.2134945078797135 0 -0.2146313814201519 -0.20303792797274109 0 -0.227502339927768 -0.202108116416922 0 -0.22334420055709089 -0.2134945078797135 0 -0.21358700047679441 -0.22498847113631751 0 -0.22334420055709089 -0.2134945078797135 0 -0.2305738397104786 -0.23852602789213109 0 -0.23472979550770401 -0.21095722660834881 0 -0.2305738397104786 -0.23852602789213109 0 -0.23472979550770401 -0.21095722660834881 0 -0.22334420055709089 -0.2134945078797135 0 -0.2305738397104786 -0.23852602789213109 0 -0.23472979550770401 -0.21095722660834881 0 -0.24256324509009691 -0.22819606145317009 0 -0.2305738397104786 -0.23852602789213109 0 -0.24573040541625801 -0.21383591756451939 0 -0.24256324509009691 -0.22819606145317009 0 -0.25672783532774202 -0.23407366346549879 0 -0.2399648233912737 -0.2555988223921688 0 -0.24456523742333311 -0.24298281553316639 0 -0.2305738397104786 -0.23852602789213109 0 -0.24256324509009691 -0.22819606145317009 0 -0.24456523742333311 -0.24298281553316639 0 -0.2305738397104786 -0.23852602789213109 0 -0.24256324509009691 -0.22819606145317009 0 -0.24456523742333311 -0.24298281553316639 0 -0.25672783532774202 -0.23407366346549879 0 -0.21660475357700959 -0.25507434199911633 0 -0.21150805409762569 -0.2422940444111642 0 -0.2305738397104786 -0.23852602789213109 0 -0.21283590264454019 -0.14082231306528351 0 -0.19743436665874689 -0.1559868838316133 0 -0.22246020917043161 -0.16307099635304509 0 -0.21283590264454019 -0.14082231306528351 0 -0.19743436665874689 -0.1559868838316133 0 -0.21283590264454019 -0.14082231306528351 0 -0.20828618689728001 -0.12586720329171711 0 -0.19109322556454719 -0.13832040142295751 0 -0.21283590264454019 -0.14082231306528351 0 -0.20828618689728001 -0.12586720329171711 0 -0.22823743863033361 -0.12565774229895371 0 -0.20828618689728001 -0.12586720329171711 0 -0.19109322556454719 -0.13832040142295751 0 -0.19217549732123901 -0.121548435812575 0 -0.21283590264454019 -0.14082231306528351 0 -0.19109322556454719 -0.13832040142295751 0 -0.19743436665874689 -0.1559868838316133 0 -0.18614116283346219 -0.16710633248563639 0 -0.19743436665874689 -0.1559868838316133 0 -0.19534895087068399 -0.1651634422316075 0 -0.19534895087068399 -0.1651634422316075 0 -0.19172728586150961 -0.17384916187012481 0 -0.20860661271484141 -0.16947254260059019 0 -0.19172728586150961 -0.17384916187012481 0 -0.20860661271484141 -0.16947254260059019 0 -0.18614116283346219 -0.16710633248563639 0 -0.19743436665874689 -0.1559868838316133 0 -0.18614116283346219 -0.16710633248563639 0 -0.19534895087068399 -0.1651634422316075 0 -0.19172728586150961 -0.17384916187012481 0 -0.19743436665874689 -0.1559868838316133 0 -0.19534895087068399 -0.1651634422316075 0 -0.20860661271484141 -0.16947254260059019 0 -0.19172728586150961 -0.17384916187012481 0 -0.20183329720872981 -0.17808746361510289 0 -0.20860661271484141 -0.16947254260059019 0 -0.18413525637609149 -0.18411571840584531 0 -0.19059703355009691 -0.1900832090756456 0 -0.1939906563410366 -0.1826200536101468 0 -0.18413525637609149 -0.18411571840584531 0 -0.1939906563410366 -0.1826200536101468 0 -0.19172728586150961 -0.17384916187012481 0 -0.1939906563410366 -0.1826200536101468 0 -0.19172728586150961 -0.17384916187012481 0 -0.20183329720872981 -0.17808746361510289 0 -0.19059703355009691 -0.1900832090756456 0 -0.2019862940381898 -0.18904516679605321 0 -0.1939906563410366 -0.1826200536101468 0 -0.2019862940381898 -0.18904516679605321 0 -0.1939906563410366 -0.1826200536101468 0 -0.20183329720872981 -0.17808746361510289 0 -0.2019862940381898 -0.18904516679605321 0 -0.2178439466097627 -0.18758980537489719 0 -0.22516317286868329 -0.17464385876704011 0 -0.2019862940381898 -0.18904516679605321 0 -0.22516317286868329 -0.17464385876704011 0 -0.20183329720872981 -0.17808746361510289 0 -0.20860661271484141 -0.16947254260059019 0 -0.22516317286868329 -0.17464385876704011 0 -0.2019862940381898 -0.18904516679605321 0 -0.20183329720872981 -0.17808746361510289 0 -0.22516317286868329 -0.17464385876704011 0 -0.20860661271484141 -0.16947254260059019 0 -0.22246020917043161 -0.16307099635304509 0 -0.22516317286868329 -0.17464385876704011 0 -0.19743436665874689 -0.1559868838316133 0 -0.20860661271484141 -0.16947254260059019 0 -0.22246020917043161 -0.16307099635304509 0 -0.19743436665874689 -0.1559868838316133 0 -0.22246020917043161 -0.16307099635304509 0 -0.22246020917043161 -0.16307099635304509 0 -0.22516317286868329 -0.17464385876704011 0 -0.248340051699177 -0.16024255073802701 0 -0.2178439466097627 -0.18758980537489719 0 -0.23240076785222721 -0.18752425963689481 0 -0.22618898910832819 -0.1826680453203261 0 -0.2178439466097627 -0.18758980537489719 0 -0.22618898910832819 -0.1826680453203261 0 -0.22516317286868329 -0.17464385876704011 0 -0.22516317286868329 -0.17464385876704011 0 -0.23255005823514771 -0.1817567819341008 0 -0.23945945440715219 -0.17634367868827719 0 -0.22618898910832819 -0.1826680453203261 0 -0.22516317286868329 -0.17464385876704011 0 -0.23255005823514771 -0.1817567819341008 0 -0.23240076785222721 -0.18752425963689481 0 -0.22618898910832819 -0.1826680453203261 0 -0.23255005823514771 -0.1817567819341008 0 -0.2395379069393474 -0.1876040672579658 0 -0.23255005823514771 -0.1817567819341008 0 -0.23945945440715219 -0.17634367868827719 0 -0.23240076785222721 -0.18752425963689481 0 -0.2395379069393474 -0.1876040672579658 0 -0.23255005823514771 -0.1817567819341008 0 -0.23945945440715219 -0.17634367868827719 0 -0.24822936121648331 -0.185252547339397 0 -0.25041623700348359 -0.1732946864964002 0 -0.2395379069393474 -0.1876040672579658 0 -0.23945945440715219 -0.17634367868827719 0 -0.24822936121648331 -0.185252547339397 0 -0.22516317286868329 -0.17464385876704011 0 -0.23945945440715219 -0.17634367868827719 0 -0.248340051699177 -0.16024255073802701 0 -0.22516317286868329 -0.17464385876704011 0 -0.248340051699177 -0.16024255073802701 0 -0.23945945440715219 -0.17634367868827719 0 -0.248340051699177 -0.16024255073802701 0 -0.25041623700348359 -0.1732946864964002 0 -0.22246020917043161 -0.16307099635304509 0 -0.248340051699177 -0.16024255073802701 0 -0.23662769227539071 -0.14445259344711689 0 -0.248340051699177 -0.16024255073802701 0 -0.23662769227539071 -0.14445259344711689 0 -0.25446505566657213 -0.14346193728670151 0 -0.21283590264454019 -0.14082231306528351 0 -0.22246020917043161 -0.16307099635304509 0 -0.23662769227539071 -0.14445259344711689 0 -0.21283590264454019 -0.14082231306528351 0 -0.23662769227539071 -0.14445259344711689 0 -0.22823743863033361 -0.12565774229895371 0 -0.21283590264454019 -0.14082231306528351 0 -0.22823743863033361 -0.12565774229895371 0 -0.23662769227539071 -0.14445259344711689 0 -0.25446505566657213 -0.14346193728670151 0 -0.25221903949000618 -0.13072785163159911 0 -0.23662769227539071 -0.14445259344711689 0 -0.22823743863033361 -0.12565774229895371 0 -0.25221903949000618 -0.13072785163159911 0 -0.22823743863033361 -0.12565774229895371 0 -0.24341893088802399 -0.1131008348671146 0 -0.25221903949000618 -0.13072785163159911 0 -0.24341893088802399 -0.1131008348671146 0 -0.22915967056864289 -0.099263333959776212 0 -0.24809860131482331 -0.093114318798538612 0 -0.22823743863033361 -0.12565774229895371 0 -0.24341893088802399 -0.1131008348671146 0 -0.22915967056864289 -0.099263333959776212 0 -0.22823743863033361 -0.12565774229895371 0 -0.22915967056864289 -0.099263333959776212 0 -0.2099207793220097 -0.1086364592189295 0 -0.2371933862813943 -0.063112847200515229 0 -0.2329805135591291 -0.080523644600928868 0 -0.25143544676879431 -0.071358460655110645 0 -0.24809860131482331 -0.093114318798538612 0 -0.2329805135591291 -0.080523644600928868 0 -0.25143544676879431 -0.071358460655110645 0 -0.22915967056864289 -0.099263333959776212 0 -0.24809860131482331 -0.093114318798538612 0 -0.2329805135591291 -0.080523644600928868 0 -0.2329805135591291 -0.080523644600928868 0 -0.21662641672443489 -0.068680013341628696 0 -0.215369559696685 -0.087612893650003826 0 -0.22915967056864289 -0.099263333959776212 0 -0.2329805135591291 -0.080523644600928868 0 -0.215369559696685 -0.087612893650003826 0 -0.2371933862813943 -0.063112847200515229 0 -0.2329805135591291 -0.080523644600928868 0 -0.21662641672443489 -0.068680013341628696 0 -0.21662641672443489 -0.068680013341628696 0 -0.215369559696685 -0.087612893650003826 0 -0.19934381668333351 -0.075850079855561692 0 -0.21662641672443489 -0.068680013341628696 0 -0.19934381668333351 -0.075850079855561692 0 -0.19361038518034099 -0.057709753188847142 0 -0.215369559696685 -0.087612893650003826 0 -0.19890575889745651 -0.090860044146544749 0 -0.19934381668333351 -0.075850079855561692 0 -0.19890575889745651 -0.090860044146544749 0 -0.1886077937748403 -0.1031053012414135 0 -0.18192647411547549 -0.079823491967497301 0 -0.19890575889745651 -0.090860044146544749 0 -0.19934381668333351 -0.075850079855561692 0 -0.18192647411547549 -0.079823491967497301 0 -0.19934381668333351 -0.075850079855561692 0 -0.18192647411547549 -0.079823491967497301 0 -0.19361038518034099 -0.057709753188847142 0 -0.20828618689728001 -0.12586720329171711 0 -0.2099207793220097 -0.1086364592189295 0 -0.19217549732123901 -0.121548435812575 0 -0.20828618689728001 -0.12586720329171711 0 -0.22823743863033361 -0.12565774229895371 0 -0.2099207793220097 -0.1086364592189295 0 -0.22915967056864289 -0.099263333959776212 0 -0.215369559696685 -0.087612893650003826 0 -0.2099207793220097 -0.1086364592189295 0 -0.215369559696685 -0.087612893650003826 0 -0.19890575889745651 -0.090860044146544749 0 -0.2099207793220097 -0.1086364592189295 0 -0.19890575889745651 -0.090860044146544749 0 -0.2099207793220097 -0.1086364592189295 0 -0.1886077937748403 -0.1031053012414135 0 -0.2099207793220097 -0.1086364592189295 0 -0.1886077937748403 -0.1031053012414135 0 -0.19217549732123901 -0.121548435812575 0 -0.1762392399454496 -0.13300076254338819 0 -0.17705435695481839 -0.1157637759512626 0 -0.16603465620396551 -0.12494099135846901 0 -0.1762392399454496 -0.13300076254338819 0 -0.19217549732123901 -0.121548435812575 0 -0.17705435695481839 -0.1157637759512626 0 -0.1886077937748403 -0.1031053012414135 0 -0.19217549732123901 -0.121548435812575 0 -0.17705435695481839 -0.1157637759512626 0 -0.17705435695481839 -0.1157637759512626 0 -0.15916352972210429 -0.11151991615257061 0 -0.16603465620396551 -0.12494099135846901 0 -0.15297998836745841 -0.12750567856111131 0 -0.15916352972210429 -0.11151991615257061 0 -0.16603465620396551 -0.12494099135846901 0 -0.15916352972210429 -0.11151991615257061 0 -0.1714070130577395 -0.099353316063821862 0 -0.14993602783255361 -0.094817570774336279 0 -0.17705435695481839 -0.1157637759512626 0 -0.15916352972210429 -0.11151991615257061 0 -0.1714070130577395 -0.099353316063821862 0 -0.1886077937748403 -0.1031053012414135 0 -0.1714070130577395 -0.099353316063821862 0 -0.18192647411547549 -0.079823491967497301 0 -0.1886077937748403 -0.1031053012414135 0 -0.17705435695481839 -0.1157637759512626 0 -0.1714070130577395 -0.099353316063821862 0 -0.1714070130577395 -0.099353316063821862 0 -0.18192647411547549 -0.079823491967497301 0 -0.16438585926394969 -0.080946808106278106 0 -0.18192647411547549 -0.079823491967497301 0 -0.16771958236752321 -0.062921962149844635 0 -0.19361038518034099 -0.057709753188847142 0 -0.18192647411547549 -0.079823491967497301 0 -0.16771958236752321 -0.062921962149844635 0 -0.16438585926394969 -0.080946808106278106 0 -0.16771958236752321 -0.062921962149844635 0 -0.16438585926394969 -0.080946808106278106 0 -0.14811635664584849 -0.070385413342262032 0 -0.1714070130577395 -0.099353316063821862 0 -0.16438585926394969 -0.080946808106278106 0 -0.14993602783255361 -0.094817570774336279 0 -0.16438585926394969 -0.080946808106278106 0 -0.14811635664584849 -0.070385413342262032 0 -0.14993602783255361 -0.094817570774336279 0 -0.11988716872246589 -0.080102460937107184 0 -0.1228219221489505 -0.050729745698699383 0 -0.14811635664584849 -0.070385413342262032 0 -0.11988716872246589 -0.080102460937107184 0 -0.13208478411253441 -0.10034529383993269 0 -0.14993602783255361 -0.094817570774336279 0 -0.11988716872246589 -0.080102460937107184 0 -0.14811635664584849 -0.070385413342262032 0 -0.14993602783255361 -0.094817570774336279 0 -0.1169524152959812 -0.109475176175515 0 -0.13208478411253441 -0.10034529383993269 0 -0.1415635245991371 -0.11698596747277221 0 -0.1169524152959812 -0.109475176175515 0 -0.1319725165178541 -0.13265700904038599 0 -0.1415635245991371 -0.11698596747277221 0 -0.15297998836745841 -0.12750567856111131 0 -0.15916352972210429 -0.11151991615257061 0 -0.1415635245991371 -0.11698596747277221 0 -0.14358540631873221 -0.12977317260242671 0 -0.15297998836745841 -0.12750567856111131 0 -0.1415635245991371 -0.11698596747277221 0 -0.13208478411253441 -0.10034529383993269 0 -0.1415635245991371 -0.11698596747277221 0 -0.14993602783255361 -0.094817570774336279 0 -0.15916352972210429 -0.11151991615257061 0 -0.1415635245991371 -0.11698596747277221 0 -0.14993602783255361 -0.094817570774336279 0 -0.1229846482582518 -0.0055933252605166392 0 -0.1151991738617443 -0.026588295223576881 0 -0.14652656056561481 -0.022965467903293471 0 -0.14652656056561481 -0.022965467903293471 0 -0.14750110570290759 -0.002059166847461874 0 -0.17188684792672981 -0.0080234740798620328 0 -0.1229846482582518 -0.0055933252605166392 0 -0.14652656056561481 -0.022965467903293471 0 -0.14750110570290759 -0.002059166847461874 0 -0.1229846482582518 -0.0055933252605166392 0 -0.14652656056561481 -0.022965467903293471 0 -0.1228219221489505 -0.050729745698699383 0 -0.14652656056561481 -0.022965467903293471 0 -0.1482099461265465 -0.048328695748112938 0 -0.1228219221489505 -0.050729745698699383 0 -0.1151991738617443 -0.026588295223576881 0 -0.14652656056561481 -0.022965467903293471 0 -0.1228219221489505 -0.050729745698699383 0 -0.14811635664584849 -0.070385413342262032 0 -0.1482099461265465 -0.048328695748112938 0 -0.16771958236752321 -0.062921962149844635 0 -0.14811635664584849 -0.070385413342262032 0 -0.1482099461265465 -0.048328695748112938 0 -0.14652656056561481 -0.022965467903293471 0 -0.1482099461265465 -0.048328695748112938 0 -0.17006847287297791 -0.04033761054607031 0 -0.14652656056561481 -0.022965467903293471 0 -0.17006847287297791 -0.04033761054607031 0 -0.16771958236752321 -0.062921962149844635 0 -0.1482099461265465 -0.048328695748112938 0 -0.17006847287297791 -0.04033761054607031 0 -0.16771958236752321 -0.062921962149844635 0 -0.17006847287297791 -0.04033761054607031 0 -0.19361038518034099 -0.057709753188847142 0 -0.17006847287297791 -0.04033761054607031 0 -0.19361038518034099 -0.057709753188847142 0 -0.14652656056561481 -0.022965467903293471 0 -0.17006847287297791 -0.04033761054607031 0 -0.17188684792672981 -0.0080234740798620328 0 -0.17006847287297791 -0.04033761054607031 0 -0.17188684792672981 -0.0080234740798620328 0 -0.1956524255893354 -0.01887888673598883 0 -0.17188684792672981 -0.0080234740798620328 0 -0.1956524255893354 -0.01887888673598883 0 -0.196142535214333 0.002272681728797563 0 -0.1956524255893354 -0.01887888673598883 0 -0.21422800054317101 -0.025251689537882632 0 -0.20154941346570451 -0.039656737751201709 0 -0.1956524255893354 -0.01887888673598883 0 -0.21422800054317101 -0.025251689537882632 0 -0.21782897871155019 -0.0003940275126071017 0 -0.1956524255893354 -0.01887888673598883 0 -0.21782897871155019 -0.0003940275126071017 0 -0.196142535214333 0.002272681728797563 0 -0.17006847287297791 -0.04033761054607031 0 -0.19361038518034099 -0.057709753188847142 0 -0.20154941346570451 -0.039656737751201709 0 -0.17006847287297791 -0.04033761054607031 0 -0.1956524255893354 -0.01887888673598883 0 -0.20154941346570451 -0.039656737751201709 0 -0.19361038518034099 -0.057709753188847142 0 -0.20154941346570451 -0.039656737751201709 0 -0.20876138570433039 -0.051934800569997858 0 -0.20154941346570451 -0.039656737751201709 0 -0.20876138570433039 -0.051934800569997858 0 -0.2232593274468411 -0.041692697998313863 0 -0.21422800054317101 -0.025251689537882632 0 -0.20154941346570451 -0.039656737751201709 0 -0.2232593274468411 -0.041692697998313863 0 -0.21662641672443489 -0.068680013341628696 0 -0.20876138570433039 -0.051934800569997858 0 -0.2232593274468411 -0.041692697998313863 0 -0.21662641672443489 -0.068680013341628696 0 -0.19361038518034099 -0.057709753188847142 0 -0.20876138570433039 -0.051934800569997858 0 -0.21662641672443489 -0.068680013341628696 0 -0.23095019381453261 -0.047765909231617359 0 -0.2232593274468411 -0.041692697998313863 0 -0.2371933862813943 -0.063112847200515229 0 -0.21662641672443489 -0.068680013341628696 0 -0.23095019381453261 -0.047765909231617359 0 -0.21662641672443489 -0.068680013341628696 0 -0.2232593274468411 -0.041692697998313863 0 -0.23095019381453261 -0.047765909231617359 0 -0.2232593274468411 -0.041692697998313863 0 -0.2379504985364217 -0.030994704621503281 0 -0.23095019381453261 -0.047765909231617359 0 -0.2379504985364217 -0.030994704621503281 0 -0.25752065328602353 -0.047785068869094928 0 -0.2371933862813943 -0.063112847200515229 0 -0.25752065328602353 -0.047785068869094928 0 -0.25143544676879431 -0.071358460655110645 0 -0.23095019381453261 -0.047765909231617359 0 -0.25752065328602353 -0.047785068869094928 0 -0.2371933862813943 -0.063112847200515229 0 -0.23095019381453261 -0.047765909231617359 0 -0.25752065328602353 -0.047785068869094928 0 -0.21422800054317101 -0.025251689537882632 0 -0.21782897871155019 -0.0003940275126071017 0 -0.22989223816924709 -0.01470538265499903 0 -0.21782897871155019 -0.0003940275126071017 0 -0.22989223816924709 -0.01470538265499903 0 -0.2365251488916538 0.012281932688315849 0 -0.22989223816924709 -0.01470538265499903 0 -0.2365251488916538 0.012281932688315849 0 -0.2232593274468411 -0.041692697998313863 0 -0.22989223816924709 -0.01470538265499903 0 -0.21422800054317101 -0.025251689537882632 0 -0.2232593274468411 -0.041692697998313863 0 -0.22989223816924709 -0.01470538265499903 0 -0.2232593274468411 -0.041692697998313863 0 -0.22989223816924709 -0.01470538265499903 0 -0.2379504985364217 -0.030994704621503281 0 -0.22989223816924709 -0.01470538265499903 0 -0.2379504985364217 -0.030994704621503281 0 -0.24622706090199109 -0.0057462285065727151 0 -0.22989223816924709 -0.01470538265499903 0 -0.24622706090199109 -0.0057462285065727151 0 -0.2365251488916538 0.012281932688315849 0 -0.24622706090199109 -0.0057462285065727151 0 -0.26751696773485489 -0.021248858536286531 0 -0.26196604515275917 0.0063026809159313687 0 -0.2379504985364217 -0.030994704621503281 0 -0.24622706090199109 -0.0057462285065727151 0 -0.26751696773485489 -0.021248858536286531 0 -0.26751696773485489 -0.021248858536286531 0 -0.26196604515275917 0.0063026809159313687 0 -0.28740694141386441 0.00032342914354691749 0 -0.26751696773485489 -0.021248858536286531 0 -0.29888227713974469 -0.024804683021595959 0 -0.28740694141386441 0.00032342914354691749 0 -0.29888227713974469 -0.024804683021595959 0 -0.31666736856865441 -0.0055691854636326348 0 -0.28740694141386441 0.00032342914354691749 0 -0.26751696773485489 -0.021248858536286531 0 -0.29888227713974469 -0.024804683021595959 0 -0.28409111275751442 -0.047804228506572503 0 -0.31066157222900548 -0.047823388144050072 0 -0.28409111275751442 -0.047804228506572503 0 -0.2975805851801045 -0.06774182018852748 0 -0.31066157222900548 -0.047823388144050072 0 -0.28409111275751442 -0.047804228506572503 0 -0.31066157222900548 -0.047823388144050072 0 -0.2975805851801045 -0.06774182018852748 0 -0.31967007523087021 -0.069689979383755679 0 -0.29888227713974469 -0.024804683021595959 0 -0.31066157222900548 -0.047823388144050072 0 -0.32694970013457508 -0.026705866622580929 0 -0.29888227713974469 -0.024804683021595959 0 -0.31066157222900548 -0.047823388144050072 0 -0.28409111275751442 -0.047804228506572503 0 -0.28409111275751442 -0.047804228506572503 0 -0.27219390479458089 -0.063575805258359749 0 -0.2975805851801045 -0.06774182018852748 0 -0.28409111275751442 -0.047804228506572503 0 -0.25752065328602353 -0.047785068869094928 0 -0.27219390479458089 -0.063575805258359749 0 -0.28409111275751442 -0.047804228506572503 0 -0.25752065328602353 -0.047785068869094928 0 -0.26751696773485489 -0.021248858536286531 0 -0.28409111275751442 -0.047804228506572503 0 -0.25752065328602353 -0.047785068869094928 0 -0.2379504985364217 -0.030994704621503281 0 -0.26751696773485489 -0.021248858536286531 0 -0.25752065328602353 -0.047785068869094928 0 -0.25752065328602353 -0.047785068869094928 0 -0.25143544676879431 -0.071358460655110645 0 -0.27219390479458089 -0.063575805258359749 0 -0.25143544676879431 -0.071358460655110645 0 -0.27313838139514818 -0.086167356522727764 0 -0.27219390479458089 -0.063575805258359749 0 -0.24809860131482331 -0.093114318798538612 0 -0.25143544676879431 -0.071358460655110645 0 -0.27313838139514818 -0.086167356522727764 0 -0.27313838139514818 -0.086167356522727764 0 -0.27219390479458089 -0.063575805258359749 0 -0.2975805851801045 -0.06774182018852748 0 -0.24341893088802399 -0.1131008348671146 0 -0.26200495745514429 -0.10882114288137799 0 -0.25221903949000618 -0.13072785163159911 0 -0.26200495745514429 -0.10882114288137799 0 -0.25221903949000618 -0.13072785163159911 0 -0.27137905671225321 -0.126140110197593 0 -0.24341893088802399 -0.1131008348671146 0 -0.24809860131482331 -0.093114318798538612 0 -0.26200495745514429 -0.10882114288137799 0 -0.24809860131482331 -0.093114318798538612 0 -0.27313838139514818 -0.086167356522727764 0 -0.26200495745514429 -0.10882114288137799 0 -0.27313838139514818 -0.086167356522727764 0 -0.26200495745514429 -0.10882114288137799 0 -0.28378580881893839 -0.108620524352665 0 -0.26200495745514429 -0.10882114288137799 0 -0.28378580881893839 -0.108620524352665 0 -0.27137905671225321 -0.126140110197593 0 -0.28378580881893839 -0.108620524352665 0 -0.27137905671225321 -0.126140110197593 0 -0.29469380936016432 -0.1314399346800007 0 -0.28378580881893839 -0.108620524352665 0 -0.30312337490676472 -0.1098915473919211 0 -0.29469380936016432 -0.1314399346800007 0 -0.28378580881893839 -0.108620524352665 0 -0.30312337490676472 -0.1098915473919211 0 -0.2972410481018195 -0.091065751469680462 0 -0.27313838139514818 -0.086167356522727764 0 -0.28378580881893839 -0.108620524352665 0 -0.2972410481018195 -0.091065751469680462 0 -0.30312337490676472 -0.1098915473919211 0 -0.2972410481018195 -0.091065751469680462 0 -0.31297989583375418 -0.096498134590745965 0 -0.30312337490676472 -0.1098915473919211 0 -0.31695197960153237 -0.1088536309116124 0 -0.31297989583375418 -0.096498134590745965 0 -0.30312337490676472 -0.1098915473919211 0 -0.31268723982892471 -0.1207963050883983 0 -0.29469380936016432 -0.1314399346800007 0 -0.30312337490676472 -0.1098915473919211 0 -0.31268723982892471 -0.1207963050883983 0 -0.31695197960153237 -0.1088536309116124 0 -0.27313838139514818 -0.086167356522727764 0 -0.2972410481018195 -0.091065751469680462 0 -0.2975805851801045 -0.06774182018852748 0 -0.2972410481018195 -0.091065751469680462 0 -0.31016431032156772 -0.081794997895869304 0 -0.31297989583375418 -0.096498134590745965 0 -0.2972410481018195 -0.091065751469680462 0 -0.31016431032156772 -0.081794997895869304 0 -0.2975805851801045 -0.06774182018852748 0 -0.31016431032156772 -0.081794997895869304 0 -0.2975805851801045 -0.06774182018852748 0 -0.31967007523087021 -0.069689979383755679 0 -0.31016431032156772 -0.081794997895869304 0 -0.31967007523087021 -0.069689979383755679 0 -0.32096495167793521 -0.087578587751262468 0 -0.31967007523087021 -0.069689979383755679 0 -0.32096495167793521 -0.087578587751262468 0 -0.33658548000822791 -0.086104068525280561 0 -0.31016431032156772 -0.081794997895869304 0 -0.32096495167793521 -0.087578587751262468 0 -0.31297989583375418 -0.096498134590745965 0 -0.32096495167793521 -0.087578587751262468 0 -0.33658548000822791 -0.086104068525280561 0 -0.32360533951288251 -0.098462166181047403 0 -0.33658548000822791 -0.086104068525280561 0 -0.34262656957349341 -0.058931727924225311 0 -0.33658548000822791 -0.086104068525280561 0 -0.34968184429483129 -0.073434770480055256 0 -0.34262656957349341 -0.058931727924225311 0 -0.33658548000822791 -0.086104068525280561 0 -0.32935514574841862 -0.062078342351768158 0 -0.34262656957349341 -0.058931727924225311 0 -0.31967007523087021 -0.069689979383755679 0 -0.33658548000822791 -0.086104068525280561 0 -0.32935514574841862 -0.062078342351768158 0 -0.31268723982892471 -0.1207963050883983 0 -0.33054439044296269 -0.1132764091263356 0 -0.31486342617710872 -0.13232125043616971 0 -0.31268723982892471 -0.1207963050883983 0 -0.31695197960153237 -0.1088536309116124 0 -0.33054439044296269 -0.1132764091263356 0 -0.31695197960153237 -0.1088536309116124 0 -0.32360533951288251 -0.098462166181047403 0 -0.33054439044296269 -0.1132764091263356 0 -0.32096495167793521 -0.087578587751262468 0 -0.31297989583375418 -0.096498134590745965 0 -0.32360533951288251 -0.098462166181047403 0 -0.31695197960153237 -0.1088536309116124 0 -0.31297989583375418 -0.096498134590745965 0 -0.32360533951288251 -0.098462166181047403 0 -0.33658548000822791 -0.086104068525280561 0 -0.32360533951288251 -0.098462166181047403 0 -0.33054439044296269 -0.1132764091263356 0 -0.33658548000822791 -0.086104068525280561 0 -0.3412967628955223 -0.1094441116013081 0 -0.35181354400063169 -0.086960971176827717 0 -0.33658548000822791 -0.086104068525280561 0 -0.3412967628955223 -0.1094441116013081 0 -0.33054439044296269 -0.1132764091263356 0 -0.33658548000822791 -0.086104068525280561 0 -0.33054439044296269 -0.1132764091263356 0 -0.3412967628955223 -0.1094441116013081 0 -0.3524057212862039 -0.11531352970173719 0 -0.33077998179041618 -0.13192725202579009 0 -0.3412967628955223 -0.1094441116013081 0 -0.33054439044296269 -0.1132764091263356 0 -0.33077998179041618 -0.13192725202579009 0 -0.3412967628955223 -0.1094441116013081 0 -0.33077998179041618 -0.13192725202579009 0 -0.3412967628955223 -0.1094441116013081 0 -0.3524057212862039 -0.11531352970173719 0 -0.35181354400063169 -0.086960971176827717 0 -0.3412967628955223 -0.1094441116013081 0 -0.35181354400063169 -0.086960971176827717 0 -0.3524057212862039 -0.11531352970173719 0 -0.35181354400063169 -0.086960971176827717 0 -0.3524057212862039 -0.11531352970173719 0 -0.36414944268281169 -0.099346150465910457 0 -0.35181354400063169 -0.086960971176827717 0 -0.36414944268281169 -0.099346150465910457 0 -0.3721401528509401 -0.1162149784283797 0 -0.38084593669028299 -0.1002390302153679 0 -0.36414944268281169 -0.099346150465910457 0 -0.37237073826033862 -0.092281114852717436 0 -0.38084593669028299 -0.1002390302153679 0 -0.3524057212862039 -0.11531352970173719 0 -0.36414944268281169 -0.099346150465910457 0 -0.3721401528509401 -0.1162149784283797 0 -0.3524057212862039 -0.11531352970173719 0 -0.3721401528509401 -0.1162149784283797 0 -0.36668088571768781 -0.136827298044675 0 -0.35140512999317081 -0.067406722252990131 0 -0.34968184429483129 -0.073434770480055256 0 -0.35181354400063169 -0.086960971176827717 0 -0.35140512999317081 -0.067406722252990131 0 -0.35181354400063169 -0.086960971176827717 0 -0.36154569001293457 -0.066155250943663896 0 -0.35181354400063169 -0.086960971176827717 0 -0.36154569001293457 -0.066155250943663896 0 -0.35140512999317081 -0.067406722252990131 0 -0.35181354400063169 -0.086960971176827717 0 -0.35181354400063169 -0.086960971176827717 0 -0.36375333008150518 -0.078905520003162449 0 -0.36154569001293457 -0.066155250943663896 0 -0.35140512999317081 -0.067406722252990131 0 -0.36154569001293457 -0.066155250943663896 0 -0.35596216639191169 -0.059081541782852957 0 -0.35140512999317081 -0.067406722252990131 0 -0.34968184429483129 -0.073434770480055256 0 -0.34262656957349341 -0.058931727924225311 0 -0.34968184429483129 -0.073434770480055256 0 -0.34262656957349341 -0.058931727924225311 0 -0.33658548000822791 -0.086104068525280561 0 -0.34968184429483129 -0.073434770480055256 0 -0.35181354400063169 -0.086960971176827717 0 -0.36375333008150518 -0.078905520003162449 0 -0.3648269870241479 -0.088301384666359492 0 -0.37173080150296212 -0.082730243423741495 0 -0.35181354400063169 -0.086960971176827717 0 -0.36375333008150518 -0.078905520003162449 0 -0.3648269870241479 -0.088301384666359492 0 -0.36414944268281169 -0.099346150465910457 0 -0.3648269870241479 -0.088301384666359492 0 -0.37237073826033862 -0.092281114852717436 0 -0.36414944268281169 -0.099346150465910457 0 -0.35181354400063169 -0.086960971176827717 0 -0.3648269870241479 -0.088301384666359492 0 -0.37237073826033862 -0.092281114852717436 0 -0.37173080150296212 -0.082730243423741495 0 -0.37966636621650141 -0.088222918673328793 0 -0.3648269870241479 -0.088301384666359492 0 -0.37237073826033862 -0.092281114852717436 0 -0.37173080150296212 -0.082730243423741495 0 -0.37173080150296212 -0.082730243423741495 0 -0.3719029430905223 -0.072127548889561022 0 -0.38047549661079938 -0.078655057436266898 0 -0.36375333008150518 -0.078905520003162449 0 -0.37173080150296212 -0.082730243423741495 0 -0.3719029430905223 -0.072127548889561022 0 -0.36375333008150518 -0.078905520003162449 0 -0.3719029430905223 -0.072127548889561022 0 -0.36154569001293457 -0.066155250943663896 0 -0.3719029430905223 -0.072127548889561022 0 -0.36154569001293457 -0.066155250943663896 0 -0.36674781110385801 -0.060863501329919162 0 -0.36881571457659112 -0.0478653223938659 0 -0.35990112957583348 -0.054911720605605341 0 -0.35099671598570797 -0.047852473329152531 0 -0.36154569001293457 -0.066155250943663896 0 -0.36674781110385801 -0.060863501329919162 0 -0.37127783602524089 -0.045349530710501663 0 -0.36154569001293457 -0.066155250943663896 0 -0.37127783602524089 -0.045349530710501663 0 -0.36154569001293457 -0.066155250943663896 0 -0.36881571457659112 -0.0478653223938659 0 -0.37127783602524089 -0.045349530710501663 0 -0.36154569001293457 -0.066155250943663896 0 -0.36881571457659112 -0.0478653223938659 0 -0.35990112957583348 -0.054911720605605341 0 -0.36881571457659112 -0.0478653223938659 0 -0.35099671598570797 -0.047852473329152531 0 -0.36674781110385801 -0.060863501329919162 0 -0.37127783602524089 -0.045349530710501663 0 -0.38231042678053068 -0.053843820366350763 0 -0.35140512999317081 -0.067406722252990131 0 -0.35099671598570797 -0.047852473329152531 0 -0.35140512999317081 -0.067406722252990131 0 -0.35596216639191169 -0.059081541782852957 0 -0.35099671598570797 -0.047852473329152531 0 -0.36154569001293457 -0.066155250943663896 0 -0.35990112957583348 -0.054911720605605341 0 -0.35596216639191169 -0.059081541782852957 0 -0.35140512999317081 -0.067406722252990131 0 -0.35099671598570797 -0.047852473329152531 0 -0.34262656957349341 -0.058931727924225311 0 -0.35990112957583348 -0.054911720605605341 0 -0.35596216639191169 -0.059081541782852957 0 -0.35099671598570797 -0.047852473329152531 0 -0.34509071124574342 -0.047848214580450833 0 -0.34262656957349341 -0.058931727924225311 0 -0.35099671598570797 -0.047852473329152531 0 -0.34509071124574342 -0.047848214580450833 0 -0.34262656957349341 -0.058931727924225311 0 -0.35099671598570797 -0.047852473329152531 0 -0.34509071124574342 -0.047848214580450833 0 -0.34509071124574342 -0.047848214580450833 0 -0.35086762141376371 -0.041671619224409762 0 -0.35139126120883951 -0.01950884173690624 0 -0.35086762141376371 -0.041671619224409762 0 -0.36194369801784659 -0.038677214956907027 0 -0.35139126120883951 -0.01950884173690624 0 -0.36881571457659112 -0.0478653223938659 0 -0.35099671598570797 -0.047852473329152531 0 -0.35815593749847729 -0.044016657476083777 0 -0.34509071124574342 -0.047848214580450833 0 -0.35139126120883951 -0.01950884173690624 0 -0.35099671598570797 -0.047852473329152531 0 -0.35086762141376371 -0.041671619224409762 0 -0.35099671598570797 -0.047852473329152531 0 -0.34509071124574342 -0.047848214580450833 0 -0.35086762141376371 -0.041671619224409762 0 -0.35086762141376371 -0.041671619224409762 0 -0.35815593749847729 -0.044016657476083777 0 -0.36194369801784659 -0.038677214956907027 0 -0.35099671598570797 -0.047852473329152531 0 -0.35086762141376371 -0.041671619224409762 0 -0.35815593749847729 -0.044016657476083777 0 -0.36194369801784659 -0.038677214956907027 0 -0.37127783602524089 -0.045349530710501663 0 -0.38100998203754721 -0.024543810477339421 0 -0.36881571457659112 -0.0478653223938659 0 -0.35815593749847729 -0.044016657476083777 0 -0.36194369801784659 -0.038677214956907027 0 -0.36881571457659112 -0.0478653223938659 0 -0.36194369801784659 -0.038677214956907027 0 -0.37127783602524089 -0.045349530710501663 0 -0.36194369801784659 -0.038677214956907027 0 -0.36714983617332131 -0.01560340313856357 0 -0.35139126120883951 -0.01950884173690624 0 -0.36194369801784659 -0.038677214956907027 0 -0.36714983617332131 -0.01560340313856357 0 -0.38100998203754721 -0.024543810477339421 0 -0.37263588858309638 -0.0016113739078703301 0 -0.36714983617332131 -0.01560340313856357 0 -0.3576918111719386 0.0088305311066376596 0 -0.37263588858309638 -0.0016113739078703301 0 -0.36714983617332131 -0.01560340313856357 0 -0.37854971817919902 -0.01071064380255813 0 -0.36714983617332131 -0.01560340313856357 0 -0.35139126120883951 -0.01950884173690624 0 -0.3576918111719386 0.0088305311066376596 0 -0.35139126120883951 -0.01950884173690624 0 -0.33705954901322871 -0.006363166607892482 0 -0.3576918111719386 0.0088305311066376596 0 -0.35139126120883951 -0.01950884173690624 0 -0.3576918111719386 0.0088305311066376596 0 -0.35139126120883951 -0.01950884173690624 0 -0.33705954901322871 -0.006363166607892482 0 -0.32694970013457508 -0.026705866622580929 0 -0.33705954901322871 -0.006363166607892482 0 -0.31666736856865441 -0.0055691854636326348 0 -0.332597603982136 0.011137529677019749 0 -0.33705954901322871 -0.006363166607892482 0 -0.31666736856865441 -0.0055691854636326348 0 -0.32694970013457508 -0.026705866622580929 0 -0.29888227713974469 -0.024804683021595959 0 -0.31666736856865441 -0.0055691854636326348 0 -0.32694970013457508 -0.026705866622580929 0 -0.31666736856865441 -0.0055691854636326348 0 -0.32694970013457508 -0.026705866622580929 0 -0.31066157222900548 -0.047823388144050072 0 -0.32694970013457508 -0.026705866622580929 0 -0.33723203170049643 -0.047842547781529021 0 -0.31066157222900548 -0.047823388144050072 0 -0.31967007523087021 -0.069689979383755679 0 -0.32935514574841862 -0.062078342351768158 0 -0.31066157222900548 -0.047823388144050072 0 -0.32935514574841862 -0.062078342351768158 0 -0.33723203170049643 -0.047842547781529021 0 -0.31066157222900548 -0.047823388144050072 0 -0.33723203170049643 -0.047842547781529021 0 -0.32935514574841862 -0.062078342351768158 0 -0.34262656957349341 -0.058931727924225311 0 -0.33723203170049643 -0.047842547781529021 0 -0.34509071124574342 -0.047848214580450833 0 -0.34262656957349341 -0.058931727924225311 0 -0.33723203170049643 -0.047842547781529021 0 -0.34262656957349341 -0.058931727924225311 0 -0.33723203170049643 -0.047842547781529021 0 -0.34509071124574342 -0.047848214580450833 0 -0.33723203170049643 -0.047842547781529021 0 -0.34509071124574342 -0.047848214580450833 0 -0.32694970013457508 -0.026705866622580929 0 -0.33723203170049643 -0.047842547781529021 0 -0.34509071124574342 -0.047848214580450833 0 -0.35139126120883951 -0.01950884173690624 0 -0.32694970013457508 -0.026705866622580929 0 -0.32694970013457508 -0.026705866622580929 0 -0.33723203170049643 -0.047842547781529021 0 -0.30196632335926188 -0.23179974688664659 0 -0.29116933258433042 -0.2476133298905312 0 -0.31461339992943471 -0.24091525041458581 0 -0.29116933258433042 -0.2476133298905312 0 -0.31461339992943471 -0.24091525041458581 0 -0.30822270907570759 -0.25868279318866538 0 -0.29116933258433042 -0.2476133298905312 0 -0.31461339992943471 -0.24091525041458581 0 -0.31189742406471349 -0.22260011063174129 0 -0.30196632335926188 -0.23179974688664659 0 -0.31461339992943471 -0.24091525041458581 0 -0.31189742406471349 -0.22260011063174129 0 -0.30092388814048743 -0.21927172424192831 0 -0.30196632335926188 -0.23179974688664659 0 -0.30092388814048743 -0.21927172424192831 0 -0.30196632335926188 -0.23179974688664659 0 -0.28904038181070812 -0.2263513861067126 0 -0.28904038181070812 -0.2263513861067126 0 -0.29116933258433042 -0.2476133298905312 0 -0.27463494874111638 -0.23320945654855879 0 -0.30196632335926188 -0.23179974688664659 0 -0.28904038181070812 -0.2263513861067126 0 -0.29116933258433042 -0.2476133298905312 0 -0.26772526523922652 -0.25431140936647811 0 -0.29116933258433042 -0.2476133298905312 0 -0.27463494874111638 -0.23320945654855879 0 -0.26772526523922652 -0.25431140936647811 0 -0.25672783532774202 -0.23407366346549879 0 -0.27463494874111638 -0.23320945654855879 0 -0.26772526523922652 -0.25431140936647811 0 -0.25672783532774202 -0.23407366346549879 0 -0.25299644359707452 -0.25851950246286298 0 -0.24456523742333311 -0.24298281553316639 0 -0.25672783532774202 -0.23407366346549879 0 -0.25299644359707452 -0.25851950246286298 0 -0.26772526523922652 -0.25431140936647811 0 -0.25672783532774202 -0.23407366346549879 0 -0.25672783532774202 -0.23407366346549879 0 -0.26593277203064919 -0.22246144937477019 0 -0.25685789750076349 -0.2176196037028934 0 -0.24573040541625801 -0.21383591756451939 0 -0.25672783532774202 -0.23407366346549879 0 -0.24573040541625801 -0.21383591756451939 0 -0.25672783532774202 -0.23407366346549879 0 -0.25685789750076349 -0.2176196037028934 0 -0.25672783532774202 -0.23407366346549879 0 -0.26593277203064919 -0.22246144937477019 0 -0.27463494874111638 -0.23320945654855879 0 -0.28904038181070812 -0.2263513861067126 0 -0.27463494874111638 -0.23320945654855879 0 -0.27744426182398352 -0.21444981454923451 0 -0.26593277203064919 -0.22246144937477019 0 -0.27463494874111638 -0.23320945654855879 0 -0.27744426182398352 -0.21444981454923451 0 -0.27744426182398352 -0.21444981454923451 0 -0.26910729742233441 -0.20009972483144661 0 -0.2845114374967323 -0.19636132513831039 0 -0.27744426182398352 -0.21444981454923451 0 -0.26216784144777011 -0.2098119117462181 0 -0.26910729742233441 -0.20009972483144661 0 -0.26593277203064919 -0.22246144937477019 0 -0.27744426182398352 -0.21444981454923451 0 -0.26216784144777011 -0.2098119117462181 0 -0.26593277203064919 -0.22246144937477019 0 -0.26216784144777011 -0.2098119117462181 0 -0.25685789750076349 -0.2176196037028934 0 -0.26216784144777011 -0.2098119117462181 0 -0.25880729976500771 -0.2016107846387776 0 -0.26910729742233441 -0.20009972483144661 0 -0.26216784144777011 -0.2098119117462181 0 -0.25373063328139828 -0.20791507636346049 0 -0.25880729976500771 -0.2016107846387776 0 -0.24573040541625801 -0.21383591756451939 0 -0.25373063328139828 -0.20791507636346049 0 -0.25685789750076349 -0.2176196037028934 0 -0.26216784144777011 -0.2098119117462181 0 -0.25373063328139828 -0.20791507636346049 0 -0.25685789750076349 -0.2176196037028934 0 -0.24968431970358079 -0.19908319888389009 0 -0.24822936121648331 -0.185252547339397 0 -0.25934640696995498 -0.19114401136887291 0 -0.24968431970358079 -0.19908319888389009 0 -0.25373063328139828 -0.20791507636346049 0 -0.25880729976500771 -0.2016107846387776 0 -0.24968431970358079 -0.19908319888389009 0 -0.25880729976500771 -0.2016107846387776 0 -0.25934640696995498 -0.19114401136887291 0 -0.25880729976500771 -0.2016107846387776 0 -0.25934640696995498 -0.19114401136887291 0 -0.26910729742233441 -0.20009972483144661 0 -0.25934640696995498 -0.19114401136887291 0 -0.27157906157819689 -0.18820491774887491 0 -0.26910729742233441 -0.20009972483144661 0 -0.27157906157819689 -0.18820491774887491 0 -0.2845114374967323 -0.19636132513831039 0 -0.28207671287444491 -0.17997007075289581 0 -0.27157906157819689 -0.18820491774887491 0 -0.26910729742233441 -0.20009972483144661 0 -0.2845114374967323 -0.19636132513831039 0 -0.2845114374967323 -0.19636132513831039 0 -0.29472876021528049 -0.18708981208961631 0 -0.28207671287444491 -0.17997007075289581 0 -0.2845114374967323 -0.19636132513831039 0 -0.30077132376871329 -0.19608080485809459 0 -0.29472876021528049 -0.18708981208961631 0 -0.2845114374967323 -0.19636132513831039 0 -0.29302388659426332 -0.20869255642504819 0 -0.30077132376871329 -0.19608080485809459 0 -0.30092388814048743 -0.21927172424192831 0 -0.28904038181070812 -0.2263513861067126 0 -0.29302388659426332 -0.20869255642504819 0 -0.28904038181070812 -0.2263513861067126 0 -0.27744426182398352 -0.21444981454923451 0 -0.29302388659426332 -0.20869255642504819 0 -0.27744426182398352 -0.21444981454923451 0 -0.2845114374967323 -0.19636132513831039 0 -0.29302388659426332 -0.20869255642504819 0 -0.29302388659426332 -0.20869255642504819 0 -0.30660892371003451 -0.20977627731599 0 -0.30077132376871329 -0.19608080485809459 0 -0.30660892371003451 -0.20977627731599 0 -0.30077132376871329 -0.19608080485809459 0 -0.32224835304687233 -0.2062797190711507 0 -0.30092388814048743 -0.21927172424192831 0 -0.29302388659426332 -0.20869255642504819 0 -0.30660892371003451 -0.20977627731599 0 -0.31189742406471349 -0.22260011063174129 0 -0.30092388814048743 -0.21927172424192831 0 -0.30660892371003451 -0.20977627731599 0 -0.30077132376871329 -0.19608080485809459 0 -0.30590699059561871 -0.18510159769491999 0 -0.32224835304687233 -0.2062797190711507 0 -0.30077132376871329 -0.19608080485809459 0 -0.30590699059561871 -0.18510159769491999 0 -0.30077132376871329 -0.19608080485809459 0 -0.30590699059561871 -0.18510159769491999 0 -0.29472876021528049 -0.18708981208961631 0 -0.30037733634089159 -0.17793526200385881 0 -0.30974641958020349 -0.17689353287475409 0 -0.30290683454832479 -0.17018338651013121 0 -0.30037733634089159 -0.17793526200385881 0 -0.30590699059561871 -0.18510159769491999 0 -0.29472876021528049 -0.18708981208961631 0 -0.30037733634089159 -0.17793526200385881 0 -0.30590699059561871 -0.18510159769491999 0 -0.30037733634089159 -0.17793526200385881 0 -0.30590699059561871 -0.18510159769491999 0 -0.30974641958020349 -0.17689353287475409 0 -0.30590699059561871 -0.18510159769491999 0 -0.30974641958020349 -0.17689353287475409 0 -0.30037733634089159 -0.17793526200385881 0 -0.30974641958020349 -0.17689353287475409 0 -0.30974641958020349 -0.17689353287475409 0 -0.30594807366052029 -0.16141555648406711 0 -0.32026320068531011 -0.15441039245027219 0 -0.30974641958020349 -0.17689353287475409 0 -0.30594807366052029 -0.16141555648406711 0 -0.30290683454832479 -0.17018338651013121 0 -0.30594807366052029 -0.16141555648406711 0 -0.29042901814468108 -0.1650424147350236 0 -0.29612531545247311 -0.15068707395557679 0 -0.30594807366052029 -0.16141555648406711 0 -0.30290683454832479 -0.17018338651013121 0 -0.29042901814468108 -0.1650424147350236 0 -0.30037733634089159 -0.17793526200385881 0 -0.30290683454832479 -0.17018338651013121 0 -0.29042901814468108 -0.1650424147350236 0 -0.30037733634089159 -0.17793526200385881 0 -0.29042901814468108 -0.1650424147350236 0 -0.29042901814468108 -0.1650424147350236 0 -0.28048069994846903 -0.1521495674661896 0 -0.29042901814468108 -0.1650424147350236 0 -0.27682103686894571 -0.16611915961752799 0 -0.28048069994846903 -0.1521495674661896 0 -0.29042901814468108 -0.1650424147350236 0 -0.28207671287444491 -0.17997007075289581 0 -0.27682103686894571 -0.16611915961752799 0 -0.30037733634089159 -0.17793526200385881 0 -0.29472876021528049 -0.18708981208961631 0 -0.28207671287444491 -0.17997007075289581 0 -0.30037733634089159 -0.17793526200385881 0 -0.29042901814468108 -0.1650424147350236 0 -0.28207671287444491 -0.17997007075289581 0 -0.30037733634089159 -0.17793526200385881 0 -0.28207671287444491 -0.17997007075289581 0 -0.27157906157819689 -0.18820491774887491 0 -0.28207671287444491 -0.17997007075289581 0 -0.26285345312751801 -0.17344945665284889 0 -0.28207671287444491 -0.17997007075289581 0 -0.26285345312751801 -0.17344945665284889 0 -0.27682103686894571 -0.16611915961752799 0 -0.24822936121648331 -0.185252547339397 0 -0.25934640696995498 -0.19114401136887291 0 -0.26285345312751801 -0.17344945665284889 0 -0.25934640696995498 -0.19114401136887291 0 -0.27157906157819689 -0.18820491774887491 0 -0.26285345312751801 -0.17344945665284889 0 -0.24822936121648331 -0.185252547339397 0 -0.26285345312751801 -0.17344945665284889 0 -0.25041623700348359 -0.1732946864964002 0 -0.248340051699177 -0.16024255073802701 0 -0.26285345312751801 -0.17344945665284889 0 -0.26826530024961559 -0.15998428848068241 0 -0.248340051699177 -0.16024255073802701 0 -0.26285345312751801 -0.17344945665284889 0 -0.25041623700348359 -0.1732946864964002 0 -0.26285345312751801 -0.17344945665284889 0 -0.26826530024961559 -0.15998428848068241 0 -0.27682103686894571 -0.16611915961752799 0 -0.26826530024961559 -0.15998428848068241 0 -0.27682103686894571 -0.16611915961752799 0 -0.28048069994846903 -0.1521495674661896 0 -0.26826530024961559 -0.15998428848068241 0 -0.28048069994846903 -0.1521495674661896 0 -0.27151693052967069 -0.14584124270901391 0 -0.248340051699177 -0.16024255073802701 0 -0.26826530024961559 -0.15998428848068241 0 -0.27151693052967069 -0.14584124270901391 0 -0.248340051699177 -0.16024255073802701 0 -0.27151693052967069 -0.14584124270901391 0 -0.25446505566657213 -0.14346193728670151 0 -0.27151693052967069 -0.14584124270901391 0 -0.25446505566657213 -0.14346193728670151 0 -0.26362156433861611 -0.13604544790775061 0 -0.248340051699177 -0.16024255073802701 0 -0.27151693052967069 -0.14584124270901391 0 -0.25221903949000618 -0.13072785163159911 0 -0.26362156433861611 -0.13604544790775061 0 -0.27137905671225321 -0.126140110197593 0 -0.25446505566657213 -0.14346193728670151 0 -0.25221903949000618 -0.13072785163159911 0 -0.26362156433861611 -0.13604544790775061 0 -0.27151693052967069 -0.14584124270901391 0 -0.26362156433861611 -0.13604544790775061 0 -0.27137905671225321 -0.126140110197593 0 -0.27151693052967069 -0.14584124270901391 0 -0.27137905671225321 -0.126140110197593 0 -0.29469380936016432 -0.1314399346800007 0 -0.27151693052967069 -0.14584124270901391 0 -0.29469380936016432 -0.1314399346800007 0 -0.28048069994846903 -0.1521495674661896 0 -0.29469380936016432 -0.1314399346800007 0 -0.29612531545247311 -0.15068707395557679 0 -0.28048069994846903 -0.1521495674661896 0 -0.27151693052967069 -0.14584124270901391 0 -0.29469380936016432 -0.1314399346800007 0 -0.29042901814468108 -0.1650424147350236 0 -0.28048069994846903 -0.1521495674661896 0 -0.29612531545247311 -0.15068707395557679 0 -0.30594807366052029 -0.16141555648406711 0 -0.30948304014092309 -0.14547365941877219 0 -0.32026320068531011 -0.15441039245027219 0 -0.29469380936016432 -0.1314399346800007 0 -0.29612531545247311 -0.15068707395557679 0 -0.30948304014092309 -0.14547365941877219 0 -0.30594807366052029 -0.16141555648406711 0 -0.29612531545247311 -0.15068707395557679 0 -0.30948304014092309 -0.14547365941877219 0 -0.31268723982892471 -0.1207963050883983 0 -0.29469380936016432 -0.1314399346800007 0 -0.31486342617710872 -0.13232125043616971 0 -0.29469380936016432 -0.1314399346800007 0 -0.30948304014092309 -0.14547365941877219 0 -0.31486342617710872 -0.13232125043616971 0 -0.33054439044296269 -0.1132764091263356 0 -0.32450330087769752 -0.14044874972739069 0 -0.31486342617710872 -0.13232125043616971 0 -0.33054439044296269 -0.1132764091263356 0 -0.32450330087769752 -0.14044874972739069 0 -0.30948304014092309 -0.14547365941877219 0 -0.32450330087769752 -0.14044874972739069 0 -0.31486342617710872 -0.13232125043616971 0 -0.30948304014092309 -0.14547365941877219 0 -0.32450330087769752 -0.14044874972739069 0 -0.32026320068531011 -0.15441039245027219 0 -0.32450330087769752 -0.14044874972739069 0 -0.32026320068531011 -0.15441039245027219 0 -0.33077998179041618 -0.13192725202579009 0 -0.32026320068531011 -0.15441039245027219 0 -0.33077998179041618 -0.13192725202579009 0 -0.33077998179041618 -0.13192725202579009 0 -0.35299789857177211 -0.14366608822664689 0 -0.33921022705247811 -0.15689774983851781 0 -0.32026320068531011 -0.15441039245027219 0 -0.33077998179041618 -0.13192725202579009 0 -0.33921022705247811 -0.15689774983851781 0 -0.33054439044296269 -0.1132764091263356 0 -0.32450330087769752 -0.14044874972739069 0 -0.33077998179041618 -0.13192725202579009 0 -0.3524057212862039 -0.11531352970173719 0 -0.36668088571768781 -0.136827298044675 0 -0.35299789857177211 -0.14366608822664689 0 -0.3524057212862039 -0.11531352970173719 0 -0.33077998179041618 -0.13192725202579009 0 -0.35299789857177211 -0.14366608822664689 0 -0.3524057212862039 -0.11531352970173719 0 -0.35299789857177211 -0.14366608822664689 0 -0.3721401528509401 -0.1162149784283797 0 -0.36668088571768781 -0.136827298044675 0 -0.38203554953434349 -0.1248085006506521 0 -0.36668088571768781 -0.136827298044675 0 -0.36298205586978283 -0.15410646755920651 0 -0.35299789857177211 -0.14366608822664689 0 -0.36668088571768781 -0.136827298044675 0 -0.36298205586978283 -0.15410646755920651 0 -0.37967688146091461 -0.15414372778192759 0 -0.36668088571768781 -0.136827298044675 0 -0.36298205586978283 -0.15410646755920651 0 -0.36298205586978283 -0.15410646755920651 0 -0.35299789857177211 -0.14366608822664689 0 -0.35359007585733843 -0.17201864675155659 0 -0.35299789857177211 -0.14366608822664689 0 -0.35359007585733843 -0.17201864675155659 0 -0.36298205586978283 -0.15410646755920651 0 -0.35928322602187712 -0.17138563707373791 0 -0.35359007585733843 -0.17201864675155659 0 -0.35299789857177211 -0.14366608822664689 0 -0.35359007585733843 -0.17201864675155659 0 -0.33921022705247811 -0.15689774983851781 0 -0.35928322602187712 -0.17138563707373791 0 -0.35359007585733843 -0.17201864675155659 0 -0.35928322602187712 -0.17138563707373791 0 -0.36764627745291839 -0.1641403805051363 0 -0.37739656839241609 -0.16937165172523669 0 -0.36298205586978283 -0.15410646755920651 0 -0.35928322602187712 -0.17138563707373791 0 -0.36298205586978283 -0.15410646755920651 0 -0.36764627745291839 -0.1641403805051363 0 -0.37967688146091461 -0.15414372778192759 0 -0.36298205586978283 -0.15410646755920651 0 -0.35928322602187712 -0.17138563707373791 0 -0.36764627745291839 -0.1641403805051363 0 -0.35928322602187712 -0.17138563707373791 0 -0.37739656839241609 -0.16937165172523669 0 -0.36764627745291839 -0.1641403805051363 0 -0.37739656839241609 -0.16937165172523669 0 -0.37967688146091461 -0.15414372778192759 0 -0.35928322602187712 -0.17138563707373791 0 -0.37303268722967092 -0.1865818333711349 0 -0.37739656839241609 -0.16937165172523669 0 -0.35928322602187712 -0.17138563707373791 0 -0.37303268722967092 -0.1865818333711349 0 -0.35408413224933488 -0.19567332434559001 0 -0.35359007585733843 -0.17201864675155659 0 -0.35408413224933488 -0.19567332434559001 0 -0.35928322602187712 -0.17138563707373791 0 -0.35408413224933488 -0.19567332434559001 0 -0.35928322602187712 -0.17138563707373791 0 -0.35359007585733843 -0.17201864675155659 0 -0.35408413224933488 -0.19567332434559001 0 -0.35359007585733843 -0.17201864675155659 0 -0.34123827448407762 -0.18610569610179231 0 -0.35408413224933488 -0.19567332434559001 0 -0.35359007585733843 -0.17201864675155659 0 -0.33166824771877101 -0.17445608981315511 0 -0.34123827448407762 -0.18610569610179231 0 -0.33166824771877101 -0.17445608981315511 0 -0.34123827448407762 -0.18610569610179231 0 -0.32203829915442272 -0.18764522309109891 0 -0.35359007585733843 -0.17201864675155659 0 -0.33166824771877101 -0.17445608981315511 0 -0.32026320068531011 -0.15441039245027219 0 -0.33166824771877101 -0.17445608981315511 0 -0.33921022705247811 -0.15689774983851781 0 -0.35359007585733843 -0.17201864675155659 0 -0.33166824771877101 -0.17445608981315511 0 -0.33921022705247811 -0.15689774983851781 0 -0.30974641958020349 -0.17689353287475409 0 -0.32026320068531011 -0.15441039245027219 0 -0.33166824771877101 -0.17445608981315511 0 -0.30974641958020349 -0.17689353287475409 0 -0.32026320068531011 -0.15441039245027219 0 -0.30974641958020349 -0.17689353287475409 0 -0.33166824771877101 -0.17445608981315511 0 -0.32203829915442272 -0.18764522309109891 0 -0.30974641958020349 -0.17689353287475409 0 -0.33166824771877101 -0.17445608981315511 0 -0.30590699059561871 -0.18510159769491999 0 -0.30974641958020349 -0.17689353287475409 0 -0.32203829915442272 -0.18764522309109891 0 -0.30590699059561871 -0.18510159769491999 0 -0.32224835304687233 -0.2062797190711507 0 -0.32203829915442272 -0.18764522309109891 0 -0.32224835304687233 -0.2062797190711507 0 -0.33962327225535682 -0.20483667813986259 0 -0.30590699059561871 -0.18510159769491999 0 -0.32203829915442272 -0.18764522309109891 0 -0.32224835304687233 -0.2062797190711507 0 -0.31189742406471349 -0.22260011063174129 0 -0.30660892371003451 -0.20977627731599 0 -0.32224835304687233 -0.2062797190711507 0 -0.32224835304687233 -0.2062797190711507 0 -0.33858971549812938 -0.22745784044737871 0 -0.32224835304687233 -0.2062797190711507 0 -0.33859051842104482 -0.21726704918454609 0 -0.33962327225535682 -0.20483667813986259 0 -0.32224835304687233 -0.2062797190711507 0 -0.33859051842104482 -0.21726704918454609 0 -0.33858971549812938 -0.22745784044737871 0 -0.33859051842104482 -0.21726704918454609 0 -0.33962327225535682 -0.20483667813986259 0 -0.34906574239105548 -0.2191168490863494 0 -0.34123827448407762 -0.18610569610179231 0 -0.32203829915442272 -0.18764522309109891 0 -0.33962327225535682 -0.20483667813986259 0 -0.34123827448407762 -0.18610569610179231 0 -0.33962327225535682 -0.20483667813986259 0 -0.35408413224933488 -0.19567332434559001 0 -0.37303268722967092 -0.1865818333711349 0 -0.35408413224933488 -0.19567332434559001 0 -0.37025657918267602 -0.20730824388463831 0 -0.37025657918267602 -0.20730824388463831 0 -0.36741723021840711 -0.22014493078139821 0 -0.38044559662855709 -0.22442850427925221 0 -0.35408413224933488 -0.19567332434559001 0 -0.37025657918267602 -0.20730824388463831 0 -0.35458404267353028 -0.21960828420413939 0 -0.37025657918267602 -0.20730824388463831 0 -0.35458404267353028 -0.21960828420413939 0 -0.36741723021840711 -0.22014493078139821 0 -0.35408413224933488 -0.19567332434559001 0 -0.34906574239105548 -0.2191168490863494 0 -0.33962327225535682 -0.20483667813986259 0 -0.35408413224933488 -0.19567332434559001 0 -0.34906574239105548 -0.2191168490863494 0 -0.35408413224933488 -0.19567332434559001 0 -0.34906574239105548 -0.2191168490863494 0 -0.35458404267353028 -0.21960828420413939 0 -0.35408413224933488 -0.19567332434559001 0 -0.35458404267353028 -0.21960828420413939 0 -0.34906574239105548 -0.2191168490863494 0 -0.34404735253277591 -0.24256037382710849 0 -0.35458404267353028 -0.21960828420413939 0 -0.35508395309772589 -0.24354324406268901 0 -0.34906574239105548 -0.2191168490863494 0 -0.35072960554243687 -0.23166148930402169 0 -0.34404735253277591 -0.24256037382710849 0 -0.34906574239105548 -0.2191168490863494 0 -0.34404735253277591 -0.24256037382710849 0 -0.34342550891381018 -0.22864415917798939 0 -0.35458404267353028 -0.21960828420413939 0 -0.36502839852204461 -0.23056888873799139 0 -0.35508395309772589 -0.24354324406268901 0 -0.35072960554243687 -0.23166148930402169 0 -0.35458404267353028 -0.21960828420413939 0 -0.35508395309772589 -0.24354324406268901 0 -0.34906574239105548 -0.2191168490863494 0 -0.35072960554243687 -0.23166148930402169 0 -0.35458404267353028 -0.21960828420413939 0 -0.36502839852204461 -0.23056888873799139 0 -0.3680147300752396 -0.24595335410024541 0 -0.38044559662855709 -0.22442850427925221 0 -0.35458404267353028 -0.21960828420413939 0 -0.36502839852204461 -0.23056888873799139 0 -0.36741723021840711 -0.22014493078139821 0 -0.36502839852204461 -0.23056888873799139 0 -0.36741723021840711 -0.22014493078139821 0 -0.38044559662855709 -0.22442850427925221 0 -0.3680147300752396 -0.24595335410024541 0 -0.38044559662855709 -0.22442850427925221 0 -0.37382784469199809 -0.25255299355580002 0 -0.3680147300752396 -0.24595335410024541 0 -0.38220465509505391 -0.2453862558345459 0 -0.36502839852204461 -0.23056888873799139 0 -0.3680147300752396 -0.24595335410024541 0 -0.35508395309772589 -0.24354324406268901 0 -0.35072960554243687 -0.23166148930402169 0 -0.35508395309772589 -0.24354324406268901 0 -0.34404735253277591 -0.24256037382710849 0 -0.347448714500246 -0.25534600023974963 0 -0.35508395309772589 -0.24354324406268901 0 -0.34404735253277591 -0.24256037382710849 0 -0.33188287507836628 -0.25144687983635688 0 -0.34404735253277591 -0.24256037382710849 0 -0.34342550891381018 -0.22864415917798939 0 -0.33188287507836628 -0.25144687983635688 0 -0.34342550891381018 -0.22864415917798939 0 -0.33805746727453911 -0.2342171709386405 0 -0.33188287507836628 -0.25144687983635688 0 -0.34342550891381018 -0.22864415917798939 0 -0.33188287507836628 -0.25144687983635688 0 -0.33805746727453911 -0.2342171709386405 0 -0.31461339992943471 -0.24091525041458581 0 -0.32224835304687233 -0.2062797190711507 0 -0.33858971549812938 -0.22745784044737871 0 -0.3250236562021902 -0.22755794586014641 0 -0.34342550891381018 -0.22864415917798939 0 -0.33858971549812938 -0.22745784044737871 0 -0.33805746727453911 -0.2342171709386405 0 -0.33859051842104482 -0.21726704918454609 0 -0.34906574239105548 -0.2191168490863494 0 -0.34342550891381018 -0.22864415917798939 0 -0.33859051842104482 -0.21726704918454609 0 -0.34342550891381018 -0.22864415917798939 0 -0.33858971549812938 -0.22745784044737871 0 -0.33858971549812938 -0.22745784044737871 0 -0.33805746727453911 -0.2342171709386405 0 -0.3250236562021902 -0.22755794586014641 0 -0.33805746727453911 -0.2342171709386405 0 -0.3250236562021902 -0.22755794586014641 0 -0.31461339992943471 -0.24091525041458581 0 -0.31189742406471349 -0.22260011063174129 0 -0.3250236562021902 -0.22755794586014641 0 -0.31461339992943471 -0.24091525041458581 0 -0.31189742406471349 -0.22260011063174129 0 -0.32224835304687233 -0.2062797190711507 0 -0.3250236562021902 -0.22755794586014641 0 -0.33805746727453911 -0.2342171709386405 0 -0.31461339992943471 -0.24091525041458581 0 -0.43215673487623202 -0.24823091663255911 0 -0.42689787205185958 -0.23130712022454569 0 -0.44164891654744198 -0.2450584551682439 0 -0.42280242560429859 -0.24215806016692151 0 -0.43215673487623202 -0.24823091663255911 0 -0.42689787205185958 -0.23130712022454569 0 -0.42280242560429859 -0.24215806016692151 0 -0.42689787205185958 -0.23130712022454569 0 -0.41594335103758018 -0.23643277249030861 0 -0.4197869720444854 -0.25041636405616802 0 -0.42280242560429859 -0.24215806016692151 0 -0.43215673487623202 -0.24823091663255911 0 -0.43498649548547852 -0.25282224765555178 0 -0.43215673487623202 -0.24823091663255911 0 -0.44164891654744198 -0.2450584551682439 0 -0.42689787205185958 -0.23130712022454569 0 -0.41009275309491589 -0.22110112274271931 0 -0.43045735081697528 -0.20393673163118239 0 -0.41009275309491589 -0.22110112274271931 0 -0.41594335103758018 -0.23643277249030861 0 -0.40413549636885182 -0.23910172952534819 0 -0.42689787205185958 -0.23130712022454569 0 -0.41009275309491589 -0.22110112274271931 0 -0.41594335103758018 -0.23643277249030861 0 -0.41594335103758018 -0.23643277249030861 0 -0.41578820806797528 -0.2484958297920084 0 -0.40413549636885182 -0.23910172952534819 0 -0.4197869720444854 -0.25041636405616802 0 -0.42280242560429859 -0.24215806016692151 0 -0.41578820806797528 -0.2484958297920084 0 -0.42280242560429859 -0.24215806016692151 0 -0.41594335103758018 -0.23643277249030861 0 -0.41578820806797528 -0.2484958297920084 0 -0.4078018470520709 -0.2531614152903397 0 -0.41578820806797528 -0.2484958297920084 0 -0.40413549636885182 -0.23910172952534819 0 -0.39980713000764739 -0.25281121590483963 0 -0.4078018470520709 -0.2531614152903397 0 -0.40413549636885182 -0.23910172952534819 0 -0.39980713000764739 -0.25281121590483963 0 -0.40413549636885182 -0.23910172952534819 0 -0.39320617752625442 -0.24585335226367991 0 -0.40413549636885182 -0.23910172952534819 0 -0.39320617752625442 -0.24585335226367991 0 -0.392891412787645 -0.23220029738243381 0 -0.3680147300752396 -0.24595335410024541 0 -0.38220465509505391 -0.2453862558345459 0 -0.38044559662855709 -0.22442850427925221 0 -0.38903805502888011 -0.25783536093713461 0 -0.39320617752625442 -0.24585335226367991 0 -0.38220465509505391 -0.2453862558345459 0 -0.39320617752625442 -0.24585335226367991 0 -0.38220465509505391 -0.2453862558345459 0 -0.392891412787645 -0.23220029738243381 0 -0.38044559662855709 -0.22442850427925221 0 -0.392891412787645 -0.23220029738243381 0 -0.39217386598857201 -0.2126942554872244 0 -0.38220465509505391 -0.2453862558345459 0 -0.38044559662855709 -0.22442850427925221 0 -0.392891412787645 -0.23220029738243381 0 -0.41009275309491589 -0.22110112274271931 0 -0.392891412787645 -0.23220029738243381 0 -0.39217386598857201 -0.2126942554872244 0 -0.41009275309491589 -0.22110112274271931 0 -0.40413549636885182 -0.23910172952534819 0 -0.392891412787645 -0.23220029738243381 0 -0.41009275309491589 -0.22110112274271931 0 -0.39217386598857201 -0.2126942554872244 0 -0.40838665445132488 -0.1982502061844986 0 -0.37025657918267602 -0.20730824388463831 0 -0.39217386598857201 -0.2126942554872244 0 -0.38933190768533438 -0.1948818996090855 0 -0.37025657918267602 -0.20730824388463831 0 -0.38044559662855709 -0.22442850427925221 0 -0.39217386598857201 -0.2126942554872244 0 -0.37303268722967092 -0.1865818333711349 0 -0.37025657918267602 -0.20730824388463831 0 -0.38933190768533438 -0.1948818996090855 0 -0.39217386598857201 -0.2126942554872244 0 -0.38933190768533438 -0.1948818996090855 0 -0.40838665445132488 -0.1982502061844986 0 -0.38933190768533438 -0.1948818996090855 0 -0.40838665445132488 -0.1982502061844986 0 -0.40300155298343959 -0.18053891384452209 0 -0.40838665445132488 -0.1982502061844986 0 -0.43045735081697528 -0.20393673163118239 0 -0.42526249613871248 -0.17634831379225779 0 -0.41009275309491589 -0.22110112274271931 0 -0.40838665445132488 -0.1982502061844986 0 -0.43045735081697528 -0.20393673163118239 0 -0.42689787205185958 -0.23130712022454569 0 -0.43045735081697528 -0.20393673163118239 0 -0.44694592142380868 -0.21726329031209851 0 -0.43045735081697528 -0.20393673163118239 0 -0.42526249613871248 -0.17634831379225779 0 -0.43045735081697528 -0.20393673163118239 0 -0.42526249613871248 -0.17634831379225779 0 -0.44243634102474849 -0.18091534681248889 0 -0.42526249613871248 -0.17634831379225779 0 -0.43582275949329369 -0.16276739228240031 0 -0.44243634102474849 -0.18091534681248889 0 -0.42526249613871248 -0.17634831379225779 0 -0.43582275949329369 -0.16276739228240031 0 -0.42006764146044961 -0.14875989595333311 0 -0.42526249613871248 -0.17634831379225779 0 -0.42006764146044961 -0.14875989595333311 0 -0.42526249613871248 -0.17634831379225779 0 -0.40837335899714933 -0.16487097555634131 0 -0.42006764146044961 -0.14875989595333311 0 -0.40838665445132488 -0.1982502061844986 0 -0.42526249613871248 -0.17634831379225779 0 -0.40300155298343959 -0.18053891384452209 0 -0.42526249613871248 -0.17634831379225779 0 -0.40837335899714933 -0.16487097555634131 0 -0.40300155298343959 -0.18053891384452209 0 -0.40300155298343959 -0.18053891384452209 0 -0.38765452541076317 -0.17974639298534301 0 -0.39550991076295511 -0.16735766637673569 0 -0.38933190768533438 -0.1948818996090855 0 -0.40300155298343959 -0.18053891384452209 0 -0.38765452541076317 -0.17974639298534301 0 -0.37303268722967092 -0.1865818333711349 0 -0.38765452541076317 -0.17974639298534301 0 -0.37739656839241609 -0.16937165172523669 0 -0.37303268722967092 -0.1865818333711349 0 -0.38933190768533438 -0.1948818996090855 0 -0.38765452541076317 -0.17974639298534301 0 -0.38765452541076317 -0.17974639298534301 0 -0.37739656839241609 -0.16937165172523669 0 -0.39550991076295511 -0.16735766637673569 0 -0.37739656839241609 -0.16937165172523669 0 -0.39550991076295511 -0.16735766637673569 0 -0.37739656839241609 -0.16937165172523669 0 -0.39550991076295511 -0.16735766637673569 0 -0.37967688146091461 -0.15414372778192759 0 -0.40837335899714933 -0.16487097555634131 0 -0.39550991076295511 -0.16735766637673569 0 -0.39802519364018968 -0.1513500878148574 0 -0.39550991076295511 -0.16735766637673569 0 -0.39802519364018968 -0.1513500878148574 0 -0.37967688146091461 -0.15414372778192759 0 -0.40837335899714933 -0.16487097555634131 0 -0.40300155298343959 -0.18053891384452209 0 -0.39550991076295511 -0.16735766637673569 0 -0.39802519364018968 -0.1513500878148574 0 -0.39038282441050243 -0.13588639119870741 0 -0.40568235008804049 -0.13578502363305611 0 -0.36668088571768781 -0.136827298044675 0 -0.37967688146091461 -0.15414372778192759 0 -0.39038282441050243 -0.13588639119870741 0 -0.39802519364018968 -0.1513500878148574 0 -0.37967688146091461 -0.15414372778192759 0 -0.39038282441050243 -0.13588639119870741 0 -0.36668088571768781 -0.136827298044675 0 -0.39038282441050243 -0.13588639119870741 0 -0.38203554953434349 -0.1248085006506521 0 -0.39038282441050243 -0.13588639119870741 0 -0.38203554953434349 -0.1248085006506521 0 -0.39335984459194451 -0.1216098013378914 0 -0.39038282441050243 -0.13588639119870741 0 -0.40594885016692411 -0.12179111383503589 0 -0.39335984459194451 -0.1216098013378914 0 -0.39038282441050243 -0.13588639119870741 0 -0.40594885016692411 -0.12179111383503589 0 -0.39038282441050243 -0.13588639119870741 0 -0.40568235008804049 -0.13578502363305611 0 -0.40594885016692411 -0.12179111383503589 0 -0.42006764146044961 -0.14875989595333311 0 -0.4148727867821867 -0.1211714781144084 0 -0.40568235008804049 -0.13578502363305611 0 -0.40594885016692411 -0.12179111383503589 0 -0.4148727867821867 -0.1211714781144084 0 -0.40568235008804049 -0.13578502363305611 0 -0.42006764146044961 -0.14875989595333311 0 -0.4148727867821867 -0.1211714781144084 0 -0.40837335899714933 -0.16487097555634131 0 -0.39802519364018968 -0.1513500878148574 0 -0.42006764146044961 -0.14875989595333311 0 -0.39802519364018968 -0.1513500878148574 0 -0.40568235008804049 -0.13578502363305611 0 -0.42006764146044961 -0.14875989595333311 0 -0.43582275949329369 -0.16276739228240031 0 -0.42006764146044961 -0.14875989595333311 0 -0.44418725497194389 -0.14624848521506181 0 -0.42006764146044961 -0.14875989595333311 0 -0.43176461769217711 -0.1266491510419108 0 -0.4148727867821867 -0.1211714781144084 0 -0.42006764146044961 -0.14875989595333311 0 -0.43176461769217711 -0.1266491510419108 0 -0.44418725497194389 -0.14624848521506181 0 -0.43176461769217711 -0.1266491510419108 0 -0.44418725497194389 -0.14624848521506181 0 -0.45142360993786879 -0.1184788934301879 0 -0.44418725497194389 -0.14624848521506181 0 -0.45979527302151241 -0.1563176337878284 0 -0.4508016451120907 -0.1660941860381456 0 -0.44418725497194389 -0.14624848521506181 0 -0.46576631819597131 -0.14335722775268361 0 -0.45979527302151241 -0.1563176337878284 0 -0.46576631819597131 -0.14335722775268361 0 -0.46995949638211548 -0.16268714640518619 0 -0.45979527302151241 -0.1563176337878284 0 -0.46576631819597131 -0.14335722775268361 0 -0.46998635133671418 -0.12672619219378239 0 -0.45142360993786879 -0.1184788934301879 0 -0.46576631819597131 -0.14335722775268361 0 -0.45142360993786879 -0.1184788934301879 0 -0.44418725497194389 -0.14624848521506181 0 -0.46576631819597131 -0.14335722775268361 0 -0.45142360993786879 -0.1184788934301879 0 -0.48158424359770491 -0.1417547901596585 0 -0.4830594607413386 -0.1152740182441373 0 -0.46998635133671418 -0.12672619219378239 0 -0.48158424359770491 -0.1417547901596585 0 -0.4830594607413386 -0.1152740182441373 0 -0.46576631819597131 -0.14335722775268361 0 -0.46998635133671418 -0.12672619219378239 0 -0.48158424359770491 -0.1417547901596585 0 -0.5 -0.1342701483083896 0 -0.48158424359770491 -0.1417547901596585 0 -0.4830594607413386 -0.1152740182441373 0 -0.5 -0.1342701483083896 0 -0.48787309462859291 -0.1550349284155168 0 -0.48158424359770491 -0.1417547901596585 0 -0.5 -0.1342701483083896 0 -0.48787309462859291 -0.1550349284155168 0 -0.5 -0.16253602886753929 0 -0.46576631819597131 -0.14335722775268361 0 -0.48010902645407272 -0.1682355620751799 0 -0.48787309462859291 -0.1550349284155168 0 -0.48158424359770491 -0.1417547901596585 0 -0.48010902645407272 -0.1682355620751799 0 -0.46576631819597131 -0.14335722775268361 0 -0.48158424359770491 -0.1417547901596585 0 -0.48010902645407272 -0.1682355620751799 0 -0.48158424359770491 -0.1417547901596585 0 -0.48010902645407272 -0.1682355620751799 0 -0.46576631819597131 -0.14335722775268361 0 -0.46995949638211548 -0.16268714640518619 0 -0.48010902645407272 -0.1682355620751799 0 -0.47183122336814942 -0.16868772833957099 0 -0.4741111834156434 -0.17402786976066589 0 -0.46546673176909181 -0.1698144638183261 0 -0.46995949638211548 -0.16268714640518619 0 -0.47518712179669231 -0.16903659538640281 0 -0.48010902645407272 -0.1682355620751799 0 -0.46995949638211548 -0.16268714640518619 0 -0.47183122336814942 -0.16868772833957099 0 -0.46546673176909181 -0.1698144638183261 0 -0.46995949638211548 -0.16268714640518619 0 -0.47183122336814942 -0.16868772833957099 0 -0.47518712179669231 -0.16903659538640281 0 -0.47518712179669231 -0.16903659538640281 0 -0.4799246793634801 -0.1715446703514108 0 -0.4741111834156434 -0.17402786976066589 0 -0.47183122336814942 -0.16868772833957099 0 -0.47518712179669231 -0.16903659538640281 0 -0.4741111834156434 -0.17402786976066589 0 -0.47518712179669231 -0.16903659538640281 0 -0.4799246793634801 -0.1715446703514108 0 -0.48010902645407272 -0.1682355620751799 0 -0.4799246793634801 -0.1715446703514108 0 -0.48010902645407272 -0.1682355620751799 0 -0.48787309462859291 -0.1550349284155168 0 -0.48010902645407272 -0.1682355620751799 0 -0.4898119641621197 -0.16488159333298871 0 -0.48010902645407272 -0.1682355620751799 0 -0.4898119641621197 -0.16488159333298871 0 -0.49126573556581321 -0.17371985397371889 0 -0.4898119641621197 -0.16488159333298871 0 -0.5 -0.16253602886753929 0 -0.49126573556581321 -0.17371985397371889 0 -0.48787309462859291 -0.1550349284155168 0 -0.4898119641621197 -0.16488159333298871 0 -0.5 -0.16253602886753929 0 -0.49126573556581321 -0.17371985397371889 0 -0.48867537167884267 -0.18309442949328489 0 -0.5 -0.19080190942668879 0 -0.5 -0.16253602886753929 0 -0.49126573556581321 -0.17371985397371889 0 -0.5 -0.19080190942668879 0 -0.48010902645407272 -0.1682355620751799 0 -0.48867537167884267 -0.18309442949328489 0 -0.48010902645407272 -0.1682355620751799 0 -0.49126573556581321 -0.17371985397371889 0 -0.48867537167884267 -0.18309442949328489 0 -0.48867537167884267 -0.18309442949328489 0 -0.47972872505065323 -0.1822001073352818 0 -0.48696641294745718 -0.1939784108659329 0 -0.4799246793634801 -0.1715446703514108 0 -0.48867537167884267 -0.18309442949328489 0 -0.47972872505065323 -0.1822001073352818 0 -0.4799246793634801 -0.1715446703514108 0 -0.47972872505065323 -0.1822001073352818 0 -0.4741111834156434 -0.17402786976066589 0 -0.4799246793634801 -0.1715446703514108 0 -0.48010902645407272 -0.1682355620751799 0 -0.48867537167884267 -0.18309442949328489 0 -0.4741111834156434 -0.17402786976066589 0 -0.47092733545858989 -0.18220998606187749 0 -0.46546673176909181 -0.1698144638183261 0 -0.47972872505065323 -0.1822001073352818 0 -0.4741111834156434 -0.17402786976066589 0 -0.47092733545858989 -0.18220998606187749 0 -0.47972872505065323 -0.1822001073352818 0 -0.47092733545858989 -0.18220998606187749 0 -0.47601724520754812 -0.19520205961825221 0 -0.47092733545858989 -0.18220998606187749 0 -0.45683245674176542 -0.1793883093144315 0 -0.45544133784565438 -0.19695714781651619 0 -0.47092733545858989 -0.18220998606187749 0 -0.45683245674176542 -0.1793883093144315 0 -0.46546673176909181 -0.1698144638183261 0 -0.46995949638211548 -0.16268714640518619 0 -0.46546673176909181 -0.1698144638183261 0 -0.45979527302151241 -0.1563176337878284 0 -0.46546673176909181 -0.1698144638183261 0 -0.45979527302151241 -0.1563176337878284 0 -0.4508016451120907 -0.1660941860381456 0 -0.45683245674176542 -0.1793883093144315 0 -0.46546673176909181 -0.1698144638183261 0 -0.4508016451120907 -0.1660941860381456 0 -0.43582275949329369 -0.16276739228240031 0 -0.4508016451120907 -0.1660941860381456 0 -0.44243634102474849 -0.18091534681248889 0 -0.43582275949329369 -0.16276739228240031 0 -0.44418725497194389 -0.14624848521506181 0 -0.4508016451120907 -0.1660941860381456 0 -0.45683245674176542 -0.1793883093144315 0 -0.44243634102474849 -0.18091534681248889 0 -0.45544133784565438 -0.19695714781651619 0 -0.45683245674176542 -0.1793883093144315 0 -0.4508016451120907 -0.1660941860381456 0 -0.44243634102474849 -0.18091534681248889 0 -0.43045735081697528 -0.20393673163118239 0 -0.44243634102474849 -0.18091534681248889 0 -0.45544133784565438 -0.19695714781651619 0 -0.43045735081697528 -0.20393673163118239 0 -0.44694592142380868 -0.21726329031209851 0 -0.45544133784565438 -0.19695714781651619 0 -0.44694592142380868 -0.21726329031209851 0 -0.46598343053736718 -0.21643917050216671 0 -0.45544133784565438 -0.19695714781651619 0 -0.47092733545858989 -0.18220998606187749 0 -0.45544133784565438 -0.19695714781651619 0 -0.47601724520754812 -0.19520205961825221 0 -0.46598343053736718 -0.21643917050216671 0 -0.45544133784565438 -0.19695714781651619 0 -0.47601724520754812 -0.19520205961825221 0 -0.47601724520754812 -0.19520205961825221 0 -0.48696641294745718 -0.1939784108659329 0 -0.48523226126720598 -0.2083089270690032 0 -0.47972872505065323 -0.1822001073352818 0 -0.47601724520754812 -0.19520205961825221 0 -0.48696641294745718 -0.1939784108659329 0 -0.48867537167884267 -0.18309442949328489 0 -0.48696641294745718 -0.1939784108659329 0 -0.49724171690361152 -0.19795329691139049 0 -0.49724171690361152 -0.19795329691139049 0 -0.5 -0.19080190942668879 0 -0.5 -0.21906778998583851 0 -0.48696641294745718 -0.1939784108659329 0 -0.49724171690361152 -0.19795329691139049 0 -0.48523226126720598 -0.2083089270690032 0 -0.48867537167884267 -0.18309442949328489 0 -0.49724171690361152 -0.19795329691139049 0 -0.48867537167884267 -0.18309442949328489 0 -0.49724171690361152 -0.19795329691139049 0 -0.5 -0.19080190942668879 0 -0.49724171690361152 -0.19795329691139049 0 -0.48523226126720598 -0.2083089270690032 0 -0.5 -0.21906778998583851 0 -0.48523226126720598 -0.2083089270690032 0 -0.5 -0.21906778998583851 0 -0.48518476200725252 -0.22721283453043839 0 -0.46598343053736718 -0.21643917050216671 0 -0.48523226126720598 -0.2083089270690032 0 -0.48518476200725252 -0.22721283453043839 0 -0.46598343053736718 -0.21643917050216671 0 -0.47601724520754812 -0.19520205961825221 0 -0.46598343053736718 -0.21643917050216671 0 -0.47601724520754812 -0.19520205961825221 0 -0.48523226126720598 -0.2083089270690032 0 -0.46598343053736718 -0.21643917050216671 0 -0.48518476200725252 -0.22721283453043839 0 -0.47797480793359443 -0.24250497596553491 0 -0.5 -0.21906778998583851 0 -0.48518476200725252 -0.22721283453043839 0 -0.50000000000000155 -0.2473336705449882 0 -0.50000000000000155 -0.2473336705449882 0 -0.47797480793359443 -0.24250497596553491 0 -0.48518476200725252 -0.22721283453043839 0 -0.50000000000000155 -0.2473336705449882 0 -0.47797480793359443 -0.24250497596553491 0 -0.47797480793359443 -0.24250497596553491 0 -0.4559496158671873 -0.23767628138608149 0 -0.46095441007604793 -0.25848998864844891 0 -0.47797480793359443 -0.24250497596553491 0 -0.4559496158671873 -0.23767628138608149 0 -0.46598343053736718 -0.21643917050216671 0 -0.4559496158671873 -0.23767628138608149 0 -0.46598343053736718 -0.21643917050216671 0 -0.47797480793359443 -0.24250497596553491 0 -0.4559496158671873 -0.23767628138608149 0 -0.44694592142380868 -0.21726329031209851 0 -0.46598343053736718 -0.21643917050216671 0 -0.4559496158671873 -0.23767628138608149 0 -0.42689787205185958 -0.23130712022454569 0 -0.44694592142380868 -0.21726329031209851 0 -0.4559496158671873 -0.23767628138608149 0 -0.44485247883738982 -0.26116397149622111 0 -0.4559496158671873 -0.23767628138608149 0 -0.42689787205185958 -0.23130712022454569 0 -0.4559496158671873 -0.23767628138608149 0 -0.42689787205185958 -0.23130712022454569 0 -0.4559496158671873 -0.23767628138608149 0 -0.44164891654744198 -0.2450584551682439 0 -0.44485247883738982 -0.26116397149622111 0 -0.4559496158671873 -0.23767628138608149 0 -0.44164891654744198 -0.2450584551682439 0 -0.41940857698061512 -0.046360495642332758 0 -0.41259919389127597 -0.03883915622434686 0 -0.40262985989834721 -0.048443941687680132 0 -0.41259919389127597 -0.03883915622434686 0 -0.41607139650859148 -0.027946966168313599 0 -0.39930631331475602 -0.031608578407074359 0 -0.41940857698061512 -0.046360495642332758 0 -0.41259919389127597 -0.03883915622434686 0 -0.42557982275407008 -0.039835799216333428 0 -0.42557982275407008 -0.039835799216333428 0 -0.41607139650859148 -0.027946966168313599 0 -0.41259919389127597 -0.03883915622434686 0 -0.42557982275407008 -0.039835799216333428 0 -0.41607139650859148 -0.027946966168313599 0 -0.41940857698061512 -0.046360495642332758 0 -0.41792871505035761 -0.055912092639455312 0 -0.40262985989834721 -0.048443941687680132 0 -0.40658288370080831 -0.062492879319187178 0 -0.41792871505035761 -0.055912092639455312 0 -0.41456287295843008 -0.066311277324615989 0 -0.40658288370080831 -0.062492879319187178 0 -0.41792871505035761 -0.055912092639455312 0 -0.40262985989834721 -0.048443941687680132 0 -0.41792871505035761 -0.055912092639455312 0 -0.42928914131713142 -0.054564575609215918 0 -0.42421267379165217 -0.071279804214158776 0 -0.41940857698061512 -0.046360495642332758 0 -0.42928914131713142 -0.054564575609215918 0 -0.42557982275407008 -0.039835799216333428 0 -0.41940857698061512 -0.046360495642332758 0 -0.41792871505035761 -0.055912092639455312 0 -0.42928914131713142 -0.054564575609215918 0 -0.42928914131713142 -0.054564575609215918 0 -0.42557982275407008 -0.039835799216333428 0 -0.4482042793974631 -0.048469206518556233 0 -0.42557982275407008 -0.039835799216333428 0 -0.42738362483028791 -0.032263669819425141 0 -0.4482042793974631 -0.048469206518556233 0 -0.42557982275407008 -0.039835799216333428 0 -0.42738362483028791 -0.032263669819425141 0 -0.41607139650859148 -0.027946966168313599 0 -0.42738362483028791 -0.032263669819425141 0 -0.41611750668234432 -0.011215390120275131 0 -0.43878726799841128 -0.024476852797909319 0 -0.41611750668234432 -0.011215390120275131 0 -0.43878726799841128 -0.024476852797909319 0 -0.41611750668234432 -0.011215390120275131 0 -0.44578732100732571 -0.003346329288056523 0 -0.43878726799841128 -0.024476852797909319 0 -0.41611750668234432 -0.011215390120275131 0 -0.4116157544614989 0.0084241392466555074 0 -0.39344774536627719 0.002046072557359023 0 -0.42738362483028791 -0.032263669819425141 0 -0.41611750668234432 -0.011215390120275131 0 -0.40656297026311289 -0.016058133120293892 0 -0.42738362483028791 -0.032263669819425141 0 -0.41607139650859148 -0.027946966168313599 0 -0.40656297026311289 -0.016058133120293892 0 -0.42738362483028791 -0.032263669819425141 0 -0.40656297026311289 -0.016058133120293892 0 -0.41607139650859148 -0.027946966168313599 0 -0.40656297026311289 -0.016058133120293892 0 -0.39930631331475602 -0.031608578407074359 0 -0.41607139650859148 -0.027946966168313599 0 -0.40656297026311289 -0.016058133120293892 0 -0.39675823491216239 -0.0209511189497773 0 -0.39437166014978359 -0.01025633486905524 0 -0.38100998203754721 -0.024543810477339421 0 -0.39675823491216239 -0.0209511189497773 0 -0.38100998203754721 -0.024543810477339421 0 -0.39930631331475602 -0.031608578407074359 0 -0.40656297026311289 -0.016058133120293892 0 -0.39675823491216239 -0.0209511189497773 0 -0.39437166014978359 -0.01025633486905524 0 -0.40656297026311289 -0.016058133120293892 0 -0.39675823491216239 -0.0209511189497773 0 -0.39930631331475602 -0.031608578407074359 0 -0.41611750668234432 -0.011215390120275131 0 -0.39344774536627719 0.002046072557359023 0 -0.40656297026311289 -0.016058133120293892 0 -0.39287753499074779 -0.0054062190397681318 0 -0.39344774536627719 0.002046072557359023 0 -0.40656297026311289 -0.016058133120293892 0 -0.39344774536627719 0.002046072557359023 0 -0.41611750668234432 -0.011215390120275131 0 -0.40656297026311289 -0.016058133120293892 0 -0.39344774536627719 0.002046072557359023 0 -0.40656297026311289 -0.016058133120293892 0 -0.39287753499074779 -0.0054062190397681318 0 -0.40656297026311289 -0.016058133120293892 0 -0.39437166014978359 -0.01025633486905524 0 -0.39287753499074779 -0.0054062190397681318 0 -0.39437166014978359 -0.01025633486905524 0 -0.39287753499074779 -0.0054062190397681318 0 -0.39437166014978359 -0.01025633486905524 0 -0.39287753499074779 -0.0054062190397681318 0 -0.39072262449585388 -0.0037289672033424398 0 -0.39287753499074779 -0.0054062190397681318 0 -0.39072262449585388 -0.0037289672033424398 0 -0.39287753499074779 -0.0054062190397681318 0 -0.39171978545132718 -0.0016480202479848909 0 -0.39344774536627719 0.002046072557359023 0 -0.39287753499074779 -0.0054062190397681318 0 -0.39171978545132718 -0.0016480202479848909 0 -0.39287753499074779 -0.0054062190397681318 0 -0.39072262449585388 -0.0037289672033424398 0 -0.39171978545132718 -0.0016480202479848909 0 -0.39072262449585388 -0.0037289672033424398 0 -0.39171978545132718 -0.0016480202479848909 0 -0.39437166014978359 -0.01025633486905524 0 -0.39072262449585388 -0.0037289672033424398 0 -0.38100998203754721 -0.024543810477339421 0 -0.39072262449585388 -0.0037289672033424398 0 -0.37854971817919902 -0.01071064380255813 0 -0.38100998203754721 -0.024543810477339421 0 -0.39072262449585388 -0.0037289672033424398 0 -0.38100998203754721 -0.024543810477339421 0 -0.39072262449585388 -0.0037289672033424398 0 -0.37854971817919902 -0.01071064380255813 0 -0.3819240393544634 -0.00067374671502756106 0 -0.39072262449585388 -0.0037289672033424398 0 -0.38736768118614912 -0.00011237588612336 0 -0.3819240393544634 -0.00067374671502756106 0 -0.39072262449585388 -0.0037289672033424398 0 -0.39171978545132718 -0.0016480202479848909 0 -0.38736768118614912 -0.00011237588612336 0 -0.37263588858309638 -0.0016113739078703301 0 -0.37854971817919902 -0.01071064380255813 0 -0.3819240393544634 -0.00067374671502756106 0 -0.36714983617332131 -0.01560340313856357 0 -0.37854971817919902 -0.01071064380255813 0 -0.38100998203754721 -0.024543810477339421 0 -0.37127783602524089 -0.045349530710501663 0 -0.38100998203754721 -0.024543810477339421 0 -0.38689344979915191 -0.041266324924886792 0 -0.38100998203754721 -0.024543810477339421 0 -0.38689344979915191 -0.041266324924886792 0 -0.39930631331475602 -0.031608578407074359 0 -0.37127783602524089 -0.045349530710501663 0 -0.38100998203754721 -0.024543810477339421 0 -0.37127783602524089 -0.045349530710501663 0 -0.38689344979915191 -0.041266324924886792 0 -0.38231042678053068 -0.053843820366350763 0 -0.38689344979915191 -0.041266324924886792 0 -0.39930631331475602 -0.031608578407074359 0 -0.40262985989834721 -0.048443941687680132 0 -0.41259919389127597 -0.03883915622434686 0 -0.39930631331475602 -0.031608578407074359 0 -0.40262985989834721 -0.048443941687680132 0 -0.40262985989834721 -0.048443941687680132 0 -0.38231042678053068 -0.053843820366350763 0 -0.38813751519737999 -0.068211917227790936 0 -0.40658288370080831 -0.062492879319187178 0 -0.40262985989834721 -0.048443941687680132 0 -0.38813751519737999 -0.068211917227790936 0 -0.36674781110385801 -0.060863501329919162 0 -0.38231042678053068 -0.053843820366350763 0 -0.38813751519737999 -0.068211917227790936 0 -0.38689344979915191 -0.041266324924886792 0 -0.40262985989834721 -0.048443941687680132 0 -0.38231042678053068 -0.053843820366350763 0 -0.3719029430905223 -0.072127548889561022 0 -0.38813751519737999 -0.068211917227790936 0 -0.38047549661079938 -0.078655057436266898 0 -0.38813751519737999 -0.068211917227790936 0 -0.38047549661079938 -0.078655057436266898 0 -0.39280575900840198 -0.086437048519032764 0 -0.36674781110385801 -0.060863501329919162 0 -0.38813751519737999 -0.068211917227790936 0 -0.3719029430905223 -0.072127548889561022 0 -0.36674781110385801 -0.060863501329919162 0 -0.38813751519737999 -0.068211917227790936 0 -0.37173080150296212 -0.082730243423741495 0 -0.38047549661079938 -0.078655057436266898 0 -0.37966636621650141 -0.088222918673328793 0 -0.37237073826033862 -0.092281114852717436 0 -0.37966636621650141 -0.088222918673328793 0 -0.38084593669028299 -0.1002390302153679 0 -0.37966636621650141 -0.088222918673328793 0 -0.39280575900840198 -0.086437048519032764 0 -0.38084593669028299 -0.1002390302153679 0 -0.38047549661079938 -0.078655057436266898 0 -0.37966636621650141 -0.088222918673328793 0 -0.39280575900840198 -0.086437048519032764 0 -0.39280575900840198 -0.086437048519032764 0 -0.4058870149800014 -0.090263122645398292 0 -0.40952721929090208 -0.075560333125662696 0 -0.39280575900840198 -0.086437048519032764 0 -0.4058870149800014 -0.090263122645398292 0 -0.40187660554619398 -0.1007489330006146 0 -0.40658288370080831 -0.062492879319187178 0 -0.38813751519737999 -0.068211917227790936 0 -0.40952721929090208 -0.075560333125662696 0 -0.38813751519737999 -0.068211917227790936 0 -0.39280575900840198 -0.086437048519032764 0 -0.40952721929090208 -0.075560333125662696 0 -0.38813751519737999 -0.068211917227790936 0 -0.40952721929090208 -0.075560333125662696 0 -0.3721401528509401 -0.1162149784283797 0 -0.38761404010064288 -0.1135040342436069 0 -0.38084593669028299 -0.1002390302153679 0 -0.38203554953434349 -0.1248085006506521 0 -0.38761404010064288 -0.1135040342436069 0 -0.39335984459194451 -0.1216098013378914 0 -0.3721401528509401 -0.1162149784283797 0 -0.38203554953434349 -0.1248085006506521 0 -0.38761404010064288 -0.1135040342436069 0 -0.39280575900840198 -0.086437048519032764 0 -0.38084593669028299 -0.1002390302153679 0 -0.39156244368305593 -0.1038232050058724 0 -0.38761404010064288 -0.1135040342436069 0 -0.38084593669028299 -0.1002390302153679 0 -0.39156244368305593 -0.1038232050058724 0 -0.39280575900840198 -0.086437048519032764 0 -0.40187660554619398 -0.1007489330006146 0 -0.39156244368305593 -0.1038232050058724 0 -0.40187660554619398 -0.1007489330006146 0 -0.39862330516284938 -0.1118214908081492 0 -0.40837968486441972 -0.1088933319857103 0 -0.40187660554619398 -0.1007489330006146 0 -0.39156244368305593 -0.1038232050058724 0 -0.39862330516284938 -0.1118214908081492 0 -0.38761404010064288 -0.1135040342436069 0 -0.39156244368305593 -0.1038232050058724 0 -0.39862330516284938 -0.1118214908081492 0 -0.38761404010064288 -0.1135040342436069 0 -0.39862330516284938 -0.1118214908081492 0 -0.39335984459194451 -0.1216098013378914 0 -0.39862330516284938 -0.1118214908081492 0 -0.40594885016692411 -0.12179111383503589 0 -0.40837968486441972 -0.1088933319857103 0 -0.39862330516284938 -0.1118214908081492 0 -0.40594885016692411 -0.12179111383503589 0 -0.39335984459194451 -0.1216098013378914 0 -0.40594885016692411 -0.12179111383503589 0 -0.42151487592334569 -0.10769583647136451 0 -0.40837968486441972 -0.1088933319857103 0 -0.40594885016692411 -0.12179111383503589 0 -0.42151487592334569 -0.10769583647136451 0 -0.4148727867821867 -0.1211714781144084 0 -0.42151487592334569 -0.10769583647136451 0 -0.42552424324365468 -0.11671772335393869 0 -0.40594885016692411 -0.12179111383503589 0 -0.4148727867821867 -0.1211714781144084 0 -0.42151487592334569 -0.10769583647136451 0 -0.42151487592334569 -0.10769583647136451 0 -0.40837968486441972 -0.1088933319857103 0 -0.41298780974998639 -0.098433232341089208 0 -0.40187660554619398 -0.1007489330006146 0 -0.40837968486441972 -0.1088933319857103 0 -0.41298780974998639 -0.098433232341089208 0 -0.4058870149800014 -0.090263122645398292 0 -0.40187660554619398 -0.1007489330006146 0 -0.41298780974998639 -0.098433232341089208 0 -0.41298780974998639 -0.098433232341089208 0 -0.42363202886903562 -0.094650233789594321 0 -0.41663664831692238 -0.088347936153853335 0 -0.42151487592334569 -0.10769583647136451 0 -0.41298780974998639 -0.098433232341089208 0 -0.42363202886903562 -0.094650233789594321 0 -0.42151487592334569 -0.10769583647136451 0 -0.43394469257690949 -0.11135442778807141 0 -0.43708090167976638 -0.093600559107692008 0 -0.42151487592334569 -0.10769583647136451 0 -0.42363202886903562 -0.094650233789594321 0 -0.43708090167976638 -0.093600559107692008 0 -0.42151487592334569 -0.10769583647136451 0 -0.43708090167976638 -0.093600559107692008 0 -0.43176461769217711 -0.1266491510419108 0 -0.4148727867821867 -0.1211714781144084 0 -0.42552424324365468 -0.11671772335393869 0 -0.42151487592334569 -0.10769583647136451 0 -0.42552424324365468 -0.11671772335393869 0 -0.43394469257690949 -0.11135442778807141 0 -0.43176461769217711 -0.1266491510419108 0 -0.42552424324365468 -0.11671772335393869 0 -0.43394469257690949 -0.11135442778807141 0 -0.40952721929090208 -0.075560333125662696 0 -0.43091692338442422 -0.082908749023534137 0 -0.42421267379165217 -0.071279804214158776 0 -0.41456287295843008 -0.066311277324615989 0 -0.40952721929090208 -0.075560333125662696 0 -0.42421267379165217 -0.071279804214158776 0 -0.41792871505035761 -0.055912092639455312 0 -0.41456287295843008 -0.066311277324615989 0 -0.42421267379165217 -0.071279804214158776 0 -0.40658288370080831 -0.062492879319187178 0 -0.41456287295843008 -0.066311277324615989 0 -0.40952721929090208 -0.075560333125662696 0 -0.40952721929090208 -0.075560333125662696 0 -0.43091692338442422 -0.082908749023534137 0 -0.4058870149800014 -0.090263122645398292 0 -0.40952721929090208 -0.075560333125662696 0 -0.41663664831692238 -0.088347936153853335 0 -0.40952721929090208 -0.075560333125662696 0 -0.41663664831692238 -0.088347936153853335 0 -0.43091692338442422 -0.082908749023534137 0 -0.4058870149800014 -0.090263122645398292 0 -0.41298780974998639 -0.098433232341089208 0 -0.41663664831692238 -0.088347936153853335 0 -0.42363202886903562 -0.094650233789594321 0 -0.41663664831692238 -0.088347936153853335 0 -0.43091692338442422 -0.082908749023534137 0 -0.43708090167976638 -0.093600559107692008 0 -0.43091692338442422 -0.082908749023534137 0 -0.42363202886903562 -0.094650233789594321 0 -0.43708090167976638 -0.093600559107692008 0 -0.43091692338442422 -0.082908749023534137 0 -0.43708090167976638 -0.093600559107692008 0 -0.43091692338442422 -0.082908749023534137 0 -0.443945382176128 -0.087384665721173704 0 -0.43091692338442422 -0.082908749023534137 0 -0.443945382176128 -0.087384665721173704 0 -0.42928914131713142 -0.054564575609215918 0 -0.42421267379165217 -0.071279804214158776 0 -0.44040077992863041 -0.065530055424459069 0 -0.42421267379165217 -0.071279804214158776 0 -0.44040077992863041 -0.065530055424459069 0 -0.43930772885040781 -0.077260015590782535 0 -0.43091692338442422 -0.082908749023534137 0 -0.42421267379165217 -0.071279804214158776 0 -0.43930772885040781 -0.077260015590782535 0 -0.43091692338442422 -0.082908749023534137 0 -0.42421267379165217 -0.071279804214158776 0 -0.44040077992863041 -0.065530055424459069 0 -0.45648515807038298 -0.076029704469431483 0 -0.4482042793974631 -0.048469206518556233 0 -0.44040077992863041 -0.065530055424459069 0 -0.43930772885040781 -0.077260015590782535 0 -0.45648515807038298 -0.076029704469431483 0 -0.43091692338442422 -0.082908749023534137 0 -0.43930772885040781 -0.077260015590782535 0 -0.443945382176128 -0.087384665721173704 0 -0.43708090167976638 -0.093600559107692008 0 -0.443945382176128 -0.087384665721173704 0 -0.45595305485401483 -0.09150989215800473 0 -0.43930772885040781 -0.077260015590782535 0 -0.443945382176128 -0.087384665721173704 0 -0.45648515807038298 -0.076029704469431483 0 -0.43708090167976638 -0.093600559107692008 0 -0.443945382176128 -0.087384665721173704 0 -0.443945382176128 -0.087384665721173704 0 -0.45595305485401483 -0.09150989215800473 0 -0.443945382176128 -0.087384665721173704 0 -0.45595305485401483 -0.09150989215800473 0 -0.45648515807038298 -0.076029704469431483 0 -0.443945382176128 -0.087384665721173704 0 -0.45648515807038298 -0.076029704469431483 0 -0.46518462616658202 -0.089223900612759116 0 -0.45648515807038298 -0.076029704469431483 0 -0.47258224420883699 -0.081311291802852528 0 -0.45595305485401483 -0.09150989215800473 0 -0.46518462616658202 -0.089223900612759116 0 -0.45648515807038298 -0.076029704469431483 0 -0.45648515807038298 -0.076029704469431483 0 -0.46902493396463729 -0.064674743217688568 0 -0.45648515807038298 -0.076029704469431483 0 -0.46902493396463729 -0.064674743217688568 0 -0.4482042793974631 -0.048469206518556233 0 -0.45648515807038298 -0.076029704469431483 0 -0.46902493396463729 -0.064674743217688568 0 -0.47258224420883699 -0.081311291802852528 0 -0.43176461769217711 -0.1266491510419108 0 -0.43394469257690949 -0.11135442778807141 0 -0.45142360993786879 -0.1184788934301879 0 -0.43708090167976638 -0.093600559107692008 0 -0.45142360993786879 -0.1184788934301879 0 -0.43708090167976638 -0.093600559107692008 0 -0.45595305485401483 -0.09150989215800473 0 -0.45793289415364008 -0.1041159874198755 0 -0.43394469257690949 -0.11135442778807141 0 -0.43708090167976638 -0.093600559107692008 0 -0.45142360993786879 -0.1184788934301879 0 -0.43708090167976638 -0.093600559107692008 0 -0.45142360993786879 -0.1184788934301879 0 -0.45793289415364008 -0.1041159874198755 0 -0.45595305485401483 -0.09150989215800473 0 -0.46518462616658202 -0.089223900612759116 0 -0.45793289415364008 -0.1041159874198755 0 -0.46518462616658202 -0.089223900612759116 0 -0.45793289415364008 -0.1041159874198755 0 -0.4721719423098758 -0.1008542836041665 0 -0.45793289415364008 -0.1041159874198755 0 -0.46691485169588748 -0.1130898749784299 0 -0.4721719423098758 -0.1008542836041665 0 -0.46998635133671418 -0.12672619219378239 0 -0.45142360993786879 -0.1184788934301879 0 -0.46691485169588748 -0.1130898749784299 0 -0.45142360993786879 -0.1184788934301879 0 -0.45793289415364008 -0.1041159874198755 0 -0.46691485169588748 -0.1130898749784299 0 -0.46998635133671418 -0.12672619219378239 0 -0.46691485169588748 -0.1130898749784299 0 -0.4830594607413386 -0.1152740182441373 0 -0.46691485169588748 -0.1130898749784299 0 -0.4830594607413386 -0.1152740182441373 0 -0.4721719423098758 -0.1008542836041665 0 -0.4830594607413386 -0.1152740182441373 0 -0.48453467788497218 -0.088793246328616002 0 -0.4830594607413386 -0.1152740182441373 0 -0.4721719423098758 -0.1008542836041665 0 -0.48453467788497218 -0.088793246328616002 0 -0.5 -0.10600426774923991 0 -0.48453467788497218 -0.088793246328616002 0 -0.49268200579952298 -0.086599655305160311 0 -0.4830594607413386 -0.1152740182441373 0 -0.5 -0.10600426774923991 0 -0.48453467788497218 -0.088793246328616002 0 -0.5 -0.1342701483083896 0 -0.4830594607413386 -0.1152740182441373 0 -0.5 -0.10600426774923991 0 -0.46902493396463729 -0.064674743217688568 0 -0.47258224420883699 -0.081311291802852528 0 -0.4858209738622572 -0.077747763572679138 0 -0.48396173109836482 -0.064067066793981678 0 -0.46902493396463729 -0.064674743217688568 0 -0.4858209738622572 -0.077747763572679138 0 -0.46902493396463729 -0.064674743217688568 0 -0.4858209738622572 -0.077747763572679138 0 -0.46518462616658202 -0.089223900612759116 0 -0.47258224420883699 -0.081311291802852528 0 -0.47361837264256668 -0.090045680587098553 0 -0.46518462616658202 -0.089223900612759116 0 -0.4721719423098758 -0.1008542836041665 0 -0.47361837264256668 -0.090045680587098553 0 -0.47258224420883699 -0.081311291802852528 0 -0.47361837264256668 -0.090045680587098553 0 -0.48453467788497218 -0.088793246328616002 0 -0.4721719423098758 -0.1008542836041665 0 -0.47361837264256668 -0.090045680587098553 0 -0.48453467788497218 -0.088793246328616002 0 -0.47258224420883699 -0.081311291802852528 0 -0.48453467788497218 -0.088793246328616002 0 -0.4858209738622572 -0.077747763572679138 0 -0.48453467788497218 -0.088793246328616002 0 -0.49268200579952298 -0.086599655305160311 0 -0.4858209738622572 -0.077747763572679138 0 -0.5 -0.10600426774923991 0 -0.49268200579952298 -0.086599655305160311 0 -0.5 -0.077738387190090186 0 -0.49268200579952298 -0.086599655305160311 0 -0.5 -0.077738387190090186 0 -0.4858209738622572 -0.077747763572679138 0 -0.5 -0.077738387190090186 0 -0.49313470705364842 -0.066591080345581449 0 -0.5 -0.049472506630940598 0 -0.5 -0.077738387190090186 0 -0.4858209738622572 -0.077747763572679138 0 -0.49313470705364842 -0.066591080345581449 0 -0.48396173109836482 -0.064067066793981678 0 -0.4858209738622572 -0.077747763572679138 0 -0.49313470705364842 -0.066591080345581449 0 -0.49313470705364842 -0.066591080345581449 0 -0.49365530896382598 -0.056573815236682222 0 -0.5 -0.049472506630940598 0 -0.49365530896382598 -0.056573815236682222 0 -0.5 -0.049472506630940598 0 -0.49184705009365309 -0.044008963660457458 0 -0.49365530896382598 -0.056573815236682222 0 -0.49184705009365309 -0.044008963660457458 0 -0.48412679063054559 -0.050999778153177293 0 -0.49365530896382598 -0.056573815236682222 0 -0.48412679063054559 -0.050999778153177293 0 -0.49184705009365309 -0.044008963660457458 0 -0.48412679063054559 -0.050999778153177293 0 -0.48396173109836482 -0.064067066793981678 0 -0.49365530896382598 -0.056573815236682222 0 -0.48412679063054559 -0.050999778153177293 0 -0.48396173109836482 -0.064067066793981678 0 -0.49313470705364842 -0.066591080345581449 0 -0.49365530896382598 -0.056573815236682222 0 -0.5 -0.049472506630940598 0 -0.49184705009365309 -0.044008963660457458 0 -0.5 -0.021206626071790909 0 -0.49184705009365309 -0.044008963660457458 0 -0.48041971696243457 -0.039147580190033358 0 -0.48412679063054559 -0.050999778153177293 0 -0.48041971696243457 -0.039147580190033358 0 -0.46145702931447841 -0.037738315475543488 0 -0.47956451355016189 -0.026758648885759889 0 -0.48412679063054559 -0.050999778153177293 0 -0.46145702931447841 -0.037738315475543488 0 -0.49184705009365309 -0.044008963660457458 0 -0.48041971696243457 -0.039147580190033358 0 -0.47956451355016189 -0.026758648885759889 0 -0.48041971696243457 -0.039147580190033358 0 -0.48412679063054559 -0.050999778153177293 0 -0.46145702931447841 -0.037738315475543488 0 -0.46902493396463729 -0.064674743217688568 0 -0.48412679063054559 -0.050999778153177293 0 -0.46145702931447841 -0.037738315475543488 0 -0.46902493396463729 -0.064674743217688568 0 -0.48412679063054559 -0.050999778153177293 0 -0.48396173109836482 -0.064067066793981678 0 -0.46902493396463729 -0.064674743217688568 0 -0.48412679063054559 -0.050999778153177293 0 -0.46902493396463729 -0.064674743217688568 0 -0.4482042793974631 -0.048469206518556233 0 -0.46902493396463729 -0.064674743217688568 0 -0.46145702931447841 -0.037738315475543488 0 -0.4482042793974631 -0.048469206518556233 0 -0.42738362483028791 -0.032263669819425141 0 -0.4482042793974631 -0.048469206518556233 0 -0.43878726799841128 -0.024476852797909319 0 -0.42738362483028791 -0.032263669819425141 0 -0.4482042793974631 -0.048469206518556233 0 -0.46145702931447841 -0.037738315475543488 0 -0.4482042793974631 -0.048469206518556233 0 -0.43878726799841128 -0.024476852797909319 0 -0.42928914131713142 -0.054564575609215918 0 -0.44040077992863041 -0.065530055424459069 0 -0.4482042793974631 -0.048469206518556233 0 -0.44578732100732571 -0.003346329288056523 0 -0.43878726799841128 -0.024476852797909319 0 -0.45767034937126549 -0.01941138669545037 0 -0.46145702931447841 -0.037738315475543488 0 -0.43878726799841128 -0.024476852797909319 0 -0.45767034937126549 -0.01941138669545037 0 -0.46145702931447841 -0.037738315475543488 0 -0.43878726799841128 -0.024476852797909319 0 -0.46145702931447841 -0.037738315475543488 0 -0.45767034937126549 -0.01941138669545037 0 -0.47956451355016189 -0.026758648885759889 0 -0.44578732100732571 -0.003346329288056523 0 -0.45767034937126549 -0.01941138669545037 0 -0.47317925608824418 -0.0040678687169552032 0 -0.45767034937126549 -0.01941138669545037 0 -0.47317925608824418 -0.0040678687169552032 0 -0.47956451355016189 -0.026758648885759889 0 -0.47317925608824418 -0.0040678687169552032 0 -0.47956451355016189 -0.026758648885759889 0 -0.5 -0.021206626071790909 0 -0.49184705009365309 -0.044008963660457458 0 -0.47956451355016189 -0.026758648885759889 0 -0.5 -0.021206626071790909 0 -0.47317925608824418 -0.0040678687169552032 0 -0.5 -0.021206626071790909 0 -0.5 0.0070592544873587793 0 -0.5 0.0070592544873587793 0 -0.47879286313642788 0.023712861178603321 0 -0.5 0.035325135046508471 0 -0.47317925608824418 -0.0040678687169552032 0 -0.5 0.0070592544873587793 0 -0.47879286313642788 0.023712861178603321 0 -0.47317925608824418 -0.0040678687169552032 0 -0.47879286313642788 0.023712861178603321 0 -0.45453431833862978 0.021098692000117259 0 -0.5 0.035325135046508471 0 -0.4819365304795456 0.051608734947912828 0 -0.5 0.063591015605658108 0 -0.47879286313642788 0.023712861178603321 0 -0.5 0.035325135046508471 0 -0.4819365304795456 0.051608734947912828 0 -0.47879286313642788 0.023712861178603321 0 -0.4819365304795456 0.051608734947912828 0 -0.45924325590972159 0.04577225783789525 0 -0.4819365304795456 0.051608734947912828 0 -0.45924325590972159 0.04577225783789525 0 -0.46641649723306511 0.068799647027864688 0 -0.45924325590972159 0.04577225783789525 0 -0.44788513677653452 0.05869714049935508 0 -0.46641649723306511 0.068799647027864688 0 -0.45924325590972159 0.04577225783789525 0 -0.45453431833862978 0.021098692000117259 0 -0.43667092968991861 0.040363233361226852 0 -0.45924325590972159 0.04577225783789525 0 -0.44788513677653452 0.05869714049935508 0 -0.43667092968991861 0.040363233361226852 0 -0.44788513677653452 0.05869714049935508 0 -0.43667092968991861 0.040363233361226852 0 -0.43266078622665127 0.055918814891880712 0 -0.44788513677653452 0.05869714049935508 0 -0.43266078622665127 0.055918814891880712 0 -0.43807501808865479 0.065745365447182458 0 -0.44578732100732571 -0.003346329288056523 0 -0.47317925608824418 -0.0040678687169552032 0 -0.45453431833862978 0.021098692000117259 0 -0.47879286313642788 0.023712861178603321 0 -0.45924325590972159 0.04577225783789525 0 -0.45453431833862978 0.021098692000117259 0 -0.45453431833862978 0.021098692000117259 0 -0.43101570308756609 0.01477518249427511 0 -0.43667092968991861 0.040363233361226852 0 -0.44578732100732571 -0.003346329288056523 0 -0.45453431833862978 0.021098692000117259 0 -0.43101570308756609 0.01477518249427511 0 -0.41611750668234432 -0.011215390120275131 0 -0.44578732100732571 -0.003346329288056523 0 -0.43101570308756609 0.01477518249427511 0 -0.41611750668234432 -0.011215390120275131 0 -0.43101570308756609 0.01477518249427511 0 -0.4116157544614989 0.0084241392466555074 0 -0.4116157544614989 0.0084241392466555074 0 -0.42106499042910323 0.029439241072939212 0 -0.4037618197185322 0.024095859435372721 0 -0.43101570308756609 0.01477518249427511 0 -0.4116157544614989 0.0084241392466555074 0 -0.42106499042910323 0.029439241072939212 0 -0.43101570308756609 0.01477518249427511 0 -0.42106499042910323 0.029439241072939212 0 -0.43667092968991861 0.040363233361226852 0 -0.42106499042910323 0.029439241072939212 0 -0.43667092968991861 0.040363233361226852 0 -0.41407589407078771 0.046145646313386267 0 -0.43266078622665127 0.055918814891880712 0 -0.41407589407078771 0.046145646313386267 0 -0.42438996842304322 0.068195433191399785 0 -0.43667092968991861 0.040363233361226852 0 -0.43266078622665127 0.055918814891880712 0 -0.41407589407078771 0.046145646313386267 0 -0.41407589407078771 0.046145646313386267 0 -0.42438996842304322 0.068195433191399785 0 -0.40654888010114321 0.061734631889719213 0 -0.41407589407078771 0.046145646313386267 0 -0.42438996842304322 0.068195433191399785 0 -0.42106499042910323 0.029439241072939212 0 -0.41407589407078771 0.046145646313386267 0 -0.4037618197185322 0.024095859435372721 0 -0.41407589407078771 0.046145646313386267 0 -0.4037618197185322 0.024095859435372721 0 -0.41407589407078771 0.046145646313386267 0 -0.39449011381926102 0.03716465902389867 0 -0.39579839954654422 0.052095761857081049 0 -0.41407589407078771 0.046145646313386267 0 -0.39449011381926102 0.03716465902389867 0 -0.4037618197185322 0.024095859435372721 0 -0.40654888010114321 0.061734631889719213 0 -0.41407589407078771 0.046145646313386267 0 -0.39579839954654422 0.052095761857081049 0 -0.40654888010114321 0.061734631889719213 0 -0.39579839954654422 0.052095761857081049 0 -0.38781790869739668 0.06476653840891701 0 -0.37694858801610842 0.046301121137365592 0 -0.38781790869739668 0.06476653840891701 0 -0.37060243904072609 0.06690150887218399 0 -0.39579839954654422 0.052095761857081049 0 -0.37694858801610842 0.046301121137365592 0 -0.38781790869739668 0.06476653840891701 0 -0.39449011381926102 0.03716465902389867 0 -0.37694858801610842 0.046301121137365592 0 -0.3832947369914913 0.025700733402547481 0 -0.39449011381926102 0.03716465902389867 0 -0.39579839954654422 0.052095761857081049 0 -0.37694858801610842 0.046301121137365592 0 -0.37694858801610842 0.046301121137365592 0 -0.37526307742339871 0.032576720824762817 0 -0.3832947369914913 0.025700733402547481 0 -0.37694858801610842 0.046301121137365592 0 -0.3832947369914913 0.025700733402547481 0 -0.37526307742339871 0.032576720824762817 0 -0.3832947369914913 0.025700733402547481 0 -0.37681662355095719 0.021135124808956379 0 -0.39449011381926102 0.03716465902389867 0 -0.3832947369914913 0.025700733402547481 0 -0.39293987329620123 0.017394320865734801 0 -0.3832947369914913 0.025700733402547481 0 -0.37681662355095719 0.021135124808956379 0 -0.38964088596687629 0.0051003456677300076 0 -0.3832947369914913 0.025700733402547481 0 -0.38964088596687629 0.0051003456677300076 0 -0.39293987329620123 0.017394320865734801 0 -0.37681662355095719 0.021135124808956379 0 -0.38964088596687629 0.0051003456677300076 0 -0.36478222522365078 0.01881496218995456 0 -0.3819240393544634 -0.00067374671502756106 0 -0.39088429665507018 0.003545650737108602 0 -0.37339714784049899 0.0058903068706234142 0 -0.39088429665507018 0.003545650737108602 0 -0.36478222522365078 0.01881496218995456 0 -0.37339714784049899 0.0058903068706234142 0 -0.38964088596687629 0.0051003456677300076 0 -0.39088429665507018 0.003545650737108602 0 -0.36478222522365078 0.01881496218995456 0 -0.37681662355095719 0.021135124808956379 0 -0.38964088596687629 0.0051003456677300076 0 -0.3832947369914913 0.025700733402547481 0 -0.38964088596687629 0.0051003456677300076 0 -0.39088429665507018 0.003545650737108602 0 -0.36478222522365078 0.01881496218995456 0 -0.37263588858309638 -0.0016113739078703301 0 -0.3819240393544634 -0.00067374671502756106 0 -0.37339714784049899 0.0058903068706234142 0 -0.38736768118614912 -0.00011237588612336 0 -0.3819240393544634 -0.00067374671502756106 0 -0.39088429665507018 0.003545650737108602 0 -0.38964088596687629 0.0051003456677300076 0 -0.39088429665507018 0.003545650737108602 0 -0.39171978545132718 -0.0016480202479848909 0 -0.38736768118614912 -0.00011237588612336 0 -0.39088429665507018 0.003545650737108602 0 -0.39344774536627719 0.002046072557359023 0 -0.4037618197185322 0.024095859435372721 0 -0.39344774536627719 0.002046072557359023 0 -0.4037618197185322 0.024095859435372721 0 -0.39293987329620123 0.017394320865734801 0 -0.38964088596687629 0.0051003456677300076 0 -0.39344774536627719 0.002046072557359023 0 -0.39293987329620123 0.017394320865734801 0 -0.4116157544614989 0.0084241392466555074 0 -0.39344774536627719 0.002046072557359023 0 -0.4037618197185322 0.024095859435372721 0 -0.39171978545132718 -0.0016480202479848909 0 -0.39088429665507018 0.003545650737108602 0 -0.39171978545132718 -0.0016480202479848909 0 -0.39088429665507018 0.003545650737108602 0 -0.39344774536627719 0.002046072557359023 0 -0.39171978545132718 -0.0016480202479848909 0 -0.39344774536627719 0.002046072557359023 0 -0.39088429665507018 0.003545650737108602 0 -0.39344774536627719 0.002046072557359023 0 -0.38964088596687629 0.0051003456677300076 0 -0.39088429665507018 0.003545650737108602 0 -0.39344774536627719 0.002046072557359023 0 -0.39449011381926102 0.03716465902389867 0 -0.4037618197185322 0.024095859435372721 0 -0.39293987329620123 0.017394320865734801 0 -0.39045671826244832 0.1002415481873915 0 -0.39315272806136109 0.089718342550801272 0 -0.40861002414169112 0.096270545785084677 0 -0.39387752716821101 0.1115331359540374 0 -0.39045671826244832 0.1002415481873915 0 -0.40861002414169112 0.096270545785084677 0 -0.39387752716821101 0.1115331359540374 0 -0.40861002414169112 0.096270545785084677 0 -0.39387752716821101 0.1115331359540374 0 -0.40861002414169112 0.096270545785084677 0 -0.40930680797757019 0.1105753616739998 0 -0.4035330937552305 0.1182189921481399 0 -0.39387752716821101 0.1115331359540374 0 -0.40930680797757019 0.1105753616739998 0 -0.4035330937552305 0.1182189921481399 0 -0.38798142183211581 0.1176413903456536 0 -0.40887548175880067 0.1316786714180633 0 -0.38798142183211581 0.1176413903456536 0 -0.40887548175880067 0.1316786714180633 0 -0.4035330937552305 0.1182189921481399 0 -0.39387752716821101 0.1115331359540374 0 -0.38904296692407397 0.123668081436722 0 -0.38798142183211581 0.1176413903456536 0 -0.39591589769908991 0.12839989016000189 0 -0.4035330937552305 0.1182189921481399 0 -0.39387752716821101 0.1115331359540374 0 -0.38798142183211581 0.1176413903456536 0 -0.39387752716821101 0.1115331359540374 0 -0.38798142183211581 0.1176413903456536 0 -0.39387752716821101 0.1115331359540374 0 -0.38798142183211581 0.1176413903456536 0 -0.38206722961240841 0.1136680515691996 0 -0.38798142183211581 0.1176413903456536 0 -0.38206722961240841 0.1136680515691996 0 -0.38904296692407397 0.123668081436722 0 -0.38488375690240573 0.1208505130346311 0 -0.38739079126268472 0.12778053220660129 0 -0.38904296692407397 0.123668081436722 0 -0.38798142183211581 0.1176413903456536 0 -0.38488375690240573 0.1208505130346311 0 -0.38798142183211581 0.1176413903456536 0 -0.38488375690240573 0.1208505130346311 0 -0.38206722961240841 0.1136680515691996 0 -0.38798142183211581 0.1176413903456536 0 -0.38488375690240573 0.1208505130346311 0 -0.38488375690240573 0.1208505130346311 0 -0.37699531245485329 0.11927853712628381 0 -0.37880739777133582 0.12693658828720311 0 -0.38488375690240573 0.1208505130346311 0 -0.37699531245485329 0.11927853712628381 0 -0.38206722961240841 0.1136680515691996 0 -0.37699531245485329 0.11927853712628381 0 -0.38206722961240841 0.1136680515691996 0 -0.37183821545043588 0.1116037975452429 0 -0.38206722961240841 0.1136680515691996 0 -0.37861998813221492 0.1009682756787532 0 -0.37183821545043588 0.1116037975452429 0 -0.39387752716821101 0.1115331359540374 0 -0.39045671826244832 0.1002415481873915 0 -0.37861998813221492 0.1009682756787532 0 -0.39387752716821101 0.1115331359540374 0 -0.38206722961240841 0.1136680515691996 0 -0.37861998813221492 0.1009682756787532 0 -0.39387752716821101 0.1115331359540374 0 -0.37861998813221492 0.1009682756787532 0 -0.39045671826244832 0.1002415481873915 0 -0.38465351460682201 0.09242070332121885 0 -0.39315272806136109 0.089718342550801272 0 -0.39045671826244832 0.1002415481873915 0 -0.37861998813221492 0.1009682756787532 0 -0.38465351460682201 0.09242070332121885 0 -0.37861998813221492 0.1009682756787532 0 -0.37598375682357971 0.091106248447464899 0 -0.38465351460682201 0.09242070332121885 0 -0.37598375682357971 0.091106248447464899 0 -0.3850543817545059 0.080069101741683468 0 -0.38465351460682201 0.09242070332121885 0 -0.37598375682357971 0.091106248447464899 0 -0.3850543817545059 0.080069101741683468 0 -0.37060243904072609 0.06690150887218399 0 -0.3850543817545059 0.080069101741683468 0 -0.38465351460682201 0.09242070332121885 0 -0.39315272806136109 0.089718342550801272 0 -0.3850543817545059 0.080069101741683468 0 -0.38781790869739668 0.06476653840891701 0 -0.37060243904072609 0.06690150887218399 0 -0.3850543817545059 0.080069101741683468 0 -0.38781790869739668 0.06476653840891701 0 -0.39888188063297447 0.077683004804340344 0 -0.40654888010114321 0.061734631889719213 0 -0.38781790869739668 0.06476653840891701 0 -0.39888188063297447 0.077683004804340344 0 -0.40654888010114321 0.061734631889719213 0 -0.39888188063297447 0.077683004804340344 0 -0.41244936154736428 0.073668343171398296 0 -0.39888188063297447 0.077683004804340344 0 -0.39315272806136109 0.089718342550801272 0 -0.40861002414169112 0.096270545785084677 0 -0.3850543817545059 0.080069101741683468 0 -0.39888188063297447 0.077683004804340344 0 -0.39315272806136109 0.089718342550801272 0 -0.42334252111517301 0.081007955616133581 0 -0.42959278850435612 0.09699611672809734 0 -0.40861002414169112 0.096270545785084677 0 -0.39888188063297447 0.077683004804340344 0 -0.41244936154736428 0.073668343171398296 0 -0.40861002414169112 0.096270545785084677 0 -0.41244936154736428 0.073668343171398296 0 -0.42334252111517301 0.081007955616133581 0 -0.40861002414169112 0.096270545785084677 0 -0.42334252111517301 0.081007955616133581 0 -0.40861002414169112 0.096270545785084677 0 -0.40654888010114321 0.061734631889719213 0 -0.41244936154736428 0.073668343171398296 0 -0.42438996842304322 0.068195433191399785 0 -0.41244936154736428 0.073668343171398296 0 -0.42438996842304322 0.068195433191399785 0 -0.42334252111517301 0.081007955616133581 0 -0.42438996842304322 0.068195433191399785 0 -0.42334252111517301 0.081007955616133581 0 -0.43807501808865479 0.065745365447182458 0 -0.42334252111517301 0.081007955616133581 0 -0.43807501808865479 0.065745365447182458 0 -0.42334252111517301 0.081007955616133581 0 -0.43729044378529602 0.079537423452333597 0 -0.43807501808865479 0.065745365447182458 0 -0.43266078622665127 0.055918814891880712 0 -0.42438996842304322 0.068195433191399785 0 -0.43807501808865479 0.065745365447182458 0 -0.42334252111517301 0.081007955616133581 0 -0.43306144102659838 0.086820204850516947 0 -0.42959278850435612 0.09699611672809734 0 -0.42334252111517301 0.081007955616133581 0 -0.43729044378529602 0.079537423452333597 0 -0.43306144102659838 0.086820204850516947 0 -0.43306144102659838 0.086820204850516947 0 -0.42959278850435612 0.09699611672809734 0 -0.44470176079663848 0.089377075244699788 0 -0.42959278850435612 0.09699611672809734 0 -0.43294894045283611 0.11433339965753241 0 -0.44428171603796079 0.10375932272422569 0 -0.42187920976901361 0.10717790799298629 0 -0.42959278850435612 0.09699611672809734 0 -0.43294894045283611 0.11433339965753241 0 -0.42187920976901361 0.10717790799298629 0 -0.42959278850435612 0.09699611672809734 0 -0.40861002414169112 0.096270545785084677 0 -0.42187920976901361 0.10717790799298629 0 -0.40861002414169112 0.096270545785084677 0 -0.40930680797757019 0.1105753616739998 0 -0.4035330937552305 0.1182189921481399 0 -0.41863418505370509 0.1196762264897509 0 -0.40887548175880067 0.1316786714180633 0 -0.4035330937552305 0.1182189921481399 0 -0.40930680797757019 0.1105753616739998 0 -0.41863418505370509 0.1196762264897509 0 -0.42187920976901361 0.10717790799298629 0 -0.40930680797757019 0.1105753616739998 0 -0.41863418505370509 0.1196762264897509 0 -0.41863418505370509 0.1196762264897509 0 -0.43294894045283611 0.11433339965753241 0 -0.4324183369364818 0.1278138719480752 0 -0.42187920976901361 0.10717790799298629 0 -0.41863418505370509 0.1196762264897509 0 -0.43294894045283611 0.11433339965753241 0 -0.43294894045283611 0.11433339965753241 0 -0.44906788252153312 0.11766763165909 0 -0.44428171603796079 0.10375932272422569 0 -0.43294894045283611 0.11433339965753241 0 -0.44906788252153312 0.11766763165909 0 -0.4324183369364818 0.1278138719480752 0 -0.44906788252153312 0.11766763165909 0 -0.44428171603796079 0.10375932272422569 0 -0.45957550568743388 0.1012408105420135 0 -0.42959278850435612 0.09699611672809734 0 -0.44428171603796079 0.10375932272422569 0 -0.44470176079663848 0.089377075244699788 0 -0.44428171603796079 0.10375932272422569 0 -0.45957550568743388 0.1012408105420135 0 -0.44470176079663848 0.089377075244699788 0 -0.44906788252153312 0.11766763165909 0 -0.45957550568743388 0.1012408105420135 0 -0.47607533362019677 0.1153048988094407 0 -0.44906788252153312 0.11766763165909 0 -0.47607533362019677 0.1153048988094407 0 -0.45649687412809248 0.13660501881814169 0 -0.44788513677653452 0.05869714049935508 0 -0.43807501808865479 0.065745365447182458 0 -0.44894757170883393 0.07451011087763304 0 -0.43729044378529602 0.079537423452333597 0 -0.43807501808865479 0.065745365447182458 0 -0.44894757170883393 0.07451011087763304 0 -0.44894757170883393 0.07451011087763304 0 -0.44470176079663848 0.089377075244699788 0 -0.45909192936163762 0.08519950331787772 0 -0.43729044378529602 0.079537423452333597 0 -0.44894757170883393 0.07451011087763304 0 -0.44470176079663848 0.089377075244699788 0 -0.43729044378529602 0.079537423452333597 0 -0.43306144102659838 0.086820204850516947 0 -0.44470176079663848 0.089377075244699788 0 -0.45957550568743388 0.1012408105420135 0 -0.44470176079663848 0.089377075244699788 0 -0.45909192936163762 0.08519950331787772 0 -0.45957550568743388 0.1012408105420135 0 -0.45909192936163762 0.08519950331787772 0 -0.475706256049301 0.090004859050257721 0 -0.45909192936163762 0.08519950331787772 0 -0.46641649723306511 0.068799647027864688 0 -0.475706256049301 0.090004859050257721 0 -0.44788513677653452 0.05869714049935508 0 -0.44894757170883393 0.07451011087763304 0 -0.46641649723306511 0.068799647027864688 0 -0.44894757170883393 0.07451011087763304 0 -0.45909192936163762 0.08519950331787772 0 -0.46641649723306511 0.068799647027864688 0 -0.46641649723306511 0.068799647027864688 0 -0.475706256049301 0.090004859050257721 0 -0.48481185675238231 0.073172230559300236 0 -0.4819365304795456 0.051608734947912828 0 -0.46641649723306511 0.068799647027864688 0 -0.48481185675238231 0.073172230559300236 0 -0.475706256049301 0.090004859050257721 0 -0.5 0.0918568961648078 0 -0.48481185675238231 0.073172230559300236 0 -0.4819365304795456 0.051608734947912828 0 -0.48481185675238231 0.073172230559300236 0 -0.5 0.063591015605658108 0 -0.5 0.0918568961648078 0 -0.48481185675238231 0.073172230559300236 0 -0.5 0.063591015605658108 0 -0.475706256049301 0.090004859050257721 0 -0.5 0.0918568961648078 0 -0.47607533362019677 0.1153048988094407 0 -0.45957550568743388 0.1012408105420135 0 -0.475706256049301 0.090004859050257721 0 -0.47607533362019677 0.1153048988094407 0 -0.5 0.0918568961648078 0 -0.47607533362019677 0.1153048988094407 0 -0.5 0.12012277672395739 0 -0.47607533362019677 0.1153048988094407 0 -0.5 0.12012277672395739 0 -0.48593612288505661 0.13463443497364799 0 -0.5 0.12012277672395739 0 -0.48593612288505661 0.13463443497364799 0 -0.49999999999999972 0.14838865728310699 0 -0.47607533362019677 0.1153048988094407 0 -0.48593612288505661 0.13463443497364799 0 -0.45649687412809248 0.13660501881814169 0 -0.48593612288505661 0.13463443497364799 0 -0.47492527648899491 0.15185554606321131 0 -0.45649687412809248 0.13660501881814169 0 -0.48593612288505661 0.13463443497364799 0 -0.47492527648899491 0.15185554606321131 0 -0.49999999999999972 0.14838865728310699 0 -0.49999999999999972 0.14838865728310699 0 -0.48571233279720177 0.17191735019918539 0 -0.5 0.17628175269069801 0 -0.49999999999999972 0.14838865728310699 0 -0.48571233279720177 0.17191735019918539 0 -0.47492527648899491 0.15185554606321131 0 -0.49999999999999972 0.14838865728310699 0 -0.48571233279720177 0.17191735019918539 0 -0.48571233279720177 0.17191735019918539 0 -0.5 0.17628175269069801 0 -0.48815155521123083 0.18950095383494181 0 -0.48571233279720177 0.17191735019918539 0 -0.47142466559440421 0.1954460431152639 0 -0.48571233279720177 0.17191735019918539 0 -0.4638594203881905 0.17593681240123021 0 -0.47142466559440421 0.1954460431152639 0 -0.48571233279720177 0.17191735019918539 0 -0.48815155521123083 0.18950095383494181 0 -0.47142466559440421 0.1954460431152639 0 -0.48571233279720177 0.17191735019918539 0 -0.4687901578216398 0.16486573555662681 0 -0.4638594203881905 0.17593681240123021 0 -0.47492527648899491 0.15185554606321131 0 -0.48571233279720177 0.17191735019918539 0 -0.4687901578216398 0.16486573555662681 0 -0.4687901578216398 0.16486573555662681 0 -0.4638594203881905 0.17593681240123021 0 -0.45066360161217212 0.1597532335628804 0 -0.47492527648899491 0.15185554606321131 0 -0.4687901578216398 0.16486573555662681 0 -0.45066360161217212 0.1597532335628804 0 -0.4638594203881905 0.17593681240123021 0 -0.43845526778063387 0.17822903832199169 0 -0.44639010957425279 0.1954875792788105 0 -0.43845526778063387 0.17822903832199169 0 -0.45066360161217212 0.1597532335628804 0 -0.42502288268176341 0.16500491339042109 0 -0.4638594203881905 0.17593681240123021 0 -0.43845526778063387 0.17822903832199169 0 -0.45066360161217212 0.1597532335628804 0 -0.45066360161217212 0.1597532335628804 0 -0.42976954168548648 0.1457159524904719 0 -0.45066360161217212 0.1597532335628804 0 -0.45649687412809248 0.13660501881814169 0 -0.42976954168548648 0.1457159524904719 0 -0.44906788252153312 0.11766763165909 0 -0.45649687412809248 0.13660501881814169 0 -0.4324183369364818 0.1278138719480752 0 -0.45649687412809248 0.13660501881814169 0 -0.4324183369364818 0.1278138719480752 0 -0.42976954168548648 0.1457159524904719 0 -0.47492527648899491 0.15185554606321131 0 -0.45066360161217212 0.1597532335628804 0 -0.45649687412809248 0.13660501881814169 0 -0.47836819706575567 0.2445104017574217 0 -0.47406430555027379 0.22934678543166959 0 -0.46210482232437339 0.23770592111285771 0 -0.47836819706575567 0.2445104017574217 0 -0.5 0.22838990408005061 0 -0.5 0.25260496006181221 0 -0.5 0.22838990408005061 0 -0.47406430555027379 0.22934678543166959 0 -0.47849755652695758 0.2148473851769058 0 -0.47406430555027379 0.22934678543166959 0 -0.47849755652695758 0.2148473851769058 0 -0.45699511305391433 0.22551992225552231 0 -0.47836819706575567 0.2445104017574217 0 -0.5 0.22838990408005061 0 -0.47406430555027379 0.22934678543166959 0 -0.47849755652695758 0.2148473851769058 0 -0.47142466559440421 0.1954460431152639 0 -0.45713699839160671 0.21897473603134229 0 -0.5 0.22838990408005061 0 -0.47849755652695758 0.2148473851769058 0 -0.50000000000000067 0.20417484809828901 0 -0.47849755652695758 0.2148473851769058 0 -0.50000000000000067 0.20417484809828901 0 -0.47849755652695758 0.2148473851769058 0 -0.50000000000000067 0.20417484809828901 0 -0.48815155521123083 0.18950095383494181 0 -0.5 0.17628175269069801 0 -0.50000000000000067 0.20417484809828901 0 -0.48815155521123083 0.18950095383494181 0 -0.47849755652695758 0.2148473851769058 0 -0.48815155521123083 0.18950095383494181 0 -0.47142466559440421 0.1954460431152639 0 -0.4638594203881905 0.17593681240123021 0 -0.47142466559440421 0.1954460431152639 0 -0.44639010957425279 0.1954875792788105 0 -0.47142466559440421 0.1954460431152639 0 -0.44639010957425279 0.1954875792788105 0 -0.45547850705647491 0.20527532260059159 0 -0.44696225466563583 0.2111929319769496 0 -0.44751222148096492 0.22029323764014919 0 -0.43137041182981622 0.2115158735197287 0 -0.44639010957425279 0.1954875792788105 0 -0.44696225466563583 0.2111929319769496 0 -0.45547850705647491 0.20527532260059159 0 -0.44639010957425279 0.1954875792788105 0 -0.44696225466563583 0.2111929319769496 0 -0.43137041182981622 0.2115158735197287 0 -0.44696225466563583 0.2111929319769496 0 -0.45713699839160671 0.21897473603134229 0 -0.44751222148096492 0.22029323764014919 0 -0.44696225466563583 0.2111929319769496 0 -0.45547850705647491 0.20527532260059159 0 -0.45713699839160671 0.21897473603134229 0 -0.47142466559440421 0.1954460431152639 0 -0.45713699839160671 0.21897473603134229 0 -0.47142466559440421 0.1954460431152639 0 -0.45547850705647491 0.20527532260059159 0 -0.45713699839160671 0.21897473603134229 0 -0.47849755652695758 0.2148473851769058 0 -0.45713699839160671 0.21897473603134229 0 -0.45699511305391433 0.22551992225552231 0 -0.47849755652695758 0.2148473851769058 0 -0.45699511305391433 0.22551992225552231 0 -0.47406430555027379 0.22934678543166959 0 -0.45699511305391433 0.22551992225552231 0 -0.46210482232437339 0.23770592111285771 0 -0.45699511305391433 0.22551992225552231 0 -0.4450963294638518 0.23426272441720281 0 -0.46210482232437339 0.23770592111285771 0 -0.45713699839160671 0.21897473603134229 0 -0.45699511305391433 0.22551992225552231 0 -0.44751222148096492 0.22029323764014919 0 -0.4450963294638518 0.23426272441720281 0 -0.43137041182981622 0.2115158735197287 0 -0.44751222148096492 0.22029323764014919 0 -0.4450963294638518 0.23426272441720281 0 -0.43137041182981622 0.2115158735197287 0 -0.45699511305391433 0.22551992225552231 0 -0.44751222148096492 0.22029323764014919 0 -0.4450963294638518 0.23426272441720281 0 -0.4450963294638518 0.23426272441720281 0 -0.45882224709788733 0.25700957531467689 0 -0.43605341546033999 0.25219629711660108 0 -0.4450963294638518 0.23426272441720281 0 -0.45882224709788733 0.25700957531467689 0 -0.47836819706575567 0.2445104017574217 0 -0.46210482232437339 0.23770592111285771 0 -0.45882224709788733 0.25700957531467689 0 -0.4450963294638518 0.23426272441720281 0 -0.46210482232437339 0.23770592111285771 0 -0.45882224709788733 0.25700957531467689 0 -0.41130696356271301 0.23861322924214731 0 -0.42806862089434772 0.22926747661979491 0 -0.43605341546033999 0.25219629711660108 0 -0.4450963294638518 0.23426272441720281 0 -0.42806862089434772 0.22926747661979491 0 -0.43605341546033999 0.25219629711660108 0 -0.4450963294638518 0.23426272441720281 0 -0.42806862089434772 0.22926747661979491 0 -0.43137041182981622 0.2115158735197287 0 -0.41130696356271301 0.23861322924214731 0 -0.42806862089434772 0.22926747661979491 0 -0.41193391009284169 0.21464672757471309 0 -0.41193391009284169 0.21464672757471309 0 -0.43137041182981622 0.2115158735197287 0 -0.41764449419578059 0.18876902262225459 0 -0.42806862089434772 0.22926747661979491 0 -0.41193391009284169 0.21464672757471309 0 -0.43137041182981622 0.2115158735197287 0 -0.43137041182981622 0.2115158735197287 0 -0.41764449419578059 0.18876902262225459 0 -0.44639010957425279 0.1954875792788105 0 -0.43137041182981622 0.2115158735197287 0 -0.41764449419578059 0.18876902262225459 0 -0.41193391009284169 0.21464672757471309 0 -0.41764449419578059 0.18876902262225459 0 -0.40013689876498248 0.19888568793212011 0 -0.41764449419578059 0.18876902262225459 0 -0.40013689876498248 0.19888568793212011 0 -0.39190774983114651 0.17703398867229039 0 -0.40013689876498248 0.19888568793212011 0 -0.38534326317633832 0.19581510886399439 0 -0.39190774983114651 0.17703398867229039 0 -0.38534326317633832 0.19581510886399439 0 -0.37728112477673559 0.18477334989498839 0 -0.36616785200349827 0.20484233948746081 0 -0.38534326317633832 0.19581510886399439 0 -0.39144636797993237 0.2175210223496413 0 -0.36616785200349827 0.20484233948746081 0 -0.41193391009284169 0.21464672757471309 0 -0.40013689876498248 0.19888568793212011 0 -0.39144636797993237 0.2175210223496413 0 -0.40013689876498248 0.19888568793212011 0 -0.38534326317633832 0.19581510886399439 0 -0.39144636797993237 0.2175210223496413 0 -0.41130696356271301 0.23861322924214731 0 -0.39144636797993237 0.2175210223496413 0 -0.386164779529799 0.23784764646163631 0 -0.41130696356271301 0.23861322924214731 0 -0.41193391009284169 0.21464672757471309 0 -0.39144636797993237 0.2175210223496413 0 -0.39144636797993237 0.2175210223496413 0 -0.386164779529799 0.23784764646163631 0 -0.36678057190247437 0.2330625843598271 0 -0.41130696356271301 0.23861322924214731 0 -0.386164779529799 0.23784764646163631 0 -0.39558672729883598 0.25600927527440281 0 -0.40968581425476241 0.15154006162014741 0 -0.42976954168548648 0.1457159524904719 0 -0.42502288268176341 0.16500491339042109 0 -0.40968581425476241 0.15154006162014741 0 -0.40887548175880067 0.1316786714180633 0 -0.42976954168548648 0.1457159524904719 0 -0.41863418505370509 0.1196762264897509 0 -0.40887548175880067 0.1316786714180633 0 -0.4324183369364818 0.1278138719480752 0 -0.40887548175880067 0.1316786714180633 0 -0.42976954168548648 0.1457159524904719 0 -0.40887548175880067 0.1316786714180633 0 -0.4324183369364818 0.1278138719480752 0 -0.42976954168548648 0.1457159524904719 0 -0.45066360161217212 0.1597532335628804 0 -0.42976954168548648 0.1457159524904719 0 -0.42502288268176341 0.16500491339042109 0 -0.43845526778063387 0.17822903832199169 0 -0.44639010957425279 0.1954875792788105 0 -0.41764449419578059 0.18876902262225459 0 -0.43845526778063387 0.17822903832199169 0 -0.41764449419578059 0.18876902262225459 0 -0.42502288268176341 0.16500491339042109 0 -0.41764449419578059 0.18876902262225459 0 -0.40391857656174512 0.16602217172478051 0 -0.41764449419578059 0.18876902262225459 0 -0.42502288268176341 0.16500491339042109 0 -0.40391857656174512 0.16602217172478051 0 -0.40968581425476241 0.15154006162014741 0 -0.42502288268176341 0.16500491339042109 0 -0.40391857656174512 0.16602217172478051 0 -0.40968581425476241 0.15154006162014741 0 -0.40391857656174512 0.16602217172478051 0 -0.3953090241577778 0.15639990870073761 0 -0.40391857656174512 0.16602217172478051 0 -0.3953090241577778 0.15639990870073761 0 -0.39190774983114651 0.17703398867229039 0 -0.41764449419578059 0.18876902262225459 0 -0.40391857656174512 0.16602217172478051 0 -0.39190774983114651 0.17703398867229039 0 -0.38534326317633832 0.19581510886399439 0 -0.39190774983114651 0.17703398867229039 0 -0.37728112477673559 0.18477334989498839 0 -0.39190774983114651 0.17703398867229039 0 -0.37728112477673559 0.18477334989498839 0 -0.37743162676817371 0.1695532178361015 0 -0.3953090241577778 0.15639990870073761 0 -0.39190774983114651 0.17703398867229039 0 -0.38149543247522971 0.1575641432928524 0 -0.39190774983114651 0.17703398867229039 0 -0.37743162676817371 0.1695532178361015 0 -0.38149543247522971 0.1575641432928524 0 -0.38149543247522971 0.1575641432928524 0 -0.38639088563420748 0.14502518090353109 0 -0.37318016004841459 0.1480190571383877 0 -0.37836085516912332 0.1408977811595368 0 -0.38639088563420748 0.14502518090353109 0 -0.37318016004841459 0.1480190571383877 0 -0.3953090241577778 0.15639990870073761 0 -0.38149543247522971 0.1575641432928524 0 -0.38639088563420748 0.14502518090353109 0 -0.40968581425476241 0.15154006162014741 0 -0.40887548175880067 0.1316786714180633 0 -0.39845568618957622 0.14121390599082381 0 -0.3953090241577778 0.15639990870073761 0 -0.38639088563420748 0.14502518090353109 0 -0.39845568618957622 0.14121390599082381 0 -0.40968581425476241 0.15154006162014741 0 -0.3953090241577778 0.15639990870073761 0 -0.39845568618957622 0.14121390599082381 0 -0.38798142183211581 0.1176413903456536 0 -0.40887548175880067 0.1316786714180633 0 -0.39591589769908991 0.12839989016000189 0 -0.40887548175880067 0.1316786714180633 0 -0.39845568618957622 0.14121390599082381 0 -0.39591589769908991 0.12839989016000189 0 -0.38639088563420748 0.14502518090353109 0 -0.39845568618957622 0.14121390599082381 0 -0.39086307749217591 0.13462747225258381 0 -0.39845568618957622 0.14121390599082381 0 -0.39086307749217591 0.13462747225258381 0 -0.39591589769908991 0.12839989016000189 0 -0.38904296692407397 0.123668081436722 0 -0.39591589769908991 0.12839989016000189 0 -0.38739079126268472 0.12778053220660129 0 -0.39086307749217591 0.13462747225258381 0 -0.39591589769908991 0.12839989016000189 0 -0.38739079126268472 0.12778053220660129 0 -0.38739079126268472 0.12778053220660129 0 -0.38359837569041838 0.13414143088287259 0 -0.37880739777133582 0.12693658828720311 0 -0.38488375690240573 0.1208505130346311 0 -0.38739079126268472 0.12778053220660129 0 -0.37880739777133582 0.12693658828720311 0 -0.39086307749217591 0.13462747225258381 0 -0.38739079126268472 0.12778053220660129 0 -0.38359837569041838 0.13414143088287259 0 -0.38639088563420748 0.14502518090353109 0 -0.39086307749217591 0.13462747225258381 0 -0.38359837569041838 0.13414143088287259 0 -0.37836085516912332 0.1408977811595368 0 -0.38359837569041838 0.13414143088287259 0 -0.37027399930345278 0.13640545571335591 0 -0.37836085516912332 0.1408977811595368 0 -0.38639088563420748 0.14502518090353109 0 -0.38359837569041838 0.13414143088287259 0 -0.38359837569041838 0.13414143088287259 0 -0.37880739777133582 0.12693658828720311 0 -0.37027399930345278 0.13640545571335591 0 -0.37027399930345278 0.13640545571335591 0 -0.34967997951426127 0.13481841096242919 0 -0.35912097041394431 0.1496698725475267 0 -0.37880739777133582 0.12693658828720311 0 -0.37027399930345278 0.13640545571335591 0 -0.36737996253768063 0.12333373519514269 0 -0.37027399930345278 0.13640545571335591 0 -0.34967997951426127 0.13481841096242919 0 -0.36737996253768063 0.12333373519514269 0 -0.34967997951426127 0.13481841096242919 0 -0.34283874472328357 0.1570259087419095 0 -0.34967997951426127 0.13481841096242919 0 -0.35912097041394431 0.1496698725475267 0 -0.34283874472328357 0.1570259087419095 0 -0.38149543247522971 0.1575641432928524 0 -0.37318016004841459 0.1480190571383877 0 -0.36517669635376149 0.1591923529455809 0 -0.35912097041394431 0.1496698725475267 0 -0.37318016004841459 0.1480190571383877 0 -0.36517669635376149 0.1591923529455809 0 -0.37027399930345278 0.13640545571335591 0 -0.35912097041394431 0.1496698725475267 0 -0.37318016004841459 0.1480190571383877 0 -0.37836085516912332 0.1408977811595368 0 -0.37027399930345278 0.13640545571335591 0 -0.37318016004841459 0.1480190571383877 0 -0.36517669635376149 0.1591923529455809 0 -0.35992769415562609 0.17454797778344441 0 -0.36555513210452101 0.17662209461509451 0 -0.37743162676817371 0.1695532178361015 0 -0.38149543247522971 0.1575641432928524 0 -0.36517669635376149 0.1591923529455809 0 -0.36517669635376149 0.1591923529455809 0 -0.36555513210452101 0.17662209461509451 0 -0.37743162676817371 0.1695532178361015 0 -0.36517669635376149 0.1591923529455809 0 -0.36555513210452101 0.17662209461509451 0 -0.36517669635376149 0.1591923529455809 0 -0.35992769415562609 0.17454797778344441 0 -0.35409381004785528 0.16459650904558989 0 -0.35912097041394431 0.1496698725475267 0 -0.36517669635376149 0.1591923529455809 0 -0.35409381004785528 0.16459650904558989 0 -0.37743162676817371 0.1695532178361015 0 -0.36555513210452101 0.17662209461509451 0 -0.37728112477673559 0.18477334989498839 0 -0.37743162676817371 0.1695532178361015 0 -0.36555513210452101 0.17662209461509451 0 -0.35992769415562609 0.17454797778344441 0 -0.36555513210452101 0.17662209461509451 0 -0.35439637847045879 0.1832637727095324 0 -0.36555513210452101 0.17662209461509451 0 -0.35439637847045879 0.1832637727095324 0 -0.35439637847045879 0.1832637727095324 0 -0.34177651236683759 0.1835438349711338 0 -0.33551294056076431 0.19450317453033419 0 -0.36555513210452101 0.17662209461509451 0 -0.35439637847045879 0.1832637727095324 0 -0.3546738028414802 0.19711248546690849 0 -0.35992769415562609 0.17454797778344441 0 -0.35439637847045879 0.1832637727095324 0 -0.35209359490761127 0.17568928402526721 0 -0.35992769415562609 0.17454797778344441 0 -0.35439637847045879 0.1832637727095324 0 -0.35209359490761127 0.17568928402526721 0 -0.34540515973290548 0.17145365822981079 0 -0.34177651236683759 0.1835438349711338 0 -0.35439637847045879 0.1832637727095324 0 -0.35209359490761127 0.17568928402526721 0 -0.34177651236683759 0.1835438349711338 0 -0.35912097041394431 0.1496698725475267 0 -0.35409381004785528 0.16459650904558989 0 -0.34283874472328357 0.1570259087419095 0 -0.35992769415562609 0.17454797778344441 0 -0.35209359490761127 0.17568928402526721 0 -0.35409381004785528 0.16459650904558989 0 -0.35409381004785528 0.16459650904558989 0 -0.34540515973290548 0.17145365822981079 0 -0.34283874472328357 0.1570259087419095 0 -0.35209359490761127 0.17568928402526721 0 -0.35409381004785528 0.16459650904558989 0 -0.34540515973290548 0.17145365822981079 0 -0.34540515973290548 0.17145365822981079 0 -0.34283874472328357 0.1570259087419095 0 -0.32730437669598189 0.16494625192608461 0 -0.34540515973290548 0.17145365822981079 0 -0.34177651236683759 0.1835438349711338 0 -0.32749320433027818 0.18266469469710761 0 -0.34540515973290548 0.17145365822981079 0 -0.32749320433027818 0.18266469469710761 0 -0.34540515973290548 0.17145365822981079 0 -0.32749320433027818 0.18266469469710761 0 -0.32730437669598189 0.16494625192608461 0 -0.34177651236683759 0.1835438349711338 0 -0.32749320433027818 0.18266469469710761 0 -0.33551294056076431 0.19450317453033419 0 -0.32749320433027818 0.18266469469710761 0 -0.3148248969858593 0.18000710997067801 0 -0.3096044275718452 0.19391276385467421 0 -0.32749320433027818 0.18266469469710761 0 -0.32077676410781042 0.1743360044555568 0 -0.32730437669598189 0.16494625192608461 0 -0.32749320433027818 0.18266469469710761 0 -0.32077676410781042 0.1743360044555568 0 -0.3148248969858593 0.18000710997067801 0 -0.32077676410781042 0.1743360044555568 0 -0.3148248969858593 0.18000710997067801 0 -0.3123015800218103 0.1703100413628186 0 -0.32730437669598189 0.16494625192608461 0 -0.31012401648703791 0.1583467993750548 0 -0.3123015800218103 0.1703100413628186 0 -0.32077676410781042 0.1743360044555568 0 -0.32730437669598189 0.16494625192608461 0 -0.3123015800218103 0.1703100413628186 0 -0.32661243655432842 0.1443507294179858 0 -0.30635072364074639 0.14068791117309429 0 -0.31012401648703791 0.1583467993750548 0 -0.32730437669598189 0.16494625192608461 0 -0.32661243655432842 0.1443507294179858 0 -0.31012401648703791 0.1583467993750548 0 -0.32661243655432842 0.1443507294179858 0 -0.33464736986527321 0.13007675972223509 0 -0.32299622886629259 0.1201752380107203 0 -0.32661243655432842 0.1443507294179858 0 -0.30635072364074639 0.14068791117309429 0 -0.32299622886629259 0.1201752380107203 0 -0.30635072364074639 0.14068791117309429 0 -0.32299622886629259 0.1201752380107203 0 -0.34967997951426127 0.13481841096242919 0 -0.32661243655432842 0.1443507294179858 0 -0.33464736986527321 0.13007675972223509 0 -0.34967997951426127 0.13481841096242919 0 -0.33464736986527321 0.13007675972223509 0 -0.34054214190609539 0.119634764362277 0 -0.34967997951426127 0.13481841096242919 0 -0.34283874472328357 0.1570259087419095 0 -0.32661243655432842 0.1443507294179858 0 -0.34283874472328357 0.1570259087419095 0 -0.32730437669598189 0.16494625192608461 0 -0.32661243655432842 0.1443507294179858 0 -0.3466896254702192 0.24680058240020239 0 -0.36678057190247437 0.2330625843598271 0 -0.36739329180145047 0.26128282923219343 0 -0.36678057190247437 0.2330625843598271 0 -0.36739329180145047 0.26128282923219343 0 -0.386164779529799 0.23784764646163631 0 -0.36678057190247437 0.2330625843598271 0 -0.36739329180145047 0.26128282923219343 0 -0.36678057190247437 0.2330625843598271 0 -0.36616785200349827 0.20484233948746081 0 -0.36678057190247437 0.2330625843598271 0 -0.35001037639231619 0.22149823056014559 0 -0.36616785200349827 0.20484233948746081 0 -0.3466896254702192 0.24680058240020239 0 -0.36678057190247437 0.2330625843598271 0 -0.35001037639231619 0.22149823056014559 0 -0.35001037639231619 0.22149823056014559 0 -0.35289094755152911 0.20792031979088019 0 -0.34202489527180302 0.2027577442396935 0 -0.35001037639231619 0.22149823056014559 0 -0.35289094755152911 0.20792031979088019 0 -0.36616785200349827 0.20484233948746081 0 -0.35289094755152911 0.20792031979088019 0 -0.36616785200349827 0.20484233948746081 0 -0.3546738028414802 0.19711248546690849 0 -0.39144636797993237 0.2175210223496413 0 -0.36678057190247437 0.2330625843598271 0 -0.36616785200349827 0.20484233948746081 0 -0.36555513210452101 0.17662209461509451 0 -0.36616785200349827 0.20484233948746081 0 -0.36555513210452101 0.17662209461509451 0 -0.36616785200349827 0.20484233948746081 0 -0.3546738028414802 0.19711248546690849 0 -0.37728112477673559 0.18477334989498839 0 -0.36555513210452101 0.17662209461509451 0 -0.36616785200349827 0.20484233948746081 0 -0.35439637847045879 0.1832637727095324 0 -0.34202489527180302 0.2027577442396935 0 -0.35439637847045879 0.1832637727095324 0 -0.34202489527180302 0.2027577442396935 0 -0.33551294056076431 0.19450317453033419 0 -0.35439637847045879 0.1832637727095324 0 -0.3546738028414802 0.19711248546690849 0 -0.34202489527180302 0.2027577442396935 0 -0.35439637847045879 0.1832637727095324 0 -0.33551294056076431 0.19450317453033419 0 -0.35289094755152911 0.20792031979088019 0 -0.3546738028414802 0.19711248546690849 0 -0.34202489527180302 0.2027577442396935 0 -0.34202489527180302 0.2027577442396935 0 -0.33551294056076431 0.19450317453033419 0 -0.32858870276371288 0.2084845336103886 0 -0.32749320433027818 0.18266469469710761 0 -0.33551294056076431 0.19450317453033419 0 -0.32231001877848919 0.1942058023583127 0 -0.33551294056076431 0.19450317453033419 0 -0.31662950265106898 0.2057425763511348 0 -0.32858870276371288 0.2084845336103886 0 -0.32749320433027818 0.18266469469710761 0 -0.32231001877848919 0.1942058023583127 0 -0.3096044275718452 0.19391276385467421 0 -0.33551294056076431 0.19450317453033419 0 -0.31662950265106898 0.2057425763511348 0 -0.33551294056076431 0.19450317453033419 0 -0.32231001877848919 0.1942058023583127 0 -0.31662950265106898 0.2057425763511348 0 -0.32749320433027818 0.18266469469710761 0 -0.3096044275718452 0.19391276385467421 0 -0.32231001877848919 0.1942058023583127 0 -0.31662950265106898 0.2057425763511348 0 -0.3096044275718452 0.19391276385467421 0 -0.31662950265106898 0.2057425763511348 0 -0.31912276326178002 0.21716745716092531 0 -0.32858870276371288 0.2084845336103886 0 -0.31912276326178002 0.21716745716092531 0 -0.32858870276371288 0.2084845336103886 0 -0.32965341207314819 0.2222517157698552 0 -0.34202489527180302 0.2027577442396935 0 -0.32965341207314819 0.2222517157698552 0 -0.35001037639231619 0.22149823056014559 0 -0.34202489527180302 0.2027577442396935 0 -0.32965341207314819 0.2222517157698552 0 -0.34202489527180302 0.2027577442396935 0 -0.32858870276371288 0.2084845336103886 0 -0.32965341207314819 0.2222517157698552 0 -0.35001037639231619 0.22149823056014559 0 -0.32965341207314819 0.2222517157698552 0 -0.33169033672257009 0.2372713838371153 0 -0.32965341207314819 0.2222517157698552 0 -0.31728192887449352 0.241745687300017 0 -0.31122191641356428 0.22578841239058989 0 -0.32965341207314819 0.2222517157698552 0 -0.31728192887449352 0.241745687300017 0 -0.33169033672257009 0.2372713838371153 0 -0.31912276326178002 0.21716745716092531 0 -0.32965341207314819 0.2222517157698552 0 -0.31122191641356428 0.22578841239058989 0 -0.32965341207314819 0.2222517157698552 0 -0.31728192887449352 0.241745687300017 0 -0.31728192887449352 0.241745687300017 0 -0.33169033672257009 0.2372713838371153 0 -0.32124125608202131 0.25861183835085882 0 -0.3466896254702192 0.24680058240020239 0 -0.35001037639231619 0.22149823056014559 0 -0.33169033672257009 0.2372713838371153 0 -0.3466896254702192 0.24680058240020239 0 -0.33169033672257009 0.2372713838371153 0 -0.32124125608202131 0.25861183835085882 0 -0.28819786691168731 0.23647683716420681 0 -0.27612628102505798 0.25968523937959359 0 -0.28819786691168731 0.23647683716420681 0 -0.29990475407085337 0.24206421549201351 0 -0.29263566241616029 0.25219599423725242 0 -0.28819786691168731 0.23647683716420681 0 -0.29263566241616029 0.25219599423725242 0 -0.27612628102505798 0.25968523937959359 0 -0.28819786691168731 0.23647683716420681 0 -0.28515412132919687 0.23154687456749451 0 -0.27756401976308681 0.24177589253819759 0 -0.28819786691168731 0.23647683716420681 0 -0.29581109125888361 0.2353360447719435 0 -0.29990475407085337 0.24206421549201351 0 -0.28819786691168731 0.23647683716420681 0 -0.29581109125888361 0.2353360447719435 0 -0.28515412132919687 0.23154687456749451 0 -0.31728192887449352 0.241745687300017 0 -0.30876568589552639 0.23585052984099419 0 -0.29990475407085337 0.24206421549201351 0 -0.31728192887449352 0.241745687300017 0 -0.30876568589552639 0.23585052984099419 0 -0.31122191641356428 0.22578841239058989 0 -0.31728192887449352 0.241745687300017 0 -0.29990475407085337 0.24206421549201351 0 -0.30491100017813 0.25498982890324351 0 -0.29990475407085337 0.24206421549201351 0 -0.30491100017813 0.25498982890324351 0 -0.29263566241616029 0.25219599423725242 0 -0.29581109125888361 0.2353360447719435 0 -0.30876568589552639 0.23585052984099419 0 -0.29990475407085337 0.24206421549201351 0 -0.29581109125888361 0.2353360447719435 0 -0.30876568589552639 0.23585052984099419 0 -0.30068208277946129 0.2293748340015172 0 -0.31912276326178002 0.21716745716092531 0 -0.31122191641356428 0.22578841239058989 0 -0.29774606474137388 0.21698197817193551 0 -0.30876568589552639 0.23585052984099419 0 -0.30068208277946129 0.2293748340015172 0 -0.31122191641356428 0.22578841239058989 0 -0.30068208277946129 0.2293748340015172 0 -0.31122191641356428 0.22578841239058989 0 -0.29774606474137388 0.21698197817193551 0 -0.31122191641356428 0.22578841239058989 0 -0.29774606474137388 0.21698197817193551 0 -0.29217046393200669 0.22629082805432221 0 -0.28368611231015312 0.22535044665270379 0 -0.29774606474137388 0.21698197817193551 0 -0.28368611231015312 0.22535044665270379 0 -0.29774606474137388 0.21698197817193551 0 -0.30068208277946129 0.2293748340015172 0 -0.29217046393200669 0.22629082805432221 0 -0.29774606474137388 0.21698197817193551 0 -0.30068208277946129 0.2293748340015172 0 -0.28515412132919687 0.23154687456749451 0 -0.29581109125888361 0.2353360447719435 0 -0.30068208277946129 0.2293748340015172 0 -0.28515412132919687 0.23154687456749451 0 -0.30068208277946129 0.2293748340015172 0 -0.29217046393200669 0.22629082805432221 0 -0.28515412132919687 0.23154687456749451 0 -0.29217046393200669 0.22629082805432221 0 -0.28515412132919687 0.23154687456749451 0 -0.28368611231015312 0.22535044665270379 0 -0.28547569356356428 0.20896332233893469 0 -0.29774606474137388 0.21698197817193551 0 -0.302363922131963 0.20640016017917001 0 -0.28368611231015312 0.22535044665270379 0 -0.28547569356356428 0.20896332233893469 0 -0.29774606474137388 0.21698197817193551 0 -0.28547569356356428 0.20896332233893469 0 -0.29774606474137388 0.21698197817193551 0 -0.31662950265106898 0.2057425763511348 0 -0.29774606474137388 0.21698197817193551 0 -0.302363922131963 0.20640016017917001 0 -0.31662950265106898 0.2057425763511348 0 -0.29774606474137388 0.21698197817193551 0 -0.31662950265106898 0.2057425763511348 0 -0.31912276326178002 0.21716745716092531 0 -0.29774606474137388 0.21698197817193551 0 -0.28547569356356428 0.20896332233893469 0 -0.3096044275718452 0.19391276385467421 0 -0.28547569356356428 0.20896332233893469 0 -0.302363922131963 0.20640016017917001 0 -0.3096044275718452 0.19391276385467421 0 -0.31662950265106898 0.2057425763511348 0 -0.302363922131963 0.20640016017917001 0 -0.3096044275718452 0.19391276385467421 0 -0.28547569356356428 0.20896332233893469 0 -0.29163104387487621 0.1919648337018941 0 -0.27828689293944509 0.18516081152961211 0 -0.28547569356356428 0.20896332233893469 0 -0.3096044275718452 0.19391276385467421 0 -0.29163104387487621 0.1919648337018941 0 -0.28547569356356428 0.20896332233893469 0 -0.26728744752529271 0.19707735058849829 0 -0.27828689293944509 0.18516081152961211 0 -0.28547569356356428 0.20896332233893469 0 -0.26728744752529271 0.19707735058849829 0 -0.26728744752529271 0.19707735058849829 0 -0.27828689293944509 0.18516081152961211 0 -0.26765876769254993 0.1831279972736658 0 -0.26728744752529271 0.19707735058849829 0 -0.25823652781237949 0.20744711729681059 0 -0.2490992014870253 0.1851913788380552 0 -0.26728744752529271 0.19707735058849829 0 -0.26765876769254993 0.1831279972736658 0 -0.2490992014870253 0.1851913788380552 0 -0.26728744752529271 0.19707735058849829 0 -0.2490992014870253 0.1851913788380552 0 -0.25823652781237949 0.20744711729681059 0 -0.2490992014870253 0.1851913788380552 0 -0.24381375781435391 0.21163011962052941 0 -0.26728744752529271 0.19707735058849829 0 -0.25823652781237949 0.20744711729681059 0 -0.27007539855664231 0.21860231847580369 0 -0.25823652781237949 0.20744711729681059 0 -0.25557888046928079 0.22193338844258101 0 -0.24381375781435391 0.21163011962052941 0 -0.25823652781237949 0.20744711729681059 0 -0.27007539855664231 0.21860231847580369 0 -0.25557888046928079 0.22193338844258101 0 -0.28368611231015312 0.22535044665270379 0 -0.28547569356356428 0.20896332233893469 0 -0.27007539855664231 0.21860231847580369 0 -0.28547569356356428 0.20896332233893469 0 -0.26728744752529271 0.19707735058849829 0 -0.27007539855664231 0.21860231847580369 0 -0.28547569356356428 0.20896332233893469 0 -0.27007539855664231 0.21860231847580369 0 -0.28368611231015312 0.22535044665270379 0 -0.27007539855664231 0.21860231847580369 0 -0.26962615987893229 0.23371891513347209 0 -0.28368611231015312 0.22535044665270379 0 -0.26962615987893229 0.23371891513347209 0 -0.28515412132919687 0.23154687456749451 0 -0.28368611231015312 0.22535044665270379 0 -0.26962615987893229 0.23371891513347209 0 -0.28515412132919687 0.23154687456749451 0 -0.26962615987893229 0.23371891513347209 0 -0.27007539855664231 0.21860231847580369 0 -0.26962615987893229 0.23371891513347209 0 -0.25557888046928079 0.22193338844258101 0 -0.26962615987893229 0.23371891513347209 0 -0.25557888046928079 0.22193338844258101 0 -0.25407723701030299 0.2358938877682307 0 -0.26962615987893229 0.23371891513347209 0 -0.25806352799056681 0.24060098112806641 0 -0.26290036062986039 0.24569953386769289 0 -0.26962615987893229 0.23371891513347209 0 -0.25806352799056681 0.24060098112806641 0 -0.25407723701030299 0.2358938877682307 0 -0.26962615987893229 0.23371891513347209 0 -0.25407723701030299 0.2358938877682307 0 -0.26962615987893229 0.23371891513347209 0 -0.25806352799056681 0.24060098112806641 0 -0.25806352799056681 0.24060098112806641 0 -0.25407723701030299 0.2358938877682307 0 -0.25100080036135147 0.24264522738084729 0 -0.25629622284860087 0.24993280446742899 0 -0.25100080036135147 0.24264522738084729 0 -0.24803869981560719 0.24872960313750719 0 -0.25806352799056681 0.24060098112806641 0 -0.25629622284860087 0.24993280446742899 0 -0.25100080036135147 0.24264522738084729 0 -0.26290036062986039 0.24569953386769289 0 -0.26978774039069642 0.24809988152494919 0 -0.26252056122028011 0.25518307875040258 0 -0.25806352799056681 0.24060098112806641 0 -0.25629622284860087 0.24993280446742899 0 -0.26290036062986039 0.24569953386769289 0 -0.28819786691168731 0.23647683716420681 0 -0.27756401976308681 0.24177589253819759 0 -0.27612628102505798 0.25968523937959359 0 -0.26962615987893229 0.23371891513347209 0 -0.26290036062986039 0.24569953386769289 0 -0.26978774039069642 0.24809988152494919 0 -0.26978774039069642 0.24809988152494919 0 -0.27756401976308681 0.24177589253819759 0 -0.27612628102505798 0.25968523937959359 0 -0.26962615987893229 0.23371891513347209 0 -0.26978774039069642 0.24809988152494919 0 -0.27756401976308681 0.24177589253819759 0 -0.28515412132919687 0.23154687456749451 0 -0.26962615987893229 0.23371891513347209 0 -0.27756401976308681 0.24177589253819759 0 -0.28326540987733179 0.14114766740123419 0 -0.28970521841520019 0.16120058433546841 0 -0.27977209984624779 0.15364311662160951 0 -0.28326540987733179 0.14114766740123419 0 -0.30635072364074639 0.14068791117309429 0 -0.28970521841520019 0.16120058433546841 0 -0.28326540987733179 0.14114766740123419 0 -0.29045160712284818 0.1290591785102562 0 -0.27861827090293573 0.1226446414139782 0 -0.28326540987733179 0.14114766740123419 0 -0.29045160712284818 0.1290591785102562 0 -0.30635072364074639 0.14068791117309429 0 -0.29045160712284818 0.1290591785102562 0 -0.30635072364074639 0.14068791117309429 0 -0.29933996393152063 0.1161266032067961 0 -0.30635072364074639 0.14068791117309429 0 -0.29933996393152063 0.1161266032067961 0 -0.32299622886629259 0.1201752380107203 0 -0.30635072364074639 0.14068791117309429 0 -0.31012401648703791 0.1583467993750548 0 -0.28970521841520019 0.16120058433546841 0 -0.30635072364074639 0.14068791117309429 0 -0.28970521841520019 0.16120058433546841 0 -0.31012401648703791 0.1583467993750548 0 -0.30075993741188339 0.16864020926884529 0 -0.28970521841520019 0.16120058433546841 0 -0.31012401648703791 0.1583467993750548 0 -0.3123015800218103 0.1703100413628186 0 -0.30075993741188339 0.16864020926884529 0 -0.3096044275718452 0.19391276385467421 0 -0.30519011584550693 0.17740733003212589 0 -0.28845973723613588 0.1741665257036133 0 -0.30075993741188339 0.16864020926884529 0 -0.30519011584550693 0.17740733003212589 0 -0.28845973723613588 0.1741665257036133 0 -0.3096044275718452 0.19391276385467421 0 -0.28845973723613588 0.1741665257036133 0 -0.3148248969858593 0.18000710997067801 0 -0.3096044275718452 0.19391276385467421 0 -0.30519011584550693 0.17740733003212589 0 -0.3148248969858593 0.18000710997067801 0 -0.3123015800218103 0.1703100413628186 0 -0.30519011584550693 0.17740733003212589 0 -0.3123015800218103 0.1703100413628186 0 -0.30075993741188339 0.16864020926884529 0 -0.30519011584550693 0.17740733003212589 0 -0.29163104387487621 0.1919648337018941 0 -0.28845973723613588 0.1741665257036133 0 -0.27828689293944509 0.18516081152961211 0 -0.3096044275718452 0.19391276385467421 0 -0.29163104387487621 0.1919648337018941 0 -0.28845973723613588 0.1741665257036133 0 -0.28845973723613588 0.1741665257036133 0 -0.27828689293944509 0.18516081152961211 0 -0.27726132663272463 0.17499909951582651 0 -0.28845973723613588 0.1741665257036133 0 -0.28970521841520019 0.16120058433546841 0 -0.27977209984624779 0.15364311662160951 0 -0.30075993741188339 0.16864020926884529 0 -0.28845973723613588 0.1741665257036133 0 -0.28970521841520019 0.16120058433546841 0 -0.26857130253049888 0.17194097594009211 0 -0.26248719874847498 0.1634616302136386 0 -0.26731504690042668 0.15442028755255241 0 -0.27726132663272463 0.17499909951582651 0 -0.26857130253049888 0.17194097594009211 0 -0.26731504690042668 0.15442028755255241 0 -0.28845973723613588 0.1741665257036133 0 -0.26731504690042668 0.15442028755255241 0 -0.28845973723613588 0.1741665257036133 0 -0.27726132663272463 0.17499909951582651 0 -0.26731504690042668 0.15442028755255241 0 -0.28845973723613588 0.1741665257036133 0 -0.26731504690042668 0.15442028755255241 0 -0.27977209984624779 0.15364311662160951 0 -0.27828689293944509 0.18516081152961211 0 -0.27726132663272463 0.17499909951582651 0 -0.26765876769254993 0.1831279972736658 0 -0.27726132663272463 0.17499909951582651 0 -0.26857130253049888 0.17194097594009211 0 -0.26765876769254993 0.1831279972736658 0 -0.26765876769254993 0.1831279972736658 0 -0.25860482601618717 0.17720216229588581 0 -0.2490992014870253 0.1851913788380552 0 -0.25860482601618717 0.17720216229588581 0 -0.25290133003927823 0.16617244732729211 0 -0.2490992014870253 0.1851913788380552 0 -0.25290133003927823 0.16617244732729211 0 -0.24867904554602149 0.1718252157911333 0 -0.2490992014870253 0.1851913788380552 0 -0.25290133003927823 0.16617244732729211 0 -0.2490992014870253 0.1851913788380552 0 -0.26857130253049888 0.17194097594009211 0 -0.25860482601618717 0.17720216229588581 0 -0.26064116433360979 0.1696943039442271 0 -0.26857130253049888 0.17194097594009211 0 -0.26765876769254993 0.1831279972736658 0 -0.25860482601618717 0.17720216229588581 0 -0.26248719874847498 0.1634616302136386 0 -0.25290133003927823 0.16617244732729211 0 -0.25670345859152849 0.14715351581652861 0 -0.25290133003927823 0.16617244732729211 0 -0.25670345859152849 0.14715351581652861 0 -0.26248719874847498 0.1634616302136386 0 -0.26064116433360979 0.1696943039442271 0 -0.25290133003927823 0.16617244732729211 0 -0.26857130253049888 0.17194097594009211 0 -0.26248719874847498 0.1634616302136386 0 -0.26064116433360979 0.1696943039442271 0 -0.25860482601618717 0.17720216229588581 0 -0.26064116433360979 0.1696943039442271 0 -0.25290133003927823 0.16617244732729211 0 -0.26731504690042668 0.15442028755255241 0 -0.24617035656471711 0.13467404940149219 0 -0.25670345859152849 0.14715351581652861 0 -0.24617035656471711 0.13467404940149219 0 -0.24742470105536901 0.1532496325963128 0 -0.25670345859152849 0.14715351581652861 0 -0.26731504690042668 0.15442028755255241 0 -0.24617035656471711 0.13467404940149219 0 -0.26731504690042668 0.15442028755255241 0 -0.2662338500835103 0.13623213411170909 0 -0.24617035656471711 0.13467404940149219 0 -0.25290133003927823 0.16617244732729211 0 -0.25670345859152849 0.14715351581652861 0 -0.24742470105536901 0.1532496325963128 0 -0.26248719874847498 0.1634616302136386 0 -0.25670345859152849 0.14715351581652861 0 -0.26731504690042668 0.15442028755255241 0 -0.28326540987733179 0.14114766740123419 0 -0.27414660167687921 0.14636080142177629 0 -0.2662338500835103 0.13623213411170909 0 -0.26731504690042668 0.15442028755255241 0 -0.27414660167687921 0.14636080142177629 0 -0.2662338500835103 0.13623213411170909 0 -0.28326540987733179 0.14114766740123419 0 -0.27414660167687921 0.14636080142177629 0 -0.27977209984624779 0.15364311662160951 0 -0.26731504690042668 0.15442028755255241 0 -0.27414660167687921 0.14636080142177629 0 -0.27977209984624779 0.15364311662160951 0 -0.28326540987733179 0.14114766740123419 0 -0.2662338500835103 0.13623213411170909 0 -0.27861827090293573 0.1226446414139782 0 -0.2662338500835103 0.13623213411170909 0 -0.25629690274402139 0.12232477356589321 0 -0.27861827090293573 0.1226446414139782 0 -0.2662338500835103 0.13623213411170909 0 -0.25629690274402139 0.12232477356589321 0 -0.24617035656471711 0.13467404940149219 0 -0.25629690274402139 0.12232477356589321 0 -0.26690565241324687 0.11266032242746341 0 -0.24460205120436529 0.1114490207804217 0 -0.25432004880133358 0.099476279807380746 0 -0.26690565241324687 0.11266032242746341 0 -0.24460205120436529 0.1114490207804217 0 -0.25432004880133358 0.099476279807380746 0 -0.2660790825580881 0.098333286180355764 0 -0.26690565241324687 0.11266032242746341 0 -0.25432004880133358 0.099476279807380746 0 -0.2660790825580881 0.098333286180355764 0 -0.25594925391619922 0.086799486035772339 0 -0.2660790825580881 0.098333286180355764 0 -0.26690565241324687 0.11266032242746341 0 -0.28208795559760369 0.1061885725884683 0 -0.2660790825580881 0.098333286180355764 0 -0.28208795559760369 0.1061885725884683 0 -0.28298893294088279 0.089484653870461422 0 -0.27861827090293573 0.1226446414139782 0 -0.26690565241324687 0.11266032242746341 0 -0.28208795559760369 0.1061885725884683 0 -0.25629690274402139 0.12232477356589321 0 -0.27861827090293573 0.1226446414139782 0 -0.26690565241324687 0.11266032242746341 0 -0.29045160712284818 0.1290591785102562 0 -0.27861827090293573 0.1226446414139782 0 -0.29933996393152063 0.1161266032067961 0 -0.27861827090293573 0.1226446414139782 0 -0.28208795559760369 0.1061885725884683 0 -0.29933996393152063 0.1161266032067961 0 -0.28208795559760369 0.1061885725884683 0 -0.30135941336018668 0.094262609001241393 0 -0.29933996393152063 0.1161266032067961 0 -0.28208795559760369 0.1061885725884683 0 -0.30135941336018668 0.094262609001241393 0 -0.28298893294088279 0.089484653870461422 0 -0.30135941336018668 0.094262609001241393 0 -0.29933996393152063 0.1161266032067961 0 -0.31323632076920532 0.1006325711160405 0 -0.29933996393152063 0.1161266032067961 0 -0.32299622886629259 0.1201752380107203 0 -0.31323632076920532 0.1006325711160405 0 -0.29445596559685377 0.062585013442720189 0 -0.31487661376502563 0.056830106208846473 0 -0.31632794909371548 0.072688648307661752 0 -0.30094083481917439 0.080005902489382594 0 -0.29445596559685377 0.062585013442720189 0 -0.31632794909371548 0.072688648307661752 0 -0.30135941336018668 0.094262609001241393 0 -0.30094083481917439 0.080005902489382594 0 -0.32480175899656383 0.086171759130709569 0 -0.30135941336018668 0.094262609001241393 0 -0.30094083481917439 0.080005902489382594 0 -0.28298893294088279 0.089484653870461422 0 -0.30094083481917439 0.080005902489382594 0 -0.28298893294088279 0.089484653870461422 0 -0.27934501896775382 0.075828276093213548 0 -0.29445596559685377 0.062585013442720189 0 -0.27727144814636773 0.062733739671005373 0 -0.27934501896775382 0.075828276093213548 0 -0.30094083481917439 0.080005902489382594 0 -0.29445596559685377 0.062585013442720189 0 -0.27934501896775382 0.075828276093213548 0 -0.27934501896775382 0.075828276093213548 0 -0.26904570845380138 0.084732169129821205 0 -0.26086625388608309 0.073215143469302926 0 -0.27727144814636773 0.062733739671005373 0 -0.26086625388608309 0.073215143469302926 0 -0.26487951124926967 0.057428987480066418 0 -0.27727144814636773 0.062733739671005373 0 -0.27934501896775382 0.075828276093213548 0 -0.26086625388608309 0.073215143469302926 0 -0.2660790825580881 0.098333286180355764 0 -0.28298893294088279 0.089484653870461422 0 -0.26904570845380138 0.084732169129821205 0 -0.28298893294088279 0.089484653870461422 0 -0.27934501896775382 0.075828276093213548 0 -0.26904570845380138 0.084732169129821205 0 -0.2660790825580881 0.098333286180355764 0 -0.26904570845380138 0.084732169129821205 0 -0.25594925391619922 0.086799486035772339 0 -0.26904570845380138 0.084732169129821205 0 -0.25594925391619922 0.086799486035772339 0 -0.26086625388608309 0.073215143469302926 0 -0.25432004880133358 0.099476279807380746 0 -0.25594925391619922 0.086799486035772339 0 -0.2430337458440141 0.088223992159351311 0 -0.26086625388608309 0.073215143469302926 0 -0.2532426392228585 0.065264178478199222 0 -0.26487951124926967 0.057428987480066418 0 -0.25594925391619922 0.086799486035772339 0 -0.26086625388608309 0.073215143469302926 0 -0.24643185974337969 0.073566996350783398 0 -0.26086625388608309 0.073215143469302926 0 -0.2532426392228585 0.065264178478199222 0 -0.24643185974337969 0.073566996350783398 0 -0.26487951124926967 0.057428987480066418 0 -0.25499410811335588 0.053906922831539812 0 -0.26413218122252452 0.04038308194609537 0 -0.2532426392228585 0.065264178478199222 0 -0.25499410811335588 0.053906922831539812 0 -0.24609177366225021 0.058087531758988682 0 -0.2532426392228585 0.065264178478199222 0 -0.26487951124926967 0.057428987480066418 0 -0.25499410811335588 0.053906922831539812 0 -0.25499410811335588 0.053906922831539812 0 -0.25055895697087183 0.045476799495868428 0 -0.2482913708390507 0.051762957954908408 0 -0.25055895697087183 0.045476799495868428 0 -0.25215879644776762 0.031834772299794367 0 -0.26413218122252452 0.04038308194609537 0 -0.25215879644776762 0.031834772299794367 0 -0.26413218122252452 0.04038308194609537 0 -0.26455458389334041 0.023600461746136989 0 -0.25499410811335588 0.053906922831539812 0 -0.25055895697087183 0.045476799495868428 0 -0.26413218122252452 0.04038308194609537 0 -0.26413218122252452 0.04038308194609537 0 -0.2787246574451161 0.048194860734759697 0 -0.28191435873642567 0.022354710531863269 0 -0.26487951124926967 0.057428987480066418 0 -0.26413218122252452 0.04038308194609537 0 -0.2787246574451161 0.048194860734759697 0 -0.27727144814636773 0.062733739671005373 0 -0.26487951124926967 0.057428987480066418 0 -0.2787246574451161 0.048194860734759697 0 -0.26196604515275917 0.0063026809159313687 0 -0.2516275062592469 0.018919839351225719 0 -0.2365251488916538 0.012281932688315849 0 -0.26196604515275917 0.0063026809159313687 0 -0.2516275062592469 0.018919839351225719 0 -0.26455458389334041 0.023600461746136989 0 -0.25215879644776762 0.031834772299794367 0 -0.2516275062592469 0.018919839351225719 0 -0.26455458389334041 0.023600461746136989 0 -0.26196604515275917 0.0063026809159313687 0 -0.26455458389334041 0.023600461746136989 0 -0.28191435873642567 0.022354710531863269 0 -0.26413218122252452 0.04038308194609537 0 -0.26455458389334041 0.023600461746136989 0 -0.28191435873642567 0.022354710531863269 0 -0.26196604515275917 0.0063026809159313687 0 -0.28740694141386441 0.00032342914354691749 0 -0.26196604515275917 0.0063026809159313687 0 -0.28740694141386441 0.00032342914354691749 0 -0.28191435873642567 0.022354710531863269 0 -0.28740694141386441 0.00032342914354691749 0 -0.28191435873642567 0.022354710531863269 0 -0.30638503700273362 0.015567495695315729 0 -0.28191435873642567 0.022354710531863269 0 -0.30638503700273362 0.015567495695315729 0 -0.29338603030612898 0.04194926527231449 0 -0.30638503700273362 0.015567495695315729 0 -0.29338603030612898 0.04194926527231449 0 -0.31246717069855701 0.035836718232639113 0 -0.31666736856865441 -0.0055691854636326348 0 -0.30638503700273362 0.015567495695315729 0 -0.31666736856865441 -0.0055691854636326348 0 -0.28740694141386441 0.00032342914354691749 0 -0.30638503700273362 0.015567495695315729 0 -0.29445596559685377 0.062585013442720189 0 -0.2787246574451161 0.048194860734759697 0 -0.29338603030612898 0.04194926527231449 0 -0.29445596559685377 0.062585013442720189 0 -0.27727144814636773 0.062733739671005373 0 -0.2787246574451161 0.048194860734759697 0 -0.2787246574451161 0.048194860734759697 0 -0.28191435873642567 0.022354710531863269 0 -0.29338603030612898 0.04194926527231449 0 -0.29338603030612898 0.04194926527231449 0 -0.31246717069855701 0.035836718232639113 0 -0.31487661376502563 0.056830106208846473 0 -0.29338603030612898 0.04194926527231449 0 -0.31487661376502563 0.056830106208846473 0 -0.29445596559685377 0.062585013442720189 0 -0.29338603030612898 0.04194926527231449 0 -0.31487661376502563 0.056830106208846473 0 -0.31487661376502563 0.056830106208846473 0 -0.33057015792665378 0.052109953132503252 0 -0.33636719722392222 0.071710947145378456 0 -0.31246717069855701 0.035836718232639113 0 -0.31487661376502563 0.056830106208846473 0 -0.33057015792665378 0.052109953132503252 0 -0.31246717069855701 0.035836718232639113 0 -0.33092976832301862 0.032021410573337163 0 -0.33057015792665378 0.052109953132503252 0 -0.33092976832301862 0.032021410573337163 0 -0.33057015792665378 0.052109953132503252 0 -0.35017977917947951 0.054440425547779968 0 -0.33092976832301862 0.032021410573337163 0 -0.34885158652974979 0.025666004890006072 0 -0.35017977917947951 0.054440425547779968 0 -0.33057015792665378 0.052109953132503252 0 -0.35017977917947951 0.054440425547779968 0 -0.33636719722392222 0.071710947145378456 0 -0.31666736856865441 -0.0055691854636326348 0 -0.30638503700273362 0.015567495695315729 0 -0.332597603982136 0.011137529677019749 0 -0.30638503700273362 0.015567495695315729 0 -0.31246717069855701 0.035836718232639113 0 -0.33092976832301862 0.032021410573337163 0 -0.30638503700273362 0.015567495695315729 0 -0.33092976832301862 0.032021410573337163 0 -0.332597603982136 0.011137529677019749 0 -0.33092976832301862 0.032021410573337163 0 -0.332597603982136 0.011137529677019749 0 -0.34885158652974979 0.025666004890006072 0 -0.33705954901322871 -0.006363166607892482 0 -0.332597603982136 0.011137529677019749 0 -0.3576918111719386 0.0088305311066376596 0 -0.332597603982136 0.011137529677019749 0 -0.3576918111719386 0.0088305311066376596 0 -0.34885158652974979 0.025666004890006072 0 -0.3576918111719386 0.0088305311066376596 0 -0.34885158652974979 0.025666004890006072 0 -0.36399236113503719 0.037169903950181937 0 -0.37681662355095719 0.021135124808956379 0 -0.36478222522365078 0.01881496218995456 0 -0.36399236113503719 0.037169903950181937 0 -0.3576918111719386 0.0088305311066376596 0 -0.36478222522365078 0.01881496218995456 0 -0.36399236113503719 0.037169903950181937 0 -0.37681662355095719 0.021135124808956379 0 -0.36399236113503719 0.037169903950181937 0 -0.37526307742339871 0.032576720824762817 0 -0.37681662355095719 0.021135124808956379 0 -0.36399236113503719 0.037169903950181937 0 -0.3576918111719386 0.0088305311066376596 0 -0.36399236113503719 0.037169903950181937 0 -0.3576918111719386 0.0088305311066376596 0 -0.36478222522365078 0.01881496218995456 0 -0.37339714784049899 0.0058903068706234142 0 -0.37263588858309638 -0.0016113739078703301 0 -0.3576918111719386 0.0088305311066376596 0 -0.37339714784049899 0.0058903068706234142 0 -0.35017977917947951 0.054440425547779968 0 -0.36729740008788231 0.052035706411182818 0 -0.35627901463138328 0.069424864109069534 0 -0.34885158652974979 0.025666004890006072 0 -0.35017977917947951 0.054440425547779968 0 -0.36399236113503719 0.037169903950181937 0 -0.35017977917947951 0.054440425547779968 0 -0.36399236113503719 0.037169903950181937 0 -0.36399236113503719 0.037169903950181937 0 -0.36729740008788231 0.052035706411182818 0 -0.37694858801610842 0.046301121137365592 0 -0.37526307742339871 0.032576720824762817 0 -0.36399236113503719 0.037169903950181937 0 -0.37694858801610842 0.046301121137365592 0 -0.36399236113503719 0.037169903950181937 0 -0.36729740008788231 0.052035706411182818 0 -0.37694858801610842 0.046301121137365592 0 -0.36729740008788231 0.052035706411182818 0 -0.37060243904072609 0.06690150887218399 0 -0.35017977917947951 0.054440425547779968 0 -0.36399236113503719 0.037169903950181937 0 -0.36729740008788231 0.052035706411182818 0 -0.37694858801610842 0.046301121137365592 0 -0.37060243904072609 0.06690150887218399 0 -0.36729740008788231 0.052035706411182818 0 -0.37060243904072609 0.06690150887218399 0 -0.36729740008788231 0.052035706411182818 0 -0.37060243904072609 0.06690150887218399 0 -0.35627901463138328 0.069424864109069534 0 -0.37060243904072609 0.06690150887218399 0 -0.35627901463138328 0.069424864109069534 0 -0.36336244909621851 0.090403415403469092 0 -0.35017977917947951 0.054440425547779968 0 -0.35627901463138328 0.069424864109069534 0 -0.33636719722392222 0.071710947145378456 0 -0.35627901463138328 0.069424864109069534 0 -0.3498648231600705 0.081057181274423559 0 -0.33636719722392222 0.071710947145378456 0 -0.35627901463138328 0.069424864109069534 0 -0.3498648231600705 0.081057181274423559 0 -0.36336244909621851 0.090403415403469092 0 -0.35042402232743042 0.093745715027500676 0 -0.3498648231600705 0.081057181274423559 0 -0.3388925856684456 0.085495217073023988 0 -0.3498648231600705 0.081057181274423559 0 -0.36336244909621851 0.090403415403469092 0 -0.35042402232743042 0.093745715027500676 0 -0.3498648231600705 0.081057181274423559 0 -0.36336244909621851 0.090403415403469092 0 -0.37060243904072609 0.06690150887218399 0 -0.36336244909621851 0.090403415403469092 0 -0.37598375682357971 0.091106248447464899 0 -0.37060243904072609 0.06690150887218399 0 -0.37598375682357971 0.091106248447464899 0 -0.37060243904072609 0.06690150887218399 0 -0.36336244909621851 0.090403415403469092 0 -0.37861998813221492 0.1009682756787532 0 -0.36336244909621851 0.090403415403469092 0 -0.36758546674602721 0.1038966004526034 0 -0.37861998813221492 0.1009682756787532 0 -0.37598375682357971 0.091106248447464899 0 -0.36336244909621851 0.090403415403469092 0 -0.36336244909621851 0.090403415403469092 0 -0.36758546674602721 0.1038966004526034 0 -0.35652121430523909 0.1126109131829489 0 -0.36336244909621851 0.090403415403469092 0 -0.35652121430523909 0.1126109131829489 0 -0.37861998813221492 0.1009682756787532 0 -0.36336244909621851 0.090403415403469092 0 -0.37861998813221492 0.1009682756787532 0 -0.36758546674602721 0.1038966004526034 0 -0.37183821545043588 0.1116037975452429 0 -0.36758546674602721 0.1038966004526034 0 -0.37183821545043588 0.1116037975452429 0 -0.35652121430523909 0.1126109131829489 0 -0.37699531245485329 0.11927853712628381 0 -0.37880739777133582 0.12693658828720311 0 -0.36737996253768063 0.12333373519514269 0 -0.37699531245485329 0.11927853712628381 0 -0.36737996253768063 0.12333373519514269 0 -0.37183821545043588 0.1116037975452429 0 -0.36737996253768063 0.12333373519514269 0 -0.37183821545043588 0.1116037975452429 0 -0.35652121430523909 0.1126109131829489 0 -0.34967997951426127 0.13481841096242919 0 -0.35652121430523909 0.1126109131829489 0 -0.34054214190609539 0.119634764362277 0 -0.34967997951426127 0.13481841096242919 0 -0.35652121430523909 0.1126109131829489 0 -0.35652121430523909 0.1126109131829489 0 -0.33964173409183868 0.099662564848346319 0 -0.34054214190609539 0.119634764362277 0 -0.34967997951426127 0.13481841096242919 0 -0.36737996253768063 0.12333373519514269 0 -0.35652121430523909 0.1126109131829489 0 -0.35042402232743042 0.093745715027500676 0 -0.36336244909621851 0.090403415403469092 0 -0.35652121430523909 0.1126109131829489 0 -0.35042402232743042 0.093745715027500676 0 -0.35652121430523909 0.1126109131829489 0 -0.33964173409183868 0.099662564848346319 0 -0.33464736986527321 0.13007675972223509 0 -0.34054214190609539 0.119634764362277 0 -0.32299622886629259 0.1201752380107203 0 -0.33964173409183868 0.099662564848346319 0 -0.34054214190609539 0.119634764362277 0 -0.32299622886629259 0.1201752380107203 0 -0.33964173409183868 0.099662564848346319 0 -0.32299622886629259 0.1201752380107203 0 -0.33964173409183868 0.099662564848346319 0 -0.31323632076920532 0.1006325711160405 0 -0.32480175899656383 0.086171759130709569 0 -0.33964173409183868 0.099662564848346319 0 -0.32299622886629259 0.1201752380107203 0 -0.31323632076920532 0.1006325711160405 0 -0.30094083481917439 0.080005902489382594 0 -0.32480175899656383 0.086171759130709569 0 -0.31632794909371548 0.072688648307661752 0 -0.30135941336018668 0.094262609001241393 0 -0.31323632076920532 0.1006325711160405 0 -0.32480175899656383 0.086171759130709569 0 -0.31323632076920532 0.1006325711160405 0 -0.32480175899656383 0.086171759130709569 0 -0.31487661376502563 0.056830106208846473 0 -0.33636719722392222 0.071710947145378456 0 -0.32480175899656383 0.086171759130709569 0 -0.31632794909371548 0.072688648307661752 0 -0.33636719722392222 0.071710947145378456 0 -0.31487661376502563 0.056830106208846473 0 -0.31632794909371548 0.072688648307661752 0 -0.33636719722392222 0.071710947145378456 0 -0.35017977917947951 0.054440425547779968 0 -0.33636719722392222 0.071710947145378456 0 -0.3498648231600705 0.081057181274423559 0 -0.33636719722392222 0.071710947145378456 0 -0.3498648231600705 0.081057181274423559 0 -0.33636719722392222 0.071710947145378456 0 -0.3388925856684456 0.085495217073023988 0 -0.35042402232743042 0.093745715027500676 0 -0.33964173409183868 0.099662564848346319 0 -0.3388925856684456 0.085495217073023988 0 -0.33964173409183868 0.099662564848346319 0 -0.32480175899656383 0.086171759130709569 0 -0.3388925856684456 0.085495217073023988 0 -0.32480175899656383 0.086171759130709569 0 -0.33636719722392222 0.071710947145378456 0 -0.3388925856684456 0.085495217073023988 0 -0.32480175899656383 0.086171759130709569 0 -0.33636719722392222 0.071710947145378456 0 -0.39087440279914232 0.48029044744842281 0 -0.40080807541178359 0.47323981765210432 0 -0.38640942681684443 0.46400845672143548 0 -0.4041369249884984 0.47537403266013112 0 -0.40268737591779741 0.49167603289954398 0 -0.40825345398484469 0.48395551412766702 0 -0.39087440279914232 0.48029044744842281 0 -0.4041369249884984 0.47537403266013112 0 -0.40268737591779741 0.49167603289954398 0 -0.4041369249884984 0.47537403266013112 0 -0.40268737591779741 0.49167603289954398 0 -0.39087440279914232 0.48029044744842281 0 -0.40080807541178359 0.47323981765210432 0 -0.40080807541178359 0.47323981765210432 0 -0.40456372146726249 0.47057417011006752 0 -0.39747919799214171 0.4645712438657687 0 -0.39087440279914232 0.48029044744842281 0 -0.40080807541178359 0.47323981765210432 0 -0.4041369249884984 0.47537403266013112 0 -0.40080807541178359 0.47323981765210432 0 -0.40456372146726249 0.47057417011006752 0 -0.40080807541178359 0.47323981765210432 0 -0.40456372146726249 0.47057417011006752 0 -0.4041369249884984 0.47537403266013112 0 -0.40456372146726249 0.47057417011006752 0 -0.4041369249884984 0.47537403266013112 0 -0.40080807541178359 0.47323981765210432 0 -0.4041369249884984 0.47537403266013112 0 -0.40233942693999858 0.49558915625215222 0 -0.38721465321194731 0.5 0 -0.41132380484983849 0.49999999999999628 0 -0.40268737591779741 0.49167603289954398 0 -0.40233942693999858 0.49558915625215222 0 -0.41132380484983849 0.49999999999999628 0 -0.40268737591779741 0.49167603289954398 0 -0.40233942693999858 0.49558915625215222 0 -0.39332501199558262 0.49281557696027822 0 -0.40268737591779741 0.49167603289954398 0 -0.40233942693999858 0.49558915625215222 0 -0.40233942693999858 0.49558915625215222 0 -0.39332501199558262 0.49281557696027822 0 -0.38721465321194731 0.5 0 -0.39087440279914232 0.48029044744842281 0 -0.40268737591779741 0.49167603289954398 0 -0.39087440279914232 0.48029044744842281 0 -0.40268737591779741 0.49167603289954398 0 -0.39332501199558262 0.49281557696027822 0 -0.39087440279914232 0.48029044744842281 0 -0.37698995218659531 0.49014522372419722 0 -0.39087440279914232 0.48029044744842281 0 -0.39332501199558262 0.49281557696027822 0 -0.37698995218659531 0.49014522372419722 0 -0.39332501199558262 0.49281557696027822 0 -0.38721465321194731 0.5 0 -0.37698995218659531 0.49014522372419722 0 -0.38721465321194731 0.5 0 -0.37698995218659531 0.49014522372419722 0 -0.36310550157405608 0.49999999999998268 0 -0.39087440279914232 0.48029044744842281 0 -0.37698995218659531 0.49014522372419722 0 -0.3618063254675401 0.47668811569127079 0 -0.39087440279914232 0.48029044744842281 0 -0.36965393114197592 0.45983772221668873 0 -0.38640942681684443 0.46400845672143548 0 -0.36965393114197592 0.45983772221668873 0 -0.3720107782219072 0.45477709579076347 0 -0.39087440279914232 0.48029044744842281 0 -0.38640942681684443 0.46400845672143548 0 -0.36965393114197592 0.45983772221668873 0 -0.38640942681684443 0.46400845672143548 0 -0.3720107782219072 0.45477709579076347 0 -0.38208205980800342 0.45491323048931831 0 -0.38640942681684443 0.46400845672143548 0 -0.3720107782219072 0.45477709579076347 0 -0.38208205980800342 0.45491323048931831 0 -0.38640942681684443 0.46400845672143548 0 -0.3910353013065066 0.45170267255240321 0 -0.38208205980800342 0.45491323048931831 0 -0.37549674741026712 0.44729201627721282 0 -0.3720107782219072 0.45477709579076347 0 -0.37549674741026712 0.44729201627721282 0 -0.39078871724609548 0.44080382980273242 0 -0.3910353013065066 0.45170267255240321 0 -0.38208205980800342 0.45491323048931831 0 -0.37549674741026712 0.44729201627721282 0 -0.3910353013065066 0.45170267255240321 0 -0.37549674741026712 0.44729201627721282 0 -0.39078871724609548 0.44080382980273242 0 -0.39078871724609548 0.44080382980273242 0 -0.4060806870819243 0.43431564332825229 0 -0.3910353013065066 0.45170267255240321 0 -0.39888544479170762 0.44517175838284379 0 -0.39972860364116658 0.45556203909563098 0 -0.39078871724609548 0.44080382980273242 0 -0.3910353013065066 0.45170267255240321 0 -0.39888544479170762 0.44517175838284379 0 -0.39888544479170762 0.44517175838284379 0 -0.39972860364116658 0.45556203909563098 0 -0.40713663279658302 0.44163855009252789 0 -0.39078871724609548 0.44080382980273242 0 -0.39888544479170762 0.44517175838284379 0 -0.4060806870819243 0.43431564332825229 0 -0.39888544479170762 0.44517175838284379 0 -0.40713663279658302 0.44163855009252789 0 -0.4060806870819243 0.43431564332825229 0 -0.40456372146726249 0.47057417011006752 0 -0.39972860364116658 0.45556203909563098 0 -0.40713663279658302 0.44163855009252789 0 -0.40456372146726249 0.47057417011006752 0 -0.40713663279658302 0.44163855009252789 0 -0.40080807541178359 0.47323981765210432 0 -0.38640942681684443 0.46400845672143548 0 -0.40080807541178359 0.47323981765210432 0 -0.38640942681684443 0.46400845672143548 0 -0.39747919799214171 0.4645712438657687 0 -0.38640942681684443 0.46400845672143548 0 -0.3910353013065066 0.45170267255240321 0 -0.39747919799214171 0.4645712438657687 0 -0.3910353013065066 0.45170267255240321 0 -0.39747919799214171 0.4645712438657687 0 -0.39972860364116658 0.45556203909563098 0 -0.40456372146726249 0.47057417011006752 0 -0.39747919799214171 0.4645712438657687 0 -0.39972860364116658 0.45556203909563098 0 -0.40456372146726249 0.47057417011006752 0 -0.42233087880025832 0.45796356235474128 0 -0.41470370708225629 0.47389470853295318 0 -0.40456372146726249 0.47057417011006752 0 -0.42233087880025832 0.45796356235474128 0 -0.40456372146726249 0.47057417011006752 0 -0.40713663279658302 0.44163855009252789 0 -0.42233087880025832 0.45796356235474128 0 -0.40713663279658302 0.44163855009252789 0 -0.42233087880025832 0.45796356235474128 0 -0.42451365661443491 0.43554184322402922 0 -0.42233087880025832 0.45796356235474128 0 -0.4400980361332486 0.44535295459940721 0 -0.42233087880025832 0.45796356235474128 0 -0.4400980361332486 0.44535295459940721 0 -0.42451365661443491 0.43554184322402922 0 -0.42233087880025832 0.45796356235474128 0 -0.44489011576178089 0.46144601017079417 0 -0.4400980361332486 0.44535295459940721 0 -0.42233087880025832 0.45796356235474128 0 -0.43181150447086508 0.47637586018595041 0 -0.44489011576178089 0.46144601017079417 0 -0.42233087880025832 0.45796356235474128 0 -0.43181150447086508 0.47637586018595041 0 -0.41470370708225629 0.47389470853295318 0 -0.43181150447086508 0.47637586018595041 0 -0.41470370708225629 0.47389470853295318 0 -0.4177698799340322 0.48411448679538582 0 -0.4041369249884984 0.47537403266013112 0 -0.4177698799340322 0.48411448679538582 0 -0.40825345398484469 0.48395551412766702 0 -0.4041369249884984 0.47537403266013112 0 -0.41470370708225629 0.47389470853295318 0 -0.4177698799340322 0.48411448679538582 0 -0.4041369249884984 0.47537403266013112 0 -0.4177698799340322 0.48411448679538582 0 -0.40456372146726249 0.47057417011006752 0 -0.4041369249884984 0.47537403266013112 0 -0.41470370708225629 0.47389470853295318 0 -0.40268737591779741 0.49167603289954398 0 -0.40825345398484469 0.48395551412766702 0 -0.41132380484983849 0.49999999999999628 0 -0.40825345398484469 0.48395551412766702 0 -0.41132380484983849 0.49999999999999628 0 -0.42126819065977278 0.49286142568545632 0 -0.40268737591779741 0.49167603289954398 0 -0.41132380484983849 0.49999999999999628 0 -0.4177698799340322 0.48411448679538582 0 -0.40825345398484469 0.48395551412766702 0 -0.42126819065977278 0.49286142568545632 0 -0.43181150447086508 0.47637586018595041 0 -0.43140283487956421 0.49285494093064341 0 -0.44116742547648452 0.48708109225883528 0 -0.43181150447086508 0.47637586018595041 0 -0.4177698799340322 0.48411448679538582 0 -0.43140283487956421 0.49285494093064341 0 -0.41132380484983849 0.49999999999999628 0 -0.42126819065977278 0.49286142568545632 0 -0.43873511230944567 0.5 0 -0.42126819065977278 0.49286142568545632 0 -0.43140283487956421 0.49285494093064341 0 -0.43873511230944567 0.5 0 -0.4177698799340322 0.48411448679538582 0 -0.43140283487956421 0.49285494093064341 0 -0.4177698799340322 0.48411448679538582 0 -0.42126819065977278 0.49286142568545632 0 -0.43140283487956421 0.49285494093064341 0 -0.43140283487956421 0.49285494093064341 0 -0.43873511230944567 0.5 0 -0.44116742547648452 0.48708109225883528 0 -0.43873511230944567 0.5 0 -0.45273849238950947 0.4891612854031635 0 -0.4661464197690528 0.50000000000000033 0 -0.43873511230944567 0.5 0 -0.44116742547648452 0.48708109225883528 0 -0.45273849238950947 0.4891612854031635 0 -0.44116742547648452 0.48708109225883528 0 -0.45273849238950947 0.4891612854031635 0 -0.44968219539032173 0.47753906574217869 0 -0.44968219539032173 0.47753906574217869 0 -0.44489011576178089 0.46144601017079417 0 -0.43181150447086508 0.47637586018595041 0 -0.44968219539032173 0.47753906574217869 0 -0.44489011576178089 0.46144601017079417 0 -0.43181150447086508 0.47637586018595041 0 -0.44116742547648452 0.48708109225883528 0 -0.44968219539032173 0.47753906574217869 0 -0.44968219539032173 0.47753906574217869 0 -0.46722781503088417 0.48144911449868227 0 -0.45893942163764878 0.46664130889678718 0 -0.46722781503088417 0.48144911449868227 0 -0.47388451895703509 0.46220449271839043 0 -0.45893942163764878 0.46664130889678718 0 -0.45273849238950947 0.4891612854031635 0 -0.44968219539032173 0.47753906574217869 0 -0.46722781503088417 0.48144911449868227 0 -0.45273849238950947 0.4891612854031635 0 -0.46722781503088417 0.48144911449868227 0 -0.4661464197690528 0.50000000000000033 0 -0.46722781503088417 0.48144911449868227 0 -0.4661464197690528 0.50000000000000033 0 -0.4830732098845264 0.49486781678293312 0 -0.46722781503088417 0.48144911449868227 0 -0.4830732098845264 0.49486781678293312 0 -0.4848371087744891 0.47780524902719068 0 -0.4661464197690528 0.50000000000000033 0 -0.4830732098845264 0.49486781678293312 0 -0.5 0.5 0 -0.4661464197690528 0.50000000000000033 0 -0.4830732098845264 0.49486781678293312 0 -0.46722781503088417 0.48144911449868227 0 -0.4848371087744891 0.47780524902719068 0 -0.47388451895703509 0.46220449271839043 0 -0.4848371087744891 0.47780524902719068 0 -0.49999999999999989 0.48973563356586558 0 -0.5 0.46076918757008228 0 -0.4830732098845264 0.49486781678293312 0 -0.49999999999999989 0.48973563356586558 0 -0.5 0.5 0 -0.4830732098845264 0.49486781678293312 0 -0.49999999999999989 0.48973563356586558 0 -0.4830732098845264 0.49486781678293312 0 -0.4848371087744891 0.47780524902719068 0 -0.49999999999999989 0.48973563356586558 0 -0.5 0.46076918757008228 0 -0.47960942558534392 0.44140975094935969 0 -0.5 0.4318027415742991 0 -0.5 0.46076918757008228 0 -0.47388451895703509 0.46220449271839043 0 -0.47960942558534392 0.44140975094935969 0 -0.4848371087744891 0.47780524902719068 0 -0.5 0.46076918757008228 0 -0.47388451895703509 0.46220449271839043 0 -0.47388451895703509 0.46220449271839043 0 -0.47960942558534392 0.44140975094935969 0 -0.45901246304822202 0.45056786135389021 0 -0.47960942558534392 0.44140975094935969 0 -0.45901246304822202 0.45056786135389021 0 -0.46006535742216231 0.43118073492577669 0 -0.45901246304822202 0.45056786135389021 0 -0.45893942163764878 0.46664130889678718 0 -0.44489011576178089 0.46144601017079417 0 -0.47388451895703509 0.46220449271839043 0 -0.45901246304822202 0.45056786135389021 0 -0.45893942163764878 0.46664130889678718 0 -0.44968219539032173 0.47753906574217869 0 -0.45893942163764878 0.46664130889678718 0 -0.44489011576178089 0.46144601017079417 0 -0.44489011576178089 0.46144601017079417 0 -0.4400980361332486 0.44535295459940721 0 -0.45901246304822202 0.45056786135389021 0 -0.4400980361332486 0.44535295459940721 0 -0.46006535742216231 0.43118073492577669 0 -0.4400980361332486 0.44535295459940721 0 -0.46006535742216231 0.43118073492577669 0 -0.45901246304822202 0.45056786135389021 0 -0.44489011576178089 0.46144601017079417 0 -0.4400980361332486 0.44535295459940721 0 -0.4400980361332486 0.44535295459940721 0 -0.44991727905633172 0.41646073063943778 0 -0.46006535742216231 0.43118073492577669 0 -0.4400980361332486 0.44535295459940721 0 -0.44991727905633172 0.41646073063943778 0 -0.43219235516346111 0.4188036121346993 0 -0.44991727905633172 0.41646073063943778 0 -0.4393618994721662 0.40246079741645269 0 -0.43219235516346111 0.4188036121346993 0 -0.44991727905633172 0.41646073063943778 0 -0.46006535742216231 0.43118073492577669 0 -0.48003267871107452 0.41700851525214377 0 -0.44991727905633172 0.41646073063943778 0 -0.48003267871107452 0.41700851525214377 0 -0.47026319147232543 0.40032121421297001 0 -0.46006535742216231 0.43118073492577669 0 -0.48003267871107452 0.41700851525214377 0 -0.47960942558534392 0.44140975094935969 0 -0.46006535742216231 0.43118073492577669 0 -0.48003267871107452 0.41700851525214377 0 -0.48003267871107452 0.41700851525214377 0 -0.49999999999999001 0.40283629557851558 0 -0.47026319147232543 0.40032121421297001 0 -0.48003267871107452 0.41700851525214377 0 -0.49999999999999001 0.40283629557851558 0 -0.48003267871107452 0.41700851525214377 0 -0.5 0.4318027415742991 0 -0.49999999999999001 0.40283629557851558 0 -0.47960942558534392 0.44140975094935969 0 -0.48003267871107452 0.41700851525214377 0 -0.5 0.4318027415742991 0 -0.5 0.37697423972137623 0 -0.49999999999999001 0.40283629557851558 0 -0.4813461992872915 0.38462876033657661 0 -0.5 0.37697423972137623 0 -0.4813461992872915 0.38462876033657661 0 -0.48423061324931882 0.36538026649675931 0 -0.49999999999999001 0.40283629557851558 0 -0.47026319147232543 0.40032121421297001 0 -0.4813461992872915 0.38462876033657661 0 -0.47026319147232543 0.40032121421297001 0 -0.4813461992872915 0.38462876033657661 0 -0.45732230839893012 0.38317635899596991 0 -0.4813461992872915 0.38462876033657661 0 -0.46627759988602308 0.367033952891478 0 -0.4813461992872915 0.38462876033657661 0 -0.45732230839893012 0.38317635899596991 0 -0.46627759988602308 0.367033952891478 0 -0.44991727905633172 0.41646073063943778 0 -0.47026319147232543 0.40032121421297001 0 -0.45067687459287681 0.39794826270362749 0 -0.47026319147232543 0.40032121421297001 0 -0.45732230839893012 0.38317635899596991 0 -0.45067687459287681 0.39794826270362749 0 -0.44991727905633172 0.41646073063943778 0 -0.45067687459287681 0.39794826270362749 0 -0.4393618994721662 0.40246079741645269 0 -0.45067687459287681 0.39794826270362749 0 -0.4393618994721662 0.40246079741645269 0 -0.43973631435447907 0.38683711193451009 0 -0.45732230839893012 0.38317635899596991 0 -0.43973631435447907 0.38683711193451009 0 -0.44160128916528602 0.37113631518246659 0 -0.45732230839893012 0.38317635899596991 0 -0.45067687459287681 0.39794826270362749 0 -0.43973631435447907 0.38683711193451009 0 -0.42918571713750198 0.37645514124072288 0 -0.4242866741936821 0.39225426966998889 0 -0.41638099322390298 0.36570492720527842 0 -0.43973631435447907 0.38683711193451009 0 -0.42918571713750198 0.37645514124072288 0 -0.4242866741936821 0.39225426966998889 0 -0.43973631435447907 0.38683711193451009 0 -0.42918571713750198 0.37645514124072288 0 -0.44160128916528602 0.37113631518246659 0 -0.41228245545523262 0.38376731005744968 0 -0.39832624320942212 0.39827248051036612 0 -0.40974099110899931 0.37376271262694238 0 -0.41228245545523262 0.38376731005744968 0 -0.4242866741936821 0.39225426966998889 0 -0.41638099322390298 0.36570492720527842 0 -0.4242866741936821 0.39225426966998889 0 -0.41638099322390298 0.36570492720527842 0 -0.41228245545523262 0.38376731005744968 0 -0.40970954412590782 0.41270293007498882 0 -0.41228245545523262 0.38376731005744968 0 -0.40970954412590782 0.41270293007498882 0 -0.39832624320942212 0.39827248051036612 0 -0.41228245545523262 0.38376731005744968 0 -0.4242866741936821 0.39225426966998889 0 -0.40970954412590782 0.41270293007498882 0 -0.4242866741936821 0.39225426966998889 0 -0.43219235516346111 0.4188036121346993 0 -0.4393618994721662 0.40246079741645269 0 -0.4242866741936821 0.39225426966998889 0 -0.43219235516346111 0.4188036121346993 0 -0.4393618994721662 0.40246079741645269 0 -0.43973631435447907 0.38683711193451009 0 -0.4242866741936821 0.39225426966998889 0 -0.4242866741936821 0.39225426966998889 0 -0.43219235516346111 0.4188036121346993 0 -0.40970954412590782 0.41270293007498882 0 -0.43219235516346111 0.4188036121346993 0 -0.42451365661443491 0.43554184322402922 0 -0.40970954412590782 0.41270293007498882 0 -0.4400980361332486 0.44535295459940721 0 -0.43219235516346111 0.4188036121346993 0 -0.42451365661443491 0.43554184322402922 0 -0.4400980361332486 0.44535295459940721 0 -0.43219235516346111 0.4188036121346993 0 -0.40713663279658302 0.44163855009252789 0 -0.40970954412590782 0.41270293007498882 0 -0.4060806870819243 0.43431564332825229 0 -0.40713663279658302 0.44163855009252789 0 -0.42451365661443491 0.43554184322402922 0 -0.40970954412590782 0.41270293007498882 0 -0.40713663279658302 0.44163855009252789 0 -0.40970954412590782 0.41270293007498882 0 -0.38691149530984481 0.42278224839378958 0 -0.39832624320942212 0.39827248051036612 0 -0.40970954412590782 0.41270293007498882 0 -0.40029594759814258 0.42223335738987722 0 -0.39832624320942212 0.39827248051036612 0 -0.40029594759814258 0.42223335738987722 0 -0.38691149530984481 0.42278224839378958 0 -0.39832624320942212 0.39827248051036612 0 -0.40970954412590782 0.41270293007498882 0 -0.4060806870819243 0.43431564332825229 0 -0.40029594759814258 0.42223335738987722 0 -0.39078871724609548 0.44080382980273242 0 -0.39601921180900179 0.43003376972866281 0 -0.38691149530984481 0.42278224839378958 0 -0.4060806870819243 0.43431564332825229 0 -0.40029594759814258 0.42223335738987722 0 -0.39601921180900179 0.43003376972866281 0 -0.40029594759814258 0.42223335738987722 0 -0.39601921180900179 0.43003376972866281 0 -0.38691149530984481 0.42278224839378958 0 -0.39078871724609548 0.44080382980273242 0 -0.4060806870819243 0.43431564332825229 0 -0.39601921180900179 0.43003376972866281 0 -0.37549674741026712 0.44729201627721282 0 -0.38691149530984481 0.42278224839378958 0 -0.37549674741026712 0.44729201627721282 0 -0.39078871724609548 0.44080382980273242 0 -0.38691149530984481 0.42278224839378958 0 -0.37549674741026712 0.44729201627721282 0 -0.38691149530984481 0.42278224839378958 0 -0.36653782646140448 0.43408779718540452 0 -0.38691149530984481 0.42278224839378958 0 -0.38005946415737779 0.40637326785702838 0 -0.3714036499462649 0.41731883609274523 0 -0.38691149530984481 0.42278224839378958 0 -0.38005946415737779 0.40637326785702838 0 -0.39832624320942212 0.39827248051036612 0 -0.38005946415737779 0.40637326785702838 0 -0.37714384653144389 0.39041890937197332 0 -0.39832624320942212 0.39827248051036612 0 -0.37714384653144389 0.39041890937197332 0 -0.38974130196529111 0.37953601398069359 0 -0.39832624320942212 0.39827248051036612 0 -0.37714384653144389 0.39041890937197332 0 -0.38974130196529111 0.37953601398069359 0 -0.36984417139735498 0.37416380872165877 0 -0.39832624320942212 0.39827248051036612 0 -0.40974099110899931 0.37376271262694238 0 -0.38974130196529111 0.37953601398069359 0 -0.39832624320942212 0.39827248051036612 0 -0.40974099110899931 0.37376271262694238 0 -0.40187960802850708 0.35174915686279817 0 -0.39008979721251352 0.3607224168769389 0 -0.39457291576383652 0.34108666825896072 0 -0.40187960802850708 0.35174915686279817 0 -0.40322112650896641 0.36221936311378727 0 -0.39008979721251352 0.3607224168769389 0 -0.40187960802850708 0.35174915686279817 0 -0.39457291576383652 0.34108666825896072 0 -0.40665883387266177 0.33988564602439331 0 -0.38974130196529111 0.37953601398069359 0 -0.39819830419894248 0.36906012664959048 0 -0.40974099110899931 0.37376271262694238 0 -0.38974130196529111 0.37953601398069359 0 -0.39819830419894248 0.36906012664959048 0 -0.39008979721251352 0.3607224168769389 0 -0.40322112650896641 0.36221936311378727 0 -0.39819830419894248 0.36906012664959048 0 -0.40974099110899931 0.37376271262694238 0 -0.40322112650896641 0.36221936311378727 0 -0.39819830419894248 0.36906012664959048 0 -0.39008979721251352 0.3607224168769389 0 -0.39008979721251352 0.3607224168769389 0 -0.36923145149837888 0.34594356384929242 0 -0.36984417139735498 0.37416380872165877 0 -0.38974130196529111 0.37953601398069359 0 -0.39008979721251352 0.3607224168769389 0 -0.36984417139735498 0.37416380872165877 0 -0.39008979721251352 0.3607224168769389 0 -0.39457291576383652 0.34108666825896072 0 -0.36923145149837888 0.34594356384929242 0 -0.38735433971083127 0.3236910604677416 0 -0.36861873159940278 0.31772331897692602 0 -0.36923145149837888 0.34594356384929242 0 -0.38735433971083127 0.3236910604677416 0 -0.39457291576383652 0.34108666825896072 0 -0.36923145149837888 0.34594356384929242 0 -0.38735433971083127 0.3236910604677416 0 -0.39119992030896439 0.30745194591733899 0 -0.36861873159940278 0.31772331897692602 0 -0.40104654149246088 0.32531006683289698 0 -0.40711573286481467 0.31108693301417678 0 -0.39119992030896439 0.30745194591733899 0 -0.38735433971083127 0.3236910604677416 0 -0.40104654149246088 0.32531006683289698 0 -0.39119992030896439 0.30745194591733899 0 -0.38735433971083127 0.3236910604677416 0 -0.40104654149246088 0.32531006683289698 0 -0.39457291576383652 0.34108666825896072 0 -0.40104654149246088 0.32531006683289698 0 -0.39457291576383652 0.34108666825896072 0 -0.40665883387266177 0.33988564602439331 0 -0.40104654149246088 0.32531006683289698 0 -0.40665883387266177 0.33988564602439331 0 -0.41742827811388222 0.32589607002237192 0 -0.41742827811388222 0.32589607002237192 0 -0.41485536678455742 0.35483169003991077 0 -0.41742827811388222 0.32589607002237192 0 -0.42489525106813392 0.34153759758478902 0 -0.41485536678455742 0.35483169003991077 0 -0.40665883387266177 0.33988564602439331 0 -0.41742827811388222 0.32589607002237192 0 -0.41485536678455742 0.35483169003991077 0 -0.40104654149246088 0.32531006683289698 0 -0.41742827811388222 0.32589607002237192 0 -0.40711573286481467 0.31108693301417678 0 -0.42107180168221781 0.31424953055618199 0 -0.43614040108348628 0.33184433800128083 0 -0.42107180168221781 0.31424953055618199 0 -0.41742827811388222 0.32589607002237192 0 -0.43614040108348628 0.33184433800128083 0 -0.42107180168221781 0.31424953055618199 0 -0.43743432119895609 0.31624775399006799 0 -0.43614040108348628 0.33184433800128083 0 -0.41742827811388222 0.32589607002237192 0 -0.42489525106813392 0.34153759758478902 0 -0.43614040108348628 0.33184433800128083 0 -0.42489525106813392 0.34153759758478902 0 -0.43614040108348628 0.33184433800128083 0 -0.43467555029440258 0.34576035452035309 0 -0.43467555029440258 0.34576035452035309 0 -0.43237152854093508 0.35776855093538817 0 -0.42578448210469128 0.35185071368512638 0 -0.43237152854093508 0.35776855093538817 0 -0.42578448210469128 0.35185071368512638 0 -0.42212471383542771 0.35935537534519119 0 -0.42489525106813392 0.34153759758478902 0 -0.43467555029440258 0.34576035452035309 0 -0.42578448210469128 0.35185071368512638 0 -0.42489525106813392 0.34153759758478902 0 -0.42578448210469128 0.35185071368512638 0 -0.41485536678455742 0.35483169003991077 0 -0.42578448210469128 0.35185071368512638 0 -0.42212471383542771 0.35935537534519119 0 -0.41485536678455742 0.35483169003991077 0 -0.40187960802850708 0.35174915686279817 0 -0.40322112650896641 0.36221936311378727 0 -0.41485536678455742 0.35483169003991077 0 -0.40187960802850708 0.35174915686279817 0 -0.40665883387266177 0.33988564602439331 0 -0.41485536678455742 0.35483169003991077 0 -0.40322112650896641 0.36221936311378727 0 -0.41485536678455742 0.35483169003991077 0 -0.40974099110899931 0.37376271262694238 0 -0.41228245545523262 0.38376731005744968 0 -0.41485536678455742 0.35483169003991077 0 -0.40974099110899931 0.37376271262694238 0 -0.41228245545523262 0.38376731005744968 0 -0.41485536678455742 0.35483169003991077 0 -0.41638099322390298 0.36570492720527842 0 -0.41228245545523262 0.38376731005744968 0 -0.41485536678455742 0.35483169003991077 0 -0.42212471383542771 0.35935537534519119 0 -0.41485536678455742 0.35483169003991077 0 -0.41638099322390298 0.36570492720527842 0 -0.42918571713750198 0.37645514124072288 0 -0.41638099322390298 0.36570492720527842 0 -0.42750945469755558 0.3664623491608433 0 -0.43237152854093508 0.35776855093538817 0 -0.42212471383542771 0.35935537534519119 0 -0.42750945469755558 0.3664623491608433 0 -0.42212471383542771 0.35935537534519119 0 -0.41638099322390298 0.36570492720527842 0 -0.42750945469755558 0.3664623491608433 0 -0.43237152854093508 0.35776855093538817 0 -0.42750945469755558 0.3664623491608433 0 -0.44160128916528602 0.37113631518246659 0 -0.42918571713750198 0.37645514124072288 0 -0.42750945469755558 0.3664623491608433 0 -0.44160128916528602 0.37113631518246659 0 -0.43237152854093508 0.35776855093538817 0 -0.44160128916528602 0.37113631518246659 0 -0.45120900048475471 0.34943914544637927 0 -0.44160128916528602 0.37113631518246659 0 -0.45120900048475471 0.34943914544637927 0 -0.46627759988602308 0.367033952891478 0 -0.43467555029440258 0.34576035452035309 0 -0.43237152854093508 0.35776855093538817 0 -0.45120900048475471 0.34943914544637927 0 -0.45120900048475471 0.34943914544637927 0 -0.46627759988602308 0.367033952891478 0 -0.47352926707327919 0.34715219567012912 0 -0.45120900048475471 0.34943914544637927 0 -0.47352926707327919 0.34715219567012912 0 -0.45666745504832168 0.33549795519745967 0 -0.45120900048475471 0.34943914544637927 0 -0.46627759988602308 0.367033952891478 0 -0.45732230839893012 0.38317635899596991 0 -0.44160128916528602 0.37113631518246659 0 -0.46627759988602308 0.367033952891478 0 -0.4813461992872915 0.38462876033657661 0 -0.46627759988602308 0.367033952891478 0 -0.48423061324931882 0.36538026649675931 0 -0.46627759988602308 0.367033952891478 0 -0.48423061324931882 0.36538026649675931 0 -0.47352926707327919 0.34715219567012912 0 -0.47352926707327919 0.34715219567012912 0 -0.5 0.3511121838642367 0 -0.48458407544656668 0.33320503871753349 0 -0.48423061324931882 0.36538026649675931 0 -0.47352926707327919 0.34715219567012912 0 -0.5 0.3511121838642367 0 -0.5 0.37697423972137623 0 -0.48423061324931882 0.36538026649675931 0 -0.5 0.3511121838642367 0 -0.49999999999999661 0.32525012800709752 0 -0.48458407544656668 0.33320503871753349 0 -0.48163325203240009 0.31979623842277882 0 -0.49999999999999661 0.32525012800709752 0 -0.48627408236595848 0.30250327710962499 0 -0.49999999999999661 0.32525012800709752 0 -0.48163325203240009 0.31979623842277882 0 -0.48627408236595848 0.30250327710962499 0 -0.5 0.3511121838642367 0 -0.49999999999999661 0.32525012800709752 0 -0.48458407544656668 0.33320503871753349 0 -0.47352926707327919 0.34715219567012912 0 -0.48458407544656668 0.33320503871753349 0 -0.47031818380459001 0.32728381379265081 0 -0.47031818380459001 0.32728381379265081 0 -0.48163325203240009 0.31979623842277882 0 -0.46717012164718252 0.31106053965092501 0 -0.48458407544656668 0.33320503871753349 0 -0.47031818380459001 0.32728381379265081 0 -0.48163325203240009 0.31979623842277882 0 -0.47031818380459001 0.32728381379265081 0 -0.45214042279549871 0.32177028307685879 0 -0.46717012164718252 0.31106053965092501 0 -0.47031818380459001 0.32728381379265081 0 -0.45666745504832168 0.33549795519745967 0 -0.45214042279549871 0.32177028307685879 0 -0.47352926707327919 0.34715219567012912 0 -0.47031818380459001 0.32728381379265081 0 -0.45666745504832168 0.33549795519745967 0 -0.43614040108348628 0.33184433800128083 0 -0.45120900048475471 0.34943914544637927 0 -0.45666745504832168 0.33549795519745967 0 -0.43614040108348628 0.33184433800128083 0 -0.43467555029440258 0.34576035452035309 0 -0.45120900048475471 0.34943914544637927 0 -0.43614040108348628 0.33184433800128083 0 -0.45666745504832168 0.33549795519745967 0 -0.45214042279549871 0.32177028307685879 0 -0.43614040108348628 0.33184433800128083 0 -0.45120900048475471 0.34943914544637927 0 -0.43743432119895609 0.31624775399006799 0 -0.43614040108348628 0.33184433800128083 0 -0.45214042279549871 0.32177028307685879 0 -0.43743432119895609 0.31624775399006799 0 -0.45214042279549871 0.32177028307685879 0 -0.44988750885080281 0.30441788424786392 0 -0.44988750885080281 0.30441788424786392 0 -0.4449953645452982 0.28224661069472151 0 -0.43464349304330102 0.30473142594528663 0 -0.43743432119895609 0.31624775399006799 0 -0.44988750885080281 0.30441788424786392 0 -0.43464349304330102 0.30473142594528663 0 -0.44988750885080281 0.30441788424786392 0 -0.4449953645452982 0.28224661069472151 0 -0.46417504842823298 0.29599694758305722 0 -0.4449953645452982 0.28224661069472151 0 -0.46417504842823298 0.29599694758305722 0 -0.47254816473192301 0.27975642621215102 0 -0.44988750885080281 0.30441788424786392 0 -0.46417504842823298 0.29599694758305722 0 -0.46717012164718252 0.31106053965092501 0 -0.45214042279549871 0.32177028307685879 0 -0.44988750885080281 0.30441788424786392 0 -0.46717012164718252 0.31106053965092501 0 -0.48163325203240009 0.31979623842277882 0 -0.46717012164718252 0.31106053965092501 0 -0.48627408236595848 0.30250327710962499 0 -0.46417504842823298 0.29599694758305722 0 -0.46717012164718252 0.31106053965092501 0 -0.48627408236595848 0.30250327710962499 0 -0.48627408236595848 0.30250327710962499 0 -0.47254816473192301 0.27975642621215102 0 -0.46417504842823298 0.29599694758305722 0 -0.48627408236595848 0.30250327710962499 0 -0.47254816473192301 0.27975642621215102 0 -0.49122774606717079 0.28921418340690808 0 -0.48627408236595848 0.30250327710962499 0 -0.47254816473192301 0.27975642621215102 0 -0.49122774606717079 0.28921418340690808 0 -0.5 0.30103507202533569 0 -0.5 0.27682001604357398 0 -0.49122774606717079 0.28921418340690808 0 -0.5 0.27682001604357398 0 -0.47254816473192301 0.27975642621215102 0 -0.49122774606717079 0.28921418340690808 0 -0.5 0.30103507202533569 0 -0.48627408236595848 0.30250327710962499 0 -0.49999999999999661 0.32525012800709752 0 -0.5 0.30103507202533569 0 -0.48627408236595848 0.30250327710962499 0 -0.5 0.25260496006181221 0 -0.5 0.27682001604357398 0 -0.48194772177911333 0.26214027587792721 0 -0.47836819706575567 0.2445104017574217 0 -0.5 0.25260496006181221 0 -0.48194772177911333 0.26214027587792721 0 -0.5 0.27682001604357398 0 -0.47254816473192301 0.27975642621215102 0 -0.48194772177911333 0.26214027587792721 0 -0.47254816473192301 0.27975642621215102 0 -0.48194772177911333 0.26214027587792721 0 -0.45882224709788733 0.25700957531467689 0 -0.47836819706575567 0.2445104017574217 0 -0.48194772177911333 0.26214027587792721 0 -0.45882224709788733 0.25700957531467689 0 -0.47254816473192301 0.27975642621215102 0 -0.45882224709788733 0.25700957531467689 0 -0.4449953645452982 0.28224661069472151 0 -0.47254816473192301 0.27975642621215102 0 -0.45882224709788733 0.25700957531467689 0 -0.4449953645452982 0.28224661069472151 0 -0.45882224709788733 0.25700957531467689 0 -0.43605341546033999 0.25219629711660108 0 -0.41130696356271301 0.23861322924214731 0 -0.43605341546033999 0.25219629711660108 0 -0.42257410077253171 0.26802482998729399 0 -0.41130696356271301 0.23861322924214731 0 -0.42257410077253171 0.26802482998729399 0 -0.39558672729883598 0.25600927527440281 0 -0.4449953645452982 0.28224661069472151 0 -0.43605341546033999 0.25219629711660108 0 -0.42257410077253171 0.26802482998729399 0 -0.4449953645452982 0.28224661069472151 0 -0.43464349304330102 0.30473142594528663 0 -0.42000118944320691 0.29696045000483301 0 -0.4449953645452982 0.28224661069472151 0 -0.42257410077253171 0.26802482998729399 0 -0.42000118944320691 0.29696045000483301 0 -0.42107180168221781 0.31424953055618199 0 -0.43743432119895609 0.31624775399006799 0 -0.43464349304330102 0.30473142594528663 0 -0.42107180168221781 0.31424953055618199 0 -0.43464349304330102 0.30473142594528663 0 -0.42000118944320691 0.29696045000483301 0 -0.42107180168221781 0.31424953055618199 0 -0.41742827811388222 0.32589607002237192 0 -0.42000118944320691 0.29696045000483301 0 -0.42000118944320691 0.29696045000483301 0 -0.40711573286481467 0.31108693301417678 0 -0.40362512657985788 0.29893994027041798 0 -0.41742827811388222 0.32589607002237192 0 -0.42000118944320691 0.29696045000483301 0 -0.40711573286481467 0.31108693301417678 0 -0.41742827811388222 0.32589607002237192 0 -0.42000118944320691 0.29696045000483301 0 -0.42257410077253171 0.26802482998729399 0 -0.42000118944320691 0.29696045000483301 0 -0.42257410077253171 0.26802482998729399 0 -0.42000118944320691 0.29696045000483301 0 -0.39618366370244551 0.28026043214532342 0 -0.42000118944320691 0.29696045000483301 0 -0.40362512657985788 0.29893994027041798 0 -0.39618366370244551 0.28026043214532342 0 -0.39119992030896439 0.30745194591733899 0 -0.40362512657985788 0.29893994027041798 0 -0.39618366370244551 0.28026043214532342 0 -0.40711573286481467 0.31108693301417678 0 -0.39119992030896439 0.30745194591733899 0 -0.40362512657985788 0.29893994027041798 0 -0.39119992030896439 0.30745194591733899 0 -0.36800601170042668 0.28950307410455961 0 -0.36861873159940278 0.31772331897692602 0 -0.39119992030896439 0.30745194591733899 0 -0.39618366370244551 0.28026043214532342 0 -0.36800601170042668 0.28950307410455961 0 -0.39558672729883598 0.25600927527440281 0 -0.39618366370244551 0.28026043214532342 0 -0.36739329180145047 0.26128282923219343 0 -0.39618366370244551 0.28026043214532342 0 -0.36739329180145047 0.26128282923219343 0 -0.36800601170042668 0.28950307410455961 0 -0.386164779529799 0.23784764646163631 0 -0.39558672729883598 0.25600927527440281 0 -0.36739329180145047 0.26128282923219343 0 -0.42257410077253171 0.26802482998729399 0 -0.39558672729883598 0.25600927527440281 0 -0.39618366370244551 0.28026043214532342 0 -0.3466896254702192 0.24680058240020239 0 -0.34513995181812562 0.27405142038417379 0 -0.36739329180145047 0.26128282923219343 0 -0.34513995181812562 0.27405142038417379 0 -0.36739329180145047 0.26128282923219343 0 -0.36800601170042668 0.28950307410455961 0 -0.36739329180145047 0.26128282923219343 0 -0.36800601170042668 0.28950307410455961 0 -0.36800601170042668 0.28950307410455961 0 -0.34558568654757271 0.30206826315261148 0 -0.36861873159940278 0.31772331897692602 0 -0.36800601170042668 0.28950307410455961 0 -0.36861873159940278 0.31772331897692602 0 -0.34513995181812562 0.27405142038417379 0 -0.36800601170042668 0.28950307410455961 0 -0.34558568654757271 0.30206826315261148 0 -0.34513995181812562 0.27405142038417379 0 -0.34558568654757271 0.30206826315261148 0 -0.32180981859073188 0.28584100085620889 0 -0.34558568654757271 0.30206826315261148 0 -0.32180981859073188 0.28584100085620889 0 -0.3223783810994425 0.31307016336155907 0 -0.32180981859073188 0.28584100085620889 0 -0.3223783810994425 0.31307016336155907 0 -0.32180981859073188 0.28584100085620889 0 -0.30499990701612678 0.29874236570034562 0 -0.3223783810994425 0.31307016336155907 0 -0.32180981859073188 0.28584100085620889 0 -0.32124125608202131 0.25861183835085882 0 -0.30793012705687789 0.27117468600999362 0 -0.32180981859073188 0.28584100085620889 0 -0.32124125608202131 0.25861183835085882 0 -0.34513995181812562 0.27405142038417379 0 -0.32180981859073188 0.28584100085620889 0 -0.32124125608202131 0.25861183835085882 0 -0.3466896254702192 0.24680058240020239 0 -0.34513995181812562 0.27405142038417379 0 -0.32124125608202131 0.25861183835085882 0 -0.31728192887449352 0.241745687300017 0 -0.32124125608202131 0.25861183835085882 0 -0.30491100017813 0.25498982890324351 0 -0.32124125608202131 0.25861183835085882 0 -0.30491100017813 0.25498982890324351 0 -0.30793012705687789 0.27117468600999362 0 -0.30491100017813 0.25498982890324351 0 -0.30793012705687789 0.27117468600999362 0 -0.2933705956954108 0.26673946727735792 0 -0.30491100017813 0.25498982890324351 0 -0.2933705956954108 0.26673946727735792 0 -0.29263566241616029 0.25219599423725242 0 -0.30793012705687789 0.27117468600999362 0 -0.2933705956954108 0.26673946727735792 0 -0.29314405072751959 0.28228789345664829 0 -0.2933705956954108 0.26673946727735792 0 -0.27612628102505798 0.25968523937959359 0 -0.28109655680644391 0.27589931361534598 0 -0.2933705956954108 0.26673946727735792 0 -0.28109655680644391 0.27589931361534598 0 -0.29314405072751959 0.28228789345664829 0 -0.2933705956954108 0.26673946727735792 0 -0.29263566241616029 0.25219599423725242 0 -0.27612628102505798 0.25968523937959359 0 -0.27612628102505798 0.25968523937959359 0 -0.2588320161996735 0.26924790418705408 0 -0.26252056122028011 0.25518307875040258 0 -0.26978774039069642 0.24809988152494919 0 -0.27612628102505798 0.25968523937959359 0 -0.26252056122028011 0.25518307875040258 0 -0.27612628102505798 0.25968523937959359 0 -0.28109655680644391 0.27589931361534598 0 -0.26405469513842877 0.28289364159498043 0 -0.27612628102505798 0.25968523937959359 0 -0.2588320161996735 0.26924790418705408 0 -0.26405469513842877 0.28289364159498043 0 -0.27612628102505798 0.25968523937959359 0 -0.26405469513842877 0.28289364159498043 0 -0.2588320161996735 0.26924790418705408 0 -0.26405469513842877 0.28289364159498043 0 -0.2470080920612911 0.276486788261812 0 -0.2588320161996735 0.26924790418705408 0 -0.24445102910473471 0.26607302909098618 0 -0.2470080920612911 0.276486788261812 0 -0.2588320161996735 0.26924790418705408 0 -0.25207695081767872 0.25795210490862408 0 -0.24445102910473471 0.26607302909098618 0 -0.2588320161996735 0.26924790418705408 0 -0.25207695081767872 0.25795210490862408 0 -0.26252056122028011 0.25518307875040258 0 -0.25629622284860087 0.24993280446742899 0 -0.25207695081767872 0.25795210490862408 0 -0.24803869981560719 0.24872960313750719 0 -0.25629622284860087 0.24993280446742899 0 -0.25207695081767872 0.25795210490862408 0 -0.26252056122028011 0.25518307875040258 0 -0.25629622284860087 0.24993280446742899 0 -0.26290036062986039 0.24569953386769289 0 -0.26252056122028011 0.25518307875040258 0 -0.25198310925179951 0.30610204381036721 0 -0.27209502752526032 0.30034805045682722 0 -0.26688625901847363 0.31934667761436031 0 -0.26405469513842877 0.28289364159498043 0 -0.2484915756804362 0.29000937924619941 0 -0.2470080920612911 0.276486788261812 0 -0.25198310925179951 0.30610204381036721 0 -0.26405469513842877 0.28289364159498043 0 -0.2484915756804362 0.29000937924619941 0 -0.25198310925179951 0.30610204381036721 0 -0.26405469513842877 0.28289364159498043 0 -0.25198310925179951 0.30610204381036721 0 -0.26405469513842877 0.28289364159498043 0 -0.27209502752526032 0.30034805045682722 0 -0.26405469513842877 0.28289364159498043 0 -0.27878716144580218 0.28789032636814971 0 -0.27209502752526032 0.30034805045682722 0 -0.28109655680644391 0.27589931361534598 0 -0.26405469513842877 0.28289364159498043 0 -0.27878716144580218 0.28789032636814971 0 -0.27878716144580218 0.28789032636814971 0 -0.27209502752526032 0.30034805045682722 0 -0.29040375326609308 0.29583730134486652 0 -0.27209502752526032 0.30034805045682722 0 -0.28670015999709531 0.30941607204392618 0 -0.26688625901847363 0.31934667761436031 0 -0.27209502752526032 0.30034805045682722 0 -0.28670015999709531 0.30941607204392618 0 -0.29040375326609308 0.29583730134486652 0 -0.28670015999709531 0.30941607204392618 0 -0.29040375326609308 0.29583730134486652 0 -0.30499990701612678 0.29874236570034562 0 -0.29040375326609308 0.29583730134486652 0 -0.29314405072751959 0.28228789345664829 0 -0.30499990701612678 0.29874236570034562 0 -0.28109655680644391 0.27589931361534598 0 -0.27878716144580218 0.28789032636814971 0 -0.29314405072751959 0.28228789345664829 0 -0.27878716144580218 0.28789032636814971 0 -0.29040375326609308 0.29583730134486652 0 -0.29314405072751959 0.28228789345664829 0 -0.32180981859073188 0.28584100085620889 0 -0.30793012705687789 0.27117468600999362 0 -0.30499990701612678 0.29874236570034562 0 -0.30793012705687789 0.27117468600999362 0 -0.29314405072751959 0.28228789345664829 0 -0.30499990701612678 0.29874236570034562 0 -0.28670015999709531 0.30941607204392618 0 -0.30499990701612678 0.29874236570034562 0 -0.30361856140864052 0.32023283946916309 0 -0.30499990701612678 0.29874236570034562 0 -0.30361856140864052 0.32023283946916309 0 -0.3223783810994425 0.31307016336155907 0 -0.30361856140864052 0.32023283946916309 0 -0.30289890928058522 0.34030064614225097 0 -0.32294694360815313 0.34029932586690909 0 -0.30361856140864052 0.32023283946916309 0 -0.30289890928058522 0.34030064614225097 0 -0.28795365349081292 0.32640000005129211 0 -0.28795365349081292 0.32640000005129211 0 -0.27405589609503489 0.33427691061530912 0 -0.28749304058192499 0.34751273690256612 0 -0.30289890928058522 0.34030064614225097 0 -0.28795365349081292 0.32640000005129211 0 -0.28749304058192499 0.34751273690256612 0 -0.28670015999709531 0.30941607204392618 0 -0.30361856140864052 0.32023283946916309 0 -0.28795365349081292 0.32640000005129211 0 -0.28795365349081292 0.32640000005129211 0 -0.26688625901847363 0.31934667761436031 0 -0.27405589609503489 0.33427691061530912 0 -0.28670015999709531 0.30941607204392618 0 -0.28795365349081292 0.32640000005129211 0 -0.26688625901847363 0.31934667761436031 0 -0.27405589609503489 0.33427691061530912 0 -0.26879550480561681 0.34867734442339082 0 -0.28749304058192499 0.34751273690256612 0 -0.27405589609503489 0.33427691061530912 0 -0.25982207617957093 0.33483766882453508 0 -0.26879550480561681 0.34867734442339082 0 -0.26688625901847363 0.31934667761436031 0 -0.27405589609503489 0.33427691061530912 0 -0.25982207617957093 0.33483766882453508 0 -0.25982207617957093 0.33483766882453508 0 -0.25332005796921309 0.35063613442814062 0 -0.2439410389364747 0.32793780068065048 0 -0.26688625901847363 0.31934667761436031 0 -0.25982207617957093 0.33483766882453508 0 -0.2439410389364747 0.32793780068065048 0 -0.25198310925179951 0.30610204381036721 0 -0.26688625901847363 0.31934667761436031 0 -0.2439410389364747 0.32793780068065048 0 -0.26269907700195178 0.37333446817563049 0 -0.24005925981169671 0.35849685206319559 0 -0.26269907700195178 0.37333446817563049 0 -0.25332005796921309 0.35063613442814062 0 -0.26269907700195178 0.37333446817563049 0 -0.25332005796921309 0.35063613442814062 0 -0.24005925981169671 0.35849685206319559 0 -0.26269907700195178 0.37333446817563049 0 -0.25332005796921309 0.35063613442814062 0 -0.26879550480561681 0.34867734442339082 0 -0.25982207617957093 0.33483766882453508 0 -0.25332005796921309 0.35063613442814062 0 -0.26879550480561681 0.34867734442339082 0 -0.26879550480561681 0.34867734442339082 0 -0.28749304058192499 0.34751273690256612 0 -0.28134732543499957 0.35793899179072619 0 -0.26269907700195178 0.37333446817563049 0 -0.28194346787234209 0.37225617415112261 0 -0.28134732543499957 0.35793899179072619 0 -0.26269907700195178 0.37333446817563049 0 -0.26879550480561681 0.34867734442339082 0 -0.28134732543499957 0.35793899179072619 0 -0.29183956731524879 0.36550166973542081 0 -0.30498043008207137 0.36070593142347052 0 -0.29364601804458862 0.37830861992394349 0 -0.28194346787234209 0.37225617415112261 0 -0.29183956731524879 0.36550166973542081 0 -0.28134732543499957 0.35793899179072619 0 -0.28194346787234209 0.37225617415112261 0 -0.29183956731524879 0.36550166973542081 0 -0.29364601804458862 0.37830861992394349 0 -0.29183956731524879 0.36550166973542081 0 -0.28749304058192499 0.34751273690256612 0 -0.28134732543499957 0.35793899179072619 0 -0.29183956731524879 0.36550166973542081 0 -0.28749304058192499 0.34751273690256612 0 -0.30498043008207137 0.36070593142347052 0 -0.30289890928058522 0.34030064614225097 0 -0.30498043008207137 0.36070593142347052 0 -0.32294694360815313 0.34029932586690909 0 -0.30289890928058522 0.34030064614225097 0 -0.30498043008207137 0.36070593142347052 0 -0.30289890928058522 0.34030064614225097 0 -0.28749304058192499 0.34751273690256612 0 -0.30498043008207137 0.36070593142347052 0 -0.30498043008207137 0.36070593142347052 0 -0.3070619508835577 0.38111121670469011 0 -0.30498043008207137 0.36070593142347052 0 -0.31863568471526899 0.37837421684585998 0 -0.3070619508835577 0.38111121670469011 0 -0.30498043008207137 0.36070593142347052 0 -0.3070619508835577 0.38111121670469011 0 -0.29364601804458862 0.37830861992394349 0 -0.30498043008207137 0.36070593142347052 0 -0.32351550611686369 0.36752848837225899 0 -0.31863568471526899 0.37837421684585998 0 -0.32351550611686369 0.36752848837225899 0 -0.33989819775586327 0.37508935374278968 0 -0.31863568471526899 0.37837421684585998 0 -0.32351550611686369 0.36752848837225899 0 -0.34482808616359178 0.35346295069963529 0 -0.33989819775586327 0.37508935374278968 0 -0.32351550611686369 0.36752848837225899 0 -0.32294694360815313 0.34029932586690909 0 -0.34482808616359178 0.35346295069963529 0 -0.32351550611686369 0.36752848837225899 0 -0.32294694360815313 0.34029932586690909 0 -0.30498043008207137 0.36070593142347052 0 -0.32351550611686369 0.36752848837225899 0 -0.32294694360815313 0.34029932586690909 0 -0.30361856140864052 0.32023283946916309 0 -0.32294694360815313 0.34029932586690909 0 -0.3223783810994425 0.31307016336155907 0 -0.32294694360815313 0.34029932586690909 0 -0.3223783810994425 0.31307016336155907 0 -0.34558568654757271 0.30206826315261148 0 -0.3223783810994425 0.31307016336155907 0 -0.34561721687214542 0.32879475335255698 0 -0.32294694360815313 0.34029932586690909 0 -0.3223783810994425 0.31307016336155907 0 -0.34561721687214542 0.32879475335255698 0 -0.32294694360815313 0.34029932586690909 0 -0.34561721687214542 0.32879475335255698 0 -0.34482808616359178 0.35346295069963529 0 -0.34561721687214542 0.32879475335255698 0 -0.36923145149837888 0.34594356384929242 0 -0.34482808616359178 0.35346295069963529 0 -0.34558568654757271 0.30206826315261148 0 -0.34561721687214542 0.32879475335255698 0 -0.36861873159940278 0.31772331897692602 0 -0.34561721687214542 0.32879475335255698 0 -0.36861873159940278 0.31772331897692602 0 -0.36923145149837888 0.34594356384929242 0 -0.36861873159940278 0.31772331897692602 0 -0.36923145149837888 0.34594356384929242 0 -0.36923145149837888 0.34594356384929242 0 -0.36984417139735498 0.37416380872165877 0 -0.34482808616359178 0.35346295069963529 0 -0.36923145149837888 0.34594356384929242 0 -0.36984417139735498 0.37416380872165877 0 -0.36984417139735498 0.37416380872165877 0 -0.34482808616359178 0.35346295069963529 0 -0.33989819775586327 0.37508935374278968 0 -0.35226197362282657 0.39124473085700268 0 -0.35057284183552501 0.41678142389683531 0 -0.33058743346688452 0.40515230716803929 0 -0.35226197362282657 0.39124473085700268 0 -0.36602567329920638 0.40280920878253079 0 -0.35057284183552501 0.41678142389683531 0 -0.36984417139735498 0.37416380872165877 0 -0.35226197362282657 0.39124473085700268 0 -0.33989819775586327 0.37508935374278968 0 -0.37714384653144389 0.39041890937197332 0 -0.36984417139735498 0.37416380872165877 0 -0.35226197362282657 0.39124473085700268 0 -0.38005946415737779 0.40637326785702838 0 -0.37714384653144389 0.39041890937197332 0 -0.36602567329920638 0.40280920878253079 0 -0.37714384653144389 0.39041890937197332 0 -0.35226197362282657 0.39124473085700268 0 -0.36602567329920638 0.40280920878253079 0 -0.38005946415737779 0.40637326785702838 0 -0.36602567329920638 0.40280920878253079 0 -0.3714036499462649 0.41731883609274523 0 -0.36602567329920638 0.40280920878253079 0 -0.3714036499462649 0.41731883609274523 0 -0.35057284183552501 0.41678142389683531 0 -0.3714036499462649 0.41731883609274523 0 -0.36653782646140448 0.43408779718540452 0 -0.35057284183552501 0.41678142389683531 0 -0.38691149530984481 0.42278224839378958 0 -0.3714036499462649 0.41731883609274523 0 -0.36653782646140448 0.43408779718540452 0 -0.36653782646140448 0.43408779718540452 0 -0.34628493008574968 0.43731420034286012 0 -0.35057284183552501 0.41678142389683531 0 -0.35057284183552501 0.41678142389683531 0 -0.33016801358798081 0.42178038610738211 0 -0.33058743346688452 0.40515230716803929 0 -0.34628493008574968 0.43731420034286012 0 -0.35057284183552501 0.41678142389683531 0 -0.33016801358798081 0.42178038610738211 0 -0.34628493008574968 0.43731420034286012 0 -0.33016801358798081 0.42178038610738211 0 -0.32936108497134559 0.43419326652144369 0 -0.34628493008574968 0.43731420034286012 0 -0.33016801358798081 0.42178038610738211 0 -0.32936108497134559 0.43419326652144369 0 -0.31897209688330758 0.42653066982573429 0 -0.32389309667640048 0.44681476777956619 0 -0.31897209688330758 0.42653066982573429 0 -0.31143033480699872 0.43492101578551517 0 -0.32389309667640048 0.44681476777956619 0 -0.31897209688330758 0.42653066982573429 0 -0.32389309667640048 0.44681476777956619 0 -0.33016801358798081 0.42178038610738211 0 -0.32936108497134559 0.43419326652144369 0 -0.31897209688330758 0.42653066982573429 0 -0.31897209688330758 0.42653066982573429 0 -0.31105785027210769 0.42028328114920283 0 -0.31143033480699872 0.43492101578551517 0 -0.33016801358798081 0.42178038610738211 0 -0.31405109709021323 0.40624657187190272 0 -0.33058743346688452 0.40515230716803929 0 -0.31897209688330758 0.42653066982573429 0 -0.31405109709021323 0.40624657187190272 0 -0.33016801358798081 0.42178038610738211 0 -0.31897209688330758 0.42653066982573429 0 -0.31405109709021323 0.40624657187190272 0 -0.33016801358798081 0.42178038610738211 0 -0.31405109709021323 0.40624657187190272 0 -0.31897209688330758 0.42653066982573429 0 -0.31405109709021323 0.40624657187190272 0 -0.31105785027210769 0.42028328114920283 0 -0.31405109709021323 0.40624657187190272 0 -0.31995646366186842 0.39372642513815781 0 -0.33058743346688452 0.40515230716803929 0 -0.31405109709021323 0.40624657187190272 0 -0.31995646366186842 0.39372642513815781 0 -0.3089703985849413 0.38530420436774188 0 -0.31995646366186842 0.39372642513815781 0 -0.33058743346688452 0.40515230716803929 0 -0.33004888924755421 0.3877660917584218 0 -0.35226197362282657 0.39124473085700268 0 -0.33058743346688452 0.40515230716803929 0 -0.33004888924755421 0.3877660917584218 0 -0.33989819775586327 0.37508935374278968 0 -0.33004888924755421 0.3877660917584218 0 -0.31863568471526899 0.37837421684585998 0 -0.35226197362282657 0.39124473085700268 0 -0.33989819775586327 0.37508935374278968 0 -0.33004888924755421 0.3877660917584218 0 -0.33004888924755421 0.3877660917584218 0 -0.31870664797955839 0.38628074501842891 0 -0.31863568471526899 0.37837421684585998 0 -0.31995646366186842 0.39372642513815781 0 -0.33004888924755421 0.3877660917584218 0 -0.31870664797955839 0.38628074501842891 0 -0.31995646366186842 0.39372642513815781 0 -0.31870664797955839 0.38628074501842891 0 -0.3089703985849413 0.38530420436774188 0 -0.31870664797955839 0.38628074501842891 0 -0.31863568471526899 0.37837421684585998 0 -0.3089703985849413 0.38530420436774188 0 -0.31863568471526899 0.37837421684585998 0 -0.3070619508835577 0.38111121670469011 0 -0.3089703985849413 0.38530420436774188 0 -0.3070619508835577 0.38111121670469011 0 -0.3089703985849413 0.38530420436774188 0 -0.30914347168504419 0.4015165019859096 0 -0.3070619508835577 0.38111121670469011 0 -0.30424639339942361 0.3868985014373596 0 -0.3064290780745007 0.39104108921491693 0 -0.30108202173309062 0.3857151945930658 0 -0.29650179327647458 0.39171333366501748 0 -0.29364601804458862 0.37830861992394349 0 -0.3070619508835577 0.38111121670469011 0 -0.30108202173309062 0.3857151945930658 0 -0.30424639339942361 0.3868985014373596 0 -0.30241252290654552 0.38972650523676589 0 -0.30424639339942361 0.3868985014373596 0 -0.3064290780745007 0.39104108921491693 0 -0.30108202173309062 0.3857151945930658 0 -0.30241252290654552 0.38972650523676589 0 -0.30424639339942361 0.3868985014373596 0 -0.30108202173309062 0.3857151945930658 0 -0.30241252290654552 0.38972650523676589 0 -0.29650179327647458 0.39171333366501748 0 -0.3070619508835577 0.38111121670469011 0 -0.30108202173309062 0.3857151945930658 0 -0.29364601804458862 0.37830861992394349 0 -0.31405109709021323 0.40624657187190272 0 -0.3089703985849413 0.38530420436774188 0 -0.30914347168504419 0.4015165019859096 0 -0.3070619508835577 0.38111121670469011 0 -0.30914347168504419 0.4015165019859096 0 -0.3064290780745007 0.39104108921491693 0 -0.31405109709021323 0.40624657187190272 0 -0.3089703985849413 0.38530420436774188 0 -0.3070619508835577 0.38111121670469011 0 -0.30914347168504419 0.4015165019859096 0 -0.30585672830361138 0.4046083206328398 0 -0.30914347168504419 0.4015165019859096 0 -0.30516457164706651 0.41226712758186779 0 -0.30585672830361138 0.4046083206328398 0 -0.30743427659863748 0.40192598544025399 0 -0.30341825029343272 0.40195093726430142 0 -0.30585672830361138 0.4046083206328398 0 -0.30914347168504419 0.4015165019859096 0 -0.30743427659863748 0.40192598544025399 0 -0.31405109709021323 0.40624657187190272 0 -0.30914347168504419 0.4015165019859096 0 -0.30743427659863748 0.40192598544025399 0 -0.30518762645894237 0.39925755578095828 0 -0.30341825029343272 0.40195093726430142 0 -0.30914347168504419 0.4015165019859096 0 -0.30726813153081889 0.39852877781312013 0 -0.30676811686866973 0.39604780167912518 0 -0.30914347168504419 0.4015165019859096 0 -0.30726813153081889 0.39852877781312013 0 -0.30743427659863748 0.40192598544025399 0 -0.30726813153081889 0.39852877781312013 0 -0.30743427659863748 0.40192598544025399 0 -0.30518762645894237 0.39925755578095828 0 -0.30914347168504419 0.4015165019859096 0 -0.30676811686866973 0.39604780167912518 0 -0.3064290780745007 0.39104108921491693 0 -0.30726813153081889 0.39852877781312013 0 -0.30518762645894237 0.39925755578095828 0 -0.30676811686866973 0.39604780167912518 0 -0.30676811686866973 0.39604780167912518 0 -0.3064290780745007 0.39104108921491693 0 -0.30348354116178222 0.39360486277277251 0 -0.30241252290654552 0.38972650523676589 0 -0.30348354116178222 0.39360486277277251 0 -0.29650179327647458 0.39171333366501748 0 -0.30241252290654552 0.38972650523676589 0 -0.3064290780745007 0.39104108921491693 0 -0.30348354116178222 0.39360486277277251 0 -0.30348354116178222 0.39360486277277251 0 -0.30161946138070772 0.39760658631390428 0 -0.29650179327647458 0.39171333366501748 0 -0.30161946138070772 0.39760658631390428 0 -0.29562063063488381 0.39799116703444792 0 -0.29650179327647458 0.39171333366501748 0 -0.30518762645894237 0.39925755578095828 0 -0.30676811686866973 0.39604780167912518 0 -0.30161946138070772 0.39760658631390428 0 -0.30676811686866973 0.39604780167912518 0 -0.30348354116178222 0.39360486277277251 0 -0.30161946138070772 0.39760658631390428 0 -0.30161946138070772 0.39760658631390428 0 -0.30341825029343272 0.40195093726430142 0 -0.29877992768214617 0.40297638021289878 0 -0.30518762645894237 0.39925755578095828 0 -0.30161946138070772 0.39760658631390428 0 -0.30341825029343272 0.40195093726430142 0 -0.30161946138070772 0.39760658631390428 0 -0.29877992768214617 0.40297638021289878 0 -0.29562063063488381 0.39799116703444792 0 -0.30341825029343272 0.40195093726430142 0 -0.29877992768214617 0.40297638021289878 0 -0.30272372539529802 0.40647264957769541 0 -0.30585672830361138 0.4046083206328398 0 -0.30341825029343272 0.40195093726430142 0 -0.30272372539529802 0.40647264957769541 0 -0.2913965479889184 0.40377473676558018 0 -0.29562063063488381 0.39799116703444792 0 -0.2872428636862473 0.39547187222990288 0 -0.29877992768214617 0.40297638021289878 0 -0.2913965479889184 0.40377473676558018 0 -0.29775757625225302 0.4098527971001234 0 -0.29877992768214617 0.40297638021289878 0 -0.2913965479889184 0.40377473676558018 0 -0.29562063063488381 0.39799116703444792 0 -0.29562063063488381 0.39799116703444792 0 -0.29650179327647458 0.39171333366501748 0 -0.2872428636862473 0.39547187222990288 0 -0.29650179327647458 0.39171333366501748 0 -0.2872428636862473 0.39547187222990288 0 -0.28253733291236088 0.38633600538175139 0 -0.2913965479889184 0.40377473676558018 0 -0.2872428636862473 0.39547187222990288 0 -0.2817641000946956 0.4048301378337652 0 -0.29650179327647458 0.39171333366501748 0 -0.29364601804458862 0.37830861992394349 0 -0.28253733291236088 0.38633600538175139 0 -0.28194346787234209 0.37225617415112261 0 -0.29364601804458862 0.37830861992394349 0 -0.28253733291236088 0.38633600538175139 0 -0.26269907700195178 0.37333446817563049 0 -0.28253733291236088 0.38633600538175139 0 -0.27307260491772217 0.39843963087432721 0 -0.26269907700195178 0.37333446817563049 0 -0.27307260491772217 0.39843963087432721 0 -0.26269907700195178 0.37333446817563049 0 -0.28194346787234209 0.37225617415112261 0 -0.28253733291236088 0.38633600538175139 0 -0.26269907700195178 0.37333446817563049 0 -0.28253733291236088 0.38633600538175139 0 -0.2872428636862473 0.39547187222990288 0 -0.28253733291236088 0.38633600538175139 0 -0.27307260491772217 0.39843963087432721 0 -0.2872428636862473 0.39547187222990288 0 -0.2817641000946956 0.4048301378337652 0 -0.27307260491772217 0.39843963087432721 0 -0.2817641000946956 0.4048301378337652 0 -0.27307260491772217 0.39843963087432721 0 -0.27329454660184338 0.41160032741786029 0 -0.2563668417329969 0.39094304646724648 0 -0.25708479127401701 0.41106925061492627 0 -0.24332176982101481 0.39689473231821309 0 -0.27307260491772217 0.39843963087432721 0 -0.2563668417329969 0.39094304646724648 0 -0.25708479127401701 0.41106925061492627 0 -0.26269907700195178 0.37333446817563049 0 -0.27307260491772217 0.39843963087432721 0 -0.2563668417329969 0.39094304646724648 0 -0.26269907700195178 0.37333446817563049 0 -0.2563668417329969 0.39094304646724648 0 -0.23938712108321711 0.38021147508781122 0 -0.2620575048888753 0.42669840220049671 0 -0.25568053088647119 0.4419136179475896 0 -0.2460741292361521 0.42928957067224749 0 -0.2620575048888753 0.42669840220049671 0 -0.25708479127401701 0.41106925061492627 0 -0.2460741292361521 0.42928957067224749 0 -0.2620575048888753 0.42669840220049671 0 -0.26694499634736968 0.44040962642475973 0 -0.25568053088647119 0.4419136179475896 0 -0.2620575048888753 0.42669840220049671 0 -0.25708479127401701 0.41106925061492627 0 -0.27329454660184338 0.41160032741786029 0 -0.2620575048888753 0.42669840220049671 0 -0.27329454660184338 0.41160032741786029 0 -0.27629237259175721 0.42318851731792329 0 -0.27307260491772217 0.39843963087432721 0 -0.25708479127401701 0.41106925061492627 0 -0.27329454660184338 0.41160032741786029 0 -0.2817641000946956 0.4048301378337652 0 -0.27329454660184338 0.41160032741786029 0 -0.28692372537681282 0.41409600201368768 0 -0.27329454660184338 0.41160032741786029 0 -0.27629237259175721 0.42318851731792329 0 -0.28692372537681282 0.41409600201368768 0 -0.2620575048888753 0.42669840220049671 0 -0.27629237259175721 0.42318851731792329 0 -0.27126739851706178 0.43161974777809581 0 -0.27126739851706178 0.43161974777809581 0 -0.27977472024024519 0.43618244516920363 0 -0.26694499634736968 0.44040962642475973 0 -0.2620575048888753 0.42669840220049671 0 -0.27126739851706178 0.43161974777809581 0 -0.26694499634736968 0.44040962642475973 0 -0.27629237259175721 0.42318851731792329 0 -0.27126739851706178 0.43161974777809581 0 -0.27977472024024519 0.43618244516920363 0 -0.27977472024024519 0.43618244516920363 0 -0.29172244110706808 0.42690840998479163 0 -0.29312761412675348 0.43735023159517239 0 -0.27629237259175721 0.42318851731792329 0 -0.27977472024024519 0.43618244516920363 0 -0.29172244110706808 0.42690840998479163 0 -0.29172244110706808 0.42690840998479163 0 -0.29312761412675348 0.43735023159517239 0 -0.3016426675652884 0.42903023751267322 0 -0.2913965479889184 0.40377473676558018 0 -0.2817641000946956 0.4048301378337652 0 -0.28692372537681282 0.41409600201368768 0 -0.27629237259175721 0.42318851731792329 0 -0.29172244110706808 0.42690840998479163 0 -0.28692372537681282 0.41409600201368768 0 -0.29172244110706808 0.42690840998479163 0 -0.28692372537681282 0.41409600201368768 0 -0.30028143469875801 0.41959409423458222 0 -0.28692372537681282 0.41409600201368768 0 -0.29775757625225302 0.4098527971001234 0 -0.30028143469875801 0.41959409423458222 0 -0.2913965479889184 0.40377473676558018 0 -0.28692372537681282 0.41409600201368768 0 -0.29775757625225302 0.4098527971001234 0 -0.30914347168504419 0.4015165019859096 0 -0.31105785027210769 0.42028328114920283 0 -0.30914347168504419 0.4015165019859096 0 -0.31105785027210769 0.42028328114920283 0 -0.30516457164706651 0.41226712758186779 0 -0.31405109709021323 0.40624657187190272 0 -0.30914347168504419 0.4015165019859096 0 -0.31105785027210769 0.42028328114920283 0 -0.29775757625225302 0.4098527971001234 0 -0.30028143469875801 0.41959409423458222 0 -0.30516457164706651 0.41226712758186779 0 -0.30585672830361138 0.4046083206328398 0 -0.30272372539529802 0.40647264957769541 0 -0.30516457164706651 0.41226712758186779 0 -0.30272372539529802 0.40647264957769541 0 -0.29775757625225302 0.4098527971001234 0 -0.30516457164706651 0.41226712758186779 0 -0.29877992768214617 0.40297638021289878 0 -0.30272372539529802 0.40647264957769541 0 -0.29775757625225302 0.4098527971001234 0 -0.30028143469875801 0.41959409423458222 0 -0.31105785027210769 0.42028328114920283 0 -0.30516457164706651 0.41226712758186779 0 -0.29312761412675348 0.43735023159517239 0 -0.3016426675652884 0.42903023751267322 0 -0.30275695416607268 0.43842876954938642 0 -0.30028143469875801 0.41959409423458222 0 -0.31105785027210769 0.42028328114920283 0 -0.3016426675652884 0.42903023751267322 0 -0.29172244110706808 0.42690840998479163 0 -0.30028143469875801 0.41959409423458222 0 -0.3016426675652884 0.42903023751267322 0 -0.31105785027210769 0.42028328114920283 0 -0.3016426675652884 0.42903023751267322 0 -0.31143033480699872 0.43492101578551517 0 -0.3016426675652884 0.42903023751267322 0 -0.31143033480699872 0.43492101578551517 0 -0.30275695416607268 0.43842876954938642 0 -0.31143033480699872 0.43492101578551517 0 -0.30808674418046261 0.44816230685263292 0 -0.30275695416607268 0.43842876954938642 0 -0.30808674418046261 0.44816230685263292 0 -0.29692651667820402 0.44772392056828969 0 -0.30000963987128509 0.46094637338103528 0 -0.29312761412675348 0.43735023159517239 0 -0.29692651667820402 0.44772392056828969 0 -0.30275695416607268 0.43842876954938642 0 -0.30808674418046261 0.44816230685263292 0 -0.29692651667820402 0.44772392056828969 0 -0.30275695416607268 0.43842876954938642 0 -0.30000963987128509 0.46094637338103528 0 -0.30454343812307871 0.47739659446949512 0 -0.31350392288381462 0.4601389940520047 0 -0.30808674418046261 0.44816230685263292 0 -0.30000963987128509 0.46094637338103528 0 -0.31350392288381462 0.4601389940520047 0 -0.28398142549481348 0.45800746401377812 0 -0.27290289477614238 0.47151154560469638 0 -0.28826456655379018 0.47597010203423301 0 -0.30000963987128509 0.46094637338103528 0 -0.28398142549481348 0.45800746401377812 0 -0.28826456655379018 0.47597010203423301 0 -0.29692651667820402 0.44772392056828969 0 -0.30000963987128509 0.46094637338103528 0 -0.28398142549481348 0.45800746401377812 0 -0.29312761412675348 0.43735023159517239 0 -0.29692651667820402 0.44772392056828969 0 -0.2852130343809714 0.44560840026589882 0 -0.29692651667820402 0.44772392056828969 0 -0.28398142549481348 0.45800746401377812 0 -0.2852130343809714 0.44560840026589882 0 -0.28398142549481348 0.45800746401377812 0 -0.2852130343809714 0.44560840026589882 0 -0.2747678886521645 0.44812141419361079 0 -0.27977472024024519 0.43618244516920363 0 -0.29312761412675348 0.43735023159517239 0 -0.2852130343809714 0.44560840026589882 0 -0.27977472024024519 0.43618244516920363 0 -0.26694499634736968 0.44040962642475973 0 -0.2747678886521645 0.44812141419361079 0 -0.27977472024024519 0.43618244516920363 0 -0.2852130343809714 0.44560840026589882 0 -0.2747678886521645 0.44812141419361079 0 -0.2747678886521645 0.44812141419361079 0 -0.26797051219822071 0.45888116812201052 0 -0.26222584202380628 0.44924481802312849 0 -0.26694499634736968 0.44040962642475973 0 -0.2747678886521645 0.44812141419361079 0 -0.26222584202380628 0.44924481802312849 0 -0.28398142549481348 0.45800746401377812 0 -0.2747678886521645 0.44812141419361079 0 -0.26797051219822071 0.45888116812201052 0 -0.28398142549481348 0.45800746401377812 0 -0.26797051219822071 0.45888116812201052 0 -0.27290289477614238 0.47151154560469638 0 -0.26797051219822071 0.45888116812201052 0 -0.25759447607833752 0.46478809225207218 0 -0.27290289477614238 0.47151154560469638 0 -0.26797051219822071 0.45888116812201052 0 -0.25989818867541892 0.45652587102836978 0 -0.26222584202380628 0.44924481802312849 0 -0.26797051219822071 0.45888116812201052 0 -0.25989818867541892 0.45652587102836978 0 -0.25759447607833752 0.46478809225207218 0 -0.25989818867541892 0.45652587102836978 0 -0.25759447607833752 0.46478809225207218 0 -0.25180192440131127 0.4531894057162682 0 -0.25759447607833752 0.46478809225207218 0 -0.25180192440131127 0.4531894057162682 0 -0.2449787884213131 0.45264988464863731 0 -0.25180192440131127 0.4531894057162682 0 -0.25568053088647119 0.4419136179475896 0 -0.26222584202380628 0.44924481802312849 0 -0.25180192440131127 0.4531894057162682 0 -0.25568053088647119 0.4419136179475896 0 -0.2449787884213131 0.45264988464863731 0 -0.26694499634736968 0.44040962642475973 0 -0.25568053088647119 0.4419136179475896 0 -0.26222584202380628 0.44924481802312849 0 -0.25989818867541892 0.45652587102836978 0 -0.25180192440131127 0.4531894057162682 0 -0.26222584202380628 0.44924481802312849 0 -0.26029421510037742 0.48343053581957962 0 -0.26626795247661073 0.5 0 -0.24275859078252701 0.49999999999999828 0 -0.25759447607833752 0.46478809225207218 0 -0.26029421510037742 0.48343053581957962 0 -0.27290289477614238 0.47151154560469638 0 -0.25759447607833752 0.46478809225207218 0 -0.26029421510037742 0.48343053581957962 0 -0.24386868960192001 0.47632494232431782 0 -0.26029421510037742 0.48343053581957962 0 -0.27290289477614238 0.47151154560469638 0 -0.27550138861552298 0.4861824366917018 0 -0.27290289477614238 0.47151154560469638 0 -0.27550138861552298 0.4861824366917018 0 -0.28826456655379018 0.47597010203423301 0 -0.26029421510037742 0.48343053581957962 0 -0.27550138861552298 0.4861824366917018 0 -0.26626795247661073 0.5 0 -0.27550138861552298 0.4861824366917018 0 -0.26626795247661073 0.5 0 -0.28977731417069452 0.5 0 -0.27550138861552298 0.4861824366917018 0 -0.28977731417069452 0.5 0 -0.28826456655379018 0.47597010203423301 0 -0.28977731417069452 0.5 0 -0.28826456655379018 0.47597010203423301 0 -0.30454343812307871 0.47739659446949512 0 -0.30000963987128509 0.46094637338103528 0 -0.28826456655379018 0.47597010203423301 0 -0.30454343812307871 0.47739659446949512 0 -0.30454343812307871 0.47739659446949512 0 -0.31328667586477821 0.5 0 -0.31908253830298361 0.48540452312941917 0 -0.28977731417069452 0.5 0 -0.30454343812307871 0.47739659446949512 0 -0.31328667586477821 0.5 0 -0.31328667586477821 0.5 0 -0.31908253830298361 0.48540452312941917 0 -0.33679603755886189 0.49999999999999928 0 -0.33679603755886189 0.49999999999999928 0 -0.33280506701417778 0.48354943286669871 0 -0.34776132587653202 0.48695231381635612 0 -0.33679603755886189 0.49999999999999928 0 -0.33280506701417778 0.48354943286669871 0 -0.31908253830298361 0.48540452312941917 0 -0.33679603755886189 0.49999999999999928 0 -0.33280506701417778 0.48354943286669871 0 -0.33280506701417778 0.48354943286669871 0 -0.32881409646949461 0.46709886573339793 0 -0.33280506701417778 0.48354943286669871 0 -0.32881409646949461 0.46709886573339793 0 -0.34500792171548739 0.47383006935472638 0 -0.33280506701417778 0.48354943286669871 0 -0.34776132587653202 0.48695231381635612 0 -0.34500792171548739 0.47383006935472638 0 -0.30454343812307871 0.47739659446949512 0 -0.32881409646949461 0.46709886573339793 0 -0.31908253830298361 0.48540452312941917 0 -0.33280506701417778 0.48354943286669871 0 -0.32881409646949461 0.46709886573339793 0 -0.30454343812307871 0.47739659446949512 0 -0.31908253830298361 0.48540452312941917 0 -0.32881409646949461 0.46709886573339793 0 -0.31350392288381462 0.4601389940520047 0 -0.32389309667640048 0.44681476777956619 0 -0.32881409646949461 0.46709886573339793 0 -0.30454343812307871 0.47739659446949512 0 -0.31350392288381462 0.4601389940520047 0 -0.32881409646949461 0.46709886573339793 0 -0.32389309667640048 0.44681476777956619 0 -0.32881409646949461 0.46709886573339793 0 -0.31143033480699872 0.43492101578551517 0 -0.30808674418046261 0.44816230685263292 0 -0.32389309667640048 0.44681476777956619 0 -0.30808674418046261 0.44816230685263292 0 -0.31350392288381462 0.4601389940520047 0 -0.32389309667640048 0.44681476777956619 0 -0.34628493008574968 0.43731420034286012 0 -0.32389309667640048 0.44681476777956619 0 -0.34560797152650591 0.45997344015586961 0 -0.34628493008574968 0.43731420034286012 0 -0.32936108497134559 0.43419326652144369 0 -0.32389309667640048 0.44681476777956619 0 -0.32881409646949461 0.46709886573339793 0 -0.34560797152650591 0.45997344015586961 0 -0.34500792171548739 0.47383006935472638 0 -0.32881409646949461 0.46709886573339793 0 -0.34560797152650591 0.45997344015586961 0 -0.32389309667640048 0.44681476777956619 0 -0.32881409646949461 0.46709886573339793 0 -0.34560797152650591 0.45997344015586961 0 -0.34560797152650591 0.45997344015586961 0 -0.35736667387601712 0.46472108913066812 0 -0.34500792171548739 0.47383006935472638 0 -0.34560797152650591 0.45997344015586961 0 -0.35736667387601712 0.46472108913066812 0 -0.3624018465835166 0.45284801457834012 0 -0.34560797152650591 0.45997344015586961 0 -0.3624018465835166 0.45284801457834012 0 -0.34628493008574968 0.43731420034286012 0 -0.3624018465835166 0.45284801457834012 0 -0.34628493008574968 0.43731420034286012 0 -0.3624018465835166 0.45284801457834012 0 -0.3663735074537271 0.45116288986151648 0 -0.34628493008574968 0.43731420034286012 0 -0.34560797152650591 0.45997344015586961 0 -0.3624018465835166 0.45284801457834012 0 -0.36653782646140448 0.43408779718540452 0 -0.3663735074537271 0.45116288986151648 0 -0.36852468641367908 0.44581695102261371 0 -0.36653782646140448 0.43408779718540452 0 -0.34628493008574968 0.43731420034286012 0 -0.3663735074537271 0.45116288986151648 0 -0.3624018465835166 0.45284801457834012 0 -0.3663735074537271 0.45116288986151648 0 -0.37549674741026712 0.44729201627721282 0 -0.3663735074537271 0.45116288986151648 0 -0.37549674741026712 0.44729201627721282 0 -0.3663735074537271 0.45116288986151648 0 -0.3720107782219072 0.45477709579076347 0 -0.37549674741026712 0.44729201627721282 0 -0.3663735074537271 0.45116288986151648 0 -0.36852468641367908 0.44581695102261371 0 -0.3663735074537271 0.45116288986151648 0 -0.3720107782219072 0.45477709579076347 0 -0.37549674741026712 0.44729201627721282 0 -0.3720107782219072 0.45477709579076347 0 -0.37549674741026712 0.44729201627721282 0 -0.36653782646140448 0.43408779718540452 0 -0.36852468641367908 0.44581695102261371 0 -0.35736667387601712 0.46472108913066812 0 -0.36965393114197592 0.45983772221668873 0 -0.3618063254675401 0.47668811569127079 0 -0.36965393114197592 0.45983772221668873 0 -0.3618063254675401 0.47668811569127079 0 -0.3624018465835166 0.45284801457834012 0 -0.3663735074537271 0.45116288986151648 0 -0.36965393114197592 0.45983772221668873 0 -0.35736667387601712 0.46472108913066812 0 -0.3624018465835166 0.45284801457834012 0 -0.36965393114197592 0.45983772221668873 0 -0.3624018465835166 0.45284801457834012 0 -0.36965393114197592 0.45983772221668873 0 -0.36965393114197592 0.45983772221668873 0 -0.3720107782219072 0.45477709579076347 0 -0.3663735074537271 0.45116288986151648 0 -0.36965393114197592 0.45983772221668873 0 -0.3720107782219072 0.45477709579076347 0 -0.39087440279914232 0.48029044744842281 0 -0.36965393114197592 0.45983772221668873 0 -0.3618063254675401 0.47668811569127079 0 -0.37698995218659531 0.49014522372419722 0 -0.3618063254675401 0.47668811569127079 0 -0.36310550157405608 0.49999999999998268 0 -0.37698995218659531 0.49014522372419722 0 -0.36310550157405608 0.49999999999998268 0 -0.3618063254675401 0.47668811569127079 0 -0.36310550157405608 0.49999999999998268 0 -0.34776132587653202 0.48695231381635612 0 -0.33679603755886189 0.49999999999999928 0 -0.36310550157405608 0.49999999999998268 0 -0.34776132587653202 0.48695231381635612 0 -0.3618063254675401 0.47668811569127079 0 -0.34776132587653202 0.48695231381635612 0 -0.34500792171548739 0.47383006935472638 0 -0.35736667387601712 0.46472108913066812 0 -0.3618063254675401 0.47668811569127079 0 -0.34500792171548739 0.47383006935472638 0 -0.14095182282844679 0.46433953461322902 0 -0.16465842771554279 0.47666708005341007 0 -0.1513847650827925 0.4858004344173586 0 -0.137035085266005 0.48216976730661598 0 -0.14095182282844679 0.46433953461322902 0 -0.1513847650827925 0.4858004344173586 0 -0.14095182282844679 0.46433953461322902 0 -0.16465842771554279 0.47666708005341007 0 -0.1513847650827925 0.4858004344173586 0 -0.13311834770356221 0.50000000000000289 0 -0.15964163233399201 0.5 0 -0.13311834770356221 0.50000000000000289 0 -0.137035085266005 0.48216976730661598 0 -0.11518162280931479 0.48120456984211241 0 -0.13311834770356221 0.50000000000000289 0 -0.137035085266005 0.48216976730661598 0 -0.1513847650827925 0.4858004344173586 0 -0.13311834770356221 0.50000000000000289 0 -0.137035085266005 0.48216976730661598 0 -0.137035085266005 0.48216976730661598 0 -0.14095182282844679 0.46433953461322902 0 -0.137035085266005 0.48216976730661598 0 -0.13723955828398671 0.46240913968422798 0 -0.11518162280931479 0.48120456984211241 0 -0.137035085266005 0.48216976730661598 0 -0.13723955828398671 0.46240913968422798 0 -0.14095182282844679 0.46433953461322902 0 -0.13723955828398671 0.46240913968422798 0 -0.11518162280931479 0.48120456984211241 0 -0.1263608341545735 0.45675215224654597 0 -0.13723955828398671 0.46240913968422798 0 -0.1423283862626481 0.45807298089147702 0 -0.1263608341545735 0.45675215224654597 0 -0.13420329262077041 0.445194737454773 0 -0.1423283862626481 0.45807298089147702 0 -0.1263608341545735 0.45675215224654597 0 -0.13723955828398671 0.46240913968422798 0 -0.11518162280931479 0.48120456984211241 0 -0.1263608341545735 0.45675215224654597 0 -0.13723955828398671 0.46240913968422798 0 -0.13723955828398671 0.46240913968422798 0 -0.1423283862626481 0.45807298089147702 0 -0.13723955828398671 0.46240913968422798 0 -0.14095182282844679 0.46433953461322902 0 -0.1423283862626481 0.45807298089147702 0 -0.13723955828398671 0.46240913968422798 0 -0.14095182282844679 0.46433953461322902 0 -0.13420329262077041 0.445194737454773 0 -0.14715365047648529 0.4361068464828935 0 -0.12219377721114941 0.43176197840898373 0 -0.13420329262077041 0.445194737454773 0 -0.12219377721114941 0.43176197840898373 0 -0.1228166191574358 0.44470635706624573 0 -0.1263608341545735 0.45675215224654597 0 -0.13420329262077041 0.445194737454773 0 -0.1228166191574358 0.44470635706624573 0 -0.1423283862626481 0.45807298089147702 0 -0.14715365047648529 0.4361068464828935 0 -0.1423283862626481 0.45807298089147702 0 -0.16363309001772181 0.43991937481520571 0 -0.13420329262077041 0.445194737454773 0 -0.1423283862626481 0.45807298089147702 0 -0.14715365047648529 0.4361068464828935 0 -0.1423283862626481 0.45807298089147702 0 -0.16363309001772181 0.43991937481520571 0 -0.14715365047648529 0.4361068464828935 0 -0.1423283862626481 0.45807298089147702 0 -0.15723632900648579 0.45399045294823898 0 -0.16363309001772181 0.43991937481520571 0 -0.14095182282844679 0.46433953461322902 0 -0.15723632900648579 0.45399045294823898 0 -0.16465842771554279 0.47666708005341007 0 -0.14095182282844679 0.46433953461322902 0 -0.1423283862626481 0.45807298089147702 0 -0.15723632900648579 0.45399045294823898 0 -0.14095182282844679 0.46433953461322902 0 -0.1423283862626481 0.45807298089147702 0 -0.15723632900648579 0.45399045294823898 0 -0.1714157375769261 0.45938522426513528 0 -0.16465842771554279 0.47666708005341007 0 -0.15723632900648579 0.45399045294823898 0 -0.1714157375769261 0.45938522426513528 0 -0.16495546001590311 0.44945869357057289 0 -0.15723632900648579 0.45399045294823898 0 -0.16363309001772181 0.43991937481520571 0 -0.16495546001590311 0.44945869357057289 0 -0.16363309001772181 0.43991937481520571 0 -0.16495546001590311 0.44945869357057289 0 -0.17091543789423611 0.44679352504128511 0 -0.1714157375769261 0.45938522426513528 0 -0.16495546001590311 0.44945869357057289 0 -0.17091543789423611 0.44679352504128511 0 -0.17091543789423611 0.44679352504128511 0 -0.19639874519493841 0.44880854880776538 0 -0.183225031653383 0.43737613220088772 0 -0.17091543789423611 0.44679352504128511 0 -0.19639874519493841 0.44880854880776538 0 -0.17091543789423611 0.44679352504128511 0 -0.18297456860499139 0.45535869432550807 0 -0.19639874519493841 0.44880854880776538 0 -0.16363309001772181 0.43991937481520571 0 -0.17091543789423611 0.44679352504128511 0 -0.183225031653383 0.43737613220088772 0 -0.1714157375769261 0.45938522426513528 0 -0.18297456860499139 0.45535869432550807 0 -0.19238188889878821 0.46890158715067798 0 -0.1714157375769261 0.45938522426513528 0 -0.16465842771554279 0.47666708005341007 0 -0.19238188889878821 0.46890158715067798 0 -0.1714157375769261 0.45938522426513528 0 -0.17091543789423611 0.44679352504128511 0 -0.18297456860499139 0.45535869432550807 0 -0.16465842771554279 0.47666708005341007 0 -0.18836503260263901 0.48899462549359057 0 -0.19238188889878821 0.46890158715067798 0 -0.16465842771554279 0.47666708005341007 0 -0.18836503260263901 0.48899462549359057 0 -0.1513847650827925 0.4858004344173586 0 -0.15964163233399201 0.5 0 -0.17290327464920571 0.49162622453089327 0 -0.1513847650827925 0.4858004344173586 0 -0.16465842771554279 0.47666708005341007 0 -0.17290327464920571 0.49162622453089327 0 -0.16465842771554279 0.47666708005341007 0 -0.17290327464920571 0.49162622453089327 0 -0.18836503260263901 0.48899462549359057 0 -0.15964163233399201 0.5 0 -0.17290327464920571 0.49162622453089327 0 -0.18616491696442181 0.49999999999999739 0 -0.18616491696442181 0.49999999999999739 0 -0.18836503260263901 0.48899462549359057 0 -0.17290327464920571 0.49162622453089327 0 -0.18616491696442181 0.49999999999999739 0 -0.18836503260263901 0.48899462549359057 0 -0.18616491696442181 0.49999999999999739 0 -0.18836503260263901 0.48899462549359057 0 -0.20952902395225939 0.50000000000000022 0 -0.18836503260263901 0.48899462549359057 0 -0.20952902395225939 0.50000000000000022 0 -0.18836503260263901 0.48899462549359057 0 -0.20447624452228971 0.48368307285766232 0 -0.20952902395225939 0.50000000000000022 0 -0.18836503260263901 0.48899462549359057 0 -0.19238188889878821 0.46890158715067798 0 -0.19238188889878821 0.46890158715067798 0 -0.20447624452228971 0.48368307285766232 0 -0.20863470195082101 0.46296296738249493 0 -0.18836503260263901 0.48899462549359057 0 -0.19238188889878821 0.46890158715067798 0 -0.20447624452228971 0.48368307285766232 0 -0.20447624452228971 0.48368307285766232 0 -0.2178364156598257 0.47598238674986371 0 -0.20863470195082101 0.46296296738249493 0 -0.20447624452228971 0.48368307285766232 0 -0.2178364156598257 0.47598238674986371 0 -0.2175786791916926 0.48881366441115032 0 -0.20952902395225939 0.50000000000000022 0 -0.2175786791916926 0.48881366441115032 0 -0.22614380736739309 0.5 0 -0.20447624452228971 0.48368307285766232 0 -0.20952902395225939 0.50000000000000022 0 -0.2175786791916926 0.48881366441115032 0 -0.22614380736739309 0.5 0 -0.2299079044566954 0.48440286244822539 0 -0.24275859078252701 0.49999999999999828 0 -0.2175786791916926 0.48881366441115032 0 -0.22614380736739309 0.5 0 -0.2299079044566954 0.48440286244822539 0 -0.2178364156598257 0.47598238674986371 0 -0.2299079044566954 0.48440286244822539 0 -0.2310035076686808 0.46468194085130732 0 -0.2178364156598257 0.47598238674986371 0 -0.2175786791916926 0.48881366441115032 0 -0.2299079044566954 0.48440286244822539 0 -0.2299079044566954 0.48440286244822539 0 -0.24386868960192001 0.47632494232431782 0 -0.2310035076686808 0.46468194085130732 0 -0.26029421510037742 0.48343053581957962 0 -0.24386868960192001 0.47632494232431782 0 -0.24275859078252701 0.49999999999999828 0 -0.24386868960192001 0.47632494232431782 0 -0.24275859078252701 0.49999999999999828 0 -0.2299079044566954 0.48440286244822539 0 -0.24386868960192001 0.47632494232431782 0 -0.24275859078252701 0.49999999999999828 0 -0.2449787884213131 0.45264988464863731 0 -0.2293573419765966 0.43484215473140908 0 -0.2460741292361521 0.42928957067224749 0 -0.2449787884213131 0.45264988464863731 0 -0.2460741292361521 0.42928957067224749 0 -0.25568053088647119 0.4419136179475896 0 -0.2449787884213131 0.45264988464863731 0 -0.2460741292361521 0.42928957067224749 0 -0.25180192440131127 0.4531894057162682 0 -0.2449787884213131 0.45264988464863731 0 -0.24386868960192001 0.47632494232431782 0 -0.2449787884213131 0.45264988464863731 0 -0.2310035076686808 0.46468194085130732 0 -0.24386868960192001 0.47632494232431782 0 -0.2449787884213131 0.45264988464863731 0 -0.25759447607833752 0.46478809225207218 0 -0.24386868960192001 0.47632494232431782 0 -0.2449787884213131 0.45264988464863731 0 -0.2178364156598257 0.47598238674986371 0 -0.2310035076686808 0.46468194085130732 0 -0.20863470195082101 0.46296296738249493 0 -0.2449787884213131 0.45264988464863731 0 -0.2310035076686808 0.46468194085130732 0 -0.2206887668081256 0.45072921672820337 0 -0.2310035076686808 0.46468194085130732 0 -0.2206887668081256 0.45072921672820337 0 -0.20863470195082101 0.46296296738249493 0 -0.2449787884213131 0.45264988464863731 0 -0.2206887668081256 0.45072921672820337 0 -0.2293573419765966 0.43484215473140908 0 -0.2449787884213131 0.45264988464863731 0 -0.2206887668081256 0.45072921672820337 0 -0.2206887668081256 0.45072921672820337 0 -0.21202085170920951 0.43974225056550259 0 -0.2293573419765966 0.43484215473140908 0 -0.2206887668081256 0.45072921672820337 0 -0.19639874519493841 0.44880854880776538 0 -0.2206887668081256 0.45072921672820337 0 -0.21202085170920951 0.43974225056550259 0 -0.19639874519493841 0.44880854880776538 0 -0.2206887668081256 0.45072921672820337 0 -0.20863470195082101 0.46296296738249493 0 -0.19639874519493841 0.44880854880776538 0 -0.19238188889878821 0.46890158715067798 0 -0.20863470195082101 0.46296296738249493 0 -0.19639874519493841 0.44880854880776538 0 -0.19238188889878821 0.46890158715067798 0 -0.19639874519493841 0.44880854880776538 0 -0.18297456860499139 0.45535869432550807 0 -0.19238188889878821 0.46890158715067798 0 -0.19639874519493841 0.44880854880776538 0 -0.19639874519493841 0.44880854880776538 0 -0.20024009138722229 0.42959344360124641 0 -0.183225031653383 0.43737613220088772 0 -0.21202085170920951 0.43974225056550259 0 -0.19639874519493841 0.44880854880776538 0 -0.20024009138722229 0.42959344360124641 0 -0.19639874519493841 0.44880854880776538 0 -0.20024009138722229 0.42959344360124641 0 -0.20024009138722229 0.42959344360124641 0 -0.18493779377279659 0.42176576873893568 0 -0.183225031653383 0.43737613220088772 0 -0.20024009138722229 0.42959344360124641 0 -0.18493779377279659 0.42176576873893568 0 -0.17852213514568821 0.4108840106334864 0 -0.20024009138722229 0.42959344360124641 0 -0.17852213514568821 0.4108840106334864 0 -0.20024009138722229 0.42959344360124641 0 -0.20596654179862811 0.40094870771775187 0 -0.17852213514568821 0.4108840106334864 0 -0.20024009138722229 0.42959344360124641 0 -0.20596654179862811 0.40094870771775187 0 -0.20024009138722229 0.42959344360124641 0 -0.2177601752604427 0.41816793315138201 0 -0.20596654179862811 0.40094870771775187 0 -0.21202085170920951 0.43974225056550259 0 -0.20024009138722229 0.42959344360124641 0 -0.2177601752604427 0.41816793315138201 0 -0.21202085170920951 0.43974225056550259 0 -0.20024009138722229 0.42959344360124641 0 -0.2177601752604427 0.41816793315138201 0 -0.2293573419765966 0.43484215473140908 0 -0.23692877537248649 0.41434296312759572 0 -0.21202085170920951 0.43974225056550259 0 -0.2177601752604427 0.41816793315138201 0 -0.2293573419765966 0.43484215473140908 0 -0.2177601752604427 0.41816793315138201 0 -0.23692877537248649 0.41434296312759572 0 -0.2231355425862008 0.39133898671864448 0 -0.25708479127401701 0.41106925061492627 0 -0.23692877537248649 0.41434296312759572 0 -0.2460741292361521 0.42928957067224749 0 -0.25708479127401701 0.41106925061492627 0 -0.23692877537248649 0.41434296312759572 0 -0.24332176982101481 0.39689473231821309 0 -0.2293573419765966 0.43484215473140908 0 -0.23692877537248649 0.41434296312759572 0 -0.2460741292361521 0.42928957067224749 0 -0.23938712108321711 0.38021147508781122 0 -0.24332176982101481 0.39689473231821309 0 -0.2231355425862008 0.39133898671864448 0 -0.2563668417329969 0.39094304646724648 0 -0.23938712108321711 0.38021147508781122 0 -0.24332176982101481 0.39689473231821309 0 -0.23692877537248649 0.41434296312759572 0 -0.24332176982101481 0.39689473231821309 0 -0.2231355425862008 0.39133898671864448 0 -0.23938712108321711 0.38021147508781122 0 -0.2231355425862008 0.39133898671864448 0 -0.21169299221003349 0.37230397183425751 0 -0.2231355425862008 0.39133898671864448 0 -0.20596654179862811 0.40094870771775187 0 -0.21169299221003349 0.37230397183425751 0 -0.20596654179862811 0.40094870771775187 0 -0.19534005447971739 0.37634178483683828 0 -0.21169299221003349 0.37230397183425751 0 -0.20596654179862811 0.40094870771775187 0 -0.21169299221003349 0.37230397183425751 0 -0.2177601752604427 0.41816793315138201 0 -0.2231355425862008 0.39133898671864448 0 -0.20596654179862811 0.40094870771775187 0 -0.20596654179862811 0.40094870771775187 0 -0.18451813048772631 0.38711828784807312 0 -0.17852213514568821 0.4108840106334864 0 -0.19534005447971739 0.37634178483683828 0 -0.18451813048772631 0.38711828784807312 0 -0.1841192094137776 0.36244969038879232 0 -0.20596654179862811 0.40094870771775187 0 -0.19534005447971739 0.37634178483683828 0 -0.18451813048772631 0.38711828784807312 0 -0.18451813048772631 0.38711828784807312 0 -0.17108757426993679 0.3867927086403844 0 -0.1841192094137776 0.36244969038879232 0 -0.17108757426993679 0.3867927086403844 0 -0.15992042230183939 0.37798844851509261 0 -0.1841192094137776 0.36244969038879232 0 -0.15992042230183939 0.37798844851509261 0 -0.15680417890415471 0.39217457766572561 0 -0.17108757426993679 0.3867927086403844 0 -0.15992042230183939 0.37798844851509261 0 -0.15680417890415471 0.39217457766572561 0 -0.15680417890415471 0.39217457766572561 0 -0.17852213514568821 0.4108840106334864 0 -0.17108757426993679 0.3867927086403844 0 -0.15680417890415471 0.39217457766572561 0 -0.17852213514568821 0.4108840106334864 0 -0.15680417890415471 0.39217457766572561 0 -0.17852213514568821 0.4108840106334864 0 -0.16355778857612621 0.40959712176254931 0 -0.15680417890415471 0.39217457766572561 0 -0.16355778857612621 0.40959712176254931 0 -0.1519789146903204 0.41414071207430969 0 -0.18451813048772631 0.38711828784807312 0 -0.17108757426993679 0.3867927086403844 0 -0.17852213514568821 0.4108840106334864 0 -0.18493779377279659 0.42176576873893568 0 -0.17852213514568821 0.4108840106334864 0 -0.1669259255643416 0.42118918667667521 0 -0.16363309001772181 0.43991937481520571 0 -0.18493779377279659 0.42176576873893568 0 -0.16363309001772181 0.43991937481520571 0 -0.18493779377279659 0.42176576873893568 0 -0.183225031653383 0.43737613220088772 0 -0.16363309001772181 0.43991937481520571 0 -0.18493779377279659 0.42176576873893568 0 -0.1669259255643416 0.42118918667667521 0 -0.16363309001772181 0.43991937481520571 0 -0.15742289518721719 0.42783903001227103 0 -0.1669259255643416 0.42118918667667521 0 -0.17852213514568821 0.4108840106334864 0 -0.1669259255643416 0.42118918667667521 0 -0.16355778857612621 0.40959712176254931 0 -0.15742289518721719 0.42783903001227103 0 -0.1669259255643416 0.42118918667667521 0 -0.1519789146903204 0.41414071207430969 0 -0.1669259255643416 0.42118918667667521 0 -0.16355778857612621 0.40959712176254931 0 -0.1519789146903204 0.41414071207430969 0 -0.1519789146903204 0.41414071207430969 0 -0.13344306362812769 0.41679312353423442 0 -0.1431285216710311 0.40095929476853609 0 -0.16363309001772181 0.43991937481520571 0 -0.15742289518721719 0.42783903001227103 0 -0.14715365047648529 0.4361068464828935 0 -0.1519789146903204 0.41414071207430969 0 -0.14715365047648529 0.4361068464828935 0 -0.15742289518721719 0.42783903001227103 0 -0.1519789146903204 0.41414071207430969 0 -0.14715365047648529 0.4361068464828935 0 -0.1519789146903204 0.41414071207430969 0 -0.14715365047648529 0.4361068464828935 0 -0.13344306362812769 0.41679312353423442 0 -0.14715365047648529 0.4361068464828935 0 -0.13344306362812769 0.41679312353423442 0 -0.12219377721114941 0.43176197840898373 0 -0.12668246113114459 0.39933152810224959 0 -0.1487002445868735 0.38519325703877361 0 -0.1431285216710311 0.40095929476853609 0 -0.13344306362812769 0.41679312353423442 0 -0.12668246113114459 0.39933152810224959 0 -0.1431285216710311 0.40095929476853609 0 -0.12668246113114459 0.39933152810224959 0 -0.1487002445868735 0.38519325703877361 0 -0.12668246113114459 0.39933152810224959 0 -0.12790961240459681 0.38318696892604431 0 -0.1487002445868735 0.38519325703877361 0 -0.1487002445868735 0.38519325703877361 0 -0.12723617242807531 0.36670253835400829 0 -0.12790961240459681 0.38318696892604431 0 -0.1487002445868735 0.38519325703877361 0 -0.12723617242807531 0.36670253835400829 0 -0.15992042230183939 0.37798844851509261 0 -0.1487002445868735 0.38519325703877361 0 -0.14525520332911909 0.36748913601497168 0 -0.15992042230183939 0.37798844851509261 0 -0.1487002445868735 0.38519325703877361 0 -0.15680417890415471 0.39217457766572561 0 -0.1487002445868735 0.38519325703877361 0 -0.15992042230183939 0.37798844851509261 0 -0.15680417890415471 0.39217457766572561 0 -0.1487002445868735 0.38519325703877361 0 -0.15680417890415471 0.39217457766572561 0 -0.1519789146903204 0.41414071207430969 0 -0.15680417890415471 0.39217457766572561 0 -0.1519789146903204 0.41414071207430969 0 -0.1431285216710311 0.40095929476853609 0 -0.15680417890415471 0.39217457766572561 0 -0.1487002445868735 0.38519325703877361 0 -0.1431285216710311 0.40095929476853609 0 -0.12723617242807531 0.36670253835400829 0 -0.1388996593651064 0.33970780564902558 0 -0.1198994759967887 0.33446875216113858 0 -0.14949125306985739 0.35190240843039322 0 -0.1535832043472164 0.33825394476077242 0 -0.16564331373678259 0.35193603005783047 0 -0.14949125306985739 0.35190240843039322 0 -0.14525520332911909 0.36748913601497168 0 -0.16564331373678259 0.35193603005783047 0 -0.14949125306985739 0.35190240843039322 0 -0.14525520332911909 0.36748913601497168 0 -0.12723617242807531 0.36670253835400829 0 -0.1487002445868735 0.38519325703877361 0 -0.14525520332911909 0.36748913601497168 0 -0.12723617242807531 0.36670253835400829 0 -0.14949125306985739 0.35190240843039322 0 -0.12723617242807531 0.36670253835400829 0 -0.1388996593651064 0.33970780564902558 0 -0.1388996593651064 0.33970780564902558 0 -0.14251559039261039 0.32183986806604442 0 -0.1198994759967887 0.33446875216113858 0 -0.14251559039261039 0.32183986806604442 0 -0.1214189212483379 0.31051108492626273 0 -0.1198994759967887 0.33446875216113858 0 -0.14251559039261039 0.32183986806604442 0 -0.17136620517172541 0.32588361160056828 0 -0.15184801626939909 0.30571108020790128 0 -0.1388996593651064 0.33970780564902558 0 -0.14251559039261039 0.32183986806604442 0 -0.1535832043472164 0.33825394476077242 0 -0.14251559039261039 0.32183986806604442 0 -0.1535832043472164 0.33825394476077242 0 -0.17136620517172541 0.32588361160056828 0 -0.14949125306985739 0.35190240843039322 0 -0.1388996593651064 0.33970780564902558 0 -0.1535832043472164 0.33825394476077242 0 -0.17136620517172541 0.32588361160056828 0 -0.16564331373678259 0.35193603005783047 0 -0.1535832043472164 0.33825394476077242 0 -0.17136620517172541 0.32588361160056828 0 -0.16564331373678259 0.35193603005783047 0 -0.17136620517172541 0.32588361160056828 0 -0.19108640283948669 0.32391838350444141 0 -0.1897025022931379 0.30472046678612907 0 -0.17136620517172541 0.32588361160056828 0 -0.1899477259789821 0.34491456196065112 0 -0.19108640283948669 0.32391838350444141 0 -0.17136620517172541 0.32588361160056828 0 -0.16564331373678259 0.35193603005783047 0 -0.1899477259789821 0.34491456196065112 0 -0.16564331373678259 0.35193603005783047 0 -0.1841192094137776 0.36244969038879232 0 -0.1899477259789821 0.34491456196065112 0 -0.15992042230183939 0.37798844851509261 0 -0.14525520332911909 0.36748913601497168 0 -0.16564331373678259 0.35193603005783047 0 -0.15992042230183939 0.37798844851509261 0 -0.16564331373678259 0.35193603005783047 0 -0.15992042230183939 0.37798844851509261 0 -0.16564331373678259 0.35193603005783047 0 -0.1841192094137776 0.36244969038879232 0 -0.15992042230183939 0.37798844851509261 0 -0.1841192094137776 0.36244969038879232 0 -0.19534005447971739 0.37634178483683828 0 -0.19939904015390081 0.3642237072842941 0 -0.21169299221003349 0.37230397183425751 0 -0.19534005447971739 0.37634178483683828 0 -0.1841192094137776 0.36244969038879232 0 -0.19939904015390081 0.3642237072842941 0 -0.1841192094137776 0.36244969038879232 0 -0.19939904015390081 0.3642237072842941 0 -0.208317996525716 0.34691093226249209 0 -0.1841192094137776 0.36244969038879232 0 -0.1899477259789821 0.34491456196065112 0 -0.208317996525716 0.34691093226249209 0 -0.1841192094137776 0.36244969038879232 0 -0.208317996525716 0.34691093226249209 0 -0.21169299221003349 0.37230397183425751 0 -0.21741944262143989 0.34365923595076309 0 -0.208317996525716 0.34691093226249209 0 -0.21169299221003349 0.37230397183425751 0 -0.21741944262143989 0.34365923595076309 0 -0.208317996525716 0.34691093226249209 0 -0.21407356992096671 0.34146642784310149 0 -0.21741944262143989 0.34365923595076309 0 -0.19939904015390081 0.3642237072842941 0 -0.208317996525716 0.34691093226249209 0 -0.21169299221003349 0.37230397183425751 0 -0.23938712108321711 0.38021147508781122 0 -0.21169299221003349 0.37230397183425751 0 -0.24005925981169671 0.35849685206319559 0 -0.21169299221003349 0.37230397183425751 0 -0.24005925981169671 0.35849685206319559 0 -0.21741944262143989 0.34365923595076309 0 -0.24005925981169671 0.35849685206319559 0 -0.21741944262143989 0.34365923595076309 0 -0.24005925981169671 0.35849685206319559 0 -0.2321424785329867 0.33954846912385628 0 -0.21741944262143989 0.34365923595076309 0 -0.25332005796921309 0.35063613442814062 0 -0.24005925981169671 0.35849685206319559 0 -0.24080144847006379 0.34086798600569512 0 -0.24005925981169671 0.35849685206319559 0 -0.24080144847006379 0.34086798600569512 0 -0.2321424785329867 0.33954846912385628 0 -0.26269907700195178 0.37333446817563049 0 -0.23938712108321711 0.38021147508781122 0 -0.24005925981169671 0.35849685206319559 0 -0.2439410389364747 0.32793780068065048 0 -0.2345620199037369 0.30523946693316018 0 -0.24071984846659561 0.33142392990209252 0 -0.2345620199037369 0.30523946693316018 0 -0.25198310925179951 0.30610204381036721 0 -0.2439410389364747 0.32793780068065048 0 -0.2345620199037369 0.30523946693316018 0 -0.24071984846659561 0.33142392990209252 0 -0.22981280541431259 0.32645468765915753 0 -0.2345620199037369 0.30523946693316018 0 -0.2439410389364747 0.32793780068065048 0 -0.24071984846659561 0.33142392990209252 0 -0.2345620199037369 0.30523946693316018 0 -0.25332005796921309 0.35063613442814062 0 -0.2439410389364747 0.32793780068065048 0 -0.24080144847006379 0.34086798600569512 0 -0.25332005796921309 0.35063613442814062 0 -0.2439410389364747 0.32793780068065048 0 -0.24080144847006379 0.34086798600569512 0 -0.23686079307851751 0.33601084315371132 0 -0.2321424785329867 0.33954846912385628 0 -0.24080144847006379 0.34086798600569512 0 -0.23686079307851751 0.33601084315371132 0 -0.24071984846659561 0.33142392990209252 0 -0.23686079307851751 0.33601084315371132 0 -0.2348839813731031 0.33335948245970443 0 -0.2321424785329867 0.33954846912385628 0 -0.24071984846659561 0.33142392990209252 0 -0.2348839813731031 0.33335948245970443 0 -0.22981280541431259 0.32645468765915753 0 -0.2439410389364747 0.32793780068065048 0 -0.24080144847006379 0.34086798600569512 0 -0.24071984846659561 0.33142392990209252 0 -0.23686079307851751 0.33601084315371132 0 -0.24071984846659561 0.33142392990209252 0 -0.2348839813731031 0.33335948245970443 0 -0.2228023327459612 0.31673305047298261 0 -0.21741944262143989 0.34365923595076309 0 -0.2348839813731031 0.33335948245970443 0 -0.2321424785329867 0.33954846912385628 0 -0.22981280541431259 0.32645468765915753 0 -0.2321424785329867 0.33954846912385628 0 -0.22981280541431259 0.32645468765915753 0 -0.21741944262143989 0.34365923595076309 0 -0.2228023327459612 0.31673305047298261 0 -0.22981280541431259 0.32645468765915753 0 -0.21741944262143989 0.34365923595076309 0 -0.2228023327459612 0.31673305047298261 0 -0.22981280541431259 0.32645468765915753 0 -0.2345620199037369 0.30523946693316018 0 -0.2228023327459612 0.31673305047298261 0 -0.20349529047962531 0.31398253524726011 0 -0.2046172726431314 0.33216390402162888 0 -0.2228023327459612 0.31673305047298261 0 -0.21407356992096671 0.34146642784310149 0 -0.2046172726431314 0.33216390402162888 0 -0.2228023327459612 0.31673305047298261 0 -0.21407356992096671 0.34146642784310149 0 -0.21741944262143989 0.34365923595076309 0 -0.21407356992096671 0.34146642784310149 0 -0.21741944262143989 0.34365923595076309 0 -0.208317996525716 0.34691093226249209 0 -0.21407356992096671 0.34146642784310149 0 -0.2046172726431314 0.33216390402162888 0 -0.1899477259789821 0.34491456196065112 0 -0.2046172726431314 0.33216390402162888 0 -0.19108640283948669 0.32391838350444141 0 -0.1899477259789821 0.34491456196065112 0 -0.208317996525716 0.34691093226249209 0 -0.2046172726431314 0.33216390402162888 0 -0.20349529047962531 0.31398253524726011 0 -0.19108640283948669 0.32391838350444141 0 -0.1897025022931379 0.30472046678612907 0 -0.20349529047962531 0.31398253524726011 0 -0.2046172726431314 0.33216390402162888 0 -0.19108640283948669 0.32391838350444141 0 -0.20349529047962531 0.31398253524726011 0 -0.1897025022931379 0.30472046678612907 0 -0.20926794187640901 0.29237687145111868 0 -0.1897025022931379 0.30472046678612907 0 -0.20926794187640901 0.29237687145111868 0 -0.19409933830494741 0.27819514402200418 0 -0.20926794187640901 0.29237687145111868 0 -0.22300161697688761 0.27726192653441378 0 -0.19409933830494741 0.27819514402200418 0 -0.2228023327459612 0.31673305047298261 0 -0.20349529047962531 0.31398253524726011 0 -0.20926794187640901 0.29237687145111868 0 -0.2228023327459612 0.31673305047298261 0 -0.20926794187640901 0.29237687145111868 0 -0.22818522287048329 0.28980686499520208 0 -0.2228023327459612 0.31673305047298261 0 -0.22818522287048329 0.28980686499520208 0 -0.2228023327459612 0.31673305047298261 0 -0.22818522287048329 0.28980686499520208 0 -0.2345620199037369 0.30523946693316018 0 -0.22818522287048329 0.28980686499520208 0 -0.2345620199037369 0.30523946693316018 0 -0.20926794187640901 0.29237687145111868 0 -0.22818522287048329 0.28980686499520208 0 -0.22300161697688761 0.27726192653441378 0 -0.22944764501691661 0.28349200214645698 0 -0.2345620199037369 0.30523946693316018 0 -0.22944764501691661 0.28349200214645698 0 -0.23629947439166599 0.29049714318674341 0 -0.2345620199037369 0.30523946693316018 0 -0.22944764501691661 0.28349200214645698 0 -0.22818522287048329 0.28980686499520208 0 -0.2345620199037369 0.30523946693316018 0 -0.22818522287048329 0.28980686499520208 0 -0.22300161697688761 0.27726192653441378 0 -0.22944764501691661 0.28349200214645698 0 -0.23629947439166599 0.29049714318674341 0 -0.2349796476939825 0.27687517129414801 0 -0.22944764501691661 0.28349200214645698 0 -0.22818522287048329 0.28980686499520208 0 -0.22300161697688761 0.27726192653441378 0 -0.22944764501691661 0.28349200214645698 0 -0.22818522287048329 0.28980686499520208 0 -0.23629947439166599 0.29049714318674341 0 -0.24169469745684399 0.28346712049722572 0 -0.2484915756804362 0.29000937924619941 0 -0.23629947439166599 0.29049714318674341 0 -0.2349796476939825 0.27687517129414801 0 -0.23629947439166599 0.29049714318674341 0 -0.24169469745684399 0.28346712049722572 0 -0.2349796476939825 0.27687517129414801 0 -0.24169469745684399 0.28346712049722572 0 -0.2484915756804362 0.29000937924619941 0 -0.2470080920612911 0.276486788261812 0 -0.23629947439166599 0.29049714318674341 0 -0.2484915756804362 0.29000937924619941 0 -0.24360256376066619 0.29883139335545822 0 -0.25198310925179951 0.30610204381036721 0 -0.2484915756804362 0.29000937924619941 0 -0.24360256376066619 0.29883139335545822 0 -0.25198310925179951 0.30610204381036721 0 -0.24360256376066619 0.29883139335545822 0 -0.2345620199037369 0.30523946693316018 0 -0.23629947439166599 0.29049714318674341 0 -0.24360256376066619 0.29883139335545822 0 -0.2345620199037369 0.30523946693316018 0 -0.24284444918897469 0.25499796420522253 0 -0.2336055725864668 0.26269329989713119 0 -0.2385283141416755 0.23806886040300251 0 -0.2336055725864668 0.26269329989713119 0 -0.2385283141416755 0.23806886040300251 0 -0.24284444918897469 0.25499796420522253 0 -0.24445102910473471 0.26607302909098618 0 -0.2336055725864668 0.26269329989713119 0 -0.25207695081767872 0.25795210490862408 0 -0.24284444918897469 0.25499796420522253 0 -0.24803869981560719 0.24872960313750719 0 -0.25207695081767872 0.25795210490862408 0 -0.24284444918897469 0.25499796420522253 0 -0.24445102910473471 0.26607302909098618 0 -0.24169469745684399 0.28346712049722572 0 -0.2470080920612911 0.276486788261812 0 -0.2349796476939825 0.27687517129414801 0 -0.2470080920612911 0.276486788261812 0 -0.2349796476939825 0.27687517129414801 0 -0.24445102910473471 0.26607302909098618 0 -0.2470080920612911 0.276486788261812 0 -0.2349796476939825 0.27687517129414801 0 -0.24445102910473471 0.26607302909098618 0 -0.2349796476939825 0.27687517129414801 0 -0.2336055725864668 0.26269329989713119 0 -0.2349796476939825 0.27687517129414801 0 -0.23074308775015551 0.27701196437789449 0 -0.2336055725864668 0.26269329989713119 0 -0.2349796476939825 0.27687517129414801 0 -0.2336055725864668 0.26269329989713119 0 -0.23074308775015551 0.27701196437789449 0 -0.22794497462033159 0.27710231185999651 0 -0.2336055725864668 0.26269329989713119 0 -0.23074308775015551 0.27701196437789449 0 -0.2336055725864668 0.26269329989713119 0 -0.22944764501691661 0.28349200214645698 0 -0.2349796476939825 0.27687517129414801 0 -0.23074308775015551 0.27701196437789449 0 -0.2349796476939825 0.27687517129414801 0 -0.23074308775015551 0.27701196437789449 0 -0.23074308775015551 0.27701196437789449 0 -0.22794497462033159 0.27710231185999651 0 -0.22944764501691661 0.28349200214645698 0 -0.22794497462033159 0.27710231185999651 0 -0.22944764501691661 0.28349200214645698 0 -0.23074308775015551 0.27701196437789449 0 -0.22944764501691661 0.28349200214645698 0 -0.23074308775015551 0.27701196437789449 0 -0.22794497462033159 0.27710231185999651 0 -0.22944764501691661 0.28349200214645698 0 -0.22794497462033159 0.27710231185999651 0 -0.22300161697688761 0.27726192653441378 0 -0.22794497462033159 0.27710231185999651 0 -0.22300161697688761 0.27726192653441378 0 -0.22300161697688761 0.27726192653441378 0 -0.2180162386042632 0.26519672208559292 0 -0.22794497462033159 0.27710231185999651 0 -0.22300161697688761 0.27726192653441378 0 -0.2180162386042632 0.26519672208559292 0 -0.22794497462033159 0.27710231185999651 0 -0.2336055725864668 0.26269329989713119 0 -0.22153032856908481 0.249825803546535 0 -0.22794497462033159 0.27710231185999651 0 -0.2180162386042632 0.26519672208559292 0 -0.22153032856908481 0.249825803546535 0 -0.2336055725864668 0.26269329989713119 0 -0.23131744949611999 0.23907751118925541 0 -0.2336055725864668 0.26269329989713119 0 -0.22153032856908481 0.249825803546535 0 -0.23131744949611999 0.23907751118925541 0 -0.22794497462033159 0.27710231185999651 0 -0.22153032856908481 0.249825803546535 0 -0.21274404513284251 0.25562464449530398 0 -0.22153032856908481 0.249825803546535 0 -0.2083987359728901 0.24727119879500239 0 -0.21274404513284251 0.25562464449530398 0 -0.2180162386042632 0.26519672208559292 0 -0.22153032856908481 0.249825803546535 0 -0.21274404513284251 0.25562464449530398 0 -0.2180162386042632 0.26519672208559292 0 -0.20265225063617409 0.25967093511734018 0 -0.21274404513284251 0.25562464449530398 0 -0.20265225063617409 0.25967093511734018 0 -0.2083987359728901 0.24727119879500239 0 -0.22300161697688761 0.27726192653441378 0 -0.2180162386042632 0.26519672208559292 0 -0.19409933830494741 0.27819514402200418 0 -0.22300161697688761 0.27726192653441378 0 -0.19409933830494741 0.27819514402200418 0 -0.2180162386042632 0.26519672208559292 0 -0.19409933830494741 0.27819514402200418 0 -0.20265225063617409 0.25967093511734018 0 -0.19409933830494741 0.27819514402200418 0 -0.20265225063617409 0.25967093511734018 0 -0.18626205399543719 0.26349059201082697 0 -0.20265225063617409 0.25967093511734018 0 -0.18626205399543719 0.26349059201082697 0 -0.19480395922677551 0.24933181214922981 0 -0.20265225063617409 0.25967093511734018 0 -0.19480395922677551 0.24933181214922981 0 -0.2083987359728901 0.24727119879500239 0 -0.17455766217628191 0.25112670725596881 0 -0.18626205399543719 0.26349059201082697 0 -0.19480395922677551 0.24933181214922981 0 -0.17455766217628191 0.25112670725596881 0 -0.18626205399543719 0.26349059201082697 0 -0.1651970596330071 0.27912836150959192 0 -0.17455766217628191 0.25112670725596881 0 -0.15744975426494409 0.25962002705003701 0 -0.1651970596330071 0.27912836150959192 0 -0.17455766217628191 0.25112670725596881 0 -0.15744975426494409 0.25962002705003701 0 -0.155276860567574 0.24419427542254449 0 -0.19409933830494741 0.27819514402200418 0 -0.18626205399543719 0.26349059201082697 0 -0.1651970596330071 0.27912836150959192 0 -0.19409933830494741 0.27819514402200418 0 -0.1651970596330071 0.27912836150959192 0 -0.19409933830494741 0.27819514402200418 0 -0.1651970596330071 0.27912836150959192 0 -0.17085987448225221 0.29720382736037498 0 -0.1897025022931379 0.30472046678612907 0 -0.19409933830494741 0.27819514402200418 0 -0.17085987448225221 0.29720382736037498 0 -0.17136620517172541 0.32588361160056828 0 -0.1897025022931379 0.30472046678612907 0 -0.17085987448225221 0.29720382736037498 0 -0.17136620517172541 0.32588361160056828 0 -0.17085987448225221 0.29720382736037498 0 -0.15184801626939909 0.30571108020790128 0 -0.17085987448225221 0.29720382736037498 0 -0.15235028544070139 0.29248026825470402 0 -0.15184801626939909 0.30571108020790128 0 -0.1651970596330071 0.27912836150959192 0 -0.17085987448225221 0.29720382736037498 0 -0.15235028544070139 0.29248026825470402 0 -0.1651970596330071 0.27912836150959192 0 -0.15235028544070139 0.29248026825470402 0 -0.13629478096106681 0.28006157899717959 0 -0.15235028544070139 0.29248026825470402 0 -0.13755169585778179 0.30029649319847218 0 -0.13629478096106681 0.28006157899717959 0 -0.14251559039261039 0.32183986806604442 0 -0.15184801626939909 0.30571108020790128 0 -0.13755169585778179 0.30029649319847218 0 -0.15235028544070139 0.29248026825470402 0 -0.15184801626939909 0.30571108020790128 0 -0.13755169585778179 0.30029649319847218 0 -0.14251559039261039 0.32183986806604442 0 -0.13755169585778179 0.30029649319847218 0 -0.1214189212483379 0.31051108492626273 0 -0.13755169585778179 0.30029649319847218 0 -0.1223023248390359 0.29473386889005188 0 -0.1214189212483379 0.31051108492626273 0 -0.13755169585778179 0.30029649319847218 0 -0.13629478096106681 0.28006157899717959 0 -0.1223023248390359 0.29473386889005188 0 -0.13629478096106681 0.28006157899717959 0 -0.1250081951318428 0.27210334672069308 0 -0.13859112369487381 0.25931217237250681 0 -0.1250081951318428 0.27210334672069308 0 -0.13859112369487381 0.25931217237250681 0 -0.12316148006640409 0.25829415015194301 0 -0.13859112369487381 0.25931217237250681 0 -0.12316148006640409 0.25829415015194301 0 -0.13382409817703389 0.2420122431064673 0 -0.15744975426494409 0.25962002705003701 0 -0.13859112369487381 0.25931217237250681 0 -0.155276860567574 0.24419427542254449 0 -0.15744975426494409 0.25962002705003701 0 -0.1651970596330071 0.27912836150959192 0 -0.13629478096106681 0.28006157899717959 0 -0.1651970596330071 0.27912836150959192 0 -0.13629478096106681 0.28006157899717959 0 -0.15744975426494409 0.25962002705003701 0 -0.13629478096106681 0.28006157899717959 0 -0.13859112369487381 0.25931217237250681 0 -0.09588831780292667 0.27454412632779462 0 -0.1028697082337371 0.26305851029623439 0 -0.11123239419804221 0.26533290518887809 0 -0.09588831780292667 0.27454412632779462 0 -0.1028697082337371 0.26305851029623439 0 -0.090652163559778731 0.25982022202125371 0 -0.1021699770064249 0.25603787260001809 0 -0.1028697082337371 0.26305851029623439 0 -0.090652163559778731 0.25982022202125371 0 -0.090652163559778731 0.25982022202125371 0 -0.098735973162726309 0.24932888935710559 0 -0.1021699770064249 0.25603787260001809 0 -0.090652163559778731 0.25982022202125371 0 -0.098735973162726309 0.24932888935710559 0 -0.1021699770064249 0.25603787260001809 0 -0.098735973162726309 0.24932888935710559 0 -0.10263644161255921 0.24851555584761839 0 -0.1092342697553004 0.25866439244772532 0 -0.10263644161255921 0.24851555584761839 0 -0.1021699770064249 0.25603787260001809 0 -0.1092342697553004 0.25866439244772532 0 -0.10263644161255921 0.24851555584761839 0 -0.1028697082337371 0.26305851029623439 0 -0.1092342697553004 0.25866439244772532 0 -0.11123239419804221 0.26533290518887809 0 -0.1021699770064249 0.25603787260001809 0 -0.1028697082337371 0.26305851029623439 0 -0.1092342697553004 0.25866439244772532 0 -0.1092342697553004 0.25866439244772532 0 -0.11123239419804221 0.26533290518887809 0 -0.12316148006640409 0.25829415015194301 0 -0.1092342697553004 0.25866439244772532 0 -0.10263644161255921 0.24851555584761839 0 -0.1182302698947966 0.24526389947704311 0 -0.1092342697553004 0.25866439244772532 0 -0.12316148006640409 0.25829415015194301 0 -0.1182302698947966 0.24526389947704311 0 -0.1250081951318428 0.27210334672069308 0 -0.11123239419804221 0.26533290518887809 0 -0.12316148006640409 0.25829415015194301 0 -0.1250081951318428 0.27210334672069308 0 -0.1073925022891265 0.28099479648476727 0 -0.09588831780292667 0.27454412632779462 0 -0.1250081951318428 0.27210334672069308 0 -0.09588831780292667 0.27454412632779462 0 -0.1250081951318428 0.27210334672069308 0 -0.09588831780292667 0.27454412632779462 0 -0.11123239419804221 0.26533290518887809 0 -0.13629478096106681 0.28006157899717959 0 -0.1250081951318428 0.27210334672069308 0 -0.1073925022891265 0.28099479648476727 0 -0.13629478096106681 0.28006157899717959 0 -0.1073925022891265 0.28099479648476727 0 -0.1073925022891265 0.28099479648476727 0 -0.1223023248390359 0.29473386889005188 0 -0.1060149969184058 0.29933260042989251 0 -0.13629478096106681 0.28006157899717959 0 -0.1073925022891265 0.28099479648476727 0 -0.1223023248390359 0.29473386889005188 0 -0.1223023248390359 0.29473386889005188 0 -0.1214189212483379 0.31051108492626273 0 -0.1060149969184058 0.29933260042989251 0 -0.1214189212483379 0.31051108492626273 0 -0.1060149969184058 0.29933260042989251 0 -0.1042897646572923 0.32131132456036982 0 -0.1060149969184058 0.29933260042989251 0 -0.095390407268422225 0.28960903122629772 0 -0.088325065400467112 0.30562258919120111 0 -0.1060149969184058 0.29933260042989251 0 -0.088325065400467112 0.30562258919120111 0 -0.1042897646572923 0.32131132456036982 0 -0.1073925022891265 0.28099479648476727 0 -0.1060149969184058 0.29933260042989251 0 -0.095390407268422225 0.28960903122629772 0 -0.1073925022891265 0.28099479648476727 0 -0.09588831780292667 0.27454412632779462 0 -0.095390407268422225 0.28960903122629772 0 -0.09588831780292667 0.27454412632779462 0 -0.095390407268422225 0.28960903122629772 0 -0.078345702674044712 0.29043006769243163 0 -0.095390407268422225 0.28960903122629772 0 -0.078345702674044712 0.29043006769243163 0 -0.088325065400467112 0.30562258919120111 0 -0.078345702674044712 0.29043006769243163 0 -0.088325065400467112 0.30562258919120111 0 -0.062843955951679062 0.31123038229971578 0 -0.078345702674044712 0.29043006769243163 0 -0.062843955951679062 0.31123038229971578 0 -0.058492946129626008 0.2914990287617204 0 -0.078345702674044712 0.29043006769243163 0 -0.066768440474010537 0.27698490593489611 0 -0.058492946129626008 0.2914990287617204 0 -0.066768440474010537 0.27698490593489611 0 -0.08123302704241013 0.26698760056642862 0 -0.075536809924525938 0.25416642543677709 0 -0.09588831780292667 0.27454412632779462 0 -0.066768440474010537 0.27698490593489611 0 -0.09588831780292667 0.27454412632779462 0 -0.066768440474010537 0.27698490593489611 0 -0.08123302704241013 0.26698760056642862 0 -0.09588831780292667 0.27454412632779462 0 -0.078345702674044712 0.29043006769243163 0 -0.066768440474010537 0.27698490593489611 0 -0.09588831780292667 0.27454412632779462 0 -0.08123302704241013 0.26698760056642862 0 -0.090652163559778731 0.25982022202125371 0 -0.090652163559778731 0.25982022202125371 0 -0.075536809924525938 0.25416642543677709 0 -0.098735973162726309 0.24932888935710559 0 -0.075536809924525938 0.25416642543677709 0 -0.098735973162726309 0.24932888935710559 0 -0.08123302704241013 0.26698760056642862 0 -0.090652163559778731 0.25982022202125371 0 -0.075536809924525938 0.25416642543677709 0 -0.075536809924525938 0.25416642543677709 0 -0.052337646686325512 0.25900396151644839 0 -0.064683427713709774 0.24159546573999521 0 -0.075536809924525938 0.25416642543677709 0 -0.052337646686325512 0.25900396151644839 0 -0.066768440474010537 0.27698490593489611 0 -0.075536809924525938 0.25416642543677709 0 -0.052337646686325512 0.25900396151644839 0 -0.066768440474010537 0.27698490593489611 0 -0.037648563145094377 0.27942568554199748 0 -0.066768440474010537 0.27698490593489611 0 -0.052337646686325512 0.25900396151644839 0 -0.037648563145094377 0.27942568554199748 0 -0.052337646686325512 0.25900396151644839 0 -0.037648563145094377 0.27942568554199748 0 -0.034511884059906628 0.26167581611866481 0 -0.052337646686325512 0.25900396151644839 0 -0.034511884059906628 0.26167581611866481 0 -0.046543650833338772 0.24342517367774341 0 -0.034511884059906628 0.26167581611866481 0 -0.046543650833338772 0.24342517367774341 0 -0.030953842645404149 0.24517393807931431 0 -0.034511884059906628 0.26167581611866481 0 -0.01719542379391149 0.2506967966615416 0 -0.020406909277880639 0.27382320786926317 0 -0.034511884059906628 0.26167581611866481 0 -0.01719542379391149 0.2506967966615416 0 -0.030953842645404149 0.24517393807931431 0 -0.037648563145094377 0.27942568554199748 0 -0.020406909277880639 0.27382320786926317 0 -0.030864119829358081 0.28847158023227959 0 -0.037648563145094377 0.27942568554199748 0 -0.034511884059906628 0.26167581611866481 0 -0.020406909277880639 0.27382320786926317 0 -0.020406909277880639 0.27382320786926317 0 -0.0025825883053692562 0.26225928622967221 0 -0.0023521959977934122 0.28309489312778618 0 -0.01719542379391149 0.2506967966615416 0 -0.020406909277880639 0.27382320786926317 0 -0.0025825883053692562 0.26225928622967221 0 -0.01719542379391149 0.2506967966615416 0 -0.0025825883053692562 0.26225928622967221 0 -0.003016964063370512 0.2415134021912286 0 -0.013195268979453169 0.3031721572925854 0 -0.0023521959977934122 0.28309489312778618 0 0.00081843167122650027 0.31151972636143688 0 -0.020406909277880639 0.27382320786926317 0 -0.0023521959977934122 0.28309489312778618 0 -0.019401877690812801 0.29090125715964549 0 -0.013195268979453169 0.3031721572925854 0 -0.0023521959977934122 0.28309489312778618 0 -0.019401877690812801 0.29090125715964549 0 -0.019401877690812801 0.29090125715964549 0 -0.030864119829358081 0.28847158023227959 0 -0.030143842361293478 0.30665638313049121 0 -0.020406909277880639 0.27382320786926317 0 -0.019401877690812801 0.29090125715964549 0 -0.030864119829358081 0.28847158023227959 0 -0.013195268979453169 0.3031721572925854 0 -0.019401877690812801 0.29090125715964549 0 -0.030143842361293478 0.30665638313049121 0 -0.013195268979453169 0.3031721572925854 0 -0.030143842361293478 0.30665638313049121 0 -0.015724861844132701 0.32299938474833112 0 -0.062843955951679062 0.31123038229971578 0 -0.030143842361293478 0.30665638313049121 0 -0.041379883792880302 0.29273966361495157 0 -0.037648563145094377 0.27942568554199748 0 -0.041379883792880302 0.29273966361495157 0 -0.058492946129626008 0.2914990287617204 0 -0.030864119829358081 0.28847158023227959 0 -0.030143842361293478 0.30665638313049121 0 -0.041379883792880302 0.29273966361495157 0 -0.037648563145094377 0.27942568554199748 0 -0.030864119829358081 0.28847158023227959 0 -0.041379883792880302 0.29273966361495157 0 -0.066768440474010537 0.27698490593489611 0 -0.037648563145094377 0.27942568554199748 0 -0.058492946129626008 0.2914990287617204 0 -0.062843955951679062 0.31123038229971578 0 -0.041379883792880302 0.29273966361495157 0 -0.062843955951679062 0.31123038229971578 0 -0.041379883792880302 0.29273966361495157 0 -0.058492946129626008 0.2914990287617204 0 -0.062843955951679062 0.31123038229971578 0 -0.030143842361293478 0.30665638313049121 0 -0.035775255995377918 0.32562835424208503 0 -0.062843955951679062 0.31123038229971578 0 -0.051681598530586667 0.33808969901174879 0 -0.035775255995377918 0.32562835424208503 0 -0.051681598530586667 0.33808969901174879 0 -0.035775255995377918 0.32562835424208503 0 -0.02212285361469097 0.34701835704112433 0 -0.030143842361293478 0.30665638313049121 0 -0.035775255995377918 0.32562835424208503 0 -0.015724861844132701 0.32299938474833112 0 -0.035775255995377918 0.32562835424208503 0 -0.015724861844132701 0.32299938474833112 0 -0.02212285361469097 0.34701835704112433 0 -0.015724861844132701 0.32299938474833112 0 -0.0025945876556584179 0.33679014921195449 0 -0.02212285361469097 0.34701835704112433 0 -0.015724861844132701 0.32299938474833112 0 -0.0025945876556584179 0.33679014921195449 0 0.00081843167122650027 0.31151972636143688 0 -0.0025945876556584179 0.33679014921195449 0 0.00081843167122650027 0.31151972636143688 0 -0.013195268979453169 0.3031721572925854 0 -0.015724861844132701 0.32299938474833112 0 0.00081843167122650027 0.31151972636143688 0 -0.0060076069825433353 0.36206057206247222 0 -0.0094206263094282761 0.38733099491298989 0 -0.0060076069825433353 0.36206057206247222 0 -0.019873401011762069 0.36999980107943897 0 -0.0094206263094282761 0.38733099491298989 0 -0.0025945876556584179 0.33679014921195449 0 -0.0060076069825433353 0.36206057206247222 0 -0.02212285361469097 0.34701835704112433 0 -0.0025945876556584179 0.33679014921195449 0 -0.0060076069825433353 0.36206057206247222 0 -0.02212285361469097 0.34701835704112433 0 -0.019873401011762069 0.36999980107943897 0 -0.040077604872416343 0.35980883451605111 0 -0.0060076069825433353 0.36206057206247222 0 -0.02212285361469097 0.34701835704112433 0 -0.019873401011762069 0.36999980107943897 0 -0.019873401011762069 0.36999980107943897 0 -0.040077604872416343 0.35980883451605111 0 -0.034094430121421618 0.37772725369606319 0 -0.040077604872416343 0.35980883451605111 0 -0.051852408168095318 0.37581850949199369 0 -0.034094430121421618 0.37772725369606319 0 -0.051681598530586667 0.33808969901174879 0 -0.02212285361469097 0.34701835704112433 0 -0.040077604872416343 0.35980883451605111 0 -0.051681598530586667 0.33808969901174879 0 -0.040077604872416343 0.35980883451605111 0 -0.064961892638877944 0.3551311649870369 0 -0.064961892638877944 0.3551311649870369 0 -0.068852822940986685 0.37647245592367479 0 -0.051852408168095318 0.37581850949199369 0 -0.040077604872416343 0.35980883451605111 0 -0.064961892638877944 0.3551311649870369 0 -0.051852408168095318 0.37581850949199369 0 -0.08592480207908576 0.36417721395602981 0 -0.064961892638877944 0.3551311649870369 0 -0.084308028110477801 0.32972110098447999 0 -0.08592480207908576 0.36417721395602981 0 -0.064961892638877944 0.3551311649870369 0 -0.068852822940986685 0.37647245592367479 0 -0.08592480207908576 0.36417721395602981 0 -0.084308028110477801 0.32972110098447999 0 -0.10577210026927659 0.34821181966924419 0 -0.062843955951679062 0.31123038229971578 0 -0.051681598530586667 0.33808969901174879 0 -0.084308028110477801 0.32972110098447999 0 -0.051681598530586667 0.33808969901174879 0 -0.064961892638877944 0.3551311649870369 0 -0.084308028110477801 0.32972110098447999 0 -0.062843955951679062 0.31123038229971578 0 -0.084308028110477801 0.32972110098447999 0 -0.088325065400467112 0.30562258919120111 0 -0.062843955951679062 0.31123038229971578 0 -0.084308028110477801 0.32972110098447999 0 -0.088325065400467112 0.30562258919120111 0 -0.084308028110477801 0.32972110098447999 0 -0.1042897646572923 0.32131132456036982 0 -0.084308028110477801 0.32972110098447999 0 -0.10577210026927659 0.34821181966924419 0 -0.084308028110477801 0.32972110098447999 0 -0.1042897646572923 0.32131132456036982 0 -0.10577210026927659 0.34821181966924419 0 -0.1214189212483379 0.31051108492626273 0 -0.1042897646572923 0.32131132456036982 0 -0.1198994759967887 0.33446875216113858 0 -0.1042897646572923 0.32131132456036982 0 -0.1198994759967887 0.33446875216113858 0 -0.10577210026927659 0.34821181966924419 0 -0.12723617242807531 0.36670253835400829 0 -0.1198994759967887 0.33446875216113858 0 -0.10577210026927659 0.34821181966924419 0 -0.12723617242807531 0.36670253835400829 0 -0.10577210026927659 0.34821181966924419 0 -0.1090195714722932 0.38152055220914682 0 -0.08592480207908576 0.36417721395602981 0 -0.10577210026927659 0.34821181966924419 0 -0.1090195714722932 0.38152055220914682 0 -0.12723617242807531 0.36670253835400829 0 -0.10577210026927659 0.34821181966924419 0 -0.12668246113114459 0.39933152810224959 0 -0.1090195714722932 0.38152055220914682 0 -0.1046646776754136 0.41346979916572241 0 -0.1090195714722932 0.38152055220914682 0 -0.1046646776754136 0.41346979916572241 0 -0.082634397042602406 0.3940061899625959 0 -0.12790961240459681 0.38318696892604431 0 -0.12723617242807531 0.36670253835400829 0 -0.1090195714722932 0.38152055220914682 0 -0.12668246113114459 0.39933152810224959 0 -0.12790961240459681 0.38318696892604431 0 -0.1090195714722932 0.38152055220914682 0 -0.12668246113114459 0.39933152810224959 0 -0.1046646776754136 0.41346979916572241 0 -0.13344306362812769 0.41679312353423442 0 -0.12668246113114459 0.39933152810224959 0 -0.1046646776754136 0.41346979916572241 0 -0.13344306362812769 0.41679312353423442 0 -0.12219377721114941 0.43176197840898373 0 -0.1046646776754136 0.41346979916572241 0 -0.12219377721114941 0.43176197840898373 0 -0.1021231497618707 0.43368830865833491 0 -0.1046646776754136 0.41346979916572241 0 -0.12219377721114941 0.43176197840898373 0 -0.1021231497618707 0.43368830865833491 0 -0.1103994879579436 0.44657116114342749 0 -0.1021231497618707 0.43368830865833491 0 -0.1046646776754136 0.41346979916572241 0 -0.082646894219682576 0.42760807022919511 0 -0.1046646776754136 0.41346979916572241 0 -0.082646894219682576 0.42760807022919511 0 -0.1046646776754136 0.41346979916572241 0 -0.082646894219682576 0.42760807022919511 0 -0.082634397042602406 0.3940061899625959 0 -0.082646894219682576 0.42760807022919511 0 -0.066690046646058793 0.40914043702140701 0 -0.082634397042602406 0.3940061899625959 0 -0.082646894219682576 0.42760807022919511 0 -0.062910515530977873 0.42465282133552817 0 -0.060629110763951513 0.44174634129266788 0 -0.082646894219682576 0.42760807022919511 0 -0.060629110763951513 0.44174634129266788 0 -0.082646894219682576 0.42760807022919511 0 -0.062910515530977873 0.42465282133552817 0 -0.066690046646058793 0.40914043702140701 0 -0.066690046646058793 0.40914043702140701 0 -0.082634397042602406 0.3940061899625959 0 -0.06021611013490262 0.39410452806808188 0 -0.08592480207908576 0.36417721395602981 0 -0.1090195714722932 0.38152055220914682 0 -0.082634397042602406 0.3940061899625959 0 -0.08592480207908576 0.36417721395602981 0 -0.082634397042602406 0.3940061899625959 0 -0.068852822940986685 0.37647245592367479 0 -0.082634397042602406 0.3940061899625959 0 -0.068852822940986685 0.37647245592367479 0 -0.06021611013490262 0.39410452806808188 0 -0.068852822940986685 0.37647245592367479 0 -0.051852408168095318 0.37581850949199369 0 -0.06021611013490262 0.39410452806808188 0 -0.051852408168095318 0.37581850949199369 0 -0.06021611013490262 0.39410452806808188 0 -0.043889122113923748 0.39270380751927109 0 -0.06021611013490262 0.39410452806808188 0 -0.043889122113923748 0.39270380751927109 0 -0.047377863897748833 0.41648576848954899 0 -0.043889122113923748 0.39270380751927109 0 -0.030117747484049589 0.39185414973739041 0 -0.024470693741724212 0.41111612966427141 0 -0.051852408168095318 0.37581850949199369 0 -0.043889122113923748 0.39270380751927109 0 -0.034094430121421618 0.37772725369606319 0 -0.043889122113923748 0.39270380751927109 0 -0.034094430121421618 0.37772725369606319 0 -0.030117747484049589 0.39185414973739041 0 -0.019873401011762069 0.36999980107943897 0 -0.034094430121421618 0.37772725369606319 0 -0.018016743959128789 0.38586940806995568 0 -0.034094430121421618 0.37772725369606319 0 -0.018016743959128789 0.38586940806995568 0 -0.030117747484049589 0.39185414973739041 0 -0.019873401011762069 0.36999980107943897 0 -0.018016743959128789 0.38586940806995568 0 -0.0094206263094282761 0.38733099491298989 0 -0.018016743959128789 0.38586940806995568 0 -0.024470693741724212 0.41111612966427141 0 -0.018016743959128789 0.38586940806995568 0 -0.009565215242672561 0.4038935459916681 0 -0.024470693741724212 0.41111612966427141 0 -0.018016743959128789 0.38586940806995568 0 -0.030117747484049589 0.39185414973739041 0 -0.024470693741724212 0.41111612966427141 0 -0.018016743959128789 0.38586940806995568 0 -0.009565215242672561 0.4038935459916681 0 -0.0094206263094282761 0.38733099491298989 0 -0.009565215242672561 0.4038935459916681 0 -0.0094206263094282761 0.38733099491298989 0 0.0094324154655470692 0.39595836782202548 0 -0.0060076069825433353 0.36206057206247222 0 -0.0094206263094282761 0.38733099491298989 0 0.0096039622264710717 0.37703476049044532 0 -0.009565215242672561 0.4038935459916681 0 -0.0053789581149880587 0.42854188731010101 0 -0.024470693741724212 0.41111612966427141 0 -0.009565215242672561 0.4038935459916681 0 -0.0053789581149880587 0.42854188731010101 0 0.0079430538249404721 0.41715511797524929 0 -0.024470693741724212 0.41111612966427141 0 -0.030924643524319631 0.43636285125858693 0 -0.01807907761566941 0.439912738797198 0 -0.0053789581149880587 0.42854188731010101 0 -0.024470693741724212 0.41111612966427141 0 -0.01807907761566941 0.439912738797198 0 -0.024470693741724212 0.41111612966427141 0 -0.030924643524319631 0.43636285125858693 0 -0.030924643524319631 0.43636285125858693 0 -0.047377863897748833 0.41648576848954899 0 -0.048217260360546223 0.43493287831765398 0 -0.024470693741724212 0.41111612966427141 0 -0.030924643524319631 0.43636285125858693 0 -0.047377863897748833 0.41648576848954899 0 -0.043889122113923748 0.39270380751927109 0 -0.024470693741724212 0.41111612966427141 0 -0.047377863897748833 0.41648576848954899 0 -0.066690046646058793 0.40914043702140701 0 -0.06021611013490262 0.39410452806808188 0 -0.047377863897748833 0.41648576848954899 0 -0.062910515530977873 0.42465282133552817 0 -0.066690046646058793 0.40914043702140701 0 -0.047377863897748833 0.41648576848954899 0 -0.062910515530977873 0.42465282133552817 0 -0.047377863897748833 0.41648576848954899 0 -0.048217260360546223 0.43493287831765398 0 -0.062910515530977873 0.42465282133552817 0 -0.048217260360546223 0.43493287831765398 0 -0.060629110763951513 0.44174634129266788 0 -0.060629110763951513 0.44174634129266788 0 -0.048244462240849773 0.4609540789298851 0 -0.038611327308220457 0.45588461235614069 0 -0.048217260360546223 0.43493287831765398 0 -0.060629110763951513 0.44174634129266788 0 -0.038611327308220457 0.45588461235614069 0 -0.060629110763951513 0.44174634129266788 0 -0.038611327308220457 0.45588461235614069 0 -0.060629110763951513 0.44174634129266788 0 -0.062349261543435043 0.46489755826685047 0 -0.048244462240849773 0.4609540789298851 0 -0.062349261543435043 0.46489755826685047 0 -0.048244462240849773 0.4609540789298851 0 -0.046772637518641462 0.47313747743599888 0 -0.037378593306915051 0.46160957285290249 0 -0.034151606155405342 0.4711946888943826 0 -0.046772637518641462 0.47313747743599888 0 -0.048244462240849773 0.4609540789298851 0 -0.037378593306915051 0.46160957285290249 0 -0.046772637518641462 0.47313747743599888 0 -0.048244462240849773 0.4609540789298851 0 -0.038611327308220457 0.45588461235614069 0 -0.037378593306915051 0.46160957285290249 0 -0.037378593306915051 0.46160957285290249 0 -0.026823245346921681 0.46419906871001831 0 -0.034151606155405342 0.4711946888943826 0 -0.030924643524319631 0.43636285125858693 0 -0.038611327308220457 0.45588461235614069 0 -0.037378593306915051 0.46160957285290249 0 -0.030924643524319631 0.43636285125858693 0 -0.037378593306915051 0.46160957285290249 0 -0.026306892245757919 0.45180607277525192 0 -0.030924643524319631 0.43636285125858693 0 -0.037378593306915051 0.46160957285290249 0 -0.030924643524319631 0.43636285125858693 0 -0.048217260360546223 0.43493287831765398 0 -0.038611327308220457 0.45588461235614069 0 -0.030924643524319631 0.43636285125858693 0 -0.01807907761566941 0.439912738797198 0 -0.026306892245757919 0.45180607277525192 0 -0.01807907761566941 0.439912738797198 0 -0.026306892245757919 0.45180607277525192 0 -0.018471473056039221 0.45540030122793362 0 -0.037378593306915051 0.46160957285290249 0 -0.026306892245757919 0.45180607277525192 0 -0.026823245346921681 0.46419906871001831 0 -0.026823245346921681 0.46419906871001831 0 -0.018471473056039221 0.45540030122793362 0 -0.018223219883434699 0.47277168229274852 0 -0.026306892245757919 0.45180607277525192 0 -0.026823245346921681 0.46419906871001831 0 -0.018471473056039221 0.45540030122793362 0 -0.018471473056039221 0.45540030122793362 0 -0.0029218050111873999 0.45624919054704338 0 -0.018223219883434699 0.47277168229274852 0 -0.01807907761566941 0.439912738797198 0 -0.018471473056039221 0.45540030122793362 0 -0.0029218050111873999 0.45624919054704338 0 -0.0053789581149880587 0.42854188731010101 0 -0.01807907761566941 0.439912738797198 0 -0.0029218050111873999 0.45624919054704338 0 -0.015615562970687219 0.5 0 0.0038141287463968631 0.47979790165342401 0 0.01022047848396518 0.5 0 -0.015615562970687219 0.5 0 -0.018223219883434699 0.47277168229274852 0 0.0038141287463968631 0.47979790165342401 0 -0.0029218050111873999 0.45624919054704338 0 -0.018223219883434699 0.47277168229274852 0 0.0038141287463968631 0.47979790165342401 0 -0.026823245346921681 0.46419906871001831 0 -0.018223219883434699 0.47277168229274852 0 -0.034151606155405342 0.4711946888943826 0 -0.018223219883434699 0.47277168229274852 0 -0.034151606155405342 0.4711946888943826 0 -0.034243480072641982 0.48388559747202292 0 -0.015615562970687219 0.5 0 -0.018223219883434699 0.47277168229274852 0 -0.034243480072641982 0.48388559747202292 0 -0.015615562970687219 0.5 0 -0.041451604425339683 0.5 0 -0.034243480072641982 0.48388559747202292 0 -0.041451604425339683 0.5 0 -0.034243480072641982 0.48388559747202292 0 -0.050428515762261157 0.48792249229818918 0 -0.034243480072641982 0.48388559747202292 0 -0.046772637518641462 0.47313747743599888 0 -0.050428515762261157 0.48792249229818918 0 -0.034151606155405342 0.4711946888943826 0 -0.034243480072641982 0.48388559747202292 0 -0.046772637518641462 0.47313747743599888 0 -0.062349261543435043 0.46489755826685047 0 -0.046772637518641462 0.47313747743599888 0 -0.062387210914690558 0.48258938658292388 0 -0.046772637518641462 0.47313747743599888 0 -0.062387210914690558 0.48258938658292388 0 -0.050428515762261157 0.48792249229818918 0 -0.041451604425339683 0.5 0 -0.050428515762261157 0.48792249229818918 0 -0.067287645879992142 0.5 0 -0.062387210914690558 0.48258938658292388 0 -0.050428515762261157 0.48792249229818918 0 -0.067287645879992142 0.5 0 -0.062387210914690558 0.48258938658292388 0 -0.067287645879992142 0.5 0 -0.079183527047254246 0.4764962969195764 0 -0.067287645879992142 0.5 0 -0.0931236873346446 0.49999999999999889 0 -0.079183527047254246 0.4764962969195764 0 -0.0931236873346446 0.49999999999999889 0 -0.079183527047254246 0.4764962969195764 0 -0.098025007437938225 0.47493141433590341 0 -0.062349261543435043 0.46489755826685047 0 -0.062387210914690558 0.48258938658292388 0 -0.079183527047254246 0.4764962969195764 0 -0.062349261543435043 0.46489755826685047 0 -0.079183527047254246 0.4764962969195764 0 -0.075743669717968684 0.45293721961961197 0 -0.060629110763951513 0.44174634129266788 0 -0.062349261543435043 0.46489755826685047 0 -0.075743669717968684 0.45293721961961197 0 -0.082646894219682576 0.42760807022919511 0 -0.060629110763951513 0.44174634129266788 0 -0.075743669717968684 0.45293721961961197 0 -0.082646894219682576 0.42760807022919511 0 -0.075743669717968684 0.45293721961961197 0 -0.093909555015520035 0.45393783138977067 0 -0.1021231497618707 0.43368830865833491 0 -0.082646894219682576 0.42760807022919511 0 -0.093909555015520035 0.45393783138977067 0 -0.079183527047254246 0.4764962969195764 0 -0.075743669717968684 0.45293721961961197 0 -0.093909555015520035 0.45393783138977067 0 -0.079183527047254246 0.4764962969195764 0 -0.093909555015520035 0.45393783138977067 0 -0.098025007437938225 0.47493141433590341 0 -0.10872664498295791 0.46301837352805891 0 -0.093909555015520035 0.45393783138977067 0 -0.098025007437938225 0.47493141433590341 0 -0.10872664498295791 0.46301837352805891 0 -0.093909555015520035 0.45393783138977067 0 -0.1103994879579436 0.44657116114342749 0 -0.1021231497618707 0.43368830865833491 0 -0.093909555015520035 0.45393783138977067 0 -0.1103994879579436 0.44657116114342749 0 -0.1263608341545735 0.45675215224654597 0 -0.1103994879579436 0.44657116114342749 0 -0.1228166191574358 0.44470635706624573 0 -0.12219377721114941 0.43176197840898373 0 -0.1103994879579436 0.44657116114342749 0 -0.1228166191574358 0.44470635706624573 0 -0.1263608341545735 0.45675215224654597 0 -0.10872664498295791 0.46301837352805891 0 -0.11518162280931479 0.48120456984211241 0 -0.1263608341545735 0.45675215224654597 0 -0.10872664498295791 0.46301837352805891 0 -0.1103994879579436 0.44657116114342749 0 -0.13311834770356221 0.50000000000000289 0 -0.11518162280931479 0.48120456984211241 0 -0.1131210175191034 0.5 0 -0.0931236873346446 0.49999999999999889 0 -0.11518162280931479 0.48120456984211241 0 -0.0931236873346446 0.49999999999999889 0 -0.11518162280931479 0.48120456984211241 0 -0.098025007437938225 0.47493141433590341 0 -0.0931236873346446 0.49999999999999889 0 -0.11518162280931479 0.48120456984211241 0 -0.1131210175191034 0.5 0 -0.10872664498295791 0.46301837352805891 0 -0.11518162280931479 0.48120456984211241 0 -0.098025007437938225 0.47493141433590341 0 -0.16788897291654731 0.069945057782824477 0 -0.17165833524891699 0.0974792966333419 0 -0.1598874731804876 0.085109171532680092 0 -0.16788897291654731 0.069945057782824477 0 -0.17165833524891699 0.0974792966333419 0 -0.1598874731804876 0.085109171532680092 0 -0.15911925873931851 0.097625547833328899 0 -0.15089850912220051 0.08801138308258262 0 -0.1598874731804876 0.085109171532680092 0 -0.17165833524891699 0.0974792966333419 0 -0.15911925873931851 0.097625547833328899 0 -0.1598874731804876 0.085109171532680092 0 -0.16788897291654731 0.069945057782824477 0 -0.14582805782466371 0.075736382111498649 0 -0.16788897291654731 0.069945057782824477 0 -0.1906021148760968 0.077669432012547529 0 -0.19043356289645291 0.062884886011389057 0 -0.16788897291654731 0.069945057782824477 0 -0.18279709197870639 0.089168356010054753 0 -0.1906021148760968 0.077669432012547529 0 -0.16788897291654731 0.069945057782824477 0 -0.18279709197870639 0.089168356010054753 0 -0.17165833524891699 0.0974792966333419 0 -0.18279709197870639 0.089168356010054753 0 -0.17363658823652661 0.11192993455685669 0 -0.17165833524891699 0.0974792966333419 0 -0.18279709197870639 0.089168356010054753 0 -0.17363658823652661 0.11192993455685669 0 -0.1956048298541995 0.09456330606004304 0 -0.17363658823652661 0.11192993455685669 0 -0.1956048298541995 0.09456330606004304 0 -0.17363658823652661 0.11192993455685669 0 -0.17165833524891699 0.0974792966333419 0 -0.17363658823652661 0.11192993455685669 0 -0.19225148543410339 0.1160577922268074 0 -0.17542769758128551 0.12501353548385949 0 -0.19225148543410339 0.1160577922268074 0 -0.18777772323542699 0.13376869349721759 0 -0.17542769758128551 0.12501353548385949 0 -0.17363658823652661 0.11192993455685669 0 -0.17542769758128551 0.12501353548385949 0 -0.16105994138094659 0.1104802455407861 0 -0.16242871133876399 0.12047876402394821 0 -0.17542769758128551 0.12501353548385949 0 -0.16105994138094659 0.1104802455407861 0 -0.17542769758128551 0.12501353548385949 0 -0.17363658823652661 0.11192993455685669 0 -0.16105994138094659 0.1104802455407861 0 -0.17542769758128551 0.12501353548385949 0 -0.16105994138094659 0.1104802455407861 0 -0.16242871133876399 0.12047876402394821 0 -0.14669218518060859 0.09594695559771195 0 -0.17363658823652661 0.11192993455685669 0 -0.16105994138094659 0.1104802455407861 0 -0.17165833524891699 0.0974792966333419 0 -0.16105994138094659 0.1104802455407861 0 -0.17165833524891699 0.0974792966333419 0 -0.15911925873931851 0.097625547833328899 0 -0.16105994138094659 0.1104802455407861 0 -0.15911925873931851 0.097625547833328899 0 -0.14669218518060859 0.09594695559771195 0 -0.16242871133876399 0.12047876402394821 0 -0.14669218518060859 0.09594695559771195 0 -0.16242871133876399 0.12047876402394821 0 -0.14669218518060859 0.09594695559771195 0 -0.1384695843070044 0.10999119502911681 0 -0.15911925873931851 0.097625547833328899 0 -0.14669218518060859 0.09594695559771195 0 -0.15089850912220051 0.08801138308258262 0 -0.16105994138094659 0.1104802455407861 0 -0.14669218518060859 0.09594695559771195 0 -0.14669218518060859 0.09594695559771195 0 -0.144534974380087 0.092584060790971062 0 -0.16242871133876399 0.12047876402394821 0 -0.1384695843070044 0.10999119502911681 0 -0.1418160371844612 0.12697877899868329 0 -0.13257072674167369 0.121014259673571 0 -0.1418160371844612 0.12697877899868329 0 -0.1211674449051999 0.1063464447050583 0 -0.1418160371844612 0.12697877899868329 0 -0.1211674449051999 0.1063464447050583 0 -0.1384695843070044 0.10999119502911681 0 -0.1418160371844612 0.12697877899868329 0 -0.1211674449051999 0.1063464447050583 0 -0.13257072674167369 0.121014259673571 0 -0.1211674449051999 0.1063464447050583 0 -0.13257072674167369 0.121014259673571 0 -0.1249092863724191 0.1291970054427006 0 -0.1182939396737577 0.11994366483382821 0 -0.14669218518060859 0.09594695559771195 0 -0.1384695843070044 0.10999119502911681 0 -0.13097575585842389 0.093896190759650944 0 -0.1384695843070044 0.10999119502911681 0 -0.13097575585842389 0.093896190759650944 0 -0.1211674449051999 0.1063464447050583 0 -0.14669218518060859 0.09594695559771195 0 -0.12910515462425129 0.07815730140611124 0 -0.14669218518060859 0.09594695559771195 0 -0.13097575585842389 0.093896190759650944 0 -0.12910515462425129 0.07815730140611124 0 -0.12910515462425129 0.07815730140611124 0 -0.144534974380087 0.092584060790971062 0 -0.14582805782466371 0.075736382111498649 0 -0.14669218518060859 0.09594695559771195 0 -0.12910515462425129 0.07815730140611124 0 -0.144534974380087 0.092584060790971062 0 -0.14669218518060859 0.09594695559771195 0 -0.144534974380087 0.092584060790971062 0 -0.15089850912220051 0.08801138308258262 0 -0.144534974380087 0.092584060790971062 0 -0.15089850912220051 0.08801138308258262 0 -0.14582805782466371 0.075736382111498649 0 -0.1598874731804876 0.085109171532680092 0 -0.15089850912220051 0.08801138308258262 0 -0.14582805782466371 0.075736382111498649 0 -0.16788897291654731 0.069945057782824477 0 -0.14582805782466371 0.075736382111498649 0 -0.14747300292967419 0.054210654001240408 0 -0.14582805782466371 0.075736382111498649 0 -0.1357378888741137 0.064139599866413821 0 -0.14747300292967419 0.054210654001240408 0 -0.12910515462425129 0.07815730140611124 0 -0.14582805782466371 0.075736382111498649 0 -0.1357378888741137 0.064139599866413821 0 -0.12910515462425129 0.07815730140611124 0 -0.1357378888741137 0.064139599866413821 0 -0.1143801088273138 0.068154224893069895 0 -0.1357378888741137 0.064139599866413821 0 -0.14747300292967419 0.054210654001240408 0 -0.1246420523158083 0.053501024822643628 0 -0.14747300292967419 0.054210654001240408 0 -0.1246420523158083 0.053501024822643628 0 -0.1425945996026966 0.03320981994477145 0 -0.14747300292967419 0.054210654001240408 0 -0.1246420523158083 0.053501024822643628 0 -0.1425945996026966 0.03320981994477145 0 -0.1210943312358304 0.024030109409973709 0 -0.1246420523158083 0.053501024822643628 0 -0.1425945996026966 0.03320981994477145 0 -0.14747300292967419 0.054210654001240408 0 -0.16411961058417759 0.042410818932307012 0 -0.1229846482582518 -0.0055933252605166392 0 -0.14750110570290759 -0.002059166847461874 0 -0.13575722351213351 0.01140985292457323 0 -0.1425945996026966 0.03320981994477145 0 -0.13575722351213351 0.01140985292457323 0 -0.1210943312358304 0.024030109409973709 0 -0.1425945996026966 0.03320981994477145 0 -0.16035024825180791 0.014876580081789549 0 -0.16411961058417759 0.042410818932307012 0 -0.1425945996026966 0.03320981994477145 0 -0.13575722351213351 0.01140985292457323 0 -0.16035024825180791 0.014876580081789549 0 -0.14750110570290759 -0.002059166847461874 0 -0.13575722351213351 0.01140985292457323 0 -0.16035024825180791 0.014876580081789549 0 -0.14750110570290759 -0.002059166847461874 0 -0.17188684792672981 -0.0080234740798620328 0 -0.16035024825180791 0.014876580081789549 0 -0.16035024825180791 0.014876580081789549 0 -0.16411961058417759 0.042410818932307012 0 -0.16035024825180791 0.014876580081789549 0 -0.16411961058417759 0.042410818932307012 0 -0.17946354672132361 0.035884134782563651 0 -0.16035024825180791 0.014876580081789549 0 -0.1850113069148196 0.02022207669212206 0 -0.17946354672132361 0.035884134782563651 0 -0.1850113069148196 0.02022207669212206 0 -0.17946354672132361 0.035884134782563651 0 -0.196297860644013 0.034291812860446649 0 -0.17188684792672981 -0.0080234740798620328 0 -0.1850113069148196 0.02022207669212206 0 -0.196142535214333 0.002272681728797563 0 -0.17188684792672981 -0.0080234740798620328 0 -0.16035024825180791 0.014876580081789549 0 -0.1850113069148196 0.02022207669212206 0 -0.16788897291654731 0.069945057782824477 0 -0.16411961058417759 0.042410818932307012 0 -0.178069219696528 0.053825747862927979 0 -0.16788897291654731 0.069945057782824477 0 -0.16411961058417759 0.042410818932307012 0 -0.16788897291654731 0.069945057782824477 0 -0.14747300292967419 0.054210654001240408 0 -0.16411961058417759 0.042410818932307012 0 -0.16411961058417759 0.042410818932307012 0 -0.17946354672132361 0.035884134782563651 0 -0.178069219696528 0.053825747862927979 0 -0.17946354672132361 0.035884134782563651 0 -0.178069219696528 0.053825747862927979 0 -0.19293303423659541 0.049677772265788678 0 -0.16788897291654731 0.069945057782824477 0 -0.178069219696528 0.053825747862927979 0 -0.19043356289645291 0.062884886011389057 0 -0.178069219696528 0.053825747862927979 0 -0.19293303423659541 0.049677772265788678 0 -0.19043356289645291 0.062884886011389057 0 -0.19293303423659541 0.049677772265788678 0 -0.2113827167179595 0.040320340524527098 0 -0.20479915030116411 0.066383615601942558 0 -0.19293303423659541 0.049677772265788678 0 -0.20479915030116411 0.066383615601942558 0 -0.19043356289645291 0.062884886011389057 0 -0.19293303423659541 0.049677772265788678 0 -0.196297860644013 0.034291812860446649 0 -0.2113827167179595 0.040320340524527098 0 -0.17946354672132361 0.035884134782563651 0 -0.19293303423659541 0.049677772265788678 0 -0.196297860644013 0.034291812860446649 0 -0.2113827167179595 0.040320340524527098 0 -0.20479915030116411 0.066383615601942558 0 -0.2113827167179595 0.040320340524527098 0 -0.21927172651074769 0.049773606520156902 0 -0.20479915030116411 0.066383615601942558 0 -0.2204800758920939 0.060086458569199468 0 -0.21927172651074769 0.049773606520156902 0 -0.20479915030116411 0.066383615601942558 0 -0.1850113069148196 0.02022207669212206 0 -0.196142535214333 0.002272681728797563 0 -0.21033311692923021 0.01843772028032372 0 -0.1850113069148196 0.02022207669212206 0 -0.196297860644013 0.034291812860446649 0 -0.21033311692923021 0.01843772028032372 0 -0.196297860644013 0.034291812860446649 0 -0.2113827167179595 0.040320340524527098 0 -0.21033311692923021 0.01843772028032372 0 -0.2113827167179595 0.040320340524527098 0 -0.21033311692923021 0.01843772028032372 0 -0.22632531129473379 0.027944087821601429 0 -0.21782897871155019 -0.0003940275126071017 0 -0.196142535214333 0.002272681728797563 0 -0.21033311692923021 0.01843772028032372 0 -0.21033311692923021 0.01843772028032372 0 -0.2365251488916538 0.012281932688315849 0 -0.21782897871155019 -0.0003940275126071017 0 -0.21033311692923021 0.01843772028032372 0 -0.2365251488916538 0.012281932688315849 0 -0.22632531129473379 0.027944087821601429 0 -0.2389151582729041 0.022006160790378908 0 -0.2365251488916538 0.012281932688315849 0 -0.21033311692923021 0.01843772028032372 0 -0.22632531129473379 0.027944087821601429 0 -0.2365251488916538 0.012281932688315849 0 -0.22632531129473379 0.027944087821601429 0 -0.2389151582729041 0.022006160790378908 0 -0.23390900092781269 0.033063635663041123 0 -0.2389151582729041 0.022006160790378908 0 -0.23390900092781269 0.033063635663041123 0 -0.2418929739992928 0.031949796757456482 0 -0.25215879644776762 0.031834772299794367 0 -0.2516275062592469 0.018919839351225719 0 -0.24614860874480279 0.026177642299713869 0 -0.24614860874480279 0.026177642299713869 0 -0.2389151582729041 0.022006160790378908 0 -0.2418929739992928 0.031949796757456482 0 -0.25215879644776762 0.031834772299794367 0 -0.24614860874480279 0.026177642299713869 0 -0.2418929739992928 0.031949796757456482 0 -0.2516275062592469 0.018919839351225719 0 -0.2389151582729041 0.022006160790378908 0 -0.2365251488916538 0.012281932688315849 0 -0.2516275062592469 0.018919839351225719 0 -0.24614860874480279 0.026177642299713869 0 -0.2389151582729041 0.022006160790378908 0 -0.2389151582729041 0.022006160790378908 0 -0.2365251488916538 0.012281932688315849 0 -0.24622706090199109 -0.0057462285065727151 0 -0.26196604515275917 0.0063026809159313687 0 -0.2365251488916538 0.012281932688315849 0 -0.26196604515275917 0.0063026809159313687 0 -0.2365251488916538 0.012281932688315849 0 -0.23014693126037791 0.050590791027741208 0 -0.2268154754638709 0.061691675964690808 0 -0.23835140184055131 0.059910672614762087 0 -0.23014693126037791 0.050590791027741208 0 -0.2268154754638709 0.061691675964690808 0 -0.2204800758920939 0.060086458569199468 0 -0.23014693126037791 0.050590791027741208 0 -0.21927172651074769 0.049773606520156902 0 -0.2277372121961618 0.040641004740980743 0 -0.23014693126037791 0.050590791027741208 0 -0.2204800758920939 0.060086458569199468 0 -0.21927172651074769 0.049773606520156902 0 -0.2113827167179595 0.040320340524527098 0 -0.22632531129473379 0.027944087821601429 0 -0.2277372121961618 0.040641004740980743 0 -0.2113827167179595 0.040320340524527098 0 -0.21927172651074769 0.049773606520156902 0 -0.2277372121961618 0.040641004740980743 0 -0.23390900092781269 0.033063635663041123 0 -0.2277372121961618 0.040641004740980743 0 -0.23637532121061039 0.040949663720705687 0 -0.22632531129473379 0.027944087821601429 0 -0.23390900092781269 0.033063635663041123 0 -0.2277372121961618 0.040641004740980743 0 -0.23014693126037791 0.050590791027741208 0 -0.2277372121961618 0.040641004740980743 0 -0.23637532121061039 0.040949663720705687 0 -0.23637532121061039 0.040949663720705687 0 -0.24586260723078349 0.038482502583381747 0 -0.24152064460972489 0.049580577733236708 0 -0.23637532121061039 0.040949663720705687 0 -0.2418929739992928 0.031949796757456482 0 -0.24586260723078349 0.038482502583381747 0 -0.23390900092781269 0.033063635663041123 0 -0.23637532121061039 0.040949663720705687 0 -0.2418929739992928 0.031949796757456482 0 -0.25055895697087183 0.045476799495868428 0 -0.25215879644776762 0.031834772299794367 0 -0.24586260723078349 0.038482502583381747 0 -0.25215879644776762 0.031834772299794367 0 -0.2418929739992928 0.031949796757456482 0 -0.24586260723078349 0.038482502583381747 0 -0.25055895697087183 0.045476799495868428 0 -0.24586260723078349 0.038482502583381747 0 -0.24152064460972489 0.049580577733236708 0 -0.2482913708390507 0.051762957954908408 0 -0.24152064460972489 0.049580577733236708 0 -0.24609177366225021 0.058087531758988682 0 -0.25499410811335588 0.053906922831539812 0 -0.2482913708390507 0.051762957954908408 0 -0.24609177366225021 0.058087531758988682 0 -0.25055895697087183 0.045476799495868428 0 -0.2482913708390507 0.051762957954908408 0 -0.24152064460972489 0.049580577733236708 0 -0.23014693126037791 0.050590791027741208 0 -0.24152064460972489 0.049580577733236708 0 -0.23835140184055131 0.059910672614762087 0 -0.23014693126037791 0.050590791027741208 0 -0.23637532121061039 0.040949663720705687 0 -0.24152064460972489 0.049580577733236708 0 -0.24152064460972489 0.049580577733236708 0 -0.23835140184055131 0.059910672614762087 0 -0.24609177366225021 0.058087531758988682 0 -0.24609177366225021 0.058087531758988682 0 -0.24643185974337969 0.073566996350783398 0 -0.23133400031214529 0.077240470435525316 0 -0.24609177366225021 0.058087531758988682 0 -0.23133400031214529 0.077240470435525316 0 -0.23835140184055131 0.059910672614762087 0 -0.24609177366225021 0.058087531758988682 0 -0.23133400031214529 0.077240470435525316 0 -0.2532426392228585 0.065264178478199222 0 -0.24609177366225021 0.058087531758988682 0 -0.24643185974337969 0.073566996350783398 0 -0.25594925391619922 0.086799486035772339 0 -0.24643185974337969 0.073566996350783398 0 -0.2430337458440141 0.088223992159351311 0 -0.2430337458440141 0.088223992159351311 0 -0.2307709827574034 0.090776033873280898 0 -0.23133400031214529 0.077240470435525316 0 -0.24643185974337969 0.073566996350783398 0 -0.2430337458440141 0.088223992159351311 0 -0.23133400031214529 0.077240470435525316 0 -0.2430337458440141 0.088223992159351311 0 -0.2307709827574034 0.090776033873280898 0 -0.23213995791141359 0.10124626378618511 0 -0.2307709827574034 0.090776033873280898 0 -0.23133400031214529 0.077240470435525316 0 -0.2165762269620406 0.096393409112061915 0 -0.23133400031214529 0.077240470435525316 0 -0.21828349286246049 0.076178781647060462 0 -0.2165762269620406 0.096393409112061915 0 -0.23133400031214529 0.077240470435525316 0 -0.2165762269620406 0.096393409112061915 0 -0.23835140184055131 0.059910672614762087 0 -0.23133400031214529 0.077240470435525316 0 -0.21828349286246049 0.076178781647060462 0 -0.2268154754638709 0.061691675964690808 0 -0.23835140184055131 0.059910672614762087 0 -0.21828349286246049 0.076178781647060462 0 -0.23835140184055131 0.059910672614762087 0 -0.21828349286246049 0.076178781647060462 0 -0.2268154754638709 0.061691675964690808 0 -0.2204800758920939 0.060086458569199468 0 -0.21828349286246049 0.076178781647060462 0 -0.2204800758920939 0.060086458569199468 0 -0.21828349286246049 0.076178781647060462 0 -0.20479915030116411 0.066383615601942558 0 -0.21828349286246049 0.076178781647060462 0 -0.19821558388436941 0.092446890679358393 0 -0.21828349286246049 0.076178781647060462 0 -0.19821558388436941 0.092446890679358393 0 -0.20668562230098689 0.097724646026547193 0 -0.21828349286246049 0.076178781647060462 0 -0.20479915030116411 0.066383615601942558 0 -0.19821558388436941 0.092446890679358393 0 -0.21828349286246049 0.076178781647060462 0 -0.20668562230098689 0.097724646026547193 0 -0.2165762269620406 0.096393409112061915 0 -0.19821558388436941 0.092446890679358393 0 -0.1906021148760968 0.077669432012547529 0 -0.1956048298541995 0.09456330606004304 0 -0.20479915030116411 0.066383615601942558 0 -0.19821558388436941 0.092446890679358393 0 -0.1906021148760968 0.077669432012547529 0 -0.1956048298541995 0.09456330606004304 0 -0.20479915030116411 0.066383615601942558 0 -0.19821558388436941 0.092446890679358393 0 -0.1906021148760968 0.077669432012547529 0 -0.18279709197870639 0.089168356010054753 0 -0.1906021148760968 0.077669432012547529 0 -0.1956048298541995 0.09456330606004304 0 -0.19821558388436941 0.092446890679358393 0 -0.1956048298541995 0.09456330606004304 0 -0.20479915030116411 0.066383615601942558 0 -0.1906021148760968 0.077669432012547529 0 -0.19043356289645291 0.062884886011389057 0 -0.19225148543410339 0.1160577922268074 0 -0.18777772323542699 0.13376869349721759 0 -0.20181845361193279 0.11554634778859629 0 -0.18777772323542699 0.13376869349721759 0 -0.20181845361193279 0.11554634778859629 0 -0.19225148543410339 0.1160577922268074 0 -0.19672524763278079 0.098346890956397551 0 -0.20181845361193279 0.11554634778859629 0 -0.19225148543410339 0.1160577922268074 0 -0.18777772323542699 0.13376869349721759 0 -0.19225148543410339 0.1160577922268074 0 -0.19672524763278079 0.098346890956397551 0 -0.20181845361193279 0.11554634778859629 0 -0.19672524763278079 0.098346890956397551 0 -0.20668562230098689 0.097724646026547193 0 -0.17363658823652661 0.11192993455685669 0 -0.19225148543410339 0.1160577922268074 0 -0.19672524763278079 0.098346890956397551 0 -0.20181845361193279 0.11554634778859629 0 -0.19672524763278079 0.098346890956397551 0 -0.17363658823652661 0.11192993455685669 0 -0.1956048298541995 0.09456330606004304 0 -0.19672524763278079 0.098346890956397551 0 -0.19821558388436941 0.092446890679358393 0 -0.19672524763278079 0.098346890956397551 0 -0.20668562230098689 0.097724646026547193 0 -0.19821558388436941 0.092446890679358393 0 -0.19672524763278079 0.098346890956397551 0 -0.19821558388436941 0.092446890679358393 0 -0.1956048298541995 0.09456330606004304 0 -0.19672524763278079 0.098346890956397551 0 -0.1956048298541995 0.09456330606004304 0 -0.19672524763278079 0.098346890956397551 0 -0.20181845361193279 0.11554634778859629 0 -0.2165762269620406 0.096393409112061915 0 -0.22146992585824371 0.11355135203945869 0 -0.20181845361193279 0.11554634778859629 0 -0.20668562230098689 0.097724646026547193 0 -0.2165762269620406 0.096393409112061915 0 -0.20181845361193279 0.11554634778859629 0 -0.2165762269620406 0.096393409112061915 0 -0.20181845361193279 0.11554634778859629 0 -0.22146992585824371 0.11355135203945869 0 -0.22319605752181521 0.1297407444781653 0 -0.22146992585824371 0.11355135203945869 0 -0.23342104139119529 0.1155738482960486 0 -0.22319605752181521 0.1297407444781653 0 -0.22146992585824371 0.11355135203945869 0 -0.23342104139119529 0.1155738482960486 0 -0.23213995791141359 0.10124626378618511 0 -0.23342104139119529 0.1155738482960486 0 -0.237648997933152 0.1267162702031211 0 -0.22319605752181521 0.1297407444781653 0 -0.2165762269620406 0.096393409112061915 0 -0.22146992585824371 0.11355135203945869 0 -0.23213995791141359 0.10124626378618511 0 -0.2307709827574034 0.090776033873280898 0 -0.2165762269620406 0.096393409112061915 0 -0.23213995791141359 0.10124626378618511 0 -0.2430337458440141 0.088223992159351311 0 -0.24460205120436529 0.1114490207804217 0 -0.25432004880133358 0.099476279807380746 0 -0.2430337458440141 0.088223992159351311 0 -0.24460205120436529 0.1114490207804217 0 -0.2430337458440141 0.088223992159351311 0 -0.23213995791141359 0.10124626378618511 0 -0.24460205120436529 0.1114490207804217 0 -0.25629690274402139 0.12232477356589321 0 -0.24460205120436529 0.1114490207804217 0 -0.24617035656471711 0.13467404940149219 0 -0.24460205120436529 0.1114490207804217 0 -0.24617035656471711 0.13467404940149219 0 -0.24460205120436529 0.1114490207804217 0 -0.24617035656471711 0.13467404940149219 0 -0.237648997933152 0.1267162702031211 0 -0.23342104139119529 0.1155738482960486 0 -0.24460205120436529 0.1114490207804217 0 -0.237648997933152 0.1267162702031211 0 -0.23342104139119529 0.1155738482960486 0 -0.23213995791141359 0.10124626378618511 0 -0.24460205120436529 0.1114490207804217 0 -0.24617035656471711 0.13467404940149219 0 -0.2338630681251809 0.13640047101208949 0 -0.23606028133492971 0.14753382129510259 0 -0.24617035656471711 0.13467404940149219 0 -0.237648997933152 0.1267162702031211 0 -0.2338630681251809 0.13640047101208949 0 -0.24617035656471711 0.13467404940149219 0 -0.237648997933152 0.1267162702031211 0 -0.22319605752181521 0.1297407444781653 0 -0.22623964727129039 0.14333746968256611 0 -0.20946233875628609 0.14135929804210209 0 -0.237648997933152 0.1267162702031211 0 -0.2338630681251809 0.13640047101208949 0 -0.22319605752181521 0.1297407444781653 0 -0.2338630681251809 0.13640047101208949 0 -0.22319605752181521 0.1297407444781653 0 -0.22623964727129039 0.14333746968256611 0 -0.22623964727129039 0.14333746968256611 0 -0.225223031372388 0.15652031897759441 0 -0.20946233875628609 0.14135929804210209 0 -0.2338630681251809 0.13640047101208949 0 -0.22623964727129039 0.14333746968256611 0 -0.23606028133492971 0.14753382129510259 0 -0.23606028133492971 0.14753382129510259 0 -0.235130878245571 0.16058342042833751 0 -0.225223031372388 0.15652031897759441 0 -0.22623964727129039 0.14333746968256611 0 -0.23606028133492971 0.14753382129510259 0 -0.225223031372388 0.15652031897759441 0 -0.23606028133492971 0.14753382129510259 0 -0.24742470105536901 0.1532496325963128 0 -0.235130878245571 0.16058342042833751 0 -0.24617035656471711 0.13467404940149219 0 -0.23606028133492971 0.14753382129510259 0 -0.24742470105536901 0.1532496325963128 0 -0.24617035656471711 0.13467404940149219 0 -0.24742470105536901 0.1532496325963128 0 -0.25290133003927823 0.16617244732729211 0 -0.24742470105536901 0.1532496325963128 0 -0.24867904554602149 0.1718252157911333 0 -0.24742470105536901 0.1532496325963128 0 -0.24867904554602149 0.1718252157911333 0 -0.24057032607843629 0.16771729737738861 0 -0.24742470105536901 0.1532496325963128 0 -0.24867904554602149 0.1718252157911333 0 -0.24867904554602149 0.1718252157911333 0 -0.24057032607843629 0.16771729737738861 0 -0.2436460931949167 0.1753797677553319 0 -0.24057032607843629 0.16771729737738861 0 -0.23623579966818101 0.17678517901474991 0 -0.23275146572439459 0.16769204110126229 0 -0.24057032607843629 0.16771729737738861 0 -0.235130878245571 0.16058342042833751 0 -0.23275146572439459 0.16769204110126229 0 -0.24742470105536901 0.1532496325963128 0 -0.24057032607843629 0.16771729737738861 0 -0.235130878245571 0.16058342042833751 0 -0.2490992014870253 0.1851913788380552 0 -0.23623579966818101 0.17678517901474991 0 -0.24867904554602149 0.1718252157911333 0 -0.2490992014870253 0.1851913788380552 0 -0.2436460931949167 0.1753797677553319 0 -0.2490992014870253 0.1851913788380552 0 -0.2436460931949167 0.1753797677553319 0 -0.23623579966818101 0.17678517901474991 0 -0.24057032607843629 0.16771729737738861 0 -0.2436460931949167 0.1753797677553319 0 -0.23623579966818101 0.17678517901474991 0 -0.2490992014870253 0.1851913788380552 0 -0.23623579966818101 0.17678517901474991 0 -0.23641292691124541 0.1880673096158928 0 -0.21710622390064141 0.1671722482956074 0 -0.22245167127694879 0.18975595083608221 0 -0.22919179924779351 0.17939706393139171 0 -0.2224898837917709 0.18535255089397079 0 -0.21710622390064141 0.1671722482956074 0 -0.2224898837917709 0.18535255089397079 0 -0.21710622390064141 0.1671722482956074 0 -0.22245167127694879 0.18975595083608221 0 -0.2224898837917709 0.18535255089397079 0 -0.21710622390064141 0.1671722482956074 0 -0.22949490250930449 0.18648684862388831 0 -0.22919179924779351 0.17939706393139171 0 -0.23641292691124541 0.1880673096158928 0 -0.23623579966818101 0.17678517901474991 0 -0.22919179924779351 0.17939706393139171 0 -0.23641292691124541 0.1880673096158928 0 -0.22949490250930449 0.18648684862388831 0 -0.22919179924779351 0.17939706393139171 0 -0.2224898837917709 0.18535255089397079 0 -0.23623579966818101 0.17678517901474991 0 -0.22919179924779351 0.17939706393139171 0 -0.22337239784934071 0.1683789791914386 0 -0.23623579966818101 0.17678517901474991 0 -0.22337239784934071 0.1683789791914386 0 -0.22919179924779351 0.17939706393139171 0 -0.21710622390064141 0.1671722482956074 0 -0.235130878245571 0.16058342042833751 0 -0.2289158810987684 0.16322089954296851 0 -0.225223031372388 0.15652031897759441 0 -0.235130878245571 0.16058342042833751 0 -0.2289158810987684 0.16322089954296851 0 -0.23275146572439459 0.16769204110126229 0 -0.2289158810987684 0.16322089954296851 0 -0.23275146572439459 0.16769204110126229 0 -0.22337239784934071 0.1683789791914386 0 -0.23623579966818101 0.17678517901474991 0 -0.23275146572439459 0.16769204110126229 0 -0.22337239784934071 0.1683789791914386 0 -0.22919179924779351 0.17939706393139171 0 -0.22337239784934071 0.1683789791914386 0 -0.21710622390064141 0.1671722482956074 0 -0.22337239784934071 0.1683789791914386 0 -0.225223031372388 0.15652031897759441 0 -0.21710622390064141 0.1671722482956074 0 -0.2289158810987684 0.16322089954296851 0 -0.22337239784934071 0.1683789791914386 0 -0.225223031372388 0.15652031897759441 0 -0.225223031372388 0.15652031897759441 0 -0.21710622390064141 0.1671722482956074 0 -0.21121363200749679 0.14727331227950671 0 -0.21710622390064141 0.1671722482956074 0 -0.20155066477533681 0.15143747051664119 0 -0.21710622390064141 0.1671722482956074 0 -0.19993503962516729 0.16224335096929751 0 -0.20155066477533681 0.15143747051664119 0 -0.21710622390064141 0.1671722482956074 0 -0.20618628610329881 0.17454739705814529 0 -0.19993503962516729 0.16224335096929751 0 -0.21710622390064141 0.1671722482956074 0 -0.21121363200749679 0.14727331227950671 0 -0.20618628610329881 0.17454739705814529 0 -0.20471688402155139 0.18681832804815021 0 -0.22245167127694879 0.18975595083608221 0 -0.21710622390064141 0.1671722482956074 0 -0.20618628610329881 0.17454739705814529 0 -0.22245167127694879 0.18975595083608221 0 -0.20471688402155139 0.18681832804815021 0 -0.19844339206724251 0.17882869515742941 0 -0.1911919551992213 0.1847172670300499 0 -0.20618628610329881 0.17454739705814529 0 -0.20471688402155139 0.18681832804815021 0 -0.19844339206724251 0.17882869515742941 0 -0.20618628610329881 0.17454739705814529 0 -0.19844339206724251 0.17882869515742941 0 -0.19528337610102189 0.17169618861661959 0 -0.19107866849262559 0.17620262261898231 0 -0.1911919551992213 0.1847172670300499 0 -0.18267019353835931 0.17791813736928691 0 -0.19844339206724251 0.17882869515742941 0 -0.19107866849262559 0.17620262261898231 0 -0.19528337610102189 0.17169618861661959 0 -0.19844339206724251 0.17882869515742941 0 -0.19107866849262559 0.17620262261898231 0 -0.1911919551992213 0.1847172670300499 0 -0.19993503962516729 0.16224335096929751 0 -0.19400018621742671 0.15511630486767369 0 -0.20155066477533681 0.15143747051664119 0 -0.20618628610329881 0.17454739705814529 0 -0.19993503962516729 0.16224335096929751 0 -0.19528337610102189 0.17169618861661959 0 -0.19993503962516729 0.16224335096929751 0 -0.19528337610102189 0.17169618861661959 0 -0.18694018318592209 0.15868991212336131 0 -0.19107866849262559 0.17620262261898231 0 -0.19528337610102189 0.17169618861661959 0 -0.18106567149545619 0.16619750950848039 0 -0.19528337610102189 0.17169618861661959 0 -0.18694018318592209 0.15868991212336131 0 -0.19528337610102189 0.17169618861661959 0 -0.18694018318592209 0.15868991212336131 0 -0.18106567149545619 0.16619750950848039 0 -0.19993503962516729 0.16224335096929751 0 -0.19400018621742671 0.15511630486767369 0 -0.18694018318592209 0.15868991212336131 0 -0.18839762166734381 0.14928686689848281 0 -0.19400018621742671 0.15511630486767369 0 -0.18694018318592209 0.15868991212336131 0 -0.20155066477533681 0.15143747051664119 0 -0.197527003081441 0.1357714214392301 0 -0.20946233875628609 0.14135929804210209 0 -0.20155066477533681 0.15143747051664119 0 -0.197527003081441 0.1357714214392301 0 -0.18615944606555149 0.13586892655141791 0 -0.18839762166734381 0.14928686689848281 0 -0.19400018621742671 0.15511630486767369 0 -0.20155066477533681 0.15143747051664119 0 -0.18839762166734381 0.14928686689848281 0 -0.20155066477533681 0.15143747051664119 0 -0.1863906914488852 0.1392597280983921 0 -0.20155066477533681 0.15143747051664119 0 -0.18615944606555149 0.13586892655141791 0 -0.1863906914488852 0.1392597280983921 0 -0.20155066477533681 0.15143747051664119 0 -0.18615944606555149 0.13586892655141791 0 -0.20181845361193279 0.11554634778859629 0 -0.18777772323542699 0.13376869349721759 0 -0.197527003081441 0.1357714214392301 0 -0.18777772323542699 0.13376869349721759 0 -0.197527003081441 0.1357714214392301 0 -0.18615944606555149 0.13586892655141791 0 -0.20181845361193279 0.11554634778859629 0 -0.197527003081441 0.1357714214392301 0 -0.20946233875628609 0.14135929804210209 0 -0.20181845361193279 0.11554634778859629 0 -0.20946233875628609 0.14135929804210209 0 -0.20181845361193279 0.11554634778859629 0 -0.22319605752181521 0.1297407444781653 0 -0.20946233875628609 0.14135929804210209 0 -0.21710622390064141 0.1671722482956074 0 -0.20155066477533681 0.15143747051664119 0 -0.21121363200749679 0.14727331227950671 0 -0.225223031372388 0.15652031897759441 0 -0.21121363200749679 0.14727331227950671 0 -0.20946233875628609 0.14135929804210209 0 -0.20155066477533681 0.15143747051664119 0 -0.21121363200749679 0.14727331227950671 0 -0.20946233875628609 0.14135929804210209 0 -0.21121363200749679 0.14727331227950671 0 -0.20946233875628609 0.14135929804210209 0 -0.22153032856908481 0.249825803546535 0 -0.22040599193271621 0.24060379836723189 0 -0.23131744949611999 0.23907751118925541 0 -0.22040599193271621 0.24060379836723189 0 -0.23131744949611999 0.23907751118925541 0 -0.22040599193271621 0.24060379836723189 0 -0.23131744949611999 0.23907751118925541 0 -0.21897795363440331 0.2261144808282182 0 -0.24284444918897469 0.25499796420522253 0 -0.24803869981560719 0.24872960313750719 0 -0.2385283141416755 0.23806886040300251 0 -0.2336055725864668 0.26269329989713119 0 -0.23131744949611999 0.23907751118925541 0 -0.2385283141416755 0.23806886040300251 0 -0.25100080036135147 0.24264522738084729 0 -0.24803869981560719 0.24872960313750719 0 -0.2385283141416755 0.23806886040300251 0 -0.25407723701030299 0.2358938877682307 0 -0.25100080036135147 0.24264522738084729 0 -0.2385283141416755 0.23806886040300251 0 -0.25407723701030299 0.2358938877682307 0 -0.2385283141416755 0.23806886040300251 0 -0.23131744949611999 0.23907751118925541 0 -0.2385283141416755 0.23806886040300251 0 -0.25557888046928079 0.22193338844258101 0 -0.25407723701030299 0.2358938877682307 0 -0.2385283141416755 0.23806886040300251 0 -0.2385283141416755 0.23806886040300251 0 -0.23110071329894549 0.2218041407264657 0 -0.24381375781435391 0.21163011962052941 0 -0.25557888046928079 0.22193338844258101 0 -0.2385283141416755 0.23806886040300251 0 -0.24381375781435391 0.21163011962052941 0 -0.2385283141416755 0.23806886040300251 0 -0.24381375781435391 0.21163011962052941 0 -0.23131744949611999 0.23907751118925541 0 -0.23110071329894549 0.2218041407264657 0 -0.2288278480314507 0.21338225799047361 0 -0.23131744949611999 0.23907751118925541 0 -0.21897795363440331 0.2261144808282182 0 -0.2288278480314507 0.21338225799047361 0 -0.23131744949611999 0.23907751118925541 0 -0.2385283141416755 0.23806886040300251 0 -0.23110071329894549 0.2218041407264657 0 -0.23131744949611999 0.23907751118925541 0 -0.2288278480314507 0.21338225799047361 0 -0.21897795363440331 0.2261144808282182 0 -0.2288278480314507 0.21338225799047361 0 -0.21163342351461559 0.20622190828383041 0 -0.2278735436829005 0.20353285349233399 0 -0.2288278480314507 0.21338225799047361 0 -0.2288284476104154 0.20675750785491659 0 -0.2346543231658362 0.21054863964745951 0 -0.23763545909580261 0.2010540921666942 0 -0.2278735436829005 0.20353285349233399 0 -0.2288284476104154 0.20675750785491659 0 -0.23763545909580261 0.2010540921666942 0 -0.2278735436829005 0.20353285349233399 0 -0.2288284476104154 0.20675750785491659 0 -0.2288278480314507 0.21338225799047361 0 -0.2278735436829005 0.20353285349233399 0 -0.2288284476104154 0.20675750785491659 0 -0.2288284476104154 0.20675750785491659 0 -0.2288278480314507 0.21338225799047361 0 -0.2346543231658362 0.21054863964745951 0 -0.23110071329894549 0.2218041407264657 0 -0.2288278480314507 0.21338225799047361 0 -0.2346543231658362 0.21054863964745951 0 -0.23110071329894549 0.2218041407264657 0 -0.2288278480314507 0.21338225799047361 0 -0.23110071329894549 0.2218041407264657 0 -0.24381375781435391 0.21163011962052941 0 -0.2346543231658362 0.21054863964745951 0 -0.24381375781435391 0.21163011962052941 0 -0.2346543231658362 0.21054863964745951 0 -0.23763545909580261 0.2010540921666942 0 -0.2490992014870253 0.1851913788380552 0 -0.24381375781435391 0.21163011962052941 0 -0.23763545909580261 0.2010540921666942 0 -0.2490992014870253 0.1851913788380552 0 -0.24381375781435391 0.21163011962052941 0 -0.2490992014870253 0.1851913788380552 0 -0.23763545909580261 0.2010540921666942 0 -0.23641292691124541 0.1880673096158928 0 -0.23763545909580261 0.2010540921666942 0 -0.23641292691124541 0.1880673096158928 0 -0.23250445075892659 0.19492734969257619 0 -0.2224898837917709 0.18535255089397079 0 -0.2278735436829005 0.20353285349233399 0 -0.2288278480314507 0.21338225799047361 0 -0.22245167127694879 0.18975595083608221 0 -0.21163342351461559 0.20622190828383041 0 -0.2224898837917709 0.18535255089397079 0 -0.2278735436829005 0.20353285349233399 0 -0.22697414451876519 0.19425012708925291 0 -0.2278735436829005 0.20353285349233399 0 -0.2288278480314507 0.21338225799047361 0 -0.22245167127694879 0.18975595083608221 0 -0.22949490250930449 0.18648684862388831 0 -0.22697414451876519 0.19425012708925291 0 -0.23250445075892659 0.19492734969257619 0 -0.22949490250930449 0.18648684862388831 0 -0.23641292691124541 0.1880673096158928 0 -0.23250445075892659 0.19492734969257619 0 -0.2288278480314507 0.21338225799047361 0 -0.22245167127694879 0.18975595083608221 0 -0.2224898837917709 0.18535255089397079 0 -0.2278735436829005 0.20353285349233399 0 -0.22245167127694879 0.18975595083608221 0 -0.2278735436829005 0.20353285349233399 0 -0.23763545909580261 0.2010540921666942 0 -0.23250445075892659 0.19492734969257619 0 -0.2278735436829005 0.20353285349233399 0 -0.22697414451876519 0.19425012708925291 0 -0.2278735436829005 0.20353285349233399 0 -0.22697414451876519 0.19425012708925291 0 -0.23250445075892659 0.19492734969257619 0 -0.22949490250930449 0.18648684862388831 0 -0.2224898837917709 0.18535255089397079 0 -0.22697414451876519 0.19425012708925291 0 -0.20471688402155139 0.18681832804815021 0 -0.22245167127694879 0.18975595083608221 0 -0.21163342351461559 0.20622190828383041 0 -0.20471688402155139 0.18681832804815021 0 -0.1911919551992213 0.1847172670300499 0 -0.19134744364318559 0.19994618497119721 0 -0.20471688402155139 0.18681832804815021 0 -0.19134744364318559 0.19994618497119721 0 -0.21163342351461559 0.20622190828383041 0 -0.19134744364318559 0.19994618497119721 0 -0.2008655245871078 0.22137181257143301 0 -0.18468973869350741 0.21731530028516871 0 -0.19134744364318559 0.19994618497119721 0 -0.21163342351461559 0.20622190828383041 0 -0.2008655245871078 0.22137181257143301 0 -0.21897795363440331 0.2261144808282182 0 -0.21163342351461559 0.20622190828383041 0 -0.2008655245871078 0.22137181257143301 0 -0.21897795363440331 0.2261144808282182 0 -0.2008655245871078 0.22137181257143301 0 -0.20576536070046669 0.23636117409229759 0 -0.22040599193271621 0.24060379836723189 0 -0.21897795363440331 0.2261144808282182 0 -0.20576536070046669 0.23636117409229759 0 -0.1889528198521204 0.2342525639158819 0 -0.2008655245871078 0.22137181257143301 0 -0.20576536070046669 0.23636117409229759 0 -0.1889528198521204 0.2342525639158819 0 -0.2008655245871078 0.22137181257143301 0 -0.18468973869350741 0.21731530028516871 0 -0.1889528198521204 0.2342525639158819 0 -0.19480395922677551 0.24933181214922981 0 -0.20576536070046669 0.23636117409229759 0 -0.19480395922677551 0.24933181214922981 0 -0.2083987359728901 0.24727119879500239 0 -0.20576536070046669 0.23636117409229759 0 -0.22040599193271621 0.24060379836723189 0 -0.2083987359728901 0.24727119879500239 0 -0.20576536070046669 0.23636117409229759 0 -0.22153032856908481 0.249825803546535 0 -0.22040599193271621 0.24060379836723189 0 -0.2083987359728901 0.24727119879500239 0 -0.17455766217628191 0.25112670725596881 0 -0.17303467372858319 0.2300085771411938 0 -0.155276860567574 0.24419427542254449 0 -0.17455766217628191 0.25112670725596881 0 -0.1889528198521204 0.2342525639158819 0 -0.17303467372858319 0.2300085771411938 0 -0.17455766217628191 0.25112670725596881 0 -0.1889528198521204 0.2342525639158819 0 -0.19480395922677551 0.24933181214922981 0 -0.1889528198521204 0.2342525639158819 0 -0.17303467372858319 0.2300085771411938 0 -0.18468973869350741 0.21731530028516871 0 -0.17303467372858319 0.2300085771411938 0 -0.14729782577332429 0.22308972679305061 0 -0.155276860567574 0.24419427542254449 0 -0.17303467372858319 0.2300085771411938 0 -0.17020816273865769 0.20797486268598611 0 -0.14729782577332429 0.22308972679305061 0 -0.17303467372858319 0.2300085771411938 0 -0.17020816273865769 0.20797486268598611 0 -0.17020816273865769 0.20797486268598611 0 -0.1517821257020405 0.20325345388889071 0 -0.14729782577332429 0.22308972679305061 0 -0.19134744364318559 0.19994618497119721 0 -0.17020816273865769 0.20797486268598611 0 -0.18468973869350741 0.21731530028516871 0 -0.17303467372858319 0.2300085771411938 0 -0.17020816273865769 0.20797486268598611 0 -0.18468973869350741 0.21731530028516871 0 -0.17020816273865769 0.20797486268598611 0 -0.17959333140608799 0.1888099146076164 0 -0.1673816517487321 0.1859411482307782 0 -0.19134744364318559 0.19994618497119721 0 -0.17020816273865769 0.20797486268598611 0 -0.17959333140608799 0.1888099146076164 0 -0.1911919551992213 0.1847172670300499 0 -0.19134744364318559 0.19994618497119721 0 -0.17959333140608799 0.1888099146076164 0 -0.17020816273865769 0.20797486268598611 0 -0.1517821257020405 0.20325345388889071 0 -0.1673816517487321 0.1859411482307782 0 -0.17020816273865769 0.20797486268598611 0 -0.1673816517487321 0.1859411482307782 0 -0.1328467202536954 0.2050592673927904 0 -0.14870093050624941 0.18448335058417989 0 -0.1328467202536954 0.2050592673927904 0 -0.1517821257020405 0.20325345388889071 0 -0.14870093050624941 0.18448335058417989 0 -0.1517821257020405 0.20325345388889071 0 -0.1673816517487321 0.1859411482307782 0 -0.14870093050624941 0.18448335058417989 0 -0.1328467202536954 0.2050592673927904 0 -0.14870093050624941 0.18448335058417989 0 -0.1287141736261708 0.18323961355764659 0 -0.1328467202536954 0.2050592673927904 0 -0.1287141736261708 0.18323961355764659 0 -0.12003394262236999 0.19586417607020851 0 -0.1328467202536954 0.2050592673927904 0 -0.14729782577332429 0.22308972679305061 0 -0.13192320011980541 0.22712800304841929 0 -0.1328467202536954 0.2050592673927904 0 -0.1517821257020405 0.20325345388889071 0 -0.14729782577332429 0.22308972679305061 0 -0.14729782577332429 0.22308972679305061 0 -0.13192320011980541 0.22712800304841929 0 -0.13382409817703389 0.2420122431064673 0 -0.1328467202536954 0.2050592673927904 0 -0.13192320011980541 0.22712800304841929 0 -0.1169925100011414 0.2256351842014008 0 -0.12316148006640409 0.25829415015194301 0 -0.13382409817703389 0.2420122431064673 0 -0.1182302698947966 0.24526389947704311 0 -0.13192320011980541 0.22712800304841929 0 -0.13382409817703389 0.2420122431064673 0 -0.1182302698947966 0.24526389947704311 0 -0.13382409817703389 0.2420122431064673 0 -0.1182302698947966 0.24526389947704311 0 -0.14729782577332429 0.22308972679305061 0 -0.13382409817703389 0.2420122431064673 0 -0.155276860567574 0.24419427542254449 0 -0.13859112369487381 0.25931217237250681 0 -0.13382409817703389 0.2420122431064673 0 -0.155276860567574 0.24419427542254449 0 -0.162464629463722 0.14761111329230869 0 -0.16455514075880509 0.16390743377557071 0 -0.162464629463722 0.14761111329230869 0 -0.16455514075880509 0.16390743377557071 0 -0.15116505086304791 0.15697498780269911 0 -0.17074027403129649 0.15588024190428229 0 -0.162464629463722 0.14761111329230869 0 -0.16455514075880509 0.16390743377557071 0 -0.16976826471124609 0.14570709609468191 0 -0.17074027403129649 0.15588024190428229 0 -0.162464629463722 0.14761111329230869 0 -0.17074027403129649 0.15588024190428229 0 -0.162464629463722 0.14761111329230869 0 -0.16242871133876399 0.12047876402394821 0 -0.16976826471124609 0.14570709609468191 0 -0.162464629463722 0.14761111329230869 0 -0.16242871133876399 0.12047876402394821 0 -0.16976826471124609 0.14570709609468191 0 -0.17816523749691959 0.14501057245018409 0 -0.16242871133876399 0.12047876402394821 0 -0.17816523749691959 0.14501057245018409 0 -0.17542769758128551 0.12501353548385949 0 -0.18615944606555149 0.13586892655141791 0 -0.17816523749691959 0.14501057245018409 0 -0.16242871133876399 0.12047876402394821 0 -0.17542769758128551 0.12501353548385949 0 -0.17816523749691959 0.14501057245018409 0 -0.17542769758128551 0.12501353548385949 0 -0.17816523749691959 0.14501057245018409 0 -0.17542769758128551 0.12501353548385949 0 -0.18615944606555149 0.13586892655141791 0 -0.18777772323542699 0.13376869349721759 0 -0.17542769758128551 0.12501353548385949 0 -0.18615944606555149 0.13586892655141791 0 -0.18615944606555149 0.13586892655141791 0 -0.17816523749691959 0.14501057245018409 0 -0.18615944606555149 0.13586892655141791 0 -0.1863906914488852 0.1392597280983921 0 -0.17816523749691959 0.14501057245018409 0 -0.18777772323542699 0.13376869349721759 0 -0.18615944606555149 0.13586892655141791 0 -0.18615944606555149 0.13586892655141791 0 -0.1863906914488852 0.1392597280983921 0 -0.18839762166734381 0.14928686689848281 0 -0.1863906914488852 0.1392597280983921 0 -0.17816523749691959 0.14501057245018409 0 -0.17816523749691959 0.14501057245018409 0 -0.18106567149545619 0.16619750950848039 0 -0.17074027403129649 0.15588024190428229 0 -0.17816523749691959 0.14501057245018409 0 -0.18106567149545619 0.16619750950848039 0 -0.17074027403129649 0.15588024190428229 0 -0.17816523749691959 0.14501057245018409 0 -0.16976826471124609 0.14570709609468191 0 -0.17074027403129649 0.15588024190428229 0 -0.17816523749691959 0.14501057245018409 0 -0.18839762166734381 0.14928686689848281 0 -0.17816523749691959 0.14501057245018409 0 -0.18694018318592209 0.15868991212336131 0 -0.17816523749691959 0.14501057245018409 0 -0.18694018318592209 0.15868991212336131 0 -0.17816523749691959 0.14501057245018409 0 -0.18694018318592209 0.15868991212336131 0 -0.18106567149545619 0.16619750950848039 0 -0.18106567149545619 0.16619750950848039 0 -0.17476058156837199 0.17636188735840011 0 -0.16455514075880509 0.16390743377557071 0 -0.17074027403129649 0.15588024190428229 0 -0.18106567149545619 0.16619750950848039 0 -0.16455514075880509 0.16390743377557071 0 -0.19107866849262559 0.17620262261898231 0 -0.18106567149545619 0.16619750950848039 0 -0.17074027403129649 0.15588024190428229 0 -0.18106567149545619 0.16619750950848039 0 -0.1911919551992213 0.1847172670300499 0 -0.17959333140608799 0.1888099146076164 0 -0.18267019353835931 0.17791813736928691 0 -0.18106567149545619 0.16619750950848039 0 -0.18267019353835931 0.17791813736928691 0 -0.19107866849262559 0.17620262261898231 0 -0.18106567149545619 0.16619750950848039 0 -0.18267019353835931 0.17791813736928691 0 -0.18106567149545619 0.16619750950848039 0 -0.18267019353835931 0.17791813736928691 0 -0.17476058156837199 0.17636188735840011 0 -0.17959333140608799 0.1888099146076164 0 -0.17476058156837199 0.17636188735840011 0 -0.1673816517487321 0.1859411482307782 0 -0.17959333140608799 0.1888099146076164 0 -0.18267019353835931 0.17791813736928691 0 -0.17476058156837199 0.17636188735840011 0 -0.1673816517487321 0.1859411482307782 0 -0.16455514075880509 0.16390743377557071 0 -0.14870093050624941 0.18448335058417989 0 -0.16455514075880509 0.16390743377557071 0 -0.14870093050624941 0.18448335058417989 0 -0.1673816517487321 0.1859411482307782 0 -0.16455514075880509 0.16390743377557071 0 -0.17476058156837199 0.17636188735840011 0 -0.1673816517487321 0.1859411482307782 0 -0.16455514075880509 0.16390743377557071 0 -0.17074027403129649 0.15588024190428229 0 -0.16455514075880509 0.16390743377557071 0 -0.16455514075880509 0.16390743377557071 0 -0.15116505086304791 0.15697498780269911 0 -0.1421644337309807 0.16781346088337609 0 -0.15116505086304791 0.15697498780269911 0 -0.1421644337309807 0.16781346088337609 0 -0.13237023292758429 0.1557550304018212 0 -0.16455514075880509 0.16390743377557071 0 -0.1421644337309807 0.16781346088337609 0 -0.14870093050624941 0.18448335058417989 0 -0.1421644337309807 0.16781346088337609 0 -0.14870093050624941 0.18448335058417989 0 -0.1287141736261708 0.18323961355764659 0 -0.1421644337309807 0.16781346088337609 0 -0.1287141736261708 0.18323961355764659 0 -0.1172750999047109 0.1617153062499683 0 -0.1421644337309807 0.16781346088337609 0 -0.1172750999047109 0.1617153062499683 0 -0.1421644337309807 0.16781346088337609 0 -0.13237023292758429 0.1557550304018212 0 -0.1172750999047109 0.1617153062499683 0 -0.13237023292758429 0.1557550304018212 0 -0.1251872203253864 0.1426017118705811 0 -0.14276263003403561 0.1460371225879771 0 -0.15116505086304791 0.15697498780269911 0 -0.13237023292758429 0.1557550304018212 0 -0.14276263003403561 0.1460371225879771 0 -0.162464629463722 0.14761111329230869 0 -0.15116505086304791 0.15697498780269911 0 -0.14276263003403561 0.1460371225879771 0 -0.16242871133876399 0.12047876402394821 0 -0.162464629463722 0.14761111329230869 0 -0.1418160371844612 0.12697877899868329 0 -0.162464629463722 0.14761111329230869 0 -0.14276263003403561 0.1460371225879771 0 -0.1418160371844612 0.12697877899868329 0 -0.162464629463722 0.14761111329230869 0 -0.1418160371844612 0.12697877899868329 0 -0.1251872203253864 0.1426017118705811 0 -0.1418160371844612 0.12697877899868329 0 -0.1249092863724191 0.1291970054427006 0 -0.13257072674167369 0.121014259673571 0 -0.1418160371844612 0.12697877899868329 0 -0.1249092863724191 0.1291970054427006 0 -0.1251872203253864 0.1426017118705811 0 -0.14276263003403561 0.1460371225879771 0 -0.1418160371844612 0.12697877899868329 0 -0.1249092863724191 0.1291970054427006 0 -0.10621647305476629 0.1316836506407067 0 -0.1182939396737577 0.11994366483382821 0 -0.1251872203253864 0.1426017118705811 0 -0.1249092863724191 0.1291970054427006 0 -0.10621647305476629 0.1316836506407067 0 -0.10621647305476629 0.1316836506407067 0 -0.1102661398408262 0.14790445509445421 0 -0.092385766078441248 0.15561715161656051 0 -0.1102661398408262 0.14790445509445421 0 -0.1172750999047109 0.1617153062499683 0 -0.092385766078441248 0.15561715161656051 0 -0.13237023292758429 0.1557550304018212 0 -0.1251872203253864 0.1426017118705811 0 -0.1172750999047109 0.1617153062499683 0 -0.1251872203253864 0.1426017118705811 0 -0.1102661398408262 0.14790445509445421 0 -0.1172750999047109 0.1617153062499683 0 -0.1251872203253864 0.1426017118705811 0 -0.10621647305476629 0.1316836506407067 0 -0.1102661398408262 0.14790445509445421 0 -0.1287141736261708 0.18323961355764659 0 -0.1172750999047109 0.1617153062499683 0 -0.1103837702100872 0.18363190425248291 0 -0.1172750999047109 0.1617153062499683 0 -0.1103837702100872 0.18363190425248291 0 -0.098247527034113658 0.17159487816446761 0 -0.1103837702100872 0.18363190425248291 0 -0.098247527034113658 0.17159487816446761 0 -0.092154137601116265 0.18682524142413351 0 -0.1172750999047109 0.1617153062499683 0 -0.092385766078441248 0.15561715161656051 0 -0.1172750999047109 0.1617153062499683 0 -0.098247527034113658 0.17159487816446761 0 -0.092385766078441248 0.15561715161656051 0 -0.098247527034113658 0.17159487816446761 0 -0.079038861376212646 0.1701847872791929 0 -0.092385766078441248 0.15561715161656051 0 -0.079038861376212646 0.1701847872791929 0 -0.06749643225217157 0.14951899698315271 0 -0.092385766078441248 0.15561715161656051 0 -0.079038861376212646 0.1701847872791929 0 -0.092154137601116265 0.18682524142413351 0 -0.076629112645511366 0.18484710879711561 0 -0.098247527034113658 0.17159487816446761 0 -0.079038861376212646 0.1701847872791929 0 -0.092154137601116265 0.18682524142413351 0 -0.079038861376212646 0.1701847872791929 0 -0.076629112645511366 0.18484710879711561 0 -0.063605499780670441 0.17883794188649721 0 -0.076629112645511366 0.18484710879711561 0 -0.063605499780670441 0.17883794188649721 0 -0.066837896440498701 0.19344992248878171 0 -0.079038861376212646 0.1701847872791929 0 -0.06749643225217157 0.14951899698315271 0 -0.059860098652112108 0.1619523884955533 0 -0.079038861376212646 0.1701847872791929 0 -0.063605499780670441 0.17883794188649721 0 -0.059860098652112108 0.1619523884955533 0 -0.06749643225217157 0.14951899698315271 0 -0.080853217727700322 0.1319277094887048 0 -0.057318589936539828 0.13388842662022091 0 -0.080853217727700322 0.1319277094887048 0 -0.057318589936539828 0.13388842662022091 0 -0.068764376541146116 0.1209654347132413 0 -0.10621647305476629 0.1316836506407067 0 -0.080853217727700322 0.1319277094887048 0 -0.092103115789512358 0.11935361619367239 0 -0.10621647305476629 0.1316836506407067 0 -0.080853217727700322 0.1319277094887048 0 -0.092385766078441248 0.15561715161656051 0 -0.06749643225217157 0.14951899698315271 0 -0.080853217727700322 0.1319277094887048 0 -0.092385766078441248 0.15561715161656051 0 -0.06749643225217157 0.14951899698315271 0 -0.092385766078441248 0.15561715161656051 0 -0.1011382997485865 0.2462111010100104 0 -0.1169925100011414 0.2256351842014008 0 -0.1011382997485865 0.2462111010100104 0 -0.089026504263378339 0.22758063191412711 0 -0.1011382997485865 0.2462111010100104 0 -0.10263644161255921 0.24851555584761839 0 -0.1182302698947966 0.24526389947704311 0 -0.1011382997485865 0.2462111010100104 0 -0.098735973162726309 0.24932888935710559 0 -0.085175028255402435 0.2423416320270998 0 -0.1011382997485865 0.2462111010100104 0 -0.098735973162726309 0.24932888935710559 0 -0.1011382997485865 0.2462111010100104 0 -0.098735973162726309 0.24932888935710559 0 -0.10263644161255921 0.24851555584761839 0 -0.098735973162726309 0.24932888935710559 0 -0.10263644161255921 0.24851555584761839 0 -0.1011382997485865 0.2462111010100104 0 -0.10263644161255921 0.24851555584761839 0 -0.10263644161255921 0.24851555584761839 0 -0.1182302698947966 0.24526389947704311 0 -0.1011382997485865 0.2462111010100104 0 -0.1182302698947966 0.24526389947704311 0 -0.1169925100011414 0.2256351842014008 0 -0.13192320011980541 0.22712800304841929 0 -0.1182302698947966 0.24526389947704311 0 -0.1169925100011414 0.2256351842014008 0 -0.1130290529278898 0.22044029689604869 0 -0.1169925100011414 0.2256351842014008 0 -0.1030316495588052 0.22691248877574671 0 -0.1130290529278898 0.22044029689604869 0 -0.1030316495588052 0.22691248877574671 0 -0.094971880853030238 0.21469522985714609 0 -0.1011382997485865 0.2462111010100104 0 -0.1169925100011414 0.2256351842014008 0 -0.1030316495588052 0.22691248877574671 0 -0.1011382997485865 0.2462111010100104 0 -0.1030316495588052 0.22691248877574671 0 -0.089026504263378339 0.22758063191412711 0 -0.1030316495588052 0.22691248877574671 0 -0.094971880853030238 0.21469522985714609 0 -0.089026504263378339 0.22758063191412711 0 -0.1130290529278898 0.22044029689604869 0 -0.094971880853030238 0.21469522985714609 0 -0.1130290529278898 0.22044029689604869 0 -0.094971880853030238 0.21469522985714609 0 -0.10708319386111149 0.20928040379329971 0 -0.094971880853030238 0.21469522985714609 0 -0.10708319386111149 0.20928040379329971 0 -0.094068804696155195 0.20123104660291599 0 -0.1130290529278898 0.22044029689604869 0 -0.10708319386111149 0.20928040379329971 0 -0.1198947966531404 0.20882891689842811 0 -0.1328467202536954 0.2050592673927904 0 -0.1169925100011414 0.2256351842014008 0 -0.1198947966531404 0.20882891689842811 0 -0.1130290529278898 0.22044029689604869 0 -0.1169925100011414 0.2256351842014008 0 -0.1198947966531404 0.20882891689842811 0 -0.1328467202536954 0.2050592673927904 0 -0.1169925100011414 0.2256351842014008 0 -0.1328467202536954 0.2050592673927904 0 -0.1198947966531404 0.20882891689842811 0 -0.12003394262236999 0.19586417607020851 0 -0.10708319386111149 0.20928040379329971 0 -0.1198947966531404 0.20882891689842811 0 -0.10833025236875631 0.1985611782496941 0 -0.1287141736261708 0.18323961355764659 0 -0.1103837702100872 0.18363190425248291 0 -0.12003394262236999 0.19586417607020851 0 -0.1198947966531404 0.20882891689842811 0 -0.12003394262236999 0.19586417607020851 0 -0.10833025236875631 0.1985611782496941 0 -0.1103837702100872 0.18363190425248291 0 -0.12003394262236999 0.19586417607020851 0 -0.10833025236875631 0.1985611782496941 0 -0.092154137601116265 0.18682524142413351 0 -0.10833025236875631 0.1985611782496941 0 -0.094068804696155195 0.20123104660291599 0 -0.1103837702100872 0.18363190425248291 0 -0.092154137601116265 0.18682524142413351 0 -0.10833025236875631 0.1985611782496941 0 -0.10708319386111149 0.20928040379329971 0 -0.10833025236875631 0.1985611782496941 0 -0.094068804696155195 0.20123104660291599 0 -0.094068804696155195 0.20123104660291599 0 -0.08150916802905879 0.1949376509069726 0 -0.07691470877817061 0.2089501628182435 0 -0.092154137601116265 0.18682524142413351 0 -0.094068804696155195 0.20123104660291599 0 -0.08150916802905879 0.1949376509069726 0 -0.092154137601116265 0.18682524142413351 0 -0.076629112645511366 0.18484710879711561 0 -0.08150916802905879 0.1949376509069726 0 -0.066837896440498701 0.19344992248878171 0 -0.07691470877817061 0.2089501628182435 0 -0.057366640716292022 0.2027307525456413 0 -0.076629112645511366 0.18484710879711561 0 -0.08150916802905879 0.1949376509069726 0 -0.066837896440498701 0.19344992248878171 0 -0.066837896440498701 0.19344992248878171 0 -0.07691470877817061 0.2089501628182435 0 -0.08150916802905879 0.1949376509069726 0 -0.066837896440498701 0.19344992248878171 0 -0.07691470877817061 0.2089501628182435 0 -0.07691470877817061 0.2089501628182435 0 -0.057366640716292022 0.2027307525456413 0 -0.07691470877817061 0.2089501628182435 0 -0.071248063905439918 0.22490649672192239 0 -0.057366640716292022 0.2027307525456413 0 -0.07691470877817061 0.2089501628182435 0 -0.089026504263378339 0.22758063191412711 0 -0.094971880853030238 0.21469522985714609 0 -0.094068804696155195 0.20123104660291599 0 -0.07691470877817061 0.2089501628182435 0 -0.094971880853030238 0.21469522985714609 0 -0.07691470877817061 0.2089501628182435 0 -0.094971880853030238 0.21469522985714609 0 -0.07691470877817061 0.2089501628182435 0 -0.089026504263378339 0.22758063191412711 0 -0.07691470877817061 0.2089501628182435 0 -0.089026504263378339 0.22758063191412711 0 -0.071248063905439918 0.22490649672192239 0 -0.089026504263378339 0.22758063191412711 0 -0.071248063905439918 0.22490649672192239 0 -0.085175028255402435 0.2423416320270998 0 -0.071248063905439918 0.22490649672192239 0 -0.064683427713709774 0.24159546573999521 0 -0.054322073705686473 0.2262403352864274 0 -0.075536809924525938 0.25416642543677709 0 -0.064683427713709774 0.24159546573999521 0 -0.085175028255402435 0.2423416320270998 0 -0.071248063905439918 0.22490649672192239 0 -0.064683427713709774 0.24159546573999521 0 -0.085175028255402435 0.2423416320270998 0 -0.075536809924525938 0.25416642543677709 0 -0.098735973162726309 0.24932888935710559 0 -0.085175028255402435 0.2423416320270998 0 -0.1011382997485865 0.2462111010100104 0 -0.089026504263378339 0.22758063191412711 0 -0.085175028255402435 0.2423416320270998 0 -0.046543650833338772 0.24342517367774341 0 -0.035214950344073057 0.2303428519826887 0 -0.030953842645404149 0.24517393807931431 0 -0.064683427713709774 0.24159546573999521 0 -0.046543650833338772 0.24342517367774341 0 -0.054322073705686473 0.2262403352864274 0 -0.052337646686325512 0.25900396151644839 0 -0.064683427713709774 0.24159546573999521 0 -0.046543650833338772 0.24342517367774341 0 -0.046543650833338772 0.24342517367774341 0 -0.054322073705686473 0.2262403352864274 0 -0.035214950344073057 0.2303428519826887 0 -0.054322073705686473 0.2262403352864274 0 -0.035214950344073057 0.2303428519826887 0 -0.041296092396318297 0.21330438727485401 0 -0.035214950344073057 0.2303428519826887 0 -0.041296092396318297 0.21330438727485401 0 -0.02175822456112661 0.21069665428647349 0 -0.041296092396318297 0.21330438727485401 0 -0.057366640716292022 0.2027307525456413 0 -0.037818572654413338 0.19651134227303921 0 -0.041296092396318297 0.21330438727485401 0 -0.037818572654413338 0.19651134227303921 0 -0.02175822456112661 0.21069665428647349 0 -0.071248063905439918 0.22490649672192239 0 -0.054322073705686473 0.2262403352864274 0 -0.057366640716292022 0.2027307525456413 0 -0.054322073705686473 0.2262403352864274 0 -0.041296092396318297 0.21330438727485401 0 -0.057366640716292022 0.2027307525456413 0 -0.066837896440498701 0.19344992248878171 0 -0.057366640716292022 0.2027307525456413 0 -0.050823174881066732 0.1864230187256869 0 -0.057366640716292022 0.2027307525456413 0 -0.037818572654413338 0.19651134227303921 0 -0.050823174881066732 0.1864230187256869 0 -0.057366640716292022 0.2027307525456413 0 -0.037818572654413338 0.19651134227303921 0 -0.037818572654413338 0.19651134227303921 0 -0.018270504592536759 0.1902919320004306 0 -0.02175822456112661 0.21069665428647349 0 -0.037818572654413338 0.19651134227303921 0 -0.018270504592536759 0.1902919320004306 0 -0.032222297428385283 0.17691755954275529 0 -0.037818572654413338 0.19651134227303921 0 -0.018270504592536759 0.1902919320004306 0 -0.018270504592536759 0.1902919320004306 0 -0.02175822456112661 0.21069665428647349 0 -0.018270504592536759 0.1902919320004306 0 -0.0049466766937072849 0.20258005026630521 0 -0.02175822456112661 0.21069665428647349 0 -0.018270504592536759 0.1902919320004306 0 -0.0049466766937072849 0.20258005026630521 0 0.0047573847998705074 0.18296538231838599 0 -0.0049466766937072849 0.20258005026630521 0 -0.02175822456112661 0.21069665428647349 0 -0.003494964378184928 0.22071353275294039 0 -0.035214950344073057 0.2303428519826887 0 -0.02175822456112661 0.21069665428647349 0 -0.017812017968824631 0.23217890239472841 0 -0.017812017968824631 0.23217890239472841 0 -0.003494964378184928 0.22071353275294039 0 -0.003016964063370512 0.2415134021912286 0 -0.02175822456112661 0.21069665428647349 0 -0.017812017968824631 0.23217890239472841 0 -0.003494964378184928 0.22071353275294039 0 -0.01719542379391149 0.2506967966615416 0 -0.017812017968824631 0.23217890239472841 0 -0.003016964063370512 0.2415134021912286 0 -0.035214950344073057 0.2303428519826887 0 -0.017812017968824631 0.23217890239472841 0 -0.030953842645404149 0.24517393807931431 0 -0.01719542379391149 0.2506967966615416 0 -0.017812017968824631 0.23217890239472841 0 -0.030953842645404149 0.24517393807931431 0 -0.0426070984259019 0.14342084234974489 0 -0.046552601425604023 0.16779937397917849 0 -0.02555336007183755 0.15332588962652199 0 -0.0426070984259019 0.14342084234974489 0 -0.033533713081940843 0.13183890825523009 0 -0.01771776459963223 0.13732268771633721 0 -0.0426070984259019 0.14342084234974489 0 -0.033533713081940843 0.13183890825523009 0 -0.057318589936539828 0.13388842662022091 0 -0.033533713081940843 0.13183890825523009 0 -0.057318589936539828 0.13388842662022091 0 -0.052614321462284293 0.1152082380256521 0 -0.06749643225217157 0.14951899698315271 0 -0.0426070984259019 0.14342084234974489 0 -0.06749643225217157 0.14951899698315271 0 -0.0426070984259019 0.14342084234974489 0 -0.057318589936539828 0.13388842662022091 0 -0.06749643225217157 0.14951899698315271 0 -0.0426070984259019 0.14342084234974489 0 -0.059860098652112108 0.1619523884955533 0 -0.063605499780670441 0.17883794188649721 0 -0.059860098652112108 0.1619523884955533 0 -0.046552601425604023 0.16779937397917849 0 -0.0426070984259019 0.14342084234974489 0 -0.059860098652112108 0.1619523884955533 0 -0.046552601425604023 0.16779937397917849 0 -0.063605499780670441 0.17883794188649721 0 -0.050823174881066732 0.1864230187256869 0 -0.046552601425604023 0.16779937397917849 0 -0.063605499780670441 0.17883794188649721 0 -0.066837896440498701 0.19344992248878171 0 -0.050823174881066732 0.1864230187256869 0 -0.037818572654413338 0.19651134227303921 0 -0.050823174881066732 0.1864230187256869 0 -0.032222297428385283 0.17691755954275529 0 -0.050823174881066732 0.1864230187256869 0 -0.032222297428385283 0.17691755954275529 0 -0.046552601425604023 0.16779937397917849 0 -0.032222297428385283 0.17691755954275529 0 -0.046552601425604023 0.16779937397917849 0 -0.02555336007183755 0.15332588962652199 0 -0.032222297428385283 0.17691755954275529 0 -0.01431557094485025 0.16715380065167529 0 -0.02555336007183755 0.15332588962652199 0 -0.018270504592536759 0.1902919320004306 0 -0.032222297428385283 0.17691755954275529 0 -0.01431557094485025 0.16715380065167529 0 -0.018270504592536759 0.1902919320004306 0 -0.01431557094485025 0.16715380065167529 0 -0.018270504592536759 0.1902919320004306 0 0.0047573847998705074 0.18296538231838599 0 -0.018270504592536759 0.1902919320004306 0 -0.01431557094485025 0.16715380065167529 0 0.0047573847998705074 0.18296538231838599 0 -0.01431557094485025 0.16715380065167529 0 0.0005372958881126724 0.16164109956220679 0 0.0047573847998705074 0.18296538231838599 0 -0.01431557094485025 0.16715380065167529 0 -0.010360637297160649 0.14401566930292051 0 0.0005372958881126724 0.16164109956220679 0 -0.010360637297160649 0.14401566930292051 0 0.0049610225062176024 0.14705309905088329 0 0.0005372958881126724 0.16164109956220679 0 -0.01431557094485025 0.16715380065167529 0 -0.010360637297160649 0.14401566930292051 0 -0.010360637297160649 0.14401566930292051 0 0.001136375120173527 0.1368585993861598 0 0.0049610225062176024 0.14705309905088329 0 -0.0426070984259019 0.14342084234974489 0 -0.02555336007183755 0.15332588962652199 0 -0.01771776459963223 0.13732268771633721 0 -0.01431557094485025 0.16715380065167529 0 -0.010360637297160649 0.14401566930292051 0 -0.02555336007183755 0.15332588962652199 0 -0.010360637297160649 0.14401566930292051 0 -0.02555336007183755 0.15332588962652199 0 -0.01771776459963223 0.13732268771633721 0 -0.033533713081940843 0.13183890825523009 0 -0.01771776459963223 0.13732268771633721 0 -0.022445693275200129 0.13005597284598069 0 -0.0426070984259019 0.14342084234974489 0 -0.01771776459963223 0.13732268771633721 0 -0.033533713081940843 0.13183890825523009 0 -0.022445693275200129 0.13005597284598069 0 -0.023269061830583991 0.1218600058170948 0 -0.022445693275200129 0.13005597284598069 0 -0.01526223358864345 0.12920228959526081 0 -0.023269061830583991 0.1218600058170948 0 -0.01771776459963223 0.13732268771633721 0 -0.022445693275200129 0.13005597284598069 0 -0.01526223358864345 0.12920228959526081 0 -0.010360637297160649 0.14401566930292051 0 -0.0064057036494700129 0.120877537954166 0 -0.010360637297160649 0.14401566930292051 0 -0.01526223358864345 0.12920228959526081 0 -0.0064057036494700129 0.120877537954166 0 -0.010360637297160649 0.14401566930292051 0 -0.0064057036494700129 0.120877537954166 0 0.001136375120173527 0.1368585993861598 0 -0.010360637297160649 0.14401566930292051 0 -0.01771776459963223 0.13732268771633721 0 -0.01526223358864345 0.12920228959526081 0 -0.01526223358864345 0.12920228959526081 0 -0.0064057036494700129 0.120877537954166 0 -0.023269061830583991 0.1218600058170948 0 -0.0064057036494700129 0.120877537954166 0 -0.0042497074669885964 0.10826399565444041 0 0.01062283059608147 0.1236846757350398 0 -0.0064057036494700129 0.120877537954166 0 -0.0042497074669885964 0.10826399565444041 0 -0.028185276797120171 0.1058503759738422 0 -0.0064057036494700129 0.120877537954166 0 -0.0042497074669885964 0.10826399565444041 0 -0.0042497074669885964 0.10826399565444041 0 -0.022510754962139921 0.089329919294035415 0 -0.0042497074669885964 0.10826399565444041 0 -0.00033187314373134621 0.085342911952544176 0 -0.022510754962139921 0.089329919294035415 0 -0.0042497074669885964 0.10826399565444041 0 -0.00033187314373134621 0.085342911952544176 0 -0.0042497074669885964 0.10826399565444041 0 -0.028185276797120171 0.1058503759738422 0 -0.022510754962139921 0.089329919294035415 0 -0.0064057036494700129 0.120877537954166 0 -0.028185276797120171 0.1058503759738422 0 -0.023269061830583991 0.1218600058170948 0 -0.0064057036494700129 0.120877537954166 0 -0.028185276797120171 0.1058503759738422 0 -0.028185276797120171 0.1058503759738422 0 -0.023269061830583991 0.1218600058170948 0 -0.037556803857237822 0.1176867967667132 0 -0.00033187314373134621 0.085342911952544176 0 -0.018479023147915309 0.067463028371944164 0 0.0035859611795239412 0.062421828250647557 0 -0.00033187314373134621 0.085342911952544176 0 -0.022510754962139921 0.089329919294035415 0 -0.018479023147915309 0.067463028371944164 0 -0.022510754962139921 0.089329919294035415 0 -0.018479023147915309 0.067463028371944164 0 -0.040771802457288842 0.070395842933628036 0 -0.018479023147915309 0.067463028371944164 0 -0.040771802457288842 0.070395842933628036 0 -0.034998293557944662 0.057743134189794751 0 -0.022510754962139921 0.089329919294035415 0 -0.040771802457288842 0.070395842933628036 0 -0.022510754962139921 0.089329919294035415 0 -0.040771802457288842 0.070395842933628036 0 -0.049964849944771912 0.090823213993520349 0 -0.049964849944771912 0.090823213993520349 0 -0.071744423092423598 0.075796052013198542 0 -0.049964849944771912 0.090823213993520349 0 -0.057159212203731623 0.067927738177466113 0 -0.071744423092423598 0.075796052013198542 0 -0.040771802457288842 0.070395842933628036 0 -0.049964849944771912 0.090823213993520349 0 -0.057159212203731623 0.067927738177466113 0 -0.040771802457288842 0.070395842933628036 0 -0.057159212203731623 0.067927738177466113 0 -0.059032849952437683 0.051461766573220408 0 -0.033533713081940843 0.13183890825523009 0 -0.037556803857237822 0.1176867967667132 0 -0.052614321462284293 0.1152082380256521 0 -0.033533713081940843 0.13183890825523009 0 -0.023269061830583991 0.1218600058170948 0 -0.037556803857237822 0.1176867967667132 0 -0.028185276797120171 0.1058503759738422 0 -0.049964849944771912 0.090823213993520349 0 -0.037556803857237822 0.1176867967667132 0 -0.049964849944771912 0.090823213993520349 0 -0.037556803857237822 0.1176867967667132 0 -0.052614321462284293 0.1152082380256521 0 -0.028185276797120171 0.1058503759738422 0 -0.049964849944771912 0.090823213993520349 0 -0.028185276797120171 0.1058503759738422 0 -0.022510754962139921 0.089329919294035415 0 -0.049964849944771912 0.090823213993520349 0 -0.049964849944771912 0.090823213993520349 0 -0.052614321462284293 0.1152082380256521 0 -0.06828129080061468 0.096220772923138187 0 -0.057318589936539828 0.13388842662022091 0 -0.052614321462284293 0.1152082380256521 0 -0.068764376541146116 0.1209654347132413 0 -0.052614321462284293 0.1152082380256521 0 -0.068764376541146116 0.1209654347132413 0 -0.06828129080061468 0.096220772923138187 0 -0.080853217727700322 0.1319277094887048 0 -0.068764376541146116 0.1209654347132413 0 -0.081570405090591422 0.1107093391367979 0 -0.092103115789512358 0.11935361619367239 0 -0.081570405090591422 0.1107093391367979 0 -0.092844883430150876 0.103309644455868 0 -0.080853217727700322 0.1319277094887048 0 -0.092103115789512358 0.11935361619367239 0 -0.081570405090591422 0.1107093391367979 0 -0.081570405090591422 0.1107093391367979 0 -0.081244041177829796 0.094470341547112424 0 -0.092844883430150876 0.103309644455868 0 -0.081244041177829796 0.094470341547112424 0 -0.092844883430150876 0.103309644455868 0 -0.091779203475368387 0.086315899206559521 0 -0.081570405090591422 0.1107093391367979 0 -0.081244041177829796 0.094470341547112424 0 -0.06828129080061468 0.096220772923138187 0 -0.068764376541146116 0.1209654347132413 0 -0.081570405090591422 0.1107093391367979 0 -0.06828129080061468 0.096220772923138187 0 -0.049964849944771912 0.090823213993520349 0 -0.06828129080061468 0.096220772923138187 0 -0.071744423092423598 0.075796052013198542 0 -0.081244041177829796 0.094470341547112424 0 -0.06828129080061468 0.096220772923138187 0 -0.071744423092423598 0.075796052013198542 0 -0.057159212203731623 0.067927738177466113 0 -0.071744423092423598 0.075796052013198542 0 -0.078980151088076628 0.052081766465450499 0 -0.071744423092423598 0.075796052013198542 0 -0.093042582360450599 0.070169992545320109 0 -0.091779203475368387 0.086315899206559521 0 -0.071744423092423598 0.075796052013198542 0 -0.093042582360450599 0.070169992545320109 0 -0.078980151088076628 0.052081766465450499 0 -0.081244041177829796 0.094470341547112424 0 -0.071744423092423598 0.075796052013198542 0 -0.091779203475368387 0.086315899206559521 0 -0.093042582360450599 0.070169992545320109 0 -0.1071050136328251 0.088258218625189358 0 -0.091779203475368387 0.086315899206559521 0 -0.1071050136328251 0.088258218625189358 0 -0.1020655757644853 0.097170438328673614 0 -0.093042582360450599 0.070169992545320109 0 -0.091779203475368387 0.086315899206559521 0 -0.1071050136328251 0.088258218625189358 0 -0.093042582360450599 0.070169992545320109 0 -0.1143801088273138 0.068154224893069895 0 -0.10181110170194251 0.052791395644046869 0 -0.093042582360450599 0.070169992545320109 0 -0.1071050136328251 0.088258218625189358 0 -0.1143801088273138 0.068154224893069895 0 -0.12910515462425129 0.07815730140611124 0 -0.1071050136328251 0.088258218625189358 0 -0.1143801088273138 0.068154224893069895 0 -0.13097575585842389 0.093896190759650944 0 -0.12910515462425129 0.07815730140611124 0 -0.1071050136328251 0.088258218625189358 0 -0.1071050136328251 0.088258218625189358 0 -0.11208926825644661 0.097275415897840473 0 -0.1211674449051999 0.1063464447050583 0 -0.13097575585842389 0.093896190759650944 0 -0.1071050136328251 0.088258218625189358 0 -0.1211674449051999 0.1063464447050583 0 -0.1071050136328251 0.088258218625189358 0 -0.1211674449051999 0.1063464447050583 0 -0.11208926825644661 0.097275415897840473 0 -0.1211674449051999 0.1063464447050583 0 -0.1065095100276356 0.1106930134579107 0 -0.11208926825644661 0.097275415897840473 0 -0.1211674449051999 0.1063464447050583 0 -0.13257072674167369 0.121014259673571 0 -0.1211674449051999 0.1063464447050583 0 -0.1182939396737577 0.11994366483382821 0 -0.10621647305476629 0.1316836506407067 0 -0.1182939396737577 0.11994366483382821 0 -0.1065095100276356 0.1106930134579107 0 -0.1211674449051999 0.1063464447050583 0 -0.1182939396737577 0.11994366483382821 0 -0.1065095100276356 0.1106930134579107 0 -0.10621647305476629 0.1316836506407067 0 -0.092103115789512358 0.11935361619367239 0 -0.1065095100276356 0.1106930134579107 0 -0.092103115789512358 0.11935361619367239 0 -0.092844883430150876 0.103309644455868 0 -0.1065095100276356 0.1106930134579107 0 -0.092844883430150876 0.103309644455868 0 -0.091779203475368387 0.086315899206559521 0 -0.1020655757644853 0.097170438328673614 0 -0.092844883430150876 0.103309644455868 0 -0.1065095100276356 0.1106930134579107 0 -0.1020655757644853 0.097170438328673614 0 -0.1071050136328251 0.088258218625189358 0 -0.11208926825644661 0.097275415897840473 0 -0.1020655757644853 0.097170438328673614 0 -0.11208926825644661 0.097275415897840473 0 -0.1065095100276356 0.1106930134579107 0 -0.1020655757644853 0.097170438328673614 0 -0.098144266564471533 0.030712184013318111 0 -0.1104540955244408 0.01018848165599631 0 -0.091918791884082557 0.01556065325032008 0 -0.094088428313765265 -0.01080549152202971 0 -0.1104540955244408 0.01018848165599631 0 -0.091918791884082557 0.01556065325032008 0 -0.1229846482582518 -0.0055933252605166392 0 -0.13575722351213351 0.01140985292457323 0 -0.1104540955244408 0.01018848165599631 0 -0.13575722351213351 0.01140985292457323 0 -0.1104540955244408 0.01018848165599631 0 -0.1210943312358304 0.024030109409973709 0 -0.098144266564471533 0.030712184013318111 0 -0.1104540955244408 0.01018848165599631 0 -0.1210943312358304 0.024030109409973709 0 -0.098144266564471533 0.030712184013318111 0 -0.1210943312358304 0.024030109409973709 0 -0.1114229379545132 0.040258678472495583 0 -0.1210943312358304 0.024030109409973709 0 -0.1114229379545132 0.040258678472495583 0 -0.1246420523158083 0.053501024822643628 0 -0.1357378888741137 0.064139599866413821 0 -0.1143801088273138 0.068154224893069895 0 -0.1246420523158083 0.053501024822643628 0 -0.1114229379545132 0.040258678472495583 0 -0.1246420523158083 0.053501024822643628 0 -0.10181110170194251 0.052791395644046869 0 -0.1143801088273138 0.068154224893069895 0 -0.1246420523158083 0.053501024822643628 0 -0.10181110170194251 0.052791395644046869 0 -0.1246420523158083 0.053501024822643628 0 -0.10181110170194251 0.052791395644046869 0 -0.098144266564471533 0.030712184013318111 0 -0.1114229379545132 0.040258678472495583 0 -0.10181110170194251 0.052791395644046869 0 -0.098144266564471533 0.030712184013318111 0 -0.10181110170194251 0.052791395644046869 0 -0.085791669897947245 0.042389228165984422 0 -0.098144266564471533 0.030712184013318111 0 -0.085791669897947245 0.042389228165984422 0 -0.082380785956087013 0.031800939667669913 0 -0.085791669897947245 0.042389228165984422 0 -0.075676370666356532 0.040316929318105862 0 -0.078023279261560774 0.046467883078000587 0 -0.085791669897947245 0.042389228165984422 0 -0.082380785956087013 0.031800939667669913 0 -0.075676370666356532 0.040316929318105862 0 -0.10181110170194251 0.052791395644046869 0 -0.085791669897947245 0.042389228165984422 0 -0.078980151088076628 0.052081766465450499 0 -0.093042582360450599 0.070169992545320109 0 -0.078980151088076628 0.052081766465450499 0 -0.093042582360450599 0.070169992545320109 0 -0.10181110170194251 0.052791395644046869 0 -0.078980151088076628 0.052081766465450499 0 -0.10181110170194251 0.052791395644046869 0 -0.078980151088076628 0.052081766465450499 0 -0.085791669897947245 0.042389228165984422 0 -0.078980151088076628 0.052081766465450499 0 -0.078023279261560774 0.046467883078000587 0 -0.078980151088076628 0.052081766465450499 0 -0.059032849952437683 0.051461766573220408 0 -0.057159212203731623 0.067927738177466113 0 -0.078980151088076628 0.052081766465450499 0 -0.059032849952437683 0.051461766573220408 0 -0.078980151088076628 0.052081766465450499 0 -0.07147209948857218 0.046478227673117267 0 -0.059032849952437683 0.051461766573220408 0 -0.078980151088076628 0.052081766465450499 0 -0.078023279261560774 0.046467883078000587 0 -0.07147209948857218 0.046478227673117267 0 -0.07147209948857218 0.046478227673117267 0 -0.066614985126626086 0.043600184350122577 0 -0.059032849952437683 0.051461766573220408 0 -0.066614985126626086 0.043600184350122577 0 -0.059032849952437683 0.051461766573220408 0 -0.075676370666356532 0.040316929318105862 0 -0.066614985126626086 0.043600184350122577 0 -0.070217321081443046 0.032100735593114528 0 -0.082380785956087013 0.031800939667669913 0 -0.075676370666356532 0.040316929318105862 0 -0.070217321081443046 0.032100735593114528 0 -0.075676370666356532 0.040316929318105862 0 -0.07147209948857218 0.046478227673117267 0 -0.066614985126626086 0.043600184350122577 0 -0.075676370666356532 0.040316929318105862 0 -0.078023279261560774 0.046467883078000587 0 -0.07147209948857218 0.046478227673117267 0 -0.066614985126626086 0.043600184350122577 0 -0.070217321081443046 0.032100735593114528 0 -0.060213120746678638 0.03504303207149409 0 -0.070217321081443046 0.032100735593114528 0 -0.063134280674815607 0.023092162013012271 0 -0.060213120746678638 0.03504303207149409 0 -0.070217321081443046 0.032100735593114528 0 -0.063134280674815607 0.023092162013012271 0 -0.076288090877342118 0.019133810666836119 0 -0.063134280674815607 0.023092162013012271 0 -0.076288090877342118 0.019133810666836119 0 -0.067039779668521232 0.010105980640848271 0 -0.082380785956087013 0.031800939667669913 0 -0.070217321081443046 0.032100735593114528 0 -0.076288090877342118 0.019133810666836119 0 -0.098144266564471533 0.030712184013318111 0 -0.082380785956087013 0.031800939667669913 0 -0.091918791884082557 0.01556065325032008 0 -0.082380785956087013 0.031800939667669913 0 -0.076288090877342118 0.019133810666836119 0 -0.091918791884082557 0.01556065325032008 0 -0.076288090877342118 0.019133810666836119 0 -0.091918791884082557 0.01556065325032008 0 -0.081085172306247816 0.0025859021146267891 0 -0.094088428313765265 -0.01080549152202971 0 -0.091918791884082557 0.01556065325032008 0 -0.081085172306247816 0.0025859021146267891 0 -0.068742186924726043 -0.0086194903703009189 0 -0.081085172306247816 0.0025859021146267891 0 -0.067039779668521232 0.010105980640848271 0 -0.068742186924726043 -0.0086194903703009189 0 -0.067039779668521232 0.010105980640848271 0 -0.054869737487993592 0.0029178759522425 0 -0.076288090877342118 0.019133810666836119 0 -0.081085172306247816 0.0025859021146267891 0 -0.067039779668521232 0.010105980640848271 0 -0.054869737487993592 0.0029178759522425 0 -0.052681354255752058 0.01564353569769604 0 -0.042652874009903703 0.0099066848102834365 0 -0.067039779668521232 0.010105980640848271 0 -0.054869737487993592 0.0029178759522425 0 -0.052681354255752058 0.01564353569769604 0 -0.063134280674815607 0.023092162013012271 0 -0.05310258864489148 0.025123532257866319 0 -0.052681354255752058 0.01564353569769604 0 -0.063134280674815607 0.023092162013012271 0 -0.067039779668521232 0.010105980640848271 0 -0.052681354255752058 0.01564353569769604 0 -0.063134280674815607 0.023092162013012271 0 -0.05310258864489148 0.025123532257866319 0 -0.060213120746678638 0.03504303207149409 0 -0.05310258864489148 0.025123532257866319 0 -0.043205828922975337 0.02411714780212668 0 -0.051218880622311488 0.034453861710231813 0 -0.05310258864489148 0.025123532257866319 0 -0.052681354255752058 0.01564353569769604 0 -0.043205828922975337 0.02411714780212668 0 -0.052681354255752058 0.01564353569769604 0 -0.043205828922975337 0.02411714780212668 0 -0.042652874009903703 0.0099066848102834365 0 -0.043205828922975337 0.02411714780212668 0 -0.031199434195007231 0.017837563642848449 0 -0.030849966771977589 0.029717449981441511 0 -0.043205828922975337 0.02411714780212668 0 -0.042652874009903703 0.0099066848102834365 0 -0.031199434195007231 0.017837563642848449 0 -0.042652874009903703 0.0099066848102834365 0 -0.030866146421930661 0.0051013618911337584 0 -0.031199434195007231 0.017837563642848449 0 -0.041481366433000169 -0.00038453264990213708 0 -0.042652874009903703 0.0099066848102834365 0 -0.030866146421930661 0.0051013618911337584 0 -0.041481366433000169 -0.00038453264990213708 0 -0.054869737487993592 0.0029178759522425 0 -0.042652874009903703 0.0099066848102834365 0 -0.040771802457288842 0.070395842933628036 0 -0.059032849952437683 0.051461766573220408 0 -0.040771802457288842 0.070395842933628036 0 -0.059032849952437683 0.051461766573220408 0 -0.046264087049259058 0.0510648892427958 0 -0.059032849952437683 0.051461766573220408 0 -0.052866050792052387 0.044263037200196448 0 -0.046264087049259058 0.0510648892427958 0 -0.059032849952437683 0.051461766573220408 0 -0.046264087049259058 0.0510648892427958 0 -0.052866050792052387 0.044263037200196448 0 -0.051218880622311488 0.034453861710231813 0 -0.039216228544449103 0.040838845471513813 0 -0.066614985126626086 0.043600184350122577 0 -0.059032849952437683 0.051461766573220408 0 -0.052866050792052387 0.044263037200196448 0 -0.066614985126626086 0.043600184350122577 0 -0.052866050792052387 0.044263037200196448 0 -0.060213120746678638 0.03504303207149409 0 -0.05310258864489148 0.025123532257866319 0 -0.060213120746678638 0.03504303207149409 0 -0.051218880622311488 0.034453861710231813 0 -0.052866050792052387 0.044263037200196448 0 -0.060213120746678638 0.03504303207149409 0 -0.051218880622311488 0.034453861710231813 0 -0.043205828922975337 0.02411714780212668 0 -0.051218880622311488 0.034453861710231813 0 -0.039216228544449103 0.040838845471513813 0 -0.043205828922975337 0.02411714780212668 0 -0.039216228544449103 0.040838845471513813 0 -0.030849966771977589 0.029717449981441511 0 -0.052866050792052387 0.044263037200196448 0 -0.039216228544449103 0.040838845471513813 0 -0.046264087049259058 0.0510648892427958 0 -0.039216228544449103 0.040838845471513813 0 -0.034998293557944662 0.057743134189794751 0 -0.046264087049259058 0.0510648892427958 0 -0.040771802457288842 0.070395842933628036 0 -0.034998293557944662 0.057743134189794751 0 -0.046264087049259058 0.0510648892427958 0 -0.039216228544449103 0.040838845471513813 0 -0.034998293557944662 0.057743134189794751 0 -0.02431357577902574 0.052322380870141232 0 -0.018479023147915309 0.067463028371944164 0 -0.034998293557944662 0.057743134189794751 0 -0.02431357577902574 0.052322380870141232 0 -0.018479023147915309 0.067463028371944164 0 -0.02431357577902574 0.052322380870141232 0 -0.0095044115204761075 0.052878811926969853 0 -0.02431357577902574 0.052322380870141232 0 -0.020794920970270778 0.039157540060757369 0 -0.0095044115204761075 0.052878811926969853 0 -0.039216228544449103 0.040838845471513813 0 -0.020794920970270778 0.039157540060757369 0 -0.030849966771977589 0.029717449981441511 0 -0.039216228544449103 0.040838845471513813 0 -0.02431357577902574 0.052322380870141232 0 -0.020794920970270778 0.039157540060757369 0 -0.020794920970270778 0.039157540060757369 0 -0.030849966771977589 0.029717449981441511 0 -0.018724030570990809 0.025824553449652961 0 -0.020794920970270778 0.039157540060757369 0 -0.0074877499501458528 0.038573985522885809 0 -0.018724030570990809 0.025824553449652961 0 -0.0074877499501458528 0.038573985522885809 0 -0.0095044115204761075 0.052878811926969853 0 0.0075037955027792277 0.039500744548750952 0 -0.020794920970270778 0.039157540060757369 0 -0.0074877499501458528 0.038573985522885809 0 -0.0095044115204761075 0.052878811926969853 0 -0.018479023147915309 0.067463028371944164 0 -0.0095044115204761075 0.052878811926969853 0 0.0035859611795239412 0.062421828250647557 0 -0.02096228291030559 0.012911857796594669 0 -0.017914414946056188 0.0017887383250859701 0 -0.0082164264281279105 0.0154690652578163 0 -0.02096228291030559 0.012911857796594669 0 -0.017914414946056188 0.0017887383250859701 0 -0.030866146421930661 0.0051013618911337584 0 -0.02096228291030559 0.012911857796594669 0 -0.030866146421930661 0.0051013618911337584 0 -0.031199434195007231 0.017837563642848449 0 -0.02096228291030559 0.012911857796594669 0 -0.031199434195007231 0.017837563642848449 0 -0.018724030570990809 0.025824553449652961 0 -0.031199434195007231 0.017837563642848449 0 -0.030849966771977589 0.029717449981441511 0 -0.018724030570990809 0.025824553449652961 0 -0.02096228291030559 0.012911857796594669 0 -0.018724030570990809 0.025824553449652961 0 -0.0082164264281279105 0.0154690652578163 0 -0.0074877499501458528 0.038573985522885809 0 -0.018724030570990809 0.025824553449652961 0 -0.0082164264281279105 0.0154690652578163 0 -0.0074877499501458528 0.038573985522885809 0 -0.0082164264281279105 0.0154690652578163 0 0.0114216298260333 0.016579660846854079 0 -0.0016637341516267971 -0.002949234294761292 0 -0.017914414946056188 0.0017887383250859701 0 -0.0082164264281279105 0.0154690652578163 0 -0.0016637341516267971 -0.002949234294761292 0 0.0114216298260333 0.016579660846854079 0 0.01479436547087698 -0.013131158263312249 0 0.0114216298260333 0.016579660846854079 0 0.016445881501026369 -0.012814459394094471 0 -0.0016637341516267971 -0.002949234294761292 0 -0.0082164264281279105 0.0154690652578163 0 0.0114216298260333 0.016579660846854079 0 0.0114216298260333 0.016579660846854079 0 0.024081433051412238 0.031201223447984559 0 0.0075037955027792277 0.039500744548750952 0 -0.0074877499501458528 0.038573985522885809 0 0.0114216298260333 0.016579660846854079 0 0.0114216298260333 0.016579660846854079 0 0.0075037955027792277 0.039500744548750952 0 0.024081433051412238 0.031201223447984559 0 0.03115177297572894 0.023938034917283999 0 0.026385097097448209 0.01524066562568456 0 0.0114216298260333 0.016579660846854079 0 0.024081433051412238 0.031201223447984559 0 0.026385097097448209 0.01524066562568456 0 0.024081433051412238 0.031201223447984559 0 0.03115177297572894 0.023938034917283999 0 0.037830662139376747 0.031258064610770971 0 0.03115177297572894 0.023938034917283999 0 0.026385097097448209 0.01524066562568456 0 0.035039612110262609 0.015737806390555619 0 0.026385097097448209 0.01524066562568456 0 0.035231158369571837 0.0081362343681430777 0 0.029042560596205781 -0.0039160125723961998 0 0.0114216298260333 0.016579660846854079 0 0.026385097097448209 0.01524066562568456 0 0.029042560596205781 -0.0039160125723961998 0 0.0114216298260333 0.016579660846854079 0 0.029042560596205781 -0.0039160125723961998 0 -0.0095044115204761075 0.052878811926969853 0 0.0035859611795239412 0.062421828250647557 0 0.0075037955027792277 0.039500744548750952 0 0.0035859611795239412 0.062421828250647557 0 0.021341092351896011 0.051425978817730068 0 0.020226695747622741 0.069015316985678893 0 0.0035859611795239412 0.062421828250647557 0 0.0075037955027792277 0.039500744548750952 0 0.021341092351896011 0.051425978817730068 0 0.0035859611795239412 0.062421828250647557 0 0.0075037955027792277 0.039500744548750952 0 -0.0074877499501458528 0.038573985522885809 0 0.0114216298260333 0.016579660846854079 0 0.0075037955027792277 0.039500744548750952 0 0.024081433051412238 0.031201223447984559 0 0.021341092351896011 0.051425978817730068 0 0.036356252894396188 0.046191921209878591 0 0.024081433051412238 0.031201223447984559 0 0.0075037955027792277 0.039500744548750952 0 0.021341092351896011 0.051425978817730068 0 0.021341092351896011 0.051425978817730068 0 0.036330918067910493 0.060724803845620817 0 0.020226695747622741 0.069015316985678893 0 0.045823946419174449 0.056159656707527587 0 0.036356252894396188 0.046191921209878591 0 0.053901800273969527 0.044497167007617827 0 0.045823946419174449 0.056159656707527587 0 0.036330918067910493 0.060724803845620817 0 0.049034533572194387 0.068136680121121465 0 0.021341092351896011 0.051425978817730068 0 0.036330918067910493 0.060724803845620817 0 0.036356252894396188 0.046191921209878591 0 0.045823946419174449 0.056159656707527587 0 0.036330918067910493 0.060724803845620817 0 0.036356252894396188 0.046191921209878591 0 0.037830662139376747 0.031258064610770971 0 0.053901800273969527 0.044497167007617827 0 0.043207398941342977 0.023669902017677571 0 0.036356252894396188 0.046191921209878591 0 0.037830662139376747 0.031258064610770971 0 0.053901800273969527 0.044497167007617827 0 0.024081433051412238 0.031201223447984559 0 0.036356252894396188 0.046191921209878591 0 0.037830662139376747 0.031258064610770971 0 0.053901800273969527 0.044497167007617827 0 0.043207398941342977 0.023669902017677571 0 0.05523588927050066 0.025630984872937818 0 0.053901800273969527 0.044497167007617827 0 0.043207398941342977 0.023669902017677571 0 0.053901800273969527 0.044497167007617827 0 0.05523588927050066 0.025630984872937818 0 0.065288723747561297 0.045585391028061903 0 0.05523588927050066 0.025630984872937818 0 0.065288723747561297 0.045585391028061903 0 0.053901800273969527 0.044497167007617827 0 0.065288723747561297 0.045585391028061903 0 0.064596201606597917 0.06532443199755722 0 0.053901800273969527 0.044497167007617827 0 0.064596201606597917 0.06532443199755722 0 0.045823946419174449 0.056159656707527587 0 0.053901800273969527 0.044497167007617827 0 0.053496227287401603 0.061247711353399313 0 0.053901800273969527 0.044497167007617827 0 0.064596201606597917 0.06532443199755722 0 0.062386001630036027 0.065280133781578764 0 0.053901800273969527 0.044497167007617827 0 0.053496227287401603 0.061247711353399313 0 0.062386001630036027 0.065280133781578764 0 0.045823946419174449 0.056159656707527587 0 0.053496227287401603 0.061247711353399313 0 0.049034533572194387 0.068136680121121465 0 0.035231158369571837 0.0081362343681430777 0 0.049526999433650652 0.0076288011374604676 0 0.035666204931526668 -0.0091287218140131271 0 0.046745225363403232 0.01491590660570884 0 0.035231158369571837 0.0081362343681430777 0 0.049526999433650652 0.0076288011374604676 0 0.046745225363403232 0.01491590660570884 0 0.035231158369571837 0.0081362343681430777 0 0.043207398941342977 0.023669902017677571 0 0.035231158369571837 0.0081362343681430777 0 0.029042560596205781 -0.0039160125723961998 0 0.026385097097448209 0.01524066562568456 0 0.035231158369571837 0.0081362343681430777 0 0.035039612110262609 0.015737806390555619 0 0.035231158369571837 0.0081362343681430777 0 0.035039612110262609 0.015737806390555619 0 0.035231158369571837 0.0081362343681430777 0 0.035039612110262609 0.015737806390555619 0 0.043207398941342977 0.023669902017677571 0 0.03115177297572894 0.023938034917283999 0 0.035039612110262609 0.015737806390555619 0 0.035542033283833367 0.021877581588168889 0 0.035542033283833367 0.021877581588168889 0 0.036179903598588678 0.025063118995900111 0 0.040195145995415682 0.023178794867376611 0 0.035039612110262609 0.015737806390555619 0 0.035542033283833367 0.021877581588168889 0 0.040195145995415682 0.023178794867376611 0 0.037830662139376747 0.031258064610770971 0 0.036179903598588678 0.025063118995900111 0 0.040195145995415682 0.023178794867376611 0 0.03115177297572894 0.023938034917283999 0 0.035542033283833367 0.021877581588168889 0 0.036179903598588678 0.025063118995900111 0 0.03115177297572894 0.023938034917283999 0 0.037830662139376747 0.031258064610770971 0 0.036179903598588678 0.025063118995900111 0 0.037830662139376747 0.031258064610770971 0 0.043207398941342977 0.023669902017677571 0 0.040195145995415682 0.023178794867376611 0 0.035039612110262609 0.015737806390555619 0 0.043207398941342977 0.023669902017677571 0 0.040195145995415682 0.023178794867376611 0 0.035231158369571837 0.0081362343681430777 0 0.043207398941342977 0.023669902017677571 0 0.043207398941342977 0.023669902017677571 0 0.040195145995415682 0.023178794867376611 0 0.043207398941342977 0.023669902017677571 0 0.052442516235453679 0.020086270075205821 0 0.05523588927050066 0.025630984872937818 0 0.046745225363403232 0.01491590660570884 0 0.043207398941342977 0.023669902017677571 0 0.052442516235453679 0.020086270075205821 0 0.052442516235453679 0.020086270075205821 0 0.05523588927050066 0.025630984872937818 0 0.043207398941342977 0.023669902017677571 0 0.05523588927050066 0.025630984872937818 0 0.052442516235453679 0.020086270075205821 0 0.05523588927050066 0.025630984872937818 0 0.067025248939001844 0.016215626490506431 0 0.052442516235453679 0.020086270075205821 0 0.049526999433650652 0.0076288011374604676 0 0.067025248939001844 0.016215626490506431 0 0.049526999433650652 0.0076288011374604676 0 0.067025248939001844 0.016215626490506431 0 0.060051642762946361 -0.0044525089007890492 0 0.046745225363403232 0.01491590660570884 0 0.052442516235453679 0.020086270075205821 0 0.049526999433650652 0.0076288011374604676 0 0.084437080594366276 0.00022370401243423409 0 0.067025248939001844 0.016215626490506431 0 0.060051642762946361 -0.0044525089007890492 0 0.084437080594366276 0.00022370401243423409 0 0.089631283469907411 0.017406868755316891 0 0.067025248939001844 0.016215626490506431 0 0.075213492014426619 0.028888063122846142 0 0.095191094758352593 0.032145141372754267 0 0.089631283469907411 0.017406868755316891 0 0.075213492014426619 0.028888063122846142 0 0.095191094758352593 0.032145141372754267 0 0.05523588927050066 0.025630984872937818 0 0.075213492014426619 0.028888063122846142 0 0.05523588927050066 0.025630984872937818 0 0.075213492014426619 0.028888063122846142 0 0.067025248939001844 0.016215626490506431 0 0.089631283469907411 0.017406868755316891 0 0.075213492014426619 0.028888063122846142 0 0.067025248939001844 0.016215626490506431 0 0.05523588927050066 0.025630984872937818 0 0.075213492014426619 0.028888063122846142 0 0.065288723747561297 0.045585391028061903 0 0.075213492014426619 0.028888063122846142 0 0.065288723747561297 0.045585391028061903 0 0.083241627782679739 0.045590313544218081 0 0.065288723747561297 0.045585391028061903 0 0.083241627782679739 0.045590313544218081 0 0.075341558224623573 0.065539797183185089 0 0.065288723747561297 0.045585391028061903 0 0.075341558224623573 0.065539797183185089 0 0.064596201606597917 0.06532443199755722 0 0.065288723747561297 0.045585391028061903 0 0.075341558224623573 0.065539797183185089 0 0.091213859032650113 0.054855996288888757 0 0.083241627782679739 0.045590313544218081 0 0.075341558224623573 0.065539797183185089 0 0.091213859032650113 0.054855996288888757 0 0.098506382213651711 0.06600408113352299 0 0.075341558224623573 0.065539797183185089 0 0.091213859032650113 0.054855996288888757 0 0.083241627782679739 0.045590313544218081 0 0.095392391714292021 0.044919029515622592 0 0.075213492014426619 0.028888063122846142 0 0.083241627782679739 0.045590313544218081 0 0.095191094758352593 0.032145141372754267 0 0.083241627782679739 0.045590313544218081 0 0.095191094758352593 0.032145141372754267 0 0.095392391714292021 0.044919029515622592 0 0.095191094758352593 0.032145141372754267 0 0.10351432607525959 0.040326868951808911 0 0.1151686975022785 0.035402219622662601 0 0.10351432607525959 0.040326868951808911 0 0.1038010509225181 0.051676827420442932 0 0.1151686975022785 0.035402219622662601 0 0.095191094758352593 0.032145141372754267 0 0.1151686975022785 0.035402219622662601 0 0.095392391714292021 0.044919029515622592 0 0.10351432607525959 0.040326868951808911 0 0.1038010509225181 0.051676827420442932 0 0.095191094758352593 0.032145141372754267 0 0.095392391714292021 0.044919029515622592 0 0.10351432607525959 0.040326868951808911 0 0.1038010509225181 0.051676827420442932 0 0.1122548441033026 0.047613049962560591 0 0.098506382213651711 0.06600408113352299 0 0.1122548441033026 0.047613049962560591 0 0.098506382213651711 0.06600408113352299 0 0.091213859032650113 0.054855996288888757 0 0.1038010509225181 0.051676827420442932 0 0.098506382213651711 0.06600408113352299 0 0.091213859032650113 0.054855996288888757 0 0.095392391714292021 0.044919029515622592 0 0.1038010509225181 0.051676827420442932 0 0.1122548441033026 0.047613049962560591 0 0.1211257190628785 0.066457432088030316 0 0.098506382213651711 0.06600408113352299 0 0.1122548441033026 0.047613049962560591 0 0.1211257190628785 0.066457432088030316 0 0.13424546126977871 0.050519135706838997 0 0.1122548441033026 0.047613049962560591 0 0.1196316558717337 0.036129844694685498 0 0.12600330599295401 0.02922201879159848 0 0.1038010509225181 0.051676827420442932 0 0.1122548441033026 0.047613049962560591 0 0.1151686975022785 0.035402219622662601 0 0.1038010509225181 0.051676827420442932 0 0.1151686975022785 0.035402219622662601 0 0.1122548441033026 0.047613049962560591 0 0.12600330599295401 0.02922201879159848 0 0.131610691090042 0.037859561177888343 0 0.1122548441033026 0.047613049962560591 0 0.12600330599295401 0.02922201879159848 0 0.1122548441033026 0.047613049962560591 0 0.1151686975022785 0.035402219622662601 0 0.1196316558717337 0.036129844694685498 0 0.1151686975022785 0.035402219622662601 0 0.1196316558717337 0.036129844694685498 0 0.12600330599295401 0.02922201879159848 0 0.1151686975022785 0.035402219622662601 0 0.1196316558717337 0.036129844694685498 0 0.1151686975022785 0.035402219622662601 0 0.1241883268797441 0.022489174730773769 0 0.10709826608751109 0.022068760607702801 0 0.1151686975022785 0.035402219622662601 0 0.1241883268797441 0.022489174730773769 0 0.12600330599295401 0.02922201879159848 0 0.1151686975022785 0.035402219622662601 0 0.1241883268797441 0.022489174730773769 0 0.1241883268797441 0.022489174730773769 0 0.1088225184257862 0.0048999169256575097 0 0.10709826608751109 0.022068760607702801 0 0.1088225184257862 0.0048999169256575097 0 0.13320795625720591 0.0095761298388824297 0 0.1251470615708736 -0.00050432347332847721 0 0.1088225184257862 0.0048999169256575097 0 0.13320795625720591 0.0095761298388824297 0 0.1241883268797441 0.022489174730773769 0 0.1088225184257862 0.0048999169256575097 0 0.13320795625720591 0.0095761298388824297 0 0.089631283469907411 0.017406868755316891 0 0.1088225184257862 0.0048999169256575097 0 0.10709826608751109 0.022068760607702801 0 0.084437080594366276 0.00022370401243423409 0 0.1088225184257862 0.0048999169256575097 0 0.084437080594366276 0.00022370401243423409 0 0.089631283469907411 0.017406868755316891 0 0.1088225184257862 0.0048999169256575097 0 0.095191094758352593 0.032145141372754267 0 0.1151686975022785 0.035402219622662601 0 0.10709826608751109 0.022068760607702801 0 0.089631283469907411 0.017406868755316891 0 0.095191094758352593 0.032145141372754267 0 0.10709826608751109 0.022068760607702801 0 0.10687521336026749 0.1027017700659625 0 0.1002164422711051 0.095013086396148139 0 0.1052568201108826 0.086186276426882563 0 0.1002164422711051 0.095013086396148139 0 0.094287473018207418 0.1031465517392542 0 0.095136574078912461 0.087249981394191906 0 0.10687521336026749 0.1027017700659625 0 0.1002164422711051 0.095013086396148139 0 0.094287473018207418 0.1031465517392542 0 0.10687521336026749 0.1027017700659625 0 0.094287473018207418 0.1031465517392542 0 0.10006519058042181 0.11406059317400399 0 0.094287473018207418 0.1031465517392542 0 0.10006519058042181 0.11406059317400399 0 0.090004185647161977 0.11480628703684261 0 0.10006519058042181 0.11406059317400399 0 0.10886971182943821 0.1174106351694956 0 0.10139750075742281 0.1369946812755492 0 0.10006519058042181 0.11406059317400399 0 0.090004185647161977 0.11480628703684261 0 0.10139750075742281 0.1369946812755492 0 0.10687521336026749 0.1027017700659625 0 0.10006519058042181 0.11406059317400399 0 0.10886971182943821 0.1174106351694956 0 0.1178902138897903 0.1112794477941655 0 0.12690579221140899 0.1050942499853325 0 0.12662492251817839 0.1229029434758243 0 0.10687521336026749 0.1027017700659625 0 0.10886971182943821 0.1174106351694956 0 0.1178902138897903 0.1112794477941655 0 0.10886971182943821 0.1174106351694956 0 0.1178902138897903 0.1112794477941655 0 0.1151251205789172 0.1255217161929999 0 0.1178902138897903 0.1112794477941655 0 0.1151251205789172 0.1255217161929999 0 0.12662492251817839 0.1229029434758243 0 0.10687521336026749 0.1027017700659625 0 0.1182499720176939 0.09708088954641543 0 0.1052568201108826 0.086186276426882563 0 0.1178902138897903 0.1112794477941655 0 0.1182499720176939 0.09708088954641543 0 0.12690579221140899 0.1050942499853325 0 0.10687521336026749 0.1027017700659625 0 0.1178902138897903 0.1112794477941655 0 0.1182499720176939 0.09708088954641543 0 0.1182499720176939 0.09708088954641543 0 0.1206961788848588 0.084642225325637754 0 0.13045298779972361 0.092405662763910712 0 0.1206961788848588 0.084642225325637754 0 0.1211257190628785 0.066457432088030316 0 0.1052568201108826 0.086186276426882563 0 0.1182499720176939 0.09708088954641543 0 0.1206961788848588 0.084642225325637754 0 0.1052568201108826 0.086186276426882563 0 0.1206961788848588 0.084642225325637754 0 0.1211257190628785 0.066457432088030316 0 0.130970104713407 0.0800604943328517 0 0.1211257190628785 0.066457432088030316 0 0.098506382213651711 0.06600408113352299 0 0.1211257190628785 0.066457432088030316 0 0.098506382213651711 0.06600408113352299 0 0.1052568201108826 0.086186276426882563 0 0.098506382213651711 0.06600408113352299 0 0.1052568201108826 0.086186276426882563 0 0.095136574078912461 0.087249981394191906 0 0.1002164422711051 0.095013086396148139 0 0.1052568201108826 0.086186276426882563 0 0.095136574078912461 0.087249981394191906 0 0.098506382213651711 0.06600408113352299 0 0.095136574078912461 0.087249981394191906 0 0.084807362104348472 0.084328975064490372 0 0.094287473018207418 0.1031465517392542 0 0.084807362104348472 0.084328975064490372 0 0.078610870536903646 0.09261789279813476 0 0.094287473018207418 0.1031465517392542 0 0.084807362104348472 0.084328975064490372 0 0.094287473018207418 0.1031465517392542 0 0.095136574078912461 0.087249981394191906 0 0.084807362104348472 0.084328975064490372 0 0.084807362104348472 0.084328975064490372 0 0.078610870536903646 0.09261789279813476 0 0.071603536071749102 0.07897116239784685 0 0.084807362104348472 0.084328975064490372 0 0.078610870536903646 0.09261789279813476 0 0.098506382213651711 0.06600408113352299 0 0.084807362104348472 0.084328975064490372 0 0.075341558224623573 0.065539797183185089 0 0.098506382213651711 0.06600408113352299 0 0.084807362104348472 0.084328975064490372 0 0.084807362104348472 0.084328975064490372 0 0.075341558224623573 0.065539797183185089 0 0.098506382213651711 0.06600408113352299 0 0.075341558224623573 0.065539797183185089 0 0.084807362104348472 0.084328975064490372 0 0.075341558224623573 0.065539797183185089 0 0.071603536071749102 0.07897116239784685 0 0.075341558224623573 0.065539797183185089 0 0.064596201606597917 0.06532443199755722 0 0.071603536071749102 0.07897116239784685 0 0.064596201606597917 0.06532443199755722 0 0.071603536071749102 0.07897116239784685 0 0.063304548456353887 0.074610102292354319 0 0.064596201606597917 0.06532443199755722 0 0.071603536071749102 0.07897116239784685 0 0.075341558224623573 0.065539797183185089 0 0.064596201606597917 0.06532443199755722 0 0.063304548456353887 0.074610102292354319 0 0.064596201606597917 0.06532443199755722 0 0.062386001630036027 0.065280133781578764 0 0.064596201606597917 0.06532443199755722 0 0.062386001630036027 0.065280133781578764 0 0.078610870536903646 0.09261789279813476 0 0.071603536071749102 0.07897116239784685 0 0.064518553802425951 0.088350140201262153 0 0.078610870536903646 0.09261789279813476 0 0.071603536071749102 0.07897116239784685 0 0.063304548456353887 0.074610102292354319 0 0.071603536071749102 0.07897116239784685 0 0.064518553802425951 0.088350140201262153 0 0.078610870536903646 0.09261789279813476 0 0.064518553802425951 0.088350140201262153 0 0.067175191687166347 0.1079151622581436 0 0.078610870536903646 0.09261789279813476 0 0.067175191687166347 0.1079151622581436 0 0.078610870536903646 0.09261789279813476 0 0.067175191687166347 0.1079151622581436 0 0.090004185647161977 0.11480628703684261 0 0.078610870536903646 0.09261789279813476 0 0.090004185647161977 0.11480628703684261 0 0.094287473018207418 0.1031465517392542 0 0.078610870536903646 0.09261789279813476 0 0.090004185647161977 0.11480628703684261 0 0.067175191687166347 0.1079151622581436 0 0.090004185647161977 0.11480628703684261 0 0.080584627778505113 0.1275611178956953 0 0.067175191687166347 0.1079151622581436 0 0.080584627778505113 0.1275611178956953 0 0.065979224416497131 0.1259649336123333 0 0.067175191687166347 0.1079151622581436 0 0.05058807846224516 0.1148604176446419 0 0.065979224416497131 0.1259649336123333 0 0.05058807846224516 0.1148604176446419 0 0.05275042000624211 0.12821761571000581 0 0.065979224416497131 0.1259649336123333 0 0.05058807846224516 0.1148604176446419 0 0.038182112214774008 0.12234216219425401 0 0.05275042000624211 0.12821761571000581 0 0.05058807846224516 0.1148604176446419 0 0.054221435091592801 0.097066413378897431 0 0.042140268166830162 0.1024861238912564 0 0.067175191687166347 0.1079151622581436 0 0.05058807846224516 0.1148604176446419 0 0.054221435091592801 0.097066413378897431 0 0.064518553802425951 0.088350140201262153 0 0.067175191687166347 0.1079151622581436 0 0.054221435091592801 0.097066413378897431 0 0.054221435091592801 0.097066413378897431 0 0.042140268166830162 0.1024861238912564 0 0.041589736901272961 0.090049126362016244 0 0.042140268166830162 0.1024861238912564 0 0.041589736901272961 0.090049126362016244 0 0.030291619275258821 0.098622855160756709 0 0.042140268166830162 0.1024861238912564 0 0.031605751060895498 0.1113650802191645 0 0.030291619275258821 0.098622855160756709 0 0.05058807846224516 0.1148604176446419 0 0.042140268166830162 0.1024861238912564 0 0.031605751060895498 0.1113650802191645 0 0.05058807846224516 0.1148604176446419 0 0.031605751060895498 0.1113650802191645 0 0.038182112214774008 0.12234216219425401 0 0.031605751060895498 0.1113650802191645 0 0.038182112214774008 0.12234216219425401 0 0.025649070683847419 0.1237899799840556 0 0.053496227287401603 0.061247711353399313 0 0.049034533572194387 0.068136680121121465 0 0.056610824285364403 0.0705589073494199 0 0.063304548456353887 0.074610102292354319 0 0.062386001630036027 0.065280133781578764 0 0.056610824285364403 0.0705589073494199 0 0.053496227287401603 0.061247711353399313 0 0.062386001630036027 0.065280133781578764 0 0.056610824285364403 0.0705589073494199 0 0.063304548456353887 0.074610102292354319 0 0.056610824285364403 0.0705589073494199 0 0.053559653827117998 0.080724575909181806 0 0.049034533572194387 0.068136680121121465 0 0.056610824285364403 0.0705589073494199 0 0.053559653827117998 0.080724575909181806 0 0.064518553802425951 0.088350140201262153 0 0.054221435091592801 0.097066413378897431 0 0.053559653827117998 0.080724575909181806 0 0.054221435091592801 0.097066413378897431 0 0.053559653827117998 0.080724575909181806 0 0.041589736901272961 0.090049126362016244 0 0.063304548456353887 0.074610102292354319 0 0.064518553802425951 0.088350140201262153 0 0.053559653827117998 0.080724575909181806 0 0.053559653827117998 0.080724575909181806 0 0.041589736901272961 0.090049126362016244 0 0.037399080168319429 0.075835875238428607 0 0.041589736901272961 0.090049126362016244 0 0.037399080168319429 0.075835875238428607 0 0.023691445226066761 0.086864713589133308 0 0.041589736901272961 0.090049126362016244 0 0.023691445226066761 0.086864713589133308 0 0.030291619275258821 0.098622855160756709 0 0.049034533572194387 0.068136680121121465 0 0.053559653827117998 0.080724575909181806 0 0.037399080168319429 0.075835875238428607 0 0.036330918067910493 0.060724803845620817 0 0.037399080168319429 0.075835875238428607 0 0.020226695747622741 0.069015316985678893 0 0.036330918067910493 0.060724803845620817 0 0.049034533572194387 0.068136680121121465 0 0.037399080168319429 0.075835875238428607 0 0.037399080168319429 0.075835875238428607 0 0.020226695747622741 0.069015316985678893 0 0.023691445226066761 0.086864713589133308 0 -0.00033187314373134621 0.085342911952544176 0 0.023691445226066761 0.086864713589133308 0 0.01405156558595072 0.10549553806589861 0 -0.00033187314373134621 0.085342911952544176 0 0.020226695747622741 0.069015316985678893 0 0.023691445226066761 0.086864713589133308 0 -0.00033187314373134621 0.085342911952544176 0 0.0035859611795239412 0.062421828250647557 0 -0.00033187314373134621 0.085342911952544176 0 0.0035859611795239412 0.062421828250647557 0 0.020226695747622741 0.069015316985678893 0 0.031605751060895498 0.1113650802191645 0 0.02000975999566967 0.1160066496968656 0 0.01405156558595072 0.10549553806589861 0 0.02000975999566967 0.1160066496968656 0 0.025649070683847419 0.1237899799840556 0 0.01062283059608147 0.1236846757350398 0 0.031605751060895498 0.1113650802191645 0 0.02000975999566967 0.1160066496968656 0 0.025649070683847419 0.1237899799840556 0 0.023691445226066761 0.086864713589133308 0 0.030291619275258821 0.098622855160756709 0 0.01405156558595072 0.10549553806589861 0 0.031605751060895498 0.1113650802191645 0 0.030291619275258821 0.098622855160756709 0 0.01405156558595072 0.10549553806589861 0 -0.0042497074669885964 0.10826399565444041 0 -0.00033187314373134621 0.085342911952544176 0 0.01405156558595072 0.10549553806589861 0 0.02000975999566967 0.1160066496968656 0 0.01405156558595072 0.10549553806589861 0 0.01062283059608147 0.1236846757350398 0 -0.0042497074669885964 0.10826399565444041 0 0.01062283059608147 0.1236846757350398 0 -0.0042497074669885964 0.10826399565444041 0 0.01405156558595072 0.10549553806589861 0 0.01062283059608147 0.1236846757350398 0 -0.0064057036494700129 0.120877537954166 0 0.01062283059608147 0.1236846757350398 0 0.015021332590232431 0.1356614615025889 0 -0.0064057036494700129 0.120877537954166 0 0.001136375120173527 0.1368585993861598 0 0.015021332590232431 0.1356614615025889 0 -0.0064057036494700129 0.120877537954166 0 0.015021332590232431 0.1356614615025889 0 0.001136375120173527 0.1368585993861598 0 0.015021332590232431 0.1356614615025889 0 0.0049610225062176024 0.14705309905088329 0 0.025649070683847419 0.1237899799840556 0 0.01062283059608147 0.1236846757350398 0 0.015021332590232431 0.1356614615025889 0 0.025649070683847419 0.1237899799840556 0 0.015021332590232431 0.1356614615025889 0 0.040378809168632457 0.13406064886914021 0 0.015021332590232431 0.1356614615025889 0 0.040378809168632457 0.13406064886914021 0 0.036448368829933547 0.15044538505101401 0 0.015021332590232431 0.1356614615025889 0 0.036448368829933547 0.15044538505101401 0 0.015021332590232431 0.1356614615025889 0 0.01581177356797844 0.15743540603237871 0 0.036448368829933547 0.15044538505101401 0 0.015021332590232431 0.1356614615025889 0 0.0049610225062176024 0.14705309905088329 0 0.01581177356797844 0.15743540603237871 0 0.0049610225062176024 0.14705309905088329 0 0.0005372958881126724 0.16164109956220679 0 0.01581177356797844 0.15743540603237871 0 0.0005372958881126724 0.16164109956220679 0 0.0047573847998705074 0.18296538231838599 0 0.01581177356797844 0.15743540603237871 0 0.0047573847998705074 0.18296538231838599 0 0.027785274192275711 0.17563883263633501 0 0.0047573847998705074 0.18296538231838599 0 0.027785274192275711 0.17563883263633501 0 0.01581177356797844 0.15743540603237871 0 0.0047573847998705074 0.18296538231838599 0 0.027785274192275711 0.17563883263633501 0 0.026625322756392299 0.19738343983540521 0 0.027785274192275711 0.17563883263633501 0 0.01581177356797844 0.15743540603237871 0 0.036448368829933547 0.15044538505101401 0 0.050813163584680868 0.16831228295428391 0 0.051557676972084583 0.1504117150888461 0 0.036448368829933547 0.15044538505101401 0 0.027785274192275711 0.17563883263633501 0 0.050813163584680868 0.16831228295428391 0 0.036448368829933547 0.15044538505101401 0 0.027785274192275711 0.17563883263633501 0 0.050813163584680868 0.16831228295428391 0 0.027785274192275711 0.17563883263633501 0 0.050813163584680868 0.16831228295428391 0 0.044536090394527918 0.199401516843837 0 0.050813163584680868 0.16831228295428391 0 0.044536090394527918 0.199401516843837 0 0.064710077107411862 0.18248483828211279 0 0.050813163584680868 0.16831228295428391 0 0.061524167508114243 0.15538034234013279 0 0.073841052977086027 0.16098573327223289 0 0.050813163584680868 0.16831228295428391 0 0.073841052977086027 0.16098573327223289 0 0.050813163584680868 0.16831228295428391 0 0.051557676972084583 0.1504117150888461 0 0.061524167508114243 0.15538034234013279 0 0.051557676972084583 0.1504117150888461 0 0.040378809168632457 0.13406064886914021 0 0.068623875769061773 0.14385991622965971 0 0.051557676972084583 0.1504117150888461 0 0.061524167508114243 0.15538034234013279 0 0.068623875769061773 0.14385991622965971 0 0.05275042000624211 0.12821761571000581 0 0.040378809168632457 0.13406064886914021 0 0.068623875769061773 0.14385991622965971 0 0.05275042000624211 0.12821761571000581 0 0.065979224416497131 0.1259649336123333 0 0.068623875769061773 0.14385991622965971 0 0.040378809168632457 0.13406064886914021 0 0.068623875769061773 0.14385991622965971 0 0.038182112214774008 0.12234216219425401 0 0.05275042000624211 0.12821761571000581 0 0.040378809168632457 0.13406064886914021 0 0.038182112214774008 0.12234216219425401 0 0.025649070683847419 0.1237899799840556 0 0.040378809168632457 0.13406064886914021 0 0.051557676972084583 0.1504117150888461 0 0.040378809168632457 0.13406064886914021 0 0.036448368829933547 0.15044538505101401 0 0.02757432341419273 0.24851232677057111 0 0.01210965891559849 0.23195265245171021 0 0.01087355115046874 0.25127924265677892 0 0.02757432341419273 0.24851232677057111 0 0.01210965891559849 0.23195265245171021 0 0.02745135157717243 0.2229252644987037 0 -0.003016964063370512 0.2415134021912286 0 0.01210965891559849 0.23195265245171021 0 0.01087355115046874 0.25127924265677892 0 -0.003494964378184928 0.22071353275294039 0 0.01210965891559849 0.23195265245171021 0 0.01353087873301009 0.20716749853149721 0 -0.003494964378184928 0.22071353275294039 0 -0.003016964063370512 0.2415134021912286 0 0.01210965891559849 0.23195265245171021 0 0.01210965891559849 0.23195265245171021 0 0.02745135157717243 0.2229252644987037 0 0.01353087873301009 0.20716749853149721 0 0.02745135157717243 0.2229252644987037 0 0.01353087873301009 0.20716749853149721 0 0.02745135157717243 0.2229252644987037 0 0.01353087873301009 0.20716749853149721 0 0.026625322756392299 0.19738343983540521 0 -0.0049466766937072849 0.20258005026630521 0 -0.003494964378184928 0.22071353275294039 0 0.01353087873301009 0.20716749853149721 0 0.0047573847998705074 0.18296538231838599 0 0.01353087873301009 0.20716749853149721 0 0.026625322756392299 0.19738343983540521 0 -0.0049466766937072849 0.20258005026630521 0 0.0047573847998705074 0.18296538231838599 0 0.01353087873301009 0.20716749853149721 0 0.027785274192275711 0.17563883263633501 0 0.026625322756392299 0.19738343983540521 0 0.044536090394527918 0.199401516843837 0 0.044536090394527918 0.199401516843837 0 0.072566412321396365 0.202832947363946 0 0.064710077107411862 0.18248483828211279 0 0.044536090394527918 0.199401516843837 0 0.056502932814282078 0.21775583759382969 0 0.072566412321396365 0.202832947363946 0 0.044536090394527918 0.199401516843837 0 0.056502932814282078 0.21775583759382969 0 0.040989824930082477 0.21479194222027961 0 0.02745135157717243 0.2229252644987037 0 0.026625322756392299 0.19738343983540521 0 0.040989824930082477 0.21479194222027961 0 0.026625322756392299 0.19738343983540521 0 0.044536090394527918 0.199401516843837 0 0.040989824930082477 0.21479194222027961 0 0.02745135157717243 0.2229252644987037 0 0.041371824421334809 0.23868303046591041 0 0.056502932814282078 0.21775583759382969 0 0.040989824930082477 0.21479194222027961 0 0.041371824421334809 0.23868303046591041 0 0.02745135157717243 0.2229252644987037 0 0.040989824930082477 0.21479194222027961 0 0.041371824421334809 0.23868303046591041 0 0.056502932814282078 0.21775583759382969 0 0.062117897249489247 0.23599403118928219 0 0.041371824421334809 0.23868303046591041 0 0.041371824421334809 0.23868303046591041 0 0.055292297265498828 0.25444079643311551 0 0.062117897249489247 0.23599403118928219 0 0.041371824421334809 0.23868303046591041 0 0.055292297265498828 0.25444079643311551 0 0.041371824421334809 0.23868303046591041 0 0.040662600338095108 0.25159025897392229 0 0.055292297265498828 0.25444079643311551 0 0.02757432341419273 0.24851232677057111 0 0.02745135157717243 0.2229252644987037 0 0.041371824421334809 0.23868303046591041 0 0.02757432341419273 0.24851232677057111 0 0.041371824421334809 0.23868303046591041 0 0.040662600338095108 0.25159025897392229 0 0.084577475888514095 0.24477061795757421 0 0.081046380894305575 0.23194077721121389 0 0.1074681547105299 0.22786196184772001 0 0.084577475888514095 0.24477061795757421 0 0.071484012278383913 0.24639217042623321 0 0.081046380894305575 0.23194077721121389 0 0.062117897249489247 0.23599403118928219 0 0.071484012278383913 0.24639217042623321 0 0.081046380894305575 0.23194077721121389 0 0.062117897249489247 0.23599403118928219 0 0.071484012278383913 0.24639217042623321 0 0.055292297265498828 0.25444079643311551 0 0.056502932814282078 0.21775583759382969 0 0.062117897249489247 0.23599403118928219 0 0.071108453876637584 0.22185484169098871 0 0.062117897249489247 0.23599403118928219 0 0.071108453876637584 0.22185484169098871 0 0.081046380894305575 0.23194077721121389 0 0.071108453876637584 0.22185484169098871 0 0.081046380894305575 0.23194077721121389 0 0.089522291362278822 0.2147710401554852 0 0.081046380894305575 0.23194077721121389 0 0.089522291362278822 0.2147710401554852 0 0.1074681547105299 0.22786196184772001 0 0.089522291362278822 0.2147710401554852 0 0.072566412321396365 0.202832947363946 0 0.095347947744241601 0.194325352452803 0 0.056502932814282078 0.21775583759382969 0 0.071108453876637584 0.22185484169098871 0 0.072566412321396365 0.202832947363946 0 0.071108453876637584 0.22185484169098871 0 0.089522291362278822 0.2147710401554852 0 0.072566412321396365 0.202832947363946 0 0.072566412321396365 0.202832947363946 0 0.064710077107411862 0.18248483828211279 0 0.081793666259368042 0.18089171097626419 0 0.072566412321396365 0.202832947363946 0 0.095347947744241601 0.194325352452803 0 0.081793666259368042 0.18089171097626419 0 0.095347947744241601 0.194325352452803 0 0.11040626468546511 0.20402885088465761 0 0.111692276896889 0.18736495659554089 0 0.11040626468546511 0.20402885088465761 0 0.13035883353254571 0.21095330573786569 0 0.12804808386630559 0.18889648851853069 0 0.11040626468546511 0.20402885088465761 0 0.111692276896889 0.18736495659554089 0 0.12804808386630559 0.18889648851853069 0 0.11040626468546511 0.20402885088465761 0 0.1074681547105299 0.22786196184772001 0 0.13035883353254571 0.21095330573786569 0 0.089522291362278822 0.2147710401554852 0 0.11040626468546511 0.20402885088465761 0 0.1074681547105299 0.22786196184772001 0 0.089522291362278822 0.2147710401554852 0 0.095347947744241601 0.194325352452803 0 0.11040626468546511 0.20402885088465761 0 0.1074681547105299 0.22786196184772001 0 0.1333345149716626 0.22977716241396609 0 0.13035883353254571 0.21095330573786569 0 0.1074681547105299 0.22786196184772001 0 0.13035883353254571 0.21095330573786569 0 0.1074681547105299 0.22786196184772001 0 0.12358662914375811 0.24562408341310979 0 0.1032656199459439 0.25052158303601452 0 0.1074681547105299 0.22786196184772001 0 0.12358662914375811 0.24562408341310979 0 0.1333345149716626 0.22977716241396609 0 0.084577475888514095 0.24477061795757421 0 0.1074681547105299 0.22786196184772001 0 0.084577475888514095 0.24477061795757421 0 0.1074681547105299 0.22786196184772001 0 0.1032656199459439 0.25052158303601452 0 0.068623875769061773 0.14385991622965971 0 0.073841052977086027 0.16098573327223289 0 0.096868942369490715 0.15365918359018041 0 0.085246545135618565 0.14155324487649651 0 0.068623875769061773 0.14385991622965971 0 0.096868942369490715 0.15365918359018041 0 0.068623875769061773 0.14385991622965971 0 0.096868942369490715 0.15365918359018041 0 0.085246545135618565 0.14155324487649651 0 0.095159999367695786 0.14644604670685249 0 0.096868942369490715 0.15365918359018041 0 0.085246545135618565 0.14155324487649651 0 0.080584627778505113 0.1275611178956953 0 0.10139750075742281 0.1369946812755492 0 0.085246545135618565 0.14155324487649651 0 0.080584627778505113 0.1275611178956953 0 0.068623875769061773 0.14385991622965971 0 0.090004185647161977 0.11480628703684261 0 0.080584627778505113 0.1275611178956953 0 0.10139750075742281 0.1369946812755492 0 0.080584627778505113 0.1275611178956953 0 0.065979224416497131 0.1259649336123333 0 0.068623875769061773 0.14385991622965971 0 0.061524167508114243 0.15538034234013279 0 0.068623875769061773 0.14385991622965971 0 0.073841052977086027 0.16098573327223289 0 0.050813163584680868 0.16831228295428391 0 0.073841052977086027 0.16098573327223289 0 0.064710077107411862 0.18248483828211279 0 0.073841052977086027 0.16098573327223289 0 0.064710077107411862 0.18248483828211279 0 0.081793666259368042 0.18089171097626419 0 0.081793666259368042 0.18089171097626419 0 0.08836366198319473 0.16754654019420409 0 0.1009509863268338 0.17464953293814009 0 0.095347947744241601 0.194325352452803 0 0.081793666259368042 0.18089171097626419 0 0.1009509863268338 0.17464953293814009 0 0.073841052977086027 0.16098573327223289 0 0.096868942369490715 0.15365918359018041 0 0.073841052977086027 0.16098573327223289 0 0.081793666259368042 0.18089171097626419 0 0.08836366198319473 0.16754654019420409 0 0.073841052977086027 0.16098573327223289 0 0.08836366198319473 0.16754654019420409 0 0.096868942369490715 0.15365918359018041 0 0.1009509863268338 0.17464953293814009 0 0.1127908158676826 0.15918307551425609 0 0.096868942369490715 0.15365918359018041 0 0.08836366198319473 0.16754654019420409 0 0.1009509863268338 0.17464953293814009 0 0.096868942369490715 0.15365918359018041 0 0.1127908158676826 0.15918307551425609 0 0.096868942369490715 0.15365918359018041 0 0.095347947744241601 0.194325352452803 0 0.1009509863268338 0.17464953293814009 0 0.111692276896889 0.18736495659554089 0 0.111692276896889 0.18736495659554089 0 0.1204194498669946 0.1740397820163932 0 0.12804808386630559 0.18889648851853069 0 0.1009509863268338 0.17464953293814009 0 0.111692276896889 0.18736495659554089 0 0.1204194498669946 0.1740397820163932 0 0.1204194498669946 0.1740397820163932 0 0.12804808386630559 0.18889648851853069 0 0.1009509863268338 0.17464953293814009 0 0.1204194498669946 0.1740397820163932 0 0.1127908158676826 0.15918307551425609 0 0.1127908158676826 0.15918307551425609 0 0.12642561631786911 0.1522845150615684 0 0.12885862867471889 0.16475759922922439 0 0.1127908158676826 0.15918307551425609 0 0.12885862867471889 0.16475759922922439 0 0.1204194498669946 0.1740397820163932 0 0.1127908158676826 0.15918307551425609 0 0.12885862867471889 0.16475759922922439 0 0.1204194498669946 0.1740397820163932 0 0.1127908158676826 0.15918307551425609 0 0.1127908158676826 0.15918307551425609 0 0.10139750075742281 0.1369946812755492 0 0.1208432538997562 0.13902087324996501 0 0.1127908158676826 0.15918307551425609 0 0.1208432538997562 0.13902087324996501 0 0.12642561631786911 0.1522845150615684 0 0.085246545135618565 0.14155324487649651 0 0.095159999367695786 0.14644604670685249 0 0.10139750075742281 0.1369946812755492 0 0.095159999367695786 0.14644604670685249 0 0.096868942369490715 0.15365918359018041 0 0.10139750075742281 0.1369946812755492 0 0.1127908158676826 0.15918307551425609 0 0.10139750075742281 0.1369946812755492 0 0.1127908158676826 0.15918307551425609 0 0.096868942369490715 0.15365918359018041 0 0.10139750075742281 0.1369946812755492 0 0.090004185647161977 0.11480628703684261 0 0.10139750075742281 0.1369946812755492 0 0.10886971182943821 0.1174106351694956 0 0.10139750075742281 0.1369946812755492 0 0.1151251205789172 0.1255217161929999 0 0.1151251205789172 0.1255217161929999 0 0.1208432538997562 0.13902087324996501 0 0.12662492251817839 0.1229029434758243 0 0.10139750075742281 0.1369946812755492 0 0.1151251205789172 0.1255217161929999 0 0.1208432538997562 0.13902087324996501 0 0.13511122102867851 0.13320371421178659 0 0.12662492251817839 0.1229029434758243 0 0.14343958569973969 0.12200633369626609 0 0.1208432538997562 0.13902087324996501 0 0.13511122102867851 0.13320371421178659 0 0.12662492251817839 0.1229029434758243 0 0.1208432538997562 0.13902087324996501 0 0.13511122102867851 0.13320371421178659 0 0.13135262222128191 0.14376665278074471 0 0.13511122102867851 0.13320371421178659 0 0.1409362315392052 0.14337153477665471 0 0.13135262222128191 0.14376665278074471 0 0.13511122102867851 0.13320371421178659 0 0.146610739882932 0.1329121193908174 0 0.14343958569973969 0.12200633369626609 0 0.146610739882932 0.1329121193908174 0 0.15332381363722741 0.15228081296627369 0 0.15685947071535611 0.1276256296421143 0 0.13511122102867851 0.13320371421178659 0 0.146610739882932 0.1329121193908174 0 0.1409362315392052 0.14337153477665471 0 0.146610739882932 0.1329121193908174 0 0.15685947071535611 0.1276256296421143 0 0.14343958569973969 0.12200633369626609 0 0.146610739882932 0.1329121193908174 0 0.15332381363722741 0.15228081296627369 0 0.1409362315392052 0.14337153477665471 0 0.15332381363722741 0.15228081296627369 0 0.1409362315392052 0.14337153477665471 0 0.13828276092590619 0.15469437453365101 0 0.1409362315392052 0.14337153477665471 0 0.13828276092590619 0.15469437453365101 0 0.13135262222128191 0.14376665278074471 0 0.1208432538997562 0.13902087324996501 0 0.13135262222128191 0.14376665278074471 0 0.12642561631786911 0.1522845150615684 0 0.13828276092590619 0.15469437453365101 0 0.13135262222128191 0.14376665278074471 0 0.12642561631786911 0.1522845150615684 0 0.13828276092590619 0.15469437453365101 0 0.12642561631786911 0.1522845150615684 0 0.12885862867471889 0.16475759922922439 0 0.12885862867471889 0.16475759922922439 0 0.1351004232488672 0.17841412846727031 0 0.1449264414817554 0.17033212294419189 0 0.12885862867471889 0.16475759922922439 0 0.1449264414817554 0.17033212294419189 0 0.13828276092590619 0.15469437453365101 0 0.12885862867471889 0.16475759922922439 0 0.1449264414817554 0.17033212294419189 0 0.1351004232488672 0.17841412846727031 0 0.12804808386630559 0.18889648851853069 0 0.1532495123545615 0.19404464962801149 0 0.1204194498669946 0.1740397820163932 0 0.1351004232488672 0.17841412846727031 0 0.12804808386630559 0.18889648851853069 0 0.1204194498669946 0.1740397820163932 0 0.12885862867471889 0.16475759922922439 0 0.1351004232488672 0.17841412846727031 0 0.1449264414817554 0.17033212294419189 0 0.16138205408258799 0.16772313936523781 0 0.1532495123545615 0.19404464962801149 0 0.1351004232488672 0.17841412846727031 0 0.1449264414817554 0.17033212294419189 0 0.1532495123545615 0.19404464962801149 0 0.15332381363722741 0.15228081296627369 0 0.13828276092590619 0.15469437453365101 0 0.1449264414817554 0.17033212294419189 0 0.15332381363722741 0.15228081296627369 0 0.1449264414817554 0.17033212294419189 0 0.16138205408258799 0.16772313936523781 0 0.16138205408258799 0.16772313936523781 0 0.17614019117657739 0.1771359935181572 0 0.17130698490892771 0.1512737156933846 0 0.15332381363722741 0.15228081296627369 0 0.16138205408258799 0.16772313936523781 0 0.17130698490892771 0.1512737156933846 0 0.16138205408258799 0.16772313936523781 0 0.17614019117657739 0.1771359935181572 0 0.1532495123545615 0.19404464962801149 0 0.17614019117657739 0.1771359935181572 0 0.1532495123545615 0.19404464962801149 0 0.17614019117657739 0.1771359935181572 0 0.17130698490892771 0.1512737156933846 0 0.18885043287715009 0.1548717862548919 0 0.1805746594673093 0.1393493461365492 0 0.17130698490892771 0.1512737156933846 0 0.18885043287715009 0.1548717862548919 0 0.1870103436779918 0.12759680998270709 0 0.1805746594673093 0.1393493461365492 0 0.1685574101195727 0.1309119963326606 0 0.1805746594673093 0.1393493461365492 0 0.1685574101195727 0.1309119963326606 0 0.17130698490892771 0.1512737156933846 0 0.15332381363722741 0.15228081296627369 0 0.1685574101195727 0.1309119963326606 0 0.15685947071535611 0.1276256296421143 0 0.1685574101195727 0.1309119963326606 0 0.15685947071535611 0.1276256296421143 0 0.17011852631969779 0.11709906621238469 0 0.15332381363722741 0.15228081296627369 0 0.1685574101195727 0.1309119963326606 0 0.17130698490892771 0.1512737156933846 0 0.15332381363722741 0.15228081296627369 0 0.1685574101195727 0.1309119963326606 0 0.1441108647216861 0.24272032236460531 0 0.15248788509588751 0.22061056288231501 0 0.1644828606342475 0.24066485491695319 0 0.1441108647216861 0.24272032236460531 0 0.1644828606342475 0.24066485491695319 0 0.15359089029870171 0.25461412864350841 0 0.12358662914375811 0.24562408341310979 0 0.1441108647216861 0.24272032236460531 0 0.1333345149716626 0.22977716241396609 0 0.1333345149716626 0.22977716241396609 0 0.15248788509588751 0.22061056288231501 0 0.13035883353254571 0.21095330573786569 0 0.1441108647216861 0.24272032236460531 0 0.1333345149716626 0.22977716241396609 0 0.15248788509588751 0.22061056288231501 0 0.15248788509588751 0.22061056288231501 0 0.13035883353254571 0.21095330573786569 0 0.1532495123545615 0.19404464962801149 0 0.13035883353254571 0.21095330573786569 0 0.12804808386630559 0.18889648851853069 0 0.1532495123545615 0.19404464962801149 0 0.13035883353254571 0.21095330573786569 0 0.1532495123545615 0.19404464962801149 0 0.17614019117657739 0.1771359935181572 0 0.1532495123545615 0.19404464962801149 0 0.17027698276804959 0.20246581966101951 0 0.17614019117657739 0.1771359935181572 0 0.17027698276804959 0.20246581966101951 0 0.19064088995647829 0.2045779595358925 0 0.17027698276804959 0.20246581966101951 0 0.17374727664587841 0.22084869033527629 0 0.19064088995647829 0.2045779595358925 0 0.17374727664587841 0.22084869033527629 0 0.1928976084297816 0.22602611178064719 0 0.19064088995647829 0.2045779595358925 0 0.17374727664587841 0.22084869033527629 0 0.19064088995647829 0.2045779595358925 0 0.15248788509588751 0.22061056288231501 0 0.1532495123545615 0.19404464962801149 0 0.17027698276804959 0.20246581966101951 0 0.15248788509588751 0.22061056288231501 0 0.17027698276804959 0.20246581966101951 0 0.17374727664587841 0.22084869033527629 0 0.15248788509588751 0.22061056288231501 0 0.17374727664587841 0.22084869033527629 0 0.1644828606342475 0.24066485491695319 0 0.17374727664587841 0.22084869033527629 0 0.18432810499238581 0.2446549275319905 0 0.1928976084297816 0.22602611178064719 0 0.17374727664587841 0.22084869033527629 0 0.18432810499238581 0.2446549275319905 0 0.1644828606342475 0.24066485491695319 0 0.18432810499238581 0.2446549275319905 0 0.1644828606342475 0.24066485491695319 0 0.16761974526679019 0.25914969474071459 0 0.20619742700896329 0.24842526588400071 0 0.2113020889221244 0.2292722365416309 0 0.23002142385293589 0.240410437660948 0 0.20619742700896329 0.24842526588400071 0 0.1928976084297816 0.22602611178064719 0 0.2113020889221244 0.2292722365416309 0 0.18432810499238581 0.2446549275319905 0 0.20619742700896329 0.24842526588400071 0 0.1928976084297816 0.22602611178064719 0 0.1928976084297816 0.22602611178064719 0 0.2113020889221244 0.2292722365416309 0 0.20524475537835599 0.2123533308549054 0 0.17614019117657739 0.1771359935181572 0 0.19064088995647829 0.2045779595358925 0 0.2075345032670784 0.1883072287365086 0 0.2113020889221244 0.2292722365416309 0 0.20524475537835599 0.2123533308549054 0 0.22323775825801809 0.2105857033461786 0 0.20524475537835599 0.2123533308549054 0 0.2075345032670784 0.1883072287365086 0 0.22323775825801809 0.2105857033461786 0 0.1928976084297816 0.22602611178064719 0 0.20524475537835599 0.2123533308549054 0 0.19064088995647829 0.2045779595358925 0 0.19064088995647829 0.2045779595358925 0 0.2075345032670784 0.1883072287365086 0 0.20524475537835599 0.2123533308549054 0 0.19064088995647829 0.2045779595358925 0 0.2075345032670784 0.1883072287365086 0 0.227975590222181 0.1899377891247262 0 0.24420361073840699 0.19856914261373959 0 0.22323775825801809 0.2105857033461786 0 0.2075345032670784 0.1883072287365086 0 0.227975590222181 0.1899377891247262 0 0.22323775825801809 0.2105857033461786 0 0.24420361073840699 0.19856914261373959 0 0.24395940064542521 0.1784341937588439 0 0.25828039321235191 0.1910576923913809 0 0.227975590222181 0.1899377891247262 0 0.24420361073840699 0.19856914261373959 0 0.24395940064542521 0.1784341937588439 0 0.24420361073840699 0.19856914261373959 0 0.22323775825801809 0.2105857033461786 0 0.2463127901361549 0.227936117961898 0 0.22323775825801809 0.2105857033461786 0 0.2463127901361549 0.227936117961898 0 0.23002142385293589 0.240410437660948 0 0.2113020889221244 0.2292722365416309 0 0.22323775825801809 0.2105857033461786 0 0.23002142385293589 0.240410437660948 0 0.2463127901361549 0.227936117961898 0 0.23002142385293589 0.240410437660948 0 0.25648020029296009 0.25534243071471141 0 0.20819778242523601 0.1529933259442815 0 0.21404011328422939 0.13427151630627379 0 0.22631788630303151 0.14711012171139001 0 0.20819778242523601 0.1529933259442815 0 0.21404011328422939 0.13427151630627379 0 0.1984230659099353 0.13925192750752821 0 0.21404011328422939 0.13427151630627379 0 0.1984230659099353 0.13925192750752821 0 0.20328025527749019 0.1178121920999836 0 0.1870103436779918 0.12759680998270709 0 0.1805746594673093 0.1393493461365492 0 0.1984230659099353 0.13925192750752821 0 0.1870103436779918 0.12759680998270709 0 0.1984230659099353 0.13925192750752821 0 0.20328025527749019 0.1178121920999836 0 0.1805746594673093 0.1393493461365492 0 0.1984230659099353 0.13925192750752821 0 0.18885043287715009 0.1548717862548919 0 0.20819778242523601 0.1529933259442815 0 0.1984230659099353 0.13925192750752821 0 0.18885043287715009 0.1548717862548919 0 0.20819778242523601 0.1529933259442815 0 0.18885043287715009 0.1548717862548919 0 0.20103020526474399 0.16906896647819281 0 0.17614019117657739 0.1771359935181572 0 0.2075345032670784 0.1883072287365086 0 0.20103020526474399 0.16906896647819281 0 0.17614019117657739 0.1771359935181572 0 0.18885043287715009 0.1548717862548919 0 0.20103020526474399 0.16906896647819281 0 0.2075345032670784 0.1883072287365086 0 0.20103020526474399 0.16906896647819281 0 0.2244281165776785 0.17203649793712461 0 0.2075345032670784 0.1883072287365086 0 0.2244281165776785 0.17203649793712461 0 0.20819778242523601 0.1529933259442815 0 0.20103020526474399 0.16906896647819281 0 0.2244281165776785 0.17203649793712461 0 0.2244281165776785 0.17203649793712461 0 0.24132172988827849 0.15576576713774071 0 0.22631788630303151 0.14711012171139001 0 0.2244281165776785 0.17203649793712461 0 0.24132172988827849 0.15576576713774071 0 0.20819778242523601 0.1529933259442815 0 0.2244281165776785 0.17203649793712461 0 0.22631788630303151 0.14711012171139001 0 0.2075345032670784 0.1883072287365086 0 0.227975590222181 0.1899377891247262 0 0.2244281165776785 0.17203649793712461 0 0.227975590222181 0.1899377891247262 0 0.2244281165776785 0.17203649793712461 0 0.24395940064542521 0.1784341937588439 0 0.2244281165776785 0.17203649793712461 0 0.24395940064542521 0.1784341937588439 0 0.24132172988827849 0.15576576713774071 0 0.24132172988827849 0.15576576713774071 0 0.22631788630303151 0.14711012171139001 0 0.24547992539022981 0.13490344779148691 0 0.22631788630303151 0.14711012171139001 0 0.2300950527677538 0.12920278463913651 0 0.24547992539022981 0.13490344779148691 0 0.21404011328422939 0.13427151630627379 0 0.2300950527677538 0.12920278463913651 0 0.22062107450451909 0.1209922905661968 0 0.21404011328422939 0.13427151630627379 0 0.22631788630303151 0.14711012171139001 0 0.2300950527677538 0.12920278463913651 0 0.2300950527677538 0.12920278463913651 0 0.24547992539022981 0.13490344779148691 0 0.24522452711027151 0.1162476081772815 0 0.2300950527677538 0.12920278463913651 0 0.24522452711027151 0.1162476081772815 0 0.2302773074152189 0.1119211970392508 0 0.24522452711027151 0.1162476081772815 0 0.24577971206005911 0.094681192802855224 0 0.2302773074152189 0.1119211970392508 0 0.24577971206005911 0.094681192802855224 0 0.22598568279541531 0.098753012618789604 0 0.2302773074152189 0.1119211970392508 0 0.22598568279541531 0.098753012618789604 0 0.2302773074152189 0.1119211970392508 0 0.21617859950688509 0.10888032319757671 0 0.2300950527677538 0.12920278463913651 0 0.2302773074152189 0.1119211970392508 0 0.22062107450451909 0.1209922905661968 0 0.2302773074152189 0.1119211970392508 0 0.22062107450451909 0.1209922905661968 0 0.21617859950688509 0.10888032319757671 0 0.21404011328422939 0.13427151630627379 0 0.22062107450451909 0.1209922905661968 0 0.20328025527749019 0.1178121920999836 0 0.22062107450451909 0.1209922905661968 0 0.20328025527749019 0.1178121920999836 0 0.21617859950688509 0.10888032319757671 0 0.20328025527749019 0.1178121920999836 0 0.21617859950688509 0.10888032319757671 0 0.20724635371494721 0.096580941885658619 0 0.22598568279541531 0.098753012618789604 0 0.21617859950688509 0.10888032319757671 0 0.20724635371494721 0.096580941885658619 0 0.20724635371494721 0.096580941885658619 0 0.19819654062794581 0.089335921651467129 0 0.18379100660191769 0.1095431796990473 0 0.20328025527749019 0.1178121920999836 0 0.20724635371494721 0.096580941885658619 0 0.18379100660191769 0.1095431796990473 0 0.20724635371494721 0.096580941885658619 0 0.18379100660191769 0.1095431796990473 0 0.19819654062794581 0.089335921651467129 0 0.18379100660191769 0.1095431796990473 0 0.19819654062794581 0.089335921651467129 0 0.18379100660191769 0.1095431796990473 0 0.1833128265150428 0.096422289004652259 0 0.1870103436779918 0.12759680998270709 0 0.20328025527749019 0.1178121920999836 0 0.18379100660191769 0.1095431796990473 0 0.19321652232830791 0.06790232124147505 0 0.21260207465397349 0.069128663603886906 0 0.20250846942803721 0.053854243767805302 0 0.19321652232830791 0.06790232124147505 0 0.19379750582489461 0.078127206303938546 0 0.21260207465397349 0.069128663603886906 0 0.19321652232830791 0.06790232124147505 0 0.19379750582489461 0.078127206303938546 0 0.1796782673842052 0.077820355546324688 0 0.19379750582489461 0.078127206303938546 0 0.19819654062794581 0.089335921651467129 0 0.21260207465397349 0.069128663603886906 0 0.19379750582489461 0.078127206303938546 0 0.19819654062794581 0.089335921651467129 0 0.18529412413004059 0.086448769476538956 0 0.19819654062794581 0.089335921651467129 0 0.1833128265150428 0.096422289004652259 0 0.18529412413004059 0.086448769476538956 0 0.19819654062794581 0.089335921651467129 0 0.21107992611479301 0.08343686093533656 0 0.21260207465397349 0.069128663603886906 0 0.21107992611479301 0.08343686093533656 0 0.21260207465397349 0.069128663603886906 0 0.230701700827977 0.08361870407227022 0 0.20724635371494721 0.096580941885658619 0 0.21107992611479301 0.08343686093533656 0 0.230701700827977 0.08361870407227022 0 0.19819654062794581 0.089335921651467129 0 0.21260207465397349 0.069128663603886906 0 0.20724635371494721 0.096580941885658619 0 0.19819654062794581 0.089335921651467129 0 0.21107992611479301 0.08343686093533656 0 0.21260207465397349 0.069128663603886906 0 0.230701700827977 0.08361870407227022 0 0.23601429429201889 0.06555279849888232 0 0.22598568279541531 0.098753012618789604 0 0.20724635371494721 0.096580941885658619 0 0.230701700827977 0.08361870407227022 0 0.20724635371494721 0.096580941885658619 0 0.230701700827977 0.08361870407227022 0 0.24577971206005911 0.094681192802855224 0 0.22598568279541531 0.098753012618789604 0 0.230701700827977 0.08361870407227022 0 0.24577971206005911 0.094681192802855224 0 0.230701700827977 0.08361870407227022 0 0.25415704794100669 0.07065646625888182 0 0.230701700827977 0.08361870407227022 0 0.23601429429201889 0.06555279849888232 0 0.25415704794100669 0.07065646625888182 0 0.23601429429201889 0.06555279849888232 0 0.24895312849188919 0.059115038947649613 0 0.25415704794100669 0.07065646625888182 0 0.230701700827977 0.08361870407227022 0 0.25415704794100669 0.07065646625888182 0 0.23601429429201889 0.06555279849888232 0 0.24895312849188919 0.059115038947649613 0 0.23924914224552599 0.050673701050111097 0 0.24895312849188919 0.059115038947649613 0 0.23924914224552599 0.050673701050111097 0 0.2491398822511017 0.049107863529107253 0 0.2491398822511017 0.049107863529107253 0 0.2416149586196136 0.040789879113729118 0 0.25177438564587512 0.040318721698458918 0 0.23924914224552599 0.050673701050111097 0 0.2491398822511017 0.049107863529107253 0 0.2416149586196136 0.040789879113729118 0 0.2416149586196136 0.040789879113729118 0 0.24622542171544631 0.03124864337130712 0 0.25177438564587512 0.040318721698458918 0 0.2416149586196136 0.040789879113729118 0 0.23320780160769281 0.041921181545255787 0 0.23393316517613599 0.032344161767398287 0 0.2416149586196136 0.040789879113729118 0 0.23393316517613599 0.032344161767398287 0 0.24622542171544631 0.03124864337130712 0 0.23924914224552599 0.050673701050111097 0 0.2416149586196136 0.040789879113729118 0 0.23320780160769281 0.041921181545255787 0 0.23393316517613599 0.032344161767398287 0 0.21600299943684351 0.031840232999110887 0 0.23393316517613599 0.032344161767398287 0 0.2251197742555093 0.039608682019262001 0 0.21600299943684351 0.031840232999110887 0 0.23320780160769281 0.041921181545255787 0 0.2251197742555093 0.039608682019262001 0 0.2270076086800013 0.048921405556306662 0 0.23320780160769281 0.041921181545255787 0 0.23393316517613599 0.032344161767398287 0 0.2251197742555093 0.039608682019262001 0 0.2251197742555093 0.039608682019262001 0 0.2270076086800013 0.048921405556306662 0 0.21442227467188529 0.047585500531436099 0 0.21260207465397349 0.069128663603886906 0 0.23601429429201889 0.06555279849888232 0 0.2270076086800013 0.048921405556306662 0 0.21260207465397349 0.069128663603886906 0 0.2270076086800013 0.048921405556306662 0 0.23601429429201889 0.06555279849888232 0 0.23924914224552599 0.050673701050111097 0 0.2270076086800013 0.048921405556306662 0 0.23924914224552599 0.050673701050111097 0 0.23320780160769281 0.041921181545255787 0 0.2270076086800013 0.048921405556306662 0 0.24288467406853601 0.01084635671077764 0 0.26249141269217191 0.0042897038784872124 0 0.23525203801956171 -0.0083670959399735415 0 0.24288467406853601 0.01084635671077764 0 0.24622542171544631 0.03124864337130712 0 0.2253125077539665 0.027238330372383001 0 0.24288467406853601 0.01084635671077764 0 0.24622542171544631 0.03124864337130712 0 0.2546022002950461 0.017760820163893649 0 0.24622542171544631 0.03124864337130712 0 0.2253125077539665 0.027238330372383001 0 0.23393316517613599 0.032344161767398287 0 0.24622542171544631 0.03124864337130712 0 0.2253125077539665 0.027238330372383001 0 0.2253125077539665 0.027238330372383001 0 0.22454610654099061 0.0098036942901086783 0 0.20695276950407851 0.019955903249275219 0 0.24288467406853601 0.01084635671077764 0 0.2253125077539665 0.027238330372383001 0 0.22454610654099061 0.0098036942901086783 0 0.23393316517613599 0.032344161767398287 0 0.2253125077539665 0.027238330372383001 0 0.21600299943684351 0.031840232999110887 0 0.24288467406853601 0.01084635671077764 0 0.22454610654099061 0.0098036942901086783 0 0.23525203801956171 -0.0083670959399735415 0 0.22454610654099061 0.0098036942901086783 0 0.21232854335881091 -0.00065502294191741852 0 0.23525203801956171 -0.0083670959399735415 0 0.19965633713790029 0.017925248879039669 0 0.21232854335881091 -0.00065502294191741852 0 0.20695276950407851 0.019955903249275219 0 0.19965633713790029 0.017925248879039669 0 0.21232854335881091 -0.00065502294191741852 0 0.22454610654099061 0.0098036942901086783 0 0.20695276950407851 0.019955903249275219 0 0.21232854335881091 -0.00065502294191741852 0 0.2253125077539665 0.027238330372383001 0 0.20439959379248729 0.023228017373455631 0 0.21600299943684351 0.031840232999110887 0 0.20439959379248729 0.023228017373455631 0 0.21600299943684351 0.031840232999110887 0 0.19807283369755099 0.03133630423082269 0 0.2253125077539665 0.027238330372383001 0 0.20439959379248729 0.023228017373455631 0 0.20695276950407851 0.019955903249275219 0 0.2253125077539665 0.027238330372383001 0 0.20439959379248729 0.023228017373455631 0 0.20439959379248729 0.023228017373455631 0 0.20695276950407851 0.019955903249275219 0 0.1970066207331268 0.021810322258598649 0 0.18061983509288251 0.018667951014463838 0 0.1970066207331268 0.021810322258598649 0 0.1882807964057244 0.0074352784142036506 0 0.18061983509288251 0.018667951014463838 0 0.1907375482761427 0.031130145436689391 0 0.1970066207331268 0.021810322258598649 0 0.18061983509288251 0.018667951014463838 0 0.20439959379248729 0.023228017373455631 0 0.19807283369755099 0.03133630423082269 0 0.20439959379248729 0.023228017373455631 0 0.1970066207331268 0.021810322258598649 0 0.19807283369755099 0.03133630423082269 0 0.1907375482761427 0.031130145436689391 0 0.1970066207331268 0.021810322258598649 0 0.19807283369755099 0.03133630423082269 0 0.1907375482761427 0.031130145436689391 0 0.1970066207331268 0.021810322258598649 0 0.1907375482761427 0.031130145436689391 0 0.19807283369755099 0.03133630423082269 0 0.1970066207331268 0.021810322258598649 0 0.19965633713790029 0.017925248879039669 0 0.1882807964057244 0.0074352784142036506 0 0.20439959379248729 0.023228017373455631 0 0.20695276950407851 0.019955903249275219 0 0.1970066207331268 0.021810322258598649 0 0.20695276950407851 0.019955903249275219 0 0.1970066207331268 0.021810322258598649 0 0.19965633713790029 0.017925248879039669 0 0.1970066207331268 0.021810322258598649 0 0.19965633713790029 0.017925248879039669 0 0.20439959379248729 0.023228017373455631 0 0.1970066207331268 0.021810322258598649 0 0.19965633713790029 0.017925248879039669 0 0.1882807964057244 0.0074352784142036506 0 0.21232854335881091 -0.00065502294191741852 0 0.1882807964057244 0.0074352784142036506 0 0.21232854335881091 -0.00065502294191741852 0 0.21260207465397349 0.069128663603886906 0 0.21442227467188529 0.047585500531436099 0 0.20250846942803721 0.053854243767805302 0 0.21260207465397349 0.069128663603886906 0 0.2270076086800013 0.048921405556306662 0 0.21442227467188529 0.047585500531436099 0 0.21442227467188529 0.047585500531436099 0 0.20329272157694719 0.04215977524224488 0 0.20250846942803721 0.053854243767805302 0 0.21600299943684351 0.031840232999110887 0 0.20329272157694719 0.04215977524224488 0 0.19807283369755099 0.03133630423082269 0 0.21442227467188529 0.047585500531436099 0 0.21600299943684351 0.031840232999110887 0 0.20329272157694719 0.04215977524224488 0 0.21600299943684351 0.031840232999110887 0 0.19807283369755099 0.03133630423082269 0 0.2251197742555093 0.039608682019262001 0 0.21442227467188529 0.047585500531436099 0 0.21600299943684351 0.031840232999110887 0 0.1907375482761427 0.031130145436689391 0 0.19807283369755099 0.03133630423082269 0 0.18398918847627119 0.049385706094983849 0 0.20329272157694719 0.04215977524224488 0 0.19807283369755099 0.03133630423082269 0 0.18398918847627119 0.049385706094983849 0 0.19807283369755099 0.03133630423082269 0 0.18398918847627119 0.049385706094983849 0 0.20329272157694719 0.04215977524224488 0 0.20250846942803721 0.053854243767805302 0 0.18398918847627119 0.049385706094983849 0 0.19321652232830791 0.06790232124147505 0 0.20250846942803721 0.053854243767805302 0 0.18398918847627119 0.049385706094983849 0 0.18053701356456431 0.049292330207985062 0 0.16990554325499341 0.067435107959146506 0 0.19321652232830791 0.06790232124147505 0 0.18398918847627119 0.049385706094983849 0 0.16990554325499341 0.067435107959146506 0 0.18053701356456431 0.049292330207985062 0 0.17855097051873731 0.049247139716866638 0 0.16990554325499341 0.067435107959146506 0 0.18053701356456431 0.049292330207985062 0 0.18398918847627119 0.049385706094983849 0 0.16990554325499341 0.067435107959146506 0 0.18398918847627119 0.049385706094983849 0 0.16990554325499341 0.067435107959146506 0 0.17855097051873731 0.049247139716866638 0 0.16636439276133189 0.067364133997043829 0 0.1907375482761427 0.031130145436689391 0 0.18053701356456431 0.049292330207985062 0 0.18398918847627119 0.049385706094983849 0 0.1907375482761427 0.031130145436689391 0 0.18053701356456431 0.049292330207985062 0 0.17855097051873731 0.049247139716866638 0 0.1907375482761427 0.031130145436689391 0 0.17855097051873731 0.049247139716866638 0 0.1907375482761427 0.031130145436689391 0 0.18053701356456431 0.049292330207985062 0 0.1907375482761427 0.031130145436689391 0 0.17855097051873731 0.049247139716866638 0 0.16550331881423549 0.030420935362654031 0 0.17855097051873731 0.049247139716866638 0 0.16550331881423549 0.030420935362654031 0 0.15523373785166689 0.050791046700362733 0 0.17855097051873731 0.049247139716866638 0 0.16990554325499341 0.067435107959146506 0 0.16636439276133189 0.067364133997043829 0 0.17855097051873731 0.049247139716866638 0 0.15523373785166689 0.050791046700362733 0 0.16636439276133189 0.067364133997043829 0 0.1882807964057244 0.0074352784142036506 0 0.16423304945263861 0.015525579770326739 0 0.16864449832550751 -0.0016996597302522179 0 0.1882807964057244 0.0074352784142036506 0 0.16423304945263861 0.015525579770326739 0 0.1882807964057244 0.0074352784142036506 0 0.18061983509288251 0.018667951014463838 0 0.16423304945263861 0.015525579770326739 0 0.18061983509288251 0.018667951014463838 0 0.16423304945263861 0.015525579770326739 0 0.1907375482761427 0.031130145436689391 0 0.16550331881423549 0.030420935362654031 0 0.1907375482761427 0.031130145436689391 0 0.18061983509288251 0.018667951014463838 0 0.16550331881423549 0.030420935362654031 0 0.18061983509288251 0.018667951014463838 0 0.16550331881423549 0.030420935362654031 0 0.16423304945263861 0.015525579770326739 0 0.16550331881423549 0.030420935362654031 0 0.16423304945263861 0.015525579770326739 0 0.15482321070611621 0.024134495092413041 0 0.16423304945263861 0.015525579770326739 0 0.15703832168715839 0.0035974368737494611 0 0.16864449832550751 -0.0016996597302522179 0 0.15703832168715839 0.0035974368737494611 0 0.1397517678826096 0.010830987620639641 0 0.15552397108787841 -0.010267160165718081 0 0.16423304945263861 0.015525579770326739 0 0.1397517678826096 0.010830987620639641 0 0.16423304945263861 0.015525579770326739 0 0.15703832168715839 0.0035974368737494611 0 0.1397517678826096 0.010830987620639641 0 0.1397517678826096 0.010830987620639641 0 0.15552397108787841 -0.010267160165718081 0 0.16423304945263861 0.015525579770326739 0 0.14604859707796861 0.021643312961470641 0 0.1397517678826096 0.010830987620639641 0 0.16423304945263861 0.015525579770326739 0 0.14604859707796861 0.021643312961470641 0 0.15482321070611621 0.024134495092413041 0 0.16550331881423549 0.030420935362654031 0 0.15482321070611621 0.024134495092413041 0 0.1402690893523284 0.02971172528861921 0 0.16423304945263861 0.015525579770326739 0 0.14604859707796861 0.021643312961470641 0 0.16550331881423549 0.030420935362654031 0 0.1402690893523284 0.02971172528861921 0 0.14604859707796861 0.021643312961470641 0 0.15482321070611621 0.024134495092413041 0 0.1402690893523284 0.02971172528861921 0 0.12600330599295401 0.02922201879159848 0 0.1397517678826096 0.010830987620639641 0 0.1241883268797441 0.022489174730773769 0 0.12600330599295401 0.02922201879159848 0 0.1397517678826096 0.010830987620639641 0 0.14604859707796861 0.021643312961470641 0 0.12786414470329879 0.027761046152615099 0 0.14604859707796861 0.021643312961470641 0 0.12786414470329879 0.027761046152615099 0 0.1397517678826096 0.010830987620639641 0 0.12600330599295401 0.02922201879159848 0 0.12786414470329879 0.027761046152615099 0 0.1397517678826096 0.010830987620639641 0 0.14604859707796861 0.021643312961470641 0 0.13389821798807591 0.029807284941477739 0 0.12786414470329879 0.027761046152615099 0 0.14604859707796861 0.021643312961470641 0 0.13389821798807591 0.029807284941477739 0 0.1402690893523284 0.02971172528861921 0 0.13389821798807591 0.029807284941477739 0 0.12600330599295401 0.02922201879159848 0 0.12786414470329879 0.027761046152615099 0 0.1241883268797441 0.022489174730773769 0 0.13320795625720591 0.0095761298388824297 0 0.1397517678826096 0.010830987620639641 0 0.13320795625720591 0.0095761298388824297 0 0.14877752971119221 -0.0127142096578973 0 0.1397517678826096 0.010830987620639641 0 0.13320795625720591 0.0095761298388824297 0 0.1241883268797441 0.022489174730773769 0 0.1397517678826096 0.010830987620639641 0 0.13320795625720591 0.0095761298388824297 0 0.13320795625720591 0.0095761298388824297 0 0.1350257522086861 -0.0053954078615759448 0 0.1251470615708736 -0.00050432347332847721 0 0.15523373785166689 0.050791046700362733 0 0.14374505591210521 0.066910783042537336 0 0.16636439276133189 0.067364133997043829 0 0.15523373785166689 0.050791046700362733 0 0.13424546126977871 0.050519135706838997 0 0.14374505591210521 0.066910783042537336 0 0.15523373785166689 0.050791046700362733 0 0.1453724596756103 0.039860480847272672 0 0.13424546126977871 0.050519135706838997 0 0.16550331881423549 0.030420935362654031 0 0.1402690893523284 0.02971172528861921 0 0.1453724596756103 0.039860480847272672 0 0.16550331881423549 0.030420935362654031 0 0.15523373785166689 0.050791046700362733 0 0.1453724596756103 0.039860480847272672 0 0.1122548441033026 0.047613049962560591 0 0.131610691090042 0.037859561177888343 0 0.13424546126977871 0.050519135706838997 0 0.1453724596756103 0.039860480847272672 0 0.131610691090042 0.037859561177888343 0 0.13424546126977871 0.050519135706838997 0 0.1402690893523284 0.02971172528861921 0 0.1453724596756103 0.039860480847272672 0 0.131610691090042 0.037859561177888343 0 0.13389821798807591 0.029807284941477739 0 0.1402690893523284 0.02971172528861921 0 0.131610691090042 0.037859561177888343 0 0.13389821798807591 0.029807284941477739 0 0.12600330599295401 0.02922201879159848 0 0.131610691090042 0.037859561177888343 0 0.1211257190628785 0.066457432088030316 0 0.13424546126977871 0.050519135706838997 0 0.14374505591210521 0.066910783042537336 0 0.1211257190628785 0.066457432088030316 0 0.14374505591210521 0.066910783042537336 0 0.130970104713407 0.0800604943328517 0 0.1211257190628785 0.066457432088030316 0 0.14374505591210521 0.066910783042537336 0 0.14374505591210521 0.066910783042537336 0 0.14201030485902211 0.086774182516978715 0 0.130970104713407 0.0800604943328517 0 0.14374505591210521 0.066910783042537336 0 0.15512498343664091 0.084073034436645822 0 0.16636439276133189 0.067364133997043829 0 0.14374505591210521 0.066910783042537336 0 0.16636439276133189 0.067364133997043829 0 0.1544089237721433 0.087295357787034664 0 0.15512498343664091 0.084073034436645822 0 0.14388557411195069 0.1007819348762483 0 0.14374505591210521 0.066910783042537336 0 0.15512498343664091 0.084073034436645822 0 0.14201030485902211 0.086774182516978715 0 0.15512498343664091 0.084073034436645822 0 0.14201030485902211 0.086774182516978715 0 0.14388557411195069 0.1007819348762483 0 0.15512498343664091 0.084073034436645822 0 0.14388557411195069 0.1007819348762483 0 0.1550780300715319 0.089290683467288134 0 0.1544089237721433 0.087295357787034664 0 0.15396061244231091 0.094165781291102216 0 0.1550780300715319 0.089290683467288134 0 0.15396061244231091 0.094165781291102216 0 0.1587771815893366 0.092487888009182173 0 0.14201030485902211 0.086774182516978715 0 0.130970104713407 0.0800604943328517 0 0.13045298779972361 0.092405662763910712 0 0.14201030485902211 0.086774182516978715 0 0.13045298779972361 0.092405662763910712 0 0.14388557411195069 0.1007819348762483 0 0.1206961788848588 0.084642225325637754 0 0.130970104713407 0.0800604943328517 0 0.13045298779972361 0.092405662763910712 0 0.1182499720176939 0.09708088954641543 0 0.13045298779972361 0.092405662763910712 0 0.12690579221140899 0.1050942499853325 0 0.13045298779972361 0.092405662763910712 0 0.12690579221140899 0.1050942499853325 0 0.14388557411195069 0.1007819348762483 0 0.12690579221140899 0.1050942499853325 0 0.13567395214547739 0.1113058342290608 0 0.14388557411195069 0.1007819348762483 0 0.13567395214547739 0.1113058342290608 0 0.14388557411195069 0.1007819348762483 0 0.12690579221140899 0.1050942499853325 0 0.12662492251817839 0.1229029434758243 0 0.13567395214547739 0.1113058342290608 0 0.12662492251817839 0.1229029434758243 0 0.13567395214547739 0.1113058342290608 0 0.14343958569973969 0.12200633369626609 0 0.12662492251817839 0.1229029434758243 0 0.13567395214547739 0.1113058342290608 0 0.13567395214547739 0.1113058342290608 0 0.14343958569973969 0.12200633369626609 0 0.14779714481613301 0.1098999767100514 0 0.14779714481613301 0.1098999767100514 0 0.1569021412165551 0.1076828829074106 0 0.1565558592480347 0.11531506678360399 0 0.14343958569973969 0.12200633369626609 0 0.14779714481613301 0.1098999767100514 0 0.1565558592480347 0.11531506678360399 0 0.15685947071535611 0.1276256296421143 0 0.14343958569973969 0.12200633369626609 0 0.1565558592480347 0.11531506678360399 0 0.13567395214547739 0.1113058342290608 0 0.14779714481613301 0.1098999767100514 0 0.14388557411195069 0.1007819348762483 0 0.14779714481613301 0.1098999767100514 0 0.14388557411195069 0.1007819348762483 0 0.15414053166607569 0.1010094775098877 0 0.14779714481613301 0.1098999767100514 0 0.15414053166607569 0.1010094775098877 0 0.1569021412165551 0.1076828829074106 0 0.1544089237721433 0.087295357787034664 0 0.14388557411195069 0.1007819348762483 0 0.15396061244231091 0.094165781291102216 0 0.1544089237721433 0.087295357787034664 0 0.14388557411195069 0.1007819348762483 0 0.14388557411195069 0.1007819348762483 0 0.15414053166607569 0.1010094775098877 0 0.15396061244231091 0.094165781291102216 0 0.15414053166607569 0.1010094775098877 0 0.15396061244231091 0.094165781291102216 0 0.15868706308591171 0.096593118937535652 0 0.15396061244231091 0.094165781291102216 0 0.15868706308591171 0.096593118937535652 0 0.1587771815893366 0.092487888009182173 0 0.15414053166607569 0.1010094775098877 0 0.15868706308591171 0.096593118937535652 0 0.1633231455796248 0.10108559894808 0 0.15868706308591171 0.096593118937535652 0 0.1632338441522104 0.094216848929426195 0 0.1587771815893366 0.092487888009182173 0 0.15868706308591171 0.096593118937535652 0 0.1632338441522104 0.094216848929426195 0 0.1633231455796248 0.10108559894808 0 0.15414053166607569 0.1010094775098877 0 0.1633231455796248 0.10108559894808 0 0.1569021412165551 0.1076828829074106 0 0.1633231455796248 0.10108559894808 0 0.1569021412165551 0.1076828829074106 0 0.1640122825534123 0.1089728111272955 0 0.1633231455796248 0.10108559894808 0 0.1640122825534123 0.1089728111272955 0 0.17316174040314919 0.1036814407849984 0 0.1633231455796248 0.10108559894808 0 0.1692264221760742 0.096920152084917888 0 0.17316174040314919 0.1036814407849984 0 0.1632338441522104 0.094216848929426195 0 0.1692264221760742 0.096920152084917888 0 0.1687367201429549 0.090832158917343003 0 0.1632338441522104 0.094216848929426195 0 0.1633231455796248 0.10108559894808 0 0.1692264221760742 0.096920152084917888 0 0.15685947071535611 0.1276256296421143 0 0.1565558592480347 0.11531506678360399 0 0.17011852631969779 0.11709906621238469 0 0.1640122825534123 0.1089728111272955 0 0.1565558592480347 0.11531506678360399 0 0.17011852631969779 0.11709906621238469 0 0.1569021412165551 0.1076828829074106 0 0.1640122825534123 0.1089728111272955 0 0.1565558592480347 0.11531506678360399 0 0.1640122825534123 0.1089728111272955 0 0.17011852631969779 0.11709906621238469 0 0.17316174040314919 0.1036814407849984 0 0.1685574101195727 0.1309119963326606 0 0.18379100660191769 0.1095431796990473 0 0.1870103436779918 0.12759680998270709 0 0.1685574101195727 0.1309119963326606 0 0.18379100660191769 0.1095431796990473 0 0.1685574101195727 0.1309119963326606 0 0.17011852631969779 0.11709906621238469 0 0.18379100660191769 0.1095431796990473 0 0.17011852631969779 0.11709906621238469 0 0.18379100660191769 0.1095431796990473 0 0.17011852631969779 0.11709906621238469 0 0.18379100660191769 0.1095431796990473 0 0.17316174040314919 0.1036814407849984 0 0.1692264221760742 0.096920152084917888 0 0.17316174040314919 0.1036814407849984 0 0.1761207208121609 0.093102133411209501 0 0.17316174040314919 0.1036814407849984 0 0.1833128265150428 0.096422289004652259 0 0.1761207208121609 0.093102133411209501 0 0.18379100660191769 0.1095431796990473 0 0.17316174040314919 0.1036814407849984 0 0.1833128265150428 0.096422289004652259 0 0.1833128265150428 0.096422289004652259 0 0.18529412413004059 0.086448769476538956 0 0.1761207208121609 0.093102133411209501 0 0.1761207208121609 0.093102133411209501 0 0.17449021213840291 0.085038818601395852 0 0.1687367201429549 0.090832158917343003 0 0.18529412413004059 0.086448769476538956 0 0.1761207208121609 0.093102133411209501 0 0.17449021213840291 0.085038818601395852 0 0.17449021213840291 0.085038818601395852 0 0.1796782673842052 0.077820355546324688 0 0.17034069768155319 0.07809161359523116 0 0.18529412413004059 0.086448769476538956 0 0.17449021213840291 0.085038818601395852 0 0.1796782673842052 0.077820355546324688 0 0.19379750582489461 0.078127206303938546 0 0.18529412413004059 0.086448769476538956 0 0.1796782673842052 0.077820355546324688 0 0.19321652232830791 0.06790232124147505 0 0.1796782673842052 0.077820355546324688 0 0.16990554325499341 0.067435107959146506 0 0.19321652232830791 0.06790232124147505 0 0.16990554325499341 0.067435107959146506 0 0.1796782673842052 0.077820355546324688 0 0.17034069768155319 0.07809161359523116 0 0.16990554325499341 0.067435107959146506 0 0.17034069768155319 0.07809161359523116 0 0.16493227343233599 0.073808780697821166 0 0.16990554325499341 0.067435107959146506 0 0.15512498343664091 0.084073034436645822 0 0.16493227343233599 0.073808780697821166 0 0.16636439276133189 0.067364133997043829 0 0.15512498343664091 0.084073034436645822 0 0.16636439276133189 0.067364133997043829 0 0.16493227343233599 0.073808780697821166 0 0.16990554325499341 0.067435107959146506 0 0.16990554325499341 0.067435107959146506 0 0.16636439276133189 0.067364133997043829 0 0.16493227343233599 0.073808780697821166 0 0.16990554325499341 0.067435107959146506 0 0.16636439276133189 0.067364133997043829 0 0.1544089237721433 0.087295357787034664 0 0.15512498343664091 0.084073034436645822 0 0.16493227343233599 0.073808780697821166 0 0.1544089237721433 0.087295357787034664 0 0.16493227343233599 0.073808780697821166 0 0.1550780300715319 0.089290683467288134 0 0.16493227343233599 0.073808780697821166 0 0.16227762733912859 0.087624005788958154 0 0.1550780300715319 0.089290683467288134 0 0.1544089237721433 0.087295357787034664 0 0.16493227343233599 0.073808780697821166 0 0.1550780300715319 0.089290683467288134 0 0.16493227343233599 0.073808780697821166 0 0.1550780300715319 0.089290683467288134 0 0.1587771815893366 0.092487888009182173 0 0.16227762733912859 0.087624005788958154 0 0.1632338441522104 0.094216848929426195 0 0.1587771815893366 0.092487888009182173 0 0.16227762733912859 0.087624005788958154 0 0.16227762733912859 0.087624005788958154 0 0.1687367201429549 0.090832158917343003 0 0.16677074267950259 0.083937880661727762 0 0.1632338441522104 0.094216848929426195 0 0.16227762733912859 0.087624005788958154 0 0.1687367201429549 0.090832158917343003 0 0.1692264221760742 0.096920152084917888 0 0.1761207208121609 0.093102133411209501 0 0.1687367201429549 0.090832158917343003 0 0.17449021213840291 0.085038818601395852 0 0.1687367201429549 0.090832158917343003 0 0.16677074267950259 0.083937880661727762 0 0.16493227343233599 0.073808780697821166 0 0.16227762733912859 0.087624005788958154 0 0.16677074267950259 0.083937880661727762 0 0.17034069768155319 0.07809161359523116 0 0.16493227343233599 0.073808780697821166 0 0.16677074267950259 0.083937880661727762 0 0.17449021213840291 0.085038818601395852 0 0.17034069768155319 0.07809161359523116 0 0.16677074267950259 0.083937880661727762 0 0.1008642837551184 0.4818921541253447 0 0.096377458586948628 0.49566317829720752 0 0.092544769863361492 0.46831033867547239 0 0.096377458586948628 0.49566317829720752 0 0.092544769863361492 0.46831033867547239 0 0.1092526975610412 0.48000441412865058 0 0.10368027257823011 0.47460839098252289 0 0.1008642837551184 0.4818921541253447 0 0.1092526975610412 0.48000441412865058 0 0.1008642837551184 0.4818921541253447 0 0.1084068428182975 0.49011498243598139 0 0.10368027257823011 0.47460839098252289 0 0.10854483032519301 0.47204196678830251 0 0.104629841872922 0.46503138894246399 0 0.1092526975610412 0.48000441412865058 0 0.10368027257823011 0.47460839098252289 0 0.10854483032519301 0.47204196678830251 0 0.10368027257823011 0.47460839098252289 0 0.098912178904409565 0.4721044274615171 0 0.104629841872922 0.46503138894246399 0 0.098912178904409565 0.4721044274615171 0 0.1008642837551184 0.4818921541253447 0 0.092544769863361492 0.46831033867547239 0 0.10368027257823011 0.47460839098252289 0 0.098912178904409565 0.4721044274615171 0 0.1008642837551184 0.4818921541253447 0 0.098912178904409565 0.4721044274615171 0 0.094503608861406824 0.46628520092731618 0 0.092544769863361492 0.46831033867547239 0 0.096377458586948628 0.49566317829720752 0 0.11546475191521589 0.5 0 0.089338832247156011 0.50000000000000333 0 0.096377458586948628 0.49566317829720752 0 0.1084068428182975 0.49011498243598139 0 0.11546475191521589 0.5 0 0.1008642837551184 0.4818921541253447 0 0.096377458586948628 0.49566317829720752 0 0.1084068428182975 0.49011498243598139 0 0.1084068428182975 0.49011498243598139 0 0.11546475191521589 0.5 0 0.12397164712563589 0.48523224294487222 0 0.1092526975610412 0.48000441412865058 0 0.1084068428182975 0.49011498243598139 0 0.12397164712563589 0.48523224294487222 0 0.1092526975610412 0.48000441412865058 0 0.12397164712563589 0.48523224294487222 0 0.11752805736271579 0.46915573985666831 0 0.1092526975610412 0.48000441412865058 0 0.10854483032519301 0.47204196678830251 0 0.11752805736271579 0.46915573985666831 0 0.11752805736271579 0.46915573985666831 0 0.1104652252350838 0.45562322122511778 0 0.12963045272487661 0.4508118892329952 0 0.11752805736271579 0.46915573985666831 0 0.1104652252350838 0.45562322122511778 0 0.104629841872922 0.46503138894246399 0 0.10854483032519301 0.47204196678830251 0 0.11752805736271579 0.46915573985666831 0 0.104629841872922 0.46503138894246399 0 0.1104652252350838 0.45562322122511778 0 0.1166456542707302 0.43688510679679721 0 0.12963045272487661 0.4508118892329952 0 0.097857257678469714 0.45402707889034472 0 0.089235176499142879 0.44469068598951922 0 0.1000789489588878 0.42835939012729801 0 0.1104652252350838 0.45562322122511778 0 0.1000789489588878 0.42835939012729801 0 0.1166456542707302 0.43688510679679721 0 0.1104652252350838 0.45562322122511778 0 0.097857257678469714 0.45402707889034472 0 0.1000789489588878 0.42835939012729801 0 0.1104652252350838 0.45562322122511778 0 0.1000789489588878 0.42835939012729801 0 0.097857257678469714 0.45402707889034472 0 0.094503608861406824 0.46628520092731618 0 0.089235176499142879 0.44469068598951922 0 0.1104652252350838 0.45562322122511778 0 0.104629841872922 0.46503138894246399 0 0.097857257678469714 0.45402707889034472 0 0.098912178904409565 0.4721044274615171 0 0.104629841872922 0.46503138894246399 0 0.094503608861406824 0.46628520092731618 0 0.104629841872922 0.46503138894246399 0 0.097857257678469714 0.45402707889034472 0 0.094503608861406824 0.46628520092731618 0 0.092544769863361492 0.46831033867547239 0 0.08009702897432068 0.45261549717358152 0 0.084733242329412983 0.47638625471329099 0 0.08009702897432068 0.45261549717358152 0 0.084733242329412983 0.47638625471329099 0 0.08009702897432068 0.45261549717358152 0 0.073875189591239634 0.46549114002123781 0 0.084733242329412983 0.47638625471329099 0 0.092544769863361492 0.46831033867547239 0 0.089235176499142879 0.44469068598951922 0 0.094503608861406824 0.46628520092731618 0 0.092544769863361492 0.46831033867547239 0 0.092544769863361492 0.46831033867547239 0 0.089235176499142879 0.44469068598951922 0 0.08009702897432068 0.45261549717358152 0 0.094503608861406824 0.46628520092731618 0 0.092544769863361492 0.46831033867547239 0 0.089235176499142879 0.44469068598951922 0 0.089235176499142879 0.44469068598951922 0 0.08009702897432068 0.45261549717358152 0 0.075460815619228794 0.42884473963387199 0 0.08009702897432068 0.45261549717358152 0 0.067494494008989478 0.44108399988098418 0 0.075460815619228794 0.42884473963387199 0 0.08009702897432068 0.45261549717358152 0 0.075460815619228794 0.42884473963387199 0 0.08009702897432068 0.45261549717358152 0 0.067494494008989478 0.44108399988098418 0 0.065992362856300751 0.45492813172381968 0 0.067494494008989478 0.44108399988098418 0 0.065992362856300751 0.45492813172381968 0 0.057141265643364109 0.44403616415611602 0 0.08009702897432068 0.45261549717358152 0 0.073875189591239634 0.46549114002123781 0 0.065992362856300751 0.45492813172381968 0 0.073875189591239634 0.46549114002123781 0 0.065992362856300751 0.45492813172381968 0 0.064287441999731409 0.46803647447312718 0 0.073875189591239634 0.46549114002123781 0 0.064287441999731409 0.46803647447312718 0 0.07176731576220996 0.47608739618579371 0 0.064287441999731409 0.46803647447312718 0 0.07176731576220996 0.47608739618579371 0 0.056761616198334357 0.48057227591310059 0 0.07176731576220996 0.47608739618579371 0 0.0733129018613419 0.48819312735664611 0 0.056761616198334357 0.48057227591310059 0 0.07176731576220996 0.47608739618579371 0 0.084733242329412983 0.47638625471329099 0 0.0733129018613419 0.48819312735664611 0 0.073875189591239634 0.46549114002123781 0 0.07176731576220996 0.47608739618579371 0 0.084733242329412983 0.47638625471329099 0 0.096377458586948628 0.49566317829720752 0 0.092544769863361492 0.46831033867547239 0 0.084733242329412983 0.47638625471329099 0 0.084733242329412983 0.47638625471329099 0 0.0733129018613419 0.48819312735664611 0 0.092544769863361492 0.46831033867547239 0 0.084733242329412983 0.47638625471329099 0 0.084733242329412983 0.47638625471329099 0 0.089338832247156011 0.50000000000000333 0 0.0733129018613419 0.48819312735664611 0 0.084733242329412983 0.47638625471329099 0 0.089338832247156011 0.50000000000000333 0 0.096377458586948628 0.49566317829720752 0 0.084733242329412983 0.47638625471329099 0 0.089338832247156011 0.50000000000000333 0 0.0733129018613419 0.48819312735664611 0 0.061892561393270103 0.50000000000000056 0 0.056761616198334357 0.48057227591310059 0 0.089338832247156011 0.50000000000000333 0 0.0733129018613419 0.48819312735664611 0 0.061892561393270103 0.50000000000000056 0 0.0733129018613419 0.48819312735664611 0 0.061892561393270103 0.50000000000000056 0 0.061892561393270103 0.50000000000000056 0 0.056761616198334357 0.48057227591310059 0 0.041349688373052078 0.49702316849823519 0 0.064287441999731409 0.46803647447312718 0 0.056761616198334357 0.48057227591310059 0 0.053100863597159653 0.45878051125992808 0 0.056761616198334357 0.48057227591310059 0 0.038671572572600683 0.46828972344489539 0 0.053100863597159653 0.45878051125992808 0 0.041349688373052078 0.49702316849823519 0 0.038671572572600683 0.46828972344489539 0 0.056761616198334357 0.48057227591310059 0 0.041349688373052078 0.49702316849823519 0 0.038671572572600683 0.46828972344489539 0 0.041349688373052078 0.49702316849823519 0 0.030295557830290101 0.48356194440721118 0 0.038671572572600683 0.46828972344489539 0 0.061892561393270103 0.50000000000000056 0 0.036056519938617637 0.5 0 0.041349688373052078 0.49702316849823519 0 0.036056519938617637 0.5 0 0.041349688373052078 0.49702316849823519 0 0.030295557830290101 0.48356194440721118 0 0.036056519938617637 0.5 0 0.030295557830290101 0.48356194440721118 0 0.01022047848396518 0.5 0 0.030295557830290101 0.48356194440721118 0 0.02008882994259845 0.46064611474723571 0 0.038671572572600683 0.46828972344489539 0 0.030295557830290101 0.48356194440721118 0 0.0038141287463968631 0.47979790165342401 0 0.02008882994259845 0.46064611474723571 0 0.030295557830290101 0.48356194440721118 0 0.0038141287463968631 0.47979790165342401 0 0.01022047848396518 0.5 0 -0.0029218050111873999 0.45624919054704338 0 0.02008882994259845 0.46064611474723571 0 0.014680068745341231 0.43642165003928429 0 -0.0053789581149880587 0.42854188731010101 0 -0.0029218050111873999 0.45624919054704338 0 0.014680068745341231 0.43642165003928429 0 -0.0029218050111873999 0.45624919054704338 0 0.0038141287463968631 0.47979790165342401 0 0.02008882994259845 0.46064611474723571 0 0.02008882994259845 0.46064611474723571 0 0.035993456772149268 0.43955627839155559 0 0.014680068745341231 0.43642165003928429 0 0.02008882994259845 0.46064611474723571 0 0.035993456772149268 0.43955627839155559 0 0.038671572572600683 0.46828972344489539 0 0.035993456772149268 0.43955627839155559 0 0.038671572572600683 0.46828972344489539 0 0.053100863597159653 0.45878051125992808 0 0.035993456772149268 0.43955627839155559 0 0.038671572572600683 0.46828972344489539 0 0.065992362856300751 0.45492813172381968 0 0.064287441999731409 0.46803647447312718 0 0.053100863597159653 0.45878051125992808 0 0.035993456772149268 0.43955627839155559 0 0.053100863597159653 0.45878051125992808 0 0.057141265643364109 0.44403616415611602 0 0.065992362856300751 0.45492813172381968 0 0.053100863597159653 0.45878051125992808 0 0.057141265643364109 0.44403616415611602 0 0.067494494008989478 0.44108399988098418 0 0.057141265643364109 0.44403616415611602 0 0.057504563173966579 0.42595971014169931 0 0.035993456772149268 0.43955627839155559 0 0.057141265643364109 0.44403616415611602 0 0.057504563173966579 0.42595971014169931 0 0.057504563173966579 0.42595971014169931 0 0.051643777087381333 0.40015253861183298 0 0.064820534957808179 0.41022638761495223 0 0.057504563173966579 0.42595971014169931 0 0.03331534097169786 0.41082283333821568 0 0.051643777087381333 0.40015253861183298 0 0.035993456772149268 0.43955627839155559 0 0.03331534097169786 0.41082283333821568 0 0.035993456772149268 0.43955627839155559 0 0.057504563173966579 0.42595971014169931 0 0.03331534097169786 0.41082283333821568 0 0.035993456772149268 0.43955627839155559 0 0.03331534097169786 0.41082283333821568 0 0.014680068745341231 0.43642165003928429 0 0.03331534097169786 0.41082283333821568 0 0.0079430538249404721 0.41715511797524929 0 0.014680068745341231 0.43642165003928429 0 0.03331534097169786 0.41082283333821568 0 0.0079430538249404721 0.41715511797524929 0 0.0094324154655470692 0.39595836782202548 0 -0.0053789581149880587 0.42854188731010101 0 0.0079430538249404721 0.41715511797524929 0 0.014680068745341231 0.43642165003928429 0 -0.0094206263094282761 0.38733099491298989 0 0.0096039622264710717 0.37703476049044532 0 0.0094324154655470692 0.39595836782202548 0 -0.009565215242672561 0.4038935459916681 0 0.0079430538249404721 0.41715511797524929 0 0.0094324154655470692 0.39595836782202548 0 0.03331534097169786 0.41082283333821568 0 0.0094324154655470692 0.39595836782202548 0 0.030637225171246452 0.38208938828487587 0 0.0096039622264710717 0.37703476049044532 0 0.0094324154655470692 0.39595836782202548 0 0.030637225171246452 0.38208938828487587 0 0.030637225171246452 0.38208938828487587 0 0.053089437925073452 0.38050488860542242 0 0.046672314068471887 0.36442173606049499 0 0.030637225171246452 0.38208938828487587 0 0.051643777087381333 0.40015253861183298 0 0.053089437925073452 0.38050488860542242 0 0.03331534097169786 0.41082283333821568 0 0.030637225171246452 0.38208938828487587 0 0.03331534097169786 0.41082283333821568 0 0.030637225171246452 0.38208938828487587 0 0.051643777087381333 0.40015253861183298 0 0.051643777087381333 0.40015253861183298 0 0.067585556499875077 0.39920597084559828 0 0.064820534957808179 0.41022638761495223 0 0.051643777087381333 0.40015253861183298 0 0.06235165353527692 0.38878533754909972 0 0.067585556499875077 0.39920597084559828 0 0.051643777087381333 0.40015253861183298 0 0.053089437925073452 0.38050488860542242 0 0.06235165353527692 0.38878533754909972 0 0.053089437925073452 0.38050488860542242 0 0.06235165353527692 0.38878533754909972 0 0.065711087928521317 0.37930963417643387 0 0.053089437925073452 0.38050488860542242 0 0.065711087928521317 0.37930963417643387 0 0.061520569759542787 0.36827069694979703 0 0.07201171127443616 0.38737748984821407 0 0.082615989770710774 0.39745138061761198 0 0.079306396406495283 0.37383172793165842 0 0.06235165353527692 0.38878533754909972 0 0.065711087928521317 0.37930963417643387 0 0.07201171127443616 0.38737748984821407 0 0.065711087928521317 0.37930963417643387 0 0.07201171127443616 0.38737748984821407 0 0.079306396406495283 0.37383172793165842 0 0.095474895809134069 0.37667438966377909 0 0.094599177041951157 0.38909981207139183 0 0.079306396406495283 0.37383172793165842 0 0.089692672682691849 0.40109555902947808 0 0.094599177041951157 0.38909981207139183 0 0.079306396406495283 0.37383172793165842 0 0.082615989770710774 0.39745138061761198 0 0.079306396406495283 0.37383172793165842 0 0.089692672682691849 0.40109555902947808 0 0.079306396406495283 0.37383172793165842 0 0.089692672682691849 0.40109555902947808 0 0.082615989770710774 0.39745138061761198 0 0.079306396406495283 0.37383172793165842 0 0.089692672682691849 0.40109555902947808 0 0.094599177041951157 0.38909981207139183 0 0.096560096646717428 0.39842072680169338 0 0.082615989770710774 0.39745138061761198 0 0.067585556499875077 0.39920597084559828 0 0.074953080718300452 0.40920868229438262 0 0.07201171127443616 0.38737748984821407 0 0.082615989770710774 0.39745138061761198 0 0.067585556499875077 0.39920597084559828 0 0.06235165353527692 0.38878533754909972 0 0.07201171127443616 0.38737748984821407 0 0.067585556499875077 0.39920597084559828 0 0.067585556499875077 0.39920597084559828 0 0.064820534957808179 0.41022638761495223 0 0.074953080718300452 0.40920868229438262 0 0.057504563173966579 0.42595971014169931 0 0.064820534957808179 0.41022638761495223 0 0.071258474296888225 0.41869231643728988 0 0.071258474296888225 0.41869231643728988 0 0.074953080718300452 0.40920868229438262 0 0.085925583134926833 0.42107103330356571 0 0.064820534957808179 0.41022638761495223 0 0.071258474296888225 0.41869231643728988 0 0.074953080718300452 0.40920868229438262 0 0.067494494008989478 0.44108399988098418 0 0.057504563173966579 0.42595971014169931 0 0.075460815619228794 0.42884473963387199 0 0.057504563173966579 0.42595971014169931 0 0.071258474296888225 0.41869231643728988 0 0.075460815619228794 0.42884473963387199 0 0.071258474296888225 0.41869231643728988 0 0.075460815619228794 0.42884473963387199 0 0.085925583134926833 0.42107103330356571 0 0.089235176499142879 0.44469068598951922 0 0.075460815619228794 0.42884473963387199 0 0.085925583134926833 0.42107103330356571 0 0.089235176499142879 0.44469068598951922 0 0.085925583134926833 0.42107103330356571 0 0.1000789489588878 0.42835939012729801 0 0.089235176499142879 0.44469068598951922 0 0.085925583134926833 0.42107103330356571 0 0.089692672682691849 0.40109555902947808 0 0.082615989770710774 0.39745138061761198 0 0.085925583134926833 0.42107103330356571 0 0.089692672682691849 0.40109555902947808 0 0.085925583134926833 0.42107103330356571 0 0.1000789489588878 0.42835939012729801 0 0.082615989770710774 0.39745138061761198 0 0.074953080718300452 0.40920868229438262 0 0.085925583134926833 0.42107103330356571 0 0.082615989770710774 0.39745138061761198 0 0.085925583134926833 0.42107103330356571 0 0.089692672682691849 0.40109555902947808 0 0.099016134536964978 0.40729706965393109 0 0.1000789489588878 0.42835939012729801 0 0.099016134536964978 0.40729706965393109 0 0.106442899371441 0.41710533291241603 0 0.1000789489588878 0.42835939012729801 0 0.089692672682691849 0.40109555902947808 0 0.1000789489588878 0.42835939012729801 0 0.099016134536964978 0.40729706965393109 0 0.106442899371441 0.41710533291241603 0 0.11297931229427111 0.40994232001826331 0 0.106442899371441 0.41710533291241603 0 0.1000789489588878 0.42835939012729801 0 0.11369720169564 0.42282255185017192 0 0.1000789489588878 0.42835939012729801 0 0.1166456542707302 0.43688510679679721 0 0.11369720169564 0.42282255185017192 0 0.1166456542707302 0.43688510679679721 0 0.11369720169564 0.42282255185017192 0 0.12935644273916269 0.42680848154840301 0 0.11369720169564 0.42282255185017192 0 0.1236992342538912 0.41564628680123122 0 0.12935644273916269 0.42680848154840301 0 0.11369720169564 0.42282255185017192 0 0.11297931229427111 0.40994232001826331 0 0.1236992342538912 0.41564628680123122 0 0.106442899371441 0.41710533291241603 0 0.11369720169564 0.42282255185017192 0 0.11297931229427111 0.40994232001826331 0 0.11297931229427111 0.40994232001826331 0 0.1236992342538912 0.41564628680123122 0 0.1237949639046072 0.40634629321549248 0 0.1237949639046072 0.40634629321549248 0 0.118181271131515 0.39946941477324738 0 0.12506378639641169 0.395076080606102 0 0.11297931229427111 0.40994232001826331 0 0.1237949639046072 0.40634629321549248 0 0.118181271131515 0.39946941477324738 0 0.11297931229427111 0.40994232001826331 0 0.118181271131515 0.39946941477324738 0 0.110149808141024 0.400794268570629 0 0.118181271131515 0.39946941477324738 0 0.110149808141024 0.400794268570629 0 0.11446971043952189 0.3894478576475392 0 0.118181271131515 0.39946941477324738 0 0.11446971043952189 0.3894478576475392 0 0.12506378639641169 0.395076080606102 0 0.11446971043952189 0.3894478576475392 0 0.127383725351678 0.38572893267744662 0 0.12506378639641169 0.395076080606102 0 0.12114107357380589 0.37519081101880303 0 0.11446971043952189 0.3894478576475392 0 0.127383725351678 0.38572893267744662 0 0.12114107357380589 0.37519081101880303 0 0.11446971043952189 0.3894478576475392 0 0.108289752440055 0.3747112214029954 0 0.11446971043952189 0.3894478576475392 0 0.1030625635922994 0.38521221505901798 0 0.1029324023252618 0.39619046645197248 0 0.11446971043952189 0.3894478576475392 0 0.1030625635922994 0.38521221505901798 0 0.108289752440055 0.3747112214029954 0 0.1030625635922994 0.38521221505901798 0 0.095474895809134069 0.37667438966377909 0 0.108289752440055 0.3747112214029954 0 0.1030625635922994 0.38521221505901798 0 0.095474895809134069 0.37667438966377909 0 0.094599177041951157 0.38909981207139183 0 0.1030625635922994 0.38521221505901798 0 0.094599177041951157 0.38909981207139183 0 0.1029324023252618 0.39619046645197248 0 0.094599177041951157 0.38909981207139183 0 0.096560096646717428 0.39842072680169338 0 0.1029324023252618 0.39619046645197248 0 0.099016134536964978 0.40729706965393109 0 0.096560096646717428 0.39842072680169338 0 0.1029324023252618 0.39619046645197248 0 0.089692672682691849 0.40109555902947808 0 0.099016134536964978 0.40729706965393109 0 0.096560096646717428 0.39842072680169338 0 0.099016134536964978 0.40729706965393109 0 0.11297931229427111 0.40994232001826331 0 0.110149808141024 0.400794268570629 0 0.099016134536964978 0.40729706965393109 0 0.110149808141024 0.400794268570629 0 0.1029324023252618 0.39619046645197248 0 0.110149808141024 0.400794268570629 0 0.11446971043952189 0.3894478576475392 0 0.1029324023252618 0.39619046645197248 0 0.09611806798419413 0.35039194772053073 0 0.10134315324195151 0.36164451915715529 0 0.085102804723095754 0.35921773721783451 0 0.1074816938604805 0.34947215068078402 0 0.10134315324195151 0.36164451915715529 0 0.1168570897275177 0.36045852626098601 0 0.1074816938604805 0.34947215068078402 0 0.09611806798419413 0.35039194772053073 0 0.10134315324195151 0.36164451915715529 0 0.09611806798419413 0.35039194772053073 0 0.099075162893226376 0.33674804116117352 0 0.087587525202216535 0.34487729038570619 0 0.1074816938604805 0.34947215068078402 0 0.09611806798419413 0.35039194772053073 0 0.099075162893226376 0.33674804116117352 0 0.095474895809134069 0.37667438966377909 0 0.10134315324195151 0.36164451915715529 0 0.085102804723095754 0.35921773721783451 0 0.095474895809134069 0.37667438966377909 0 0.10134315324195151 0.36164451915715529 0 0.108289752440055 0.3747112214029954 0 0.10134315324195151 0.36164451915715529 0 0.108289752440055 0.3747112214029954 0 0.1168570897275177 0.36045852626098601 0 0.12114107357380589 0.37519081101880303 0 0.108289752440055 0.3747112214029954 0 0.1168570897275177 0.36045852626098601 0 0.12114107357380589 0.37519081101880303 0 0.1168570897275177 0.36045852626098601 0 0.1317359334732984 0.3655372836243217 0 0.1074816938604805 0.34947215068078402 0 0.1168570897275177 0.36045852626098601 0 0.12606971746916459 0.33455977197493841 0 0.1168570897275177 0.36045852626098601 0 0.12606971746916459 0.33455977197493841 0 0.1317359334732984 0.3655372836243217 0 0.10780089841236599 0.31387974347180458 0 0.099075162893226376 0.33674804116117352 0 0.12606971746916459 0.33455977197493841 0 0.1074816938604805 0.34947215068078402 0 0.099075162893226376 0.33674804116117352 0 0.12606971746916459 0.33455977197493841 0 0.10780089841236599 0.31387974347180458 0 0.13336984075321051 0.32203732205168478 0 0.12606971746916459 0.33455977197493841 0 0.10780089841236599 0.31387974347180458 0 0.12606971746916459 0.33455977197493841 0 0.10780089841236599 0.31387974347180458 0 0.0860797604816914 0.31909208789886928 0 0.10780089841236599 0.31387974347180458 0 0.099075162893226376 0.33674804116117352 0 0.0860797604816914 0.31909208789886928 0 0.099075162893226376 0.33674804116117352 0 0.084288994811182363 0.33287808558268062 0 0.087587525202216535 0.34487729038570619 0 0.099075162893226376 0.33674804116117352 0 0.084288994811182363 0.33287808558268062 0 0.0860797604816914 0.31909208789886928 0 0.084288994811182363 0.33287808558268062 0 0.074730713637057467 0.34176108477188988 0 0.087587525202216535 0.34487729038570619 0 0.084288994811182363 0.33287808558268062 0 0.0860797604816914 0.31909208789886928 0 0.064358622551019512 0.32430443232594508 0 0.0860797604816914 0.31909208789886928 0 0.064358622551019512 0.32430443232594508 0 0.069559546023744118 0.31120139325330393 0 0.0860797604816914 0.31909208789886928 0 0.064358622551019512 0.32430443232594508 0 0.064358622551019512 0.32430443232594508 0 0.055564639300206241 0.30950379974843722 0 0.069559546023744118 0.31120139325330393 0 0.064358622551019512 0.32430443232594508 0 0.074730713637057467 0.34176108477188988 0 0.084288994811182363 0.33287808558268062 0 0.064358622551019512 0.32430443232594508 0 0.074730713637057467 0.34176108477188988 0 0.064358622551019512 0.32430443232594508 0 0.074730713637057467 0.34176108477188988 0 0.062346691147802821 0.33511553897958352 0 0.074730713637057467 0.34176108477188988 0 0.065685296552813702 0.34350415046269639 0 0.062346691147802821 0.33511553897958352 0 0.064368137756489641 0.35125366703620842 0 0.071308316084439341 0.3528368780731862 0 0.070659713113471301 0.34795126461807219 0 0.065685296552813702 0.34350415046269639 0 0.064368137756489641 0.35125366703620842 0 0.070659713113471301 0.34795126461807219 0 0.064368137756489641 0.35125366703620842 0 0.066741175323022178 0.36041596246008828 0 0.057202456608143833 0.35588684230959178 0 0.064368137756489641 0.35125366703620842 0 0.071308316084439341 0.3528368780731862 0 0.066741175323022178 0.36041596246008828 0 0.074730713637057467 0.34176108477188988 0 0.065685296552813702 0.34350415046269639 0 0.070659713113471301 0.34795126461807219 0 0.074730713637057467 0.34176108477188988 0 0.076374338866271596 0.35290644402696769 0 0.070659713113471301 0.34795126461807219 0 0.071308316084439341 0.3528368780731862 0 0.076374338866271596 0.35290644402696769 0 0.070659713113471301 0.34795126461807219 0 0.074730713637057467 0.34176108477188988 0 0.076374338866271596 0.35290644402696769 0 0.085102804723095754 0.35921773721783451 0 0.074730713637057467 0.34176108477188988 0 0.085102804723095754 0.35921773721783451 0 0.087587525202216535 0.34487729038570619 0 0.074730713637057467 0.34176108477188988 0 0.085102804723095754 0.35921773721783451 0 0.09611806798419413 0.35039194772053073 0 0.085102804723095754 0.35921773721783451 0 0.087587525202216535 0.34487729038570619 0 0.095474895809134069 0.37667438966377909 0 0.085102804723095754 0.35921773721783451 0 0.079306396406495283 0.37383172793165842 0 0.095474895809134069 0.37667438966377909 0 0.085102804723095754 0.35921773721783451 0 0.076374338866271596 0.35290644402696769 0 0.085102804723095754 0.35921773721783451 0 0.079306396406495283 0.37383172793165842 0 0.079306396406495283 0.37383172793165842 0 0.066741175323022178 0.36041596246008828 0 0.061520569759542787 0.36827069694979703 0 0.071308316084439341 0.3528368780731862 0 0.079306396406495283 0.37383172793165842 0 0.071308316084439341 0.3528368780731862 0 0.079306396406495283 0.37383172793165842 0 0.066741175323022178 0.36041596246008828 0 0.071308316084439341 0.3528368780731862 0 0.076374338866271596 0.35290644402696769 0 0.079306396406495283 0.37383172793165842 0 0.076374338866271596 0.35290644402696769 0 0.079306396406495283 0.37383172793165842 0 0.065711087928521317 0.37930963417643387 0 0.079306396406495283 0.37383172793165842 0 0.061520569759542787 0.36827069694979703 0 0.053089437925073452 0.38050488860542242 0 0.061520569759542787 0.36827069694979703 0 0.046672314068471887 0.36442173606049499 0 0.061520569759542787 0.36827069694979703 0 0.057202456608143833 0.35588684230959178 0 0.046672314068471887 0.36442173606049499 0 0.066741175323022178 0.36041596246008828 0 0.061520569759542787 0.36827069694979703 0 0.057202456608143833 0.35588684230959178 0 0.064368137756489641 0.35125366703620842 0 0.057202456608143833 0.35588684230959178 0 0.055252378386602227 0.34246125501769609 0 0.065685296552813702 0.34350415046269639 0 0.064368137756489641 0.35125366703620842 0 0.055252378386602227 0.34246125501769609 0 0.057202456608143833 0.35588684230959178 0 0.046379573882637172 0.35125497903912239 0 0.046672314068471887 0.36442173606049499 0 0.046379573882637172 0.35125497903912239 0 0.043217474908951968 0.34308673270615231 0 0.055252378386602227 0.34246125501769609 0 0.057202456608143833 0.35588684230959178 0 0.046379573882637172 0.35125497903912239 0 0.055252378386602227 0.34246125501769609 0 0.046379573882637172 0.35125497903912239 0 0.046672314068471887 0.36442173606049499 0 0.02795910937079504 0.35335594323153607 0 0.046379573882637172 0.35125497903912239 0 0.02795910937079504 0.35335594323153607 0 0.043217474908951968 0.34308673270615231 0 0.030637225171246452 0.38208938828487587 0 0.046672314068471887 0.36442173606049499 0 0.02795910937079504 0.35335594323153607 0 -0.0060076069825433353 0.36206057206247222 0 0.0096039622264710717 0.37703476049044532 0 0.02795910937079504 0.35335594323153607 0 0.0096039622264710717 0.37703476049044532 0 0.030637225171246452 0.38208938828487587 0 0.02795910937079504 0.35335594323153607 0 0.030637225171246452 0.38208938828487587 0 0.02795910937079504 0.35335594323153607 0 -0.0060076069825433353 0.36206057206247222 0 0.02795910937079504 0.35335594323153607 0 0.013768555665366991 0.33941830309771781 0 -0.0025945876556584179 0.33679014921195449 0 -0.0060076069825433353 0.36206057206247222 0 0.013768555665366991 0.33941830309771781 0 0.013768555665366991 0.33941830309771781 0 0.025280993570343639 0.32462249817819627 0 0.00081843167122650027 0.31151972636143688 0 -0.0025945876556584179 0.33679014921195449 0 0.013768555665366991 0.33941830309771781 0 0.00081843167122650027 0.31151972636143688 0 0.02795910937079504 0.35335594323153607 0 0.025280993570343639 0.32462249817819627 0 0.02795910937079504 0.35335594323153607 0 0.013768555665366991 0.33941830309771781 0 0.025280993570343639 0.32462249817819627 0 0.025280993570343639 0.32462249817819627 0 0.039535424409773957 0.3130142117439354 0 0.040728220283420193 0.32997493614403001 0 0.039535424409773957 0.3130142117439354 0 0.040728220283420193 0.32997493614403001 0 0.050046726636104967 0.31919934499058689 0 0.02795910937079504 0.35335594323153607 0 0.025280993570343639 0.32462249817819627 0 0.040728220283420193 0.32997493614403001 0 0.02795910937079504 0.35335594323153607 0 0.040728220283420193 0.32997493614403001 0 0.043217474908951968 0.34308673270615231 0 0.040728220283420193 0.32997493614403001 0 0.043217474908951968 0.34308673270615231 0 0.055252378386602227 0.34246125501769609 0 0.040728220283420193 0.32997493614403001 0 0.062346691147802821 0.33511553897958352 0 0.055252378386602227 0.34246125501769609 0 0.064358622551019512 0.32430443232594508 0 0.040728220283420193 0.32997493614403001 0 0.062346691147802821 0.33511553897958352 0 0.065685296552813702 0.34350415046269639 0 0.062346691147802821 0.33511553897958352 0 0.055252378386602227 0.34246125501769609 0 0.064358622551019512 0.32430443232594508 0 0.040728220283420193 0.32997493614403001 0 0.039535424409773957 0.3130142117439354 0 0.050046726636104967 0.31919934499058689 0 0.055564639300206241 0.30950379974843722 0 0.064358622551019512 0.32430443232594508 0 0.040728220283420193 0.32997493614403001 0 0.050046726636104967 0.31919934499058689 0 0.064358622551019512 0.32430443232594508 0 0.055564639300206241 0.30950379974843722 0 0.064358622551019512 0.32430443232594508 0 0.050046726636104967 0.31919934499058689 0 0.055564639300206241 0.30950379974843722 0 0.055564639300206241 0.30950379974843722 0 0.059521655304579313 0.29753382658001598 0 0.043764679932974247 0.29764307424067321 0 0.055564639300206241 0.30950379974843722 0 0.059521655304579313 0.29753382658001598 0 0.069559546023744118 0.31120139325330393 0 0.059521655304579313 0.29753382658001598 0 0.051724447502600482 0.28646261229504538 0 0.043764679932974247 0.29764307424067321 0 0.051724447502600482 0.28646261229504538 0 0.056341834368058862 0.27835584444566208 0 0.064275087599535125 0.28609645255659388 0 0.059521655304579313 0.29753382658001598 0 0.051724447502600482 0.28646261229504538 0 0.064275087599535125 0.28609645255659388 0 0.036668961433123433 0.28329026712901972 0 0.043764679932974247 0.29764307424067321 0 0.02260287776989223 0.29588905312485653 0 0.051724447502600482 0.28646261229504538 0 0.036668961433123433 0.28329026712901972 0 0.048521999495535019 0.27490251349146932 0 0.051724447502600482 0.28646261229504538 0 0.036668961433123433 0.28329026712901972 0 0.043764679932974247 0.29764307424067321 0 0.039535424409773957 0.3130142117439354 0 0.055564639300206241 0.30950379974843722 0 0.043764679932974247 0.29764307424067321 0 0.039535424409773957 0.3130142117439354 0 0.043764679932974247 0.29764307424067321 0 0.02260287776989223 0.29588905312485653 0 0.025280993570343639 0.32462249817819627 0 0.02260287776989223 0.29588905312485653 0 0.00081843167122650027 0.31151972636143688 0 0.025280993570343639 0.32462249817819627 0 0.02260287776989223 0.29588905312485653 0 0.025280993570343639 0.32462249817819627 0 0.039535424409773957 0.3130142117439354 0 0.02260287776989223 0.29588905312485653 0 0.036668961433123433 0.28329026712901972 0 0.02260287776989223 0.29588905312485653 0 0.01686263508996938 0.27354352756289341 0 -0.0023521959977934122 0.28309489312778618 0 0.02260287776989223 0.29588905312485653 0 0.01686263508996938 0.27354352756289341 0 -0.0023521959977934122 0.28309489312778618 0 0.02260287776989223 0.29588905312485653 0 0.00081843167122650027 0.31151972636143688 0 -0.0025825883053692562 0.26225928622967221 0 0.01087355115046874 0.25127924265677892 0 0.01686263508996938 0.27354352756289341 0 -0.0025825883053692562 0.26225928622967221 0 -0.003016964063370512 0.2415134021912286 0 0.01087355115046874 0.25127924265677892 0 -0.0025825883053692562 0.26225928622967221 0 -0.0023521959977934122 0.28309489312778618 0 0.01686263508996938 0.27354352756289341 0 -0.0023521959977934122 0.28309489312778618 0 0.01686263508996938 0.27354352756289341 0 0.036668961433123433 0.28329026712901972 0 0.01686263508996938 0.27354352756289341 0 0.036077466177732158 0.26399216199800052 0 0.01686263508996938 0.27354352756289341 0 0.036077466177732158 0.26399216199800052 0 0.02757432341419273 0.24851232677057111 0 0.01087355115046874 0.25127924265677892 0 0.01686263508996938 0.27354352756289341 0 0.02757432341419273 0.24851232677057111 0 0.01686263508996938 0.27354352756289341 0 0.036077466177732158 0.26399216199800052 0 0.036077466177732158 0.26399216199800052 0 0.055292297265498828 0.25444079643311551 0 0.036077466177732158 0.26399216199800052 0 0.040662600338095108 0.25159025897392229 0 0.055292297265498828 0.25444079643311551 0 0.02757432341419273 0.24851232677057111 0 0.036077466177732158 0.26399216199800052 0 0.040662600338095108 0.25159025897392229 0 0.036668961433123433 0.28329026712901972 0 0.036077466177732158 0.26399216199800052 0 0.048521999495535019 0.27490251349146932 0 0.036077466177732158 0.26399216199800052 0 0.048521999495535019 0.27490251349146932 0 0.051551119733321639 0.26542781788673042 0 0.048521999495535019 0.27490251349146932 0 0.058072959335553391 0.27072388385303242 0 0.056341834368058862 0.27835584444566208 0 0.051724447502600482 0.28646261229504538 0 0.048521999495535019 0.27490251349146932 0 0.056341834368058862 0.27835584444566208 0 0.048521999495535019 0.27490251349146932 0 0.058072959335553391 0.27072388385303242 0 0.051551119733321639 0.26542781788673042 0 0.058072959335553391 0.27072388385303242 0 0.051551119733321639 0.26542781788673042 0 0.059790876392288812 0.26307973365803428 0 0.058072959335553391 0.27072388385303242 0 0.06168679706650107 0.26167927406743208 0 0.063765688321824596 0.27537153152732191 0 0.056341834368058862 0.27835584444566208 0 0.063765688321824596 0.27537153152732191 0 0.064275087599535125 0.28609645255659388 0 0.058072959335553391 0.27072388385303242 0 0.056341834368058862 0.27835584444566208 0 0.063765688321824596 0.27537153152732191 0 0.036077466177732158 0.26399216199800052 0 0.051551119733321639 0.26542781788673042 0 0.055292297265498828 0.25444079643311551 0 0.058072959335553391 0.27072388385303242 0 0.059790876392288812 0.26307973365803428 0 0.06168679706650107 0.26167927406743208 0 0.051551119733321639 0.26542781788673042 0 0.059790876392288812 0.26307973365803428 0 0.055292297265498828 0.25444079643311551 0 0.059790876392288812 0.26307973365803428 0 0.06168679706650107 0.26167927406743208 0 0.055292297265498828 0.25444079643311551 0 0.06168679706650107 0.26167927406743208 0 0.055292297265498828 0.25444079643311551 0 0.059790876392288812 0.26307973365803428 0 0.06168679706650107 0.26167927406743208 0 0.084577475888514095 0.24477061795757421 0 0.06168679706650107 0.26167927406743208 0 0.071484012278383913 0.24639217042623321 0 0.06168679706650107 0.26167927406743208 0 0.055292297265498828 0.25444079643311551 0 0.071484012278383913 0.24639217042623321 0 0.055292297265498828 0.25444079643311551 0 0.084577475888514095 0.24477061795757421 0 0.071484012278383913 0.24639217042623321 0 0.06168679706650107 0.26167927406743208 0 0.084577475888514095 0.24477061795757421 0 0.06168679706650107 0.26167927406743208 0 0.070618361482105624 0.26253861879363388 0 0.084577475888514095 0.24477061795757421 0 0.070618361482105624 0.26253861879363388 0 0.088648879803651506 0.25663961973420862 0 0.084577475888514095 0.24477061795757421 0 0.088648879803651506 0.25663961973420862 0 0.1032656199459439 0.25052158303601452 0 0.070618361482105624 0.26253861879363388 0 0.088648879803651506 0.25663961973420862 0 0.096134061898042467 0.26872765914961178 0 0.070618361482105624 0.26253861879363388 0 0.077058164181788014 0.2790794305355575 0 0.096134061898042467 0.26872765914961178 0 0.070618361482105624 0.26253861879363388 0 0.096134061898042467 0.26872765914961178 0 0.077058164181788014 0.2790794305355575 0 0.10521886122706769 0.28406358257271619 0 0.096134061898042467 0.26872765914961178 0 0.06168679706650107 0.26167927406743208 0 0.077058164181788014 0.2790794305355575 0 0.06168679706650107 0.26167927406743208 0 0.070618361482105624 0.26253861879363388 0 0.077058164181788014 0.2790794305355575 0 0.06168679706650107 0.26167927406743208 0 0.077058164181788014 0.2790794305355575 0 0.063765688321824596 0.27537153152732191 0 0.077058164181788014 0.2790794305355575 0 0.063765688321824596 0.27537153152732191 0 0.064275087599535125 0.28609645255659388 0 0.059521655304579313 0.29753382658001598 0 0.064275087599535125 0.28609645255659388 0 0.072241531468415623 0.29429562738604281 0 0.077058164181788014 0.2790794305355575 0 0.064275087599535125 0.28609645255659388 0 0.072241531468415623 0.29429562738604281 0 0.072241531468415623 0.29429562738604281 0 0.069559546023744118 0.31120139325330393 0 0.092429531297075221 0.2964795870036826 0 0.059521655304579313 0.29753382658001598 0 0.072241531468415623 0.29429562738604281 0 0.069559546023744118 0.31120139325330393 0 0.0860797604816914 0.31909208789886928 0 0.069559546023744118 0.31120139325330393 0 0.092429531297075221 0.2964795870036826 0 0.077058164181788014 0.2790794305355575 0 0.092429531297075221 0.2964795870036826 0 0.077058164181788014 0.2790794305355575 0 0.092429531297075221 0.2964795870036826 0 0.10521886122706769 0.28406358257271619 0 0.077058164181788014 0.2790794305355575 0 0.072241531468415623 0.29429562738604281 0 0.092429531297075221 0.2964795870036826 0 0.092429531297075221 0.2964795870036826 0 0.10521886122706769 0.28406358257271619 0 0.11907186335592949 0.29528046529946922 0 0.10780089841236599 0.31387974347180458 0 0.092429531297075221 0.2964795870036826 0 0.10780089841236599 0.31387974347180458 0 0.0860797604816914 0.31909208789886928 0 0.092429531297075221 0.2964795870036826 0 0.10780089841236599 0.31387974347180458 0 0.092429531297075221 0.2964795870036826 0 0.11907186335592949 0.29528046529946922 0 0.10780089841236599 0.31387974347180458 0 0.1358127224069155 0.30715784542224439 0 0.10780089841236599 0.31387974347180458 0 0.11907186335592949 0.29528046529946922 0 0.1358127224069155 0.30715784542224439 0 0.10521886122706769 0.28406358257271619 0 0.11907186335592949 0.29528046529946922 0 0.1216497623139793 0.27491669950558978 0 0.1216497623139793 0.27491669950558978 0 0.11569690788772589 0.26027806983300289 0 0.13764371262500061 0.26258540098334998 0 0.1216497623139793 0.27491669950558978 0 0.11569690788772589 0.26027806983300289 0 0.096134061898042467 0.26872765914961178 0 0.12358662914375811 0.24562408341310979 0 0.11569690788772589 0.26027806983300289 0 0.1032656199459439 0.25052158303601452 0 0.11569690788772589 0.26027806983300289 0 0.1032656199459439 0.25052158303601452 0 0.096134061898042467 0.26872765914961178 0 0.088648879803651506 0.25663961973420862 0 0.1032656199459439 0.25052158303601452 0 0.096134061898042467 0.26872765914961178 0 0.10521886122706769 0.28406358257271619 0 0.1216497623139793 0.27491669950558978 0 0.096134061898042467 0.26872765914961178 0 0.1216497623139793 0.27491669950558978 0 0.096134061898042467 0.26872765914961178 0 0.14716546272991629 0.28110573986156778 0 0.15192627427277769 0.2673530263227003 0 0.13764371262500061 0.26258540098334998 0 0.14716546272991629 0.28110573986156778 0 0.15192627427277769 0.2673530263227003 0 0.1648977259964767 0.27302302645889698 0 0.15192627427277769 0.2673530263227003 0 0.15359089029870171 0.25461412864350841 0 0.13764371262500061 0.26258540098334998 0 0.1441108647216861 0.24272032236460531 0 0.15359089029870171 0.25461412864350841 0 0.13764371262500061 0.26258540098334998 0 0.12358662914375811 0.24562408341310979 0 0.1441108647216861 0.24272032236460531 0 0.13764371262500061 0.26258540098334998 0 0.12358662914375811 0.24562408341310979 0 0.11569690788772589 0.26027806983300289 0 0.13764371262500061 0.26258540098334998 0 0.1216497623139793 0.27491669950558978 0 0.14716546272991629 0.28110573986156778 0 0.1216497623139793 0.27491669950558978 0 0.14716546272991629 0.28110573986156778 0 0.13764371262500061 0.26258540098334998 0 0.11907186335592949 0.29528046529946922 0 0.1216497623139793 0.27491669950558978 0 0.1389006039091574 0.28997484861347927 0 0.1216497623139793 0.27491669950558978 0 0.14716546272991629 0.28110573986156778 0 0.1389006039091574 0.28997484861347927 0 0.11907186335592949 0.29528046529946922 0 0.1389006039091574 0.28997484861347927 0 0.1358127224069155 0.30715784542224439 0 0.1358127224069155 0.30715784542224439 0 0.1600367455265066 0.29955282817651502 0 0.151721109531261 0.31864692020528967 0 0.1389006039091574 0.28997484861347927 0 0.1358127224069155 0.30715784542224439 0 0.1600367455265066 0.29955282817651502 0 0.14716546272991629 0.28110573986156778 0 0.1389006039091574 0.28997484861347927 0 0.1600367455265066 0.29955282817651502 0 0.1389006039091574 0.28997484861347927 0 0.1600367455265066 0.29955282817651502 0 0.14716546272991629 0.28110573986156778 0 0.1600367455265066 0.29955282817651502 0 0.17268116314585341 0.28729478021754568 0 0.14716546272991629 0.28110573986156778 0 0.17268116314585341 0.28729478021754568 0 0.1600367455265066 0.29955282817651502 0 0.18117288714385579 0.30913080773955071 0 0.16694835142361131 0.31710129617921612 0 0.1600367455265066 0.29955282817651502 0 0.18117288714385579 0.30913080773955071 0 0.17268116314585341 0.28729478021754568 0 0.1600367455265066 0.29955282817651502 0 0.18117288714385579 0.30913080773955071 0 0.1600367455265066 0.29955282817651502 0 0.16694835142361131 0.31710129617921612 0 0.151721109531261 0.31864692020528967 0 0.18117288714385579 0.30913080773955071 0 0.17268116314585341 0.28729478021754568 0 0.1904695899212743 0.29019632830712683 0 0.17268116314585341 0.28729478021754568 0 0.185922170938389 0.26977814296207231 0 0.1904695899212743 0.29019632830712683 0 0.185922170938389 0.26977814296207231 0 0.1648977259964767 0.27302302645889698 0 0.16761974526679019 0.25914969474071459 0 0.17268116314585341 0.28729478021754568 0 0.185922170938389 0.26977814296207231 0 0.1648977259964767 0.27302302645889698 0 0.14716546272991629 0.28110573986156778 0 0.17268116314585341 0.28729478021754568 0 0.1648977259964767 0.27302302645889698 0 0.15192627427277769 0.2673530263227003 0 0.1648977259964767 0.27302302645889698 0 0.16761974526679019 0.25914969474071459 0 0.15192627427277769 0.2673530263227003 0 0.15359089029870171 0.25461412864350841 0 0.16761974526679019 0.25914969474071459 0 0.1644828606342475 0.24066485491695319 0 0.15359089029870171 0.25461412864350841 0 0.16761974526679019 0.25914969474071459 0 0.18432810499238581 0.2446549275319905 0 0.185922170938389 0.26977814296207231 0 0.16761974526679019 0.25914969474071459 0 0.20619742700896329 0.24842526588400071 0 0.185922170938389 0.26977814296207231 0 0.20711366118709751 0.26744252623557369 0 0.18432810499238581 0.2446549275319905 0 0.20619742700896329 0.24842526588400071 0 0.185922170938389 0.26977814296207231 0 0.185922170938389 0.26977814296207231 0 0.20711366118709751 0.26744252623557369 0 0.20528035438705469 0.28322373662074168 0 0.185922170938389 0.26977814296207231 0 0.20528035438705469 0.28322373662074168 0 0.1904695899212743 0.29019632830712683 0 0.20711366118709751 0.26744252623557369 0 0.2198896021874486 0.2786376766723821 0 0.20528035438705469 0.28322373662074168 0 0.20619742700896329 0.24842526588400071 0 0.20711366118709751 0.26744252623557369 0 0.23179693074002869 0.26139247847514258 0 0.20619742700896329 0.24842526588400071 0 0.23002142385293589 0.240410437660948 0 0.23179693074002869 0.26139247847514258 0 0.20711366118709751 0.26744252623557369 0 0.23179693074002869 0.26139247847514258 0 0.23179693074002869 0.26139247847514258 0 0.2198896021874486 0.2786376766723821 0 0.2337566843710186 0.28779337624272427 0 0.20711366118709751 0.26744252623557369 0 0.23179693074002869 0.26139247847514258 0 0.2198896021874486 0.2786376766723821 0 0.23179693074002869 0.26139247847514258 0 0.249863287478018 0.28312152291451942 0 0.2581466906155262 0.27041699713618877 0 0.23179693074002869 0.26139247847514258 0 0.249863287478018 0.28312152291451942 0 0.2337566843710186 0.28779337624272427 0 0.23179693074002869 0.26139247847514258 0 0.25648020029296009 0.25534243071471141 0 0.23002142385293589 0.240410437660948 0 0.23179693074002869 0.26139247847514258 0 0.25648020029296009 0.25534243071471141 0 0.23179693074002869 0.26139247847514258 0 0.25648020029296009 0.25534243071471141 0 0.2581466906155262 0.27041699713618877 0 0.2419954011180456 0.30776409888589151 0 0.2339349569590419 0.3082945250042351 0 0.2372402714849893 0.313603575930328 0 0.2419954011180456 0.30776409888589151 0 0.2456548670102662 0.31512007139455978 0 0.2372402714849893 0.313603575930328 0 0.2372832342873066 0.30040349499756869 0 0.2419954011180456 0.30776409888589151 0 0.2339349569590419 0.3082945250042351 0 0.2339349569590419 0.3082945250042351 0 0.2321482190948598 0.31458722803174521 0 0.2372402714849893 0.313603575930328 0 0.2419954011180456 0.30776409888589151 0 0.246840595439553 0.31008571645844879 0 0.24746204362422861 0.30705434421611461 0 0.2419954011180456 0.30776409888589151 0 0.246840595439553 0.31008571645844879 0 0.24804998529145589 0.31526115045204323 0 0.2419954011180456 0.30776409888589151 0 0.24804998529145589 0.31526115045204323 0 0.246840595439553 0.31008571645844879 0 0.24746204362422861 0.30705434421611461 0 0.25080394818916718 0.31143836130783681 0 0.246840595439553 0.31008571645844879 0 0.24804998529145589 0.31526115045204323 0 0.25080394818916718 0.31143836130783681 0 0.2372832342873066 0.30040349499756869 0 0.2419954011180456 0.30776409888589151 0 0.2485433229568853 0.29627740250536672 0 0.24746204362422861 0.30705434421611461 0 0.2485433229568853 0.29627740250536672 0 0.2526787178163884 0.30883598457110623 0 0.2419954011180456 0.30776409888589151 0 0.24746204362422861 0.30705434421611461 0 0.2485433229568853 0.29627740250536672 0 0.2485433229568853 0.29627740250536672 0 0.249863287478018 0.28312152291451942 0 0.2337566843710186 0.28779337624272427 0 0.2372832342873066 0.30040349499756869 0 0.2485433229568853 0.29627740250536672 0 0.2337566843710186 0.28779337624272427 0 0.2372832342873066 0.30040349499756869 0 0.2337566843710186 0.28779337624272427 0 0.22818580603154159 0.30188807234962611 0 0.2337566843710186 0.28779337624272427 0 0.2193028413184642 0.29406860151903069 0 0.22818580603154159 0.30188807234962611 0 0.2198896021874486 0.2786376766723821 0 0.2337566843710186 0.28779337624272427 0 0.2193028413184642 0.29406860151903069 0 0.2193028413184642 0.29406860151903069 0 0.22818580603154159 0.30188807234962611 0 0.21729605688083919 0.3082091929315699 0 0.2372832342873066 0.30040349499756869 0 0.22818580603154159 0.30188807234962611 0 0.2339349569590419 0.3082945250042351 0 0.22818580603154159 0.30188807234962611 0 0.2339349569590419 0.3082945250042351 0 0.22682037031081051 0.31133748683935247 0 0.2339349569590419 0.3082945250042351 0 0.22682037031081051 0.31133748683935247 0 0.2321482190948598 0.31458722803174521 0 0.22818580603154159 0.30188807234962611 0 0.22682037031081051 0.31133748683935247 0 0.21729605688083919 0.3082091929315699 0 0.21729605688083919 0.3082091929315699 0 0.20371016732906391 0.30097674978339062 0 0.20230902876120499 0.31870878730258639 0 0.2193028413184642 0.29406860151903069 0 0.21729605688083919 0.3082091929315699 0 0.20371016732906391 0.30097674978339062 0 0.2193028413184642 0.29406860151903069 0 0.20371016732906391 0.30097674978339062 0 0.20528035438705469 0.28322373662074168 0 0.2198896021874486 0.2786376766723821 0 0.2193028413184642 0.29406860151903069 0 0.20528035438705469 0.28322373662074168 0 0.20371016732906391 0.30097674978339062 0 0.20528035438705469 0.28322373662074168 0 0.1904695899212743 0.29019632830712683 0 0.18117288714385579 0.30913080773955071 0 0.20371016732906391 0.30097674978339062 0 0.20230902876120499 0.31870878730258639 0 0.18117288714385579 0.30913080773955071 0 0.20371016732906391 0.30097674978339062 0 0.1904695899212743 0.29019632830712683 0 0.20230902876120499 0.31870878730258639 0 0.18347798935561341 0.33869247491350002 0 0.17971015901957271 0.32346519381883809 0 0.18117288714385579 0.30913080773955071 0 0.20230902876120499 0.31870878730258639 0 0.17971015901957271 0.32346519381883809 0 0.18117288714385579 0.30913080773955071 0 0.20230902876120499 0.31870878730258639 0 0.20230902876120499 0.31870878730258639 0 0.20244203185588011 0.34318001586550623 0 0.18347798935561341 0.33869247491350002 0 0.20244203185588011 0.34318001586550623 0 0.22344517037855391 0.32828676686562303 0 0.21947027147631579 0.34034641451640119 0 0.20230902876120499 0.31870878730258639 0 0.20244203185588011 0.34318001586550623 0 0.22344517037855391 0.32828676686562303 0 0.20244203185588011 0.34318001586550623 0 0.22344517037855391 0.32828676686562303 0 0.20230902876120499 0.31870878730258639 0 0.22344517037855391 0.32828676686562303 0 0.21729605688083919 0.3082091929315699 0 0.20230902876120499 0.31870878730258639 0 0.22087333889787999 0.31824204112941618 0 0.20230902876120499 0.31870878730258639 0 0.22087333889787999 0.31824204112941618 0 0.22344517037855391 0.32828676686562303 0 0.22682037031081051 0.31133748683935247 0 0.21729605688083919 0.3082091929315699 0 0.22087333889787999 0.31824204112941618 0 0.22682037031081051 0.31133748683935247 0 0.22087333889787999 0.31824204112941618 0 0.22798960445001651 0.31810935589642808 0 0.22682037031081051 0.31133748683935247 0 0.22798960445001651 0.31810935589642808 0 0.2321482190948598 0.31458722803174521 0 0.22798960445001651 0.31810935589642808 0 0.233996376511906 0.31905689079628913 0 0.2321482190948598 0.31458722803174521 0 0.23320897582460831 0.32590181960874248 0 0.22765948206517081 0.32529841380381108 0 0.22344517037855391 0.32828676686562303 0 0.233996376511906 0.31905689079628913 0 0.23320897582460831 0.32590181960874248 0 0.22765948206517081 0.32529841380381108 0 0.22798960445001651 0.31810935589642808 0 0.233996376511906 0.31905689079628913 0 0.22765948206517081 0.32529841380381108 0 0.22765948206517081 0.32529841380381108 0 0.22344517037855391 0.32828676686562303 0 0.22087333889787999 0.31824204112941618 0 0.22765948206517081 0.32529841380381108 0 0.22344517037855391 0.32828676686562303 0 0.22087333889787999 0.31824204112941618 0 0.22798960445001651 0.31810935589642808 0 0.22765948206517081 0.32529841380381108 0 0.22344517037855391 0.32828676686562303 0 0.21947027147631579 0.34034641451640119 0 0.23492015527782531 0.33348673064525453 0 0.21947027147631579 0.34034641451640119 0 0.23492015527782531 0.33348673064525453 0 0.22477670838155339 0.34756689806948399 0 0.23492015527782531 0.33348673064525453 0 0.22477670838155339 0.34756689806948399 0 0.22344517037855391 0.32828676686562303 0 0.23492015527782531 0.33348673064525453 0 0.23320897582460831 0.32590181960874248 0 0.22344517037855391 0.32828676686562303 0 0.23492015527782531 0.33348673064525453 0 0.23492015527782531 0.33348673064525453 0 0.256881731206555 0.34343876111635702 0 0.23492015527782531 0.33348673064525453 0 0.2415944531318375 0.35153847151493689 0 0.256881731206555 0.34343876111635702 0 0.23492015527782531 0.33348673064525453 0 0.24926794444985581 0.33103263873945571 0 0.256881731206555 0.34343876111635702 0 0.23492015527782531 0.33348673064525453 0 0.24804998529145589 0.31526115045204323 0 0.23492015527782531 0.33348673064525453 0 0.24926794444985581 0.33103263873945571 0 0.24804998529145589 0.31526115045204323 0 0.23320897582460831 0.32590181960874248 0 0.23492015527782531 0.33348673064525453 0 0.2456548670102662 0.31512007139455978 0 0.23492015527782531 0.33348673064525453 0 0.24804998529145589 0.31526115045204323 0 0.2456548670102662 0.31512007139455978 0 0.24804998529145589 0.31526115045204323 0 0.25080394818916718 0.31143836130783681 0 0.24804998529145589 0.31526115045204323 0 0.2456548670102662 0.31512007139455978 0 0.2419954011180456 0.30776409888589151 0 0.24804998529145589 0.31526115045204323 0 0.2456548670102662 0.31512007139455978 0 0.233996376511906 0.31905689079628913 0 0.23320897582460831 0.32590181960874248 0 0.2456548670102662 0.31512007139455978 0 0.233996376511906 0.31905689079628913 0 0.2456548670102662 0.31512007139455978 0 0.2372402714849893 0.313603575930328 0 0.233996376511906 0.31905689079628913 0 0.2321482190948598 0.31458722803174521 0 0.2372402714849893 0.313603575930328 0 0.23688621790532011 0.37104521076284058 0 0.2415944531318375 0.35153847151493689 0 0.25801751143915141 0.36182926001624582 0 0.23688621790532011 0.37104521076284058 0 0.2415944531318375 0.35153847151493689 0 0.22477670838155339 0.34756689806948399 0 0.23492015527782531 0.33348673064525453 0 0.2415944531318375 0.35153847151493689 0 0.22477670838155339 0.34756689806948399 0 0.22477670838155339 0.34756689806948399 0 0.21463326148528139 0.36164706549371339 0 0.23688621790532011 0.37104521076284058 0 0.21463326148528139 0.36164706549371339 0 0.22198583333805 0.38261495466824652 0 0.23688621790532011 0.37104521076284058 0 0.22477670838155339 0.34756689806948399 0 0.21463326148528139 0.36164706549371339 0 0.23688621790532011 0.37104521076284058 0 0.21463326148528139 0.36164706549371339 0 0.21463326148528139 0.36164706549371339 0 0.204346829510997 0.37592571119245488 0 0.22198583333805 0.38261495466824652 0 0.21463326148528139 0.36164706549371339 0 0.19412982652233929 0.36738773766548632 0 0.204346829510997 0.37592571119245488 0 0.21463326148528139 0.36164706549371339 0 0.204346829510997 0.37592571119245488 0 0.20244203185588011 0.34318001586550623 0 0.21947027147631579 0.34034641451640119 0 0.21176729148776591 0.34921166113613838 0 0.21463326148528139 0.36164706549371339 0 0.21176729148776591 0.34921166113613838 0 0.1908930443823709 0.35136936080335052 0 0.21947027147631579 0.34034641451640119 0 0.22477670838155339 0.34756689806948399 0 0.21176729148776591 0.34921166113613838 0 0.22477670838155339 0.34756689806948399 0 0.21463326148528139 0.36164706549371339 0 0.21176729148776591 0.34921166113613838 0 0.1908930443823709 0.35136936080335052 0 0.19412982652233929 0.36738773766548632 0 0.18143889333320601 0.35807326486538932 0 0.20244203185588011 0.34318001586550623 0 0.1908930443823709 0.35136936080335052 0 0.18347798935561341 0.33869247491350002 0 0.21463326148528139 0.36164706549371339 0 0.1908930443823709 0.35136936080335052 0 0.20244203185588011 0.34318001586550623 0 0.21176729148776591 0.34921166113613838 0 0.1908930443823709 0.35136936080335052 0 0.20244203185588011 0.34318001586550623 0 0.1908930443823709 0.35136936080335052 0 0.21463326148528139 0.36164706549371339 0 0.1908930443823709 0.35136936080335052 0 0.19412982652233929 0.36738773766548632 0 0.18143889333320601 0.35807326486538932 0 0.16260735558276909 0.37591982898119958 0 0.18246134656361351 0.37685397108750052 0 0.19412982652233929 0.36738773766548632 0 0.18143889333320601 0.35807326486538932 0 0.18246134656361351 0.37685397108750052 0 0.16019009716823551 0.37318352879909372 0 0.16257017859646319 0.353010542831385 0 0.18143889333320601 0.35807326486538932 0 0.16019009716823551 0.37318352879909372 0 0.18143889333320601 0.35807326486538932 0 0.16019009716823551 0.37318352879909372 0 0.18143889333320601 0.35807326486538932 0 0.16260735558276909 0.37591982898119958 0 0.16019009716823551 0.37318352879909372 0 0.16260735558276909 0.37591982898119958 0 0.16257017859646319 0.353010542831385 0 0.17303239992471511 0.34586722139240289 0 0.16464253841357759 0.33369260295933728 0 0.16257017859646319 0.353010542831385 0 0.17303239992471511 0.34586722139240289 0 0.18143889333320601 0.35807326486538932 0 0.17303239992471511 0.34586722139240289 0 0.18143889333320601 0.35807326486538932 0 0.18347798935561341 0.33869247491350002 0 0.1908930443823709 0.35136936080335052 0 0.18143889333320601 0.35807326486538932 0 0.18347798935561341 0.33869247491350002 0 0.1908930443823709 0.35136936080335052 0 0.18143889333320601 0.35807326486538932 0 0.18347798935561341 0.33869247491350002 0 0.17971015901957271 0.32346519381883809 0 0.16464253841357759 0.33369260295933728 0 0.17303239992471511 0.34586722139240289 0 0.18347798935561341 0.33869247491350002 0 0.16464253841357759 0.33369260295933728 0 0.18117288714385579 0.30913080773955071 0 0.17971015901957271 0.32346519381883809 0 0.16694835142361131 0.31710129617921612 0 0.17971015901957271 0.32346519381883809 0 0.16694835142361131 0.31710129617921612 0 0.16464253841357759 0.33369260295933728 0 0.16694835142361131 0.31710129617921612 0 0.16464253841357759 0.33369260295933728 0 0.151721109531261 0.31864692020528967 0 0.16257017859646319 0.353010542831385 0 0.16464253841357759 0.33369260295933728 0 0.14544475594634521 0.33594232918414679 0 0.16464253841357759 0.33369260295933728 0 0.14544475594634521 0.33594232918414679 0 0.151721109531261 0.31864692020528967 0 0.14544475594634521 0.33594232918414679 0 0.151721109531261 0.31864692020528967 0 0.13336984075321051 0.32203732205168478 0 0.1358127224069155 0.30715784542224439 0 0.151721109531261 0.31864692020528967 0 0.13336984075321051 0.32203732205168478 0 0.10780089841236599 0.31387974347180458 0 0.1358127224069155 0.30715784542224439 0 0.13336984075321051 0.32203732205168478 0 0.14544475594634521 0.33594232918414679 0 0.13336984075321051 0.32203732205168478 0 0.12606971746916459 0.33455977197493841 0 0.14544475594634521 0.33594232918414679 0 0.12606971746916459 0.33455977197493841 0 0.1443385365259669 0.35523980047806902 0 0.12606971746916459 0.33455977197493841 0 0.1317359334732984 0.3655372836243217 0 0.1443385365259669 0.35523980047806902 0 0.12606971746916459 0.33455977197493841 0 0.1443385365259669 0.35523980047806902 0 0.1317359334732984 0.3655372836243217 0 0.1443385365259669 0.35523980047806902 0 0.13676239078032071 0.3770301931850214 0 0.12114107357380589 0.37519081101880303 0 0.1317359334732984 0.3655372836243217 0 0.13676239078032071 0.3770301931850214 0 0.16019009716823551 0.37318352879909372 0 0.1443385365259669 0.35523980047806902 0 0.16019009716823551 0.37318352879909372 0 0.16257017859646319 0.353010542831385 0 0.1443385365259669 0.35523980047806902 0 0.1443385365259669 0.35523980047806902 0 0.149858776596418 0.38099328310272679 0 0.13676239078032071 0.3770301931850214 0 0.16019009716823551 0.37318352879909372 0 0.1443385365259669 0.35523980047806902 0 0.149858776596418 0.38099328310272679 0 0.16257017859646319 0.353010542831385 0 0.14544475594634521 0.33594232918414679 0 0.1443385365259669 0.35523980047806902 0 0.15234410094299319 0.39706330688564828 0 0.14776416221672409 0.4143013858039809 0 0.16478104390751111 0.4039014765362785 0 0.14176396945914169 0.40369546789863858 0 0.15234410094299319 0.39706330688564828 0 0.14776416221672409 0.4143013858039809 0 0.14176396945914169 0.40369546789863858 0 0.15234410094299319 0.39706330688564828 0 0.13813468081694619 0.39170375115652539 0 0.15234410094299319 0.39706330688564828 0 0.149858776596418 0.38099328310272679 0 0.16250325158588691 0.39091888942276559 0 0.15234410094299319 0.39706330688564828 0 0.149858776596418 0.38099328310272679 0 0.13813468081694619 0.39170375115652539 0 0.149858776596418 0.38099328310272679 0 0.13676239078032071 0.3770301931850214 0 0.13813468081694619 0.39170375115652539 0 0.13676239078032071 0.3770301931850214 0 0.127383725351678 0.38572893267744662 0 0.13813468081694619 0.39170375115652539 0 0.12114107357380589 0.37519081101880303 0 0.13676239078032071 0.3770301931850214 0 0.127383725351678 0.38572893267744662 0 0.127383725351678 0.38572893267744662 0 0.12506378639641169 0.395076080606102 0 0.13813468081694619 0.39170375115652539 0 0.12506378639641169 0.395076080606102 0 0.13813468081694619 0.39170375115652539 0 0.13310203997171169 0.40187987190868141 0 0.14176396945914169 0.40369546789863858 0 0.13813468081694619 0.39170375115652539 0 0.13310203997171169 0.40187987190868141 0 0.14176396945914169 0.40369546789863858 0 0.13310203997171169 0.40187987190868141 0 0.13319188764977449 0.41151869042705957 0 0.1237949639046072 0.40634629321549248 0 0.12506378639641169 0.395076080606102 0 0.13310203997171169 0.40187987190868141 0 0.1236992342538912 0.41564628680123122 0 0.1237949639046072 0.40634629321549248 0 0.13319188764977449 0.41151869042705957 0 0.1237949639046072 0.40634629321549248 0 0.13310203997171169 0.40187987190868141 0 0.13319188764977449 0.41151869042705957 0 0.13319188764977449 0.41151869042705957 0 0.12935644273916269 0.42680848154840301 0 0.14776416221672409 0.4143013858039809 0 0.1236992342538912 0.41564628680123122 0 0.13319188764977449 0.41151869042705957 0 0.12935644273916269 0.42680848154840301 0 0.12935644273916269 0.42680848154840301 0 0.14550729677495111 0.43162515521182698 0 0.12963045272487661 0.4508118892329952 0 0.14550729677495111 0.43162515521182698 0 0.14776416221672409 0.4143013858039809 0 0.17058326010355571 0.42006381129117121 0 0.12935644273916269 0.42680848154840301 0 0.14550729677495111 0.43162515521182698 0 0.14776416221672409 0.4143013858039809 0 0.14176396945914169 0.40369546789863858 0 0.13319188764977449 0.41151869042705957 0 0.14776416221672409 0.4143013858039809 0 0.14776416221672409 0.4143013858039809 0 0.17058326010355571 0.42006381129117121 0 0.16478104390751111 0.4039014765362785 0 0.14550729677495111 0.43162515521182698 0 0.17058326010355571 0.42006381129117121 0 0.1609677479446012 0.44097978451683301 0 0.17058326010355571 0.42006381129117121 0 0.19914499369637351 0.41727988598746069 0 0.1867753109655754 0.43827967721720917 0 0.17058326010355571 0.42006381129117121 0 0.1867753109655754 0.43827967721720917 0 0.1609677479446012 0.44097978451683301 0 0.17058326010355571 0.42006381129117121 0 0.18087617463957131 0.39659985748433019 0 0.19914499369637351 0.41727988598746069 0 0.17058326010355571 0.42006381129117121 0 0.18087617463957131 0.39659985748433019 0 0.16478104390751111 0.4039014765362785 0 0.18087617463957131 0.39659985748433019 0 0.16478104390751111 0.4039014765362785 0 0.16250325158588691 0.39091888942276559 0 0.15234410094299319 0.39706330688564828 0 0.16478104390751111 0.4039014765362785 0 0.16250325158588691 0.39091888942276559 0 0.18087617463957131 0.39659985748433019 0 0.16260735558276909 0.37591982898119958 0 0.18087617463957131 0.39659985748433019 0 0.16250325158588691 0.39091888942276559 0 0.16260735558276909 0.37591982898119958 0 0.16019009716823551 0.37318352879909372 0 0.149858776596418 0.38099328310272679 0 0.16260735558276909 0.37591982898119958 0 0.149858776596418 0.38099328310272679 0 0.16250325158588691 0.39091888942276559 0 0.16260735558276909 0.37591982898119958 0 0.18087617463957131 0.39659985748433019 0 0.16260735558276909 0.37591982898119958 0 0.18246134656361351 0.37685397108750052 0 0.18087617463957131 0.39659985748433019 0 0.18246134656361351 0.37685397108750052 0 0.1953554869192641 0.38858017413018953 0 0.19412982652233929 0.36738773766548632 0 0.18246134656361351 0.37685397108750052 0 0.1953554869192641 0.38858017413018953 0 0.19412982652233929 0.36738773766548632 0 0.1953554869192641 0.38858017413018953 0 0.204346829510997 0.37592571119245488 0 0.1953554869192641 0.38858017413018953 0 0.21117375058269039 0.39743388136390467 0 0.19914499369637351 0.41727988598746069 0 0.18087617463957131 0.39659985748433019 0 0.1953554869192641 0.38858017413018953 0 0.19914499369637351 0.41727988598746069 0 0.1953554869192641 0.38858017413018953 0 0.21117375058269039 0.39743388136390467 0 0.204346829510997 0.37592571119245488 0 0.21117375058269039 0.39743388136390467 0 0.204346829510997 0.37592571119245488 0 0.22198583333805 0.38261495466824652 0 0.23688621790532011 0.37104521076284058 0 0.22198583333805 0.38261495466824652 0 0.23833619898013611 0.38829239396811388 0 0.21117375058269039 0.39743388136390467 0 0.22944194370090731 0.40229111930356037 0 0.21870001618568691 0.41536779137680158 0 0.21117375058269039 0.39743388136390467 0 0.22198583333805 0.38261495466824652 0 0.22944194370090731 0.40229111930356037 0 0.22198583333805 0.38261495466824652 0 0.22944194370090731 0.40229111930356037 0 0.23833619898013611 0.38829239396811388 0 0.22944194370090731 0.40229111930356037 0 0.23833619898013611 0.38829239396811388 0 0.2515523382997783 0.39946832503077651 0 0.23688621790532011 0.37104521076284058 0 0.25913917432535888 0.38044335603196727 0 0.23688621790532011 0.37104521076284058 0 0.23833619898013611 0.38829239396811388 0 0.25913917432535888 0.38044335603196727 0 0.23833619898013611 0.38829239396811388 0 0.25913917432535888 0.38044335603196727 0 0.2515523382997783 0.39946832503077651 0 0.23632558019528771 0.42187415573849091 0 0.2413572522936252 0.44063384562486702 0 0.2569889404866213 0.42991855114511829 0 0.23632558019528771 0.42187415573849091 0 0.2569889404866213 0.42991855114511829 0 0.2515523382997783 0.39946832503077651 0 0.22944194370090731 0.40229111930356037 0 0.23632558019528771 0.42187415573849091 0 0.2515523382997783 0.39946832503077651 0 0.22944194370090731 0.40229111930356037 0 0.23632558019528771 0.42187415573849091 0 0.21870001618568691 0.41536779137680158 0 0.23632558019528771 0.42187415573849091 0 0.21741381275317559 0.43795991449059141 0 0.2413572522936252 0.44063384562486702 0 0.23632558019528771 0.42187415573849091 0 0.21870001618568691 0.41536779137680158 0 0.21741381275317559 0.43795991449059141 0 0.19914499369637351 0.41727988598746069 0 0.21741381275317559 0.43795991449059141 0 0.21870001618568691 0.41536779137680158 0 0.19914499369637351 0.41727988598746069 0 0.21741381275317559 0.43795991449059141 0 0.21117375058269039 0.39743388136390467 0 0.21870001618568691 0.41536779137680158 0 0.19914499369637351 0.41727988598746069 0 0.18087617463957131 0.39659985748433019 0 0.19914499369637351 0.41727988598746069 0 0.19914499369637351 0.41727988598746069 0 0.21741381275317559 0.43795991449059141 0 0.1867753109655754 0.43827967721720917 0 0.1887594151212523 0.46257090224298869 0 0.20710465099615441 0.4549435802770363 0 0.1867753109655754 0.43827967721720917 0 0.1887594151212523 0.46257090224298869 0 0.20710465099615441 0.4549435802770363 0 0.20822930860919911 0.47731343900282641 0 0.20710465099615441 0.4549435802770363 0 0.23568263180997781 0.45863994299372202 0 0.20822930860919911 0.47731343900282641 0 0.20710465099615441 0.4549435802770363 0 0.21741381275317559 0.43795991449059141 0 0.1867753109655754 0.43827967721720917 0 0.21741381275317559 0.43795991449059141 0 0.23568263180997781 0.45863994299372202 0 0.2413572522936252 0.44063384562486702 0 0.20710465099615441 0.4549435802770363 0 0.21741381275317559 0.43795991449059141 0 0.23568263180997781 0.45863994299372202 0 0.21741381275317559 0.43795991449059141 0 0.23568263180997781 0.45863994299372202 0 0.23568263180997781 0.45863994299372202 0 0.2413572522936252 0.44063384562486702 0 0.26037529622306371 0.45477666375641262 0 0.24609435025551629 0.5 0 0.23303139042148621 0.48320428842265561 0 0.25395145086678 0.47931997149685251 0 0.23568263180997781 0.45863994299372202 0 0.25395145086678 0.47931997149685251 0 0.23568263180997781 0.45863994299372202 0 0.23303139042148621 0.48320428842265561 0 0.25395145086678 0.47931997149685251 0 0.23568263180997781 0.45863994299372202 0 0.23303139042148621 0.48320428842265561 0 0.20822930860919911 0.47731343900282641 0 0.24609435025551629 0.5 0 0.23303139042148621 0.48320428842265561 0 0.21996843058745619 0.5 0 0.23303139042148621 0.48320428842265561 0 0.21996843058745619 0.5 0 0.20822930860919911 0.47731343900282641 0 0.21996843058745619 0.5 0 0.20822930860919911 0.47731343900282641 0 0.19384251091939611 0.5 0 0.1887594151212523 0.46257090224298869 0 0.20822930860919911 0.47731343900282641 0 0.1787205633371442 0.48189463634043578 0 0.20822930860919911 0.47731343900282641 0 0.19384251091939611 0.5 0 0.1787205633371442 0.48189463634043578 0 0.19384251091939611 0.5 0 0.16771659125133589 0.5 0 0.1787205633371442 0.48189463634043578 0 0.16771659125133589 0.5 0 0.1787205633371442 0.48189463634043578 0 0.1497067529400597 0.48305741205768687 0 0.1787205633371442 0.48189463634043578 0 0.16406880118162229 0.46842606473911319 0 0.1497067529400597 0.48305741205768687 0 0.1887594151212523 0.46257090224298869 0 0.1787205633371442 0.48189463634043578 0 0.16406880118162229 0.46842606473911319 0 0.1887594151212523 0.46257090224298869 0 0.17240628979628481 0.45306931686444829 0 0.16406880118162229 0.46842606473911319 0 0.1887594151212523 0.46257090224298869 0 0.1867753109655754 0.43827967721720917 0 0.17240628979628481 0.45306931686444829 0 0.1867753109655754 0.43827967721720917 0 0.17240628979628481 0.45306931686444829 0 0.1609677479446012 0.44097978451683301 0 0.17240628979628481 0.45306931686444829 0 0.1609677479446012 0.44097978451683301 0 0.14945066163309001 0.45726183806222748 0 0.17240628979628481 0.45306931686444829 0 0.16406880118162229 0.46842606473911319 0 0.14945066163309001 0.45726183806222748 0 0.14550729677495111 0.43162515521182698 0 0.1609677479446012 0.44097978451683301 0 0.14945066163309001 0.45726183806222748 0 0.14550729677495111 0.43162515521182698 0 0.14945066163309001 0.45726183806222748 0 0.12963045272487661 0.4508118892329952 0 0.1166456542707302 0.43688510679679721 0 0.12935644273916269 0.42680848154840301 0 0.12963045272487661 0.4508118892329952 0 0.14945066163309001 0.45726183806222748 0 0.12963045272487661 0.4508118892329952 0 0.13448706009647271 0.47115902226055129 0 0.11752805736271579 0.46915573985666831 0 0.12963045272487661 0.4508118892329952 0 0.13448706009647271 0.47115902226055129 0 0.12397164712563589 0.48523224294487222 0 0.13448706009647271 0.47115902226055129 0 0.1497067529400597 0.48305741205768687 0 0.12397164712563589 0.48523224294487222 0 0.11752805736271579 0.46915573985666831 0 0.13448706009647271 0.47115902226055129 0 0.11546475191521589 0.5 0 0.12397164712563589 0.48523224294487222 0 0.1415906715832759 0.5 0 0.12397164712563589 0.48523224294487222 0 0.1415906715832759 0.5 0 0.1497067529400597 0.48305741205768687 0 0.16771659125133589 0.5 0 0.1415906715832759 0.5 0 0.1497067529400597 0.48305741205768687 0 0.14945066163309001 0.45726183806222748 0 0.13448706009647271 0.47115902226055129 0 0.1497067529400597 0.48305741205768687 0 0.16406880118162229 0.46842606473911319 0 0.14945066163309001 0.45726183806222748 0 0.1497067529400597 0.48305741205768687 0 0.35087984519022652 0.5 0 0.35399815986298627 0.4630044256211166 0 0.39456333821203482 0.46722628045989822 0 0.35087984519022652 0.5 0 0.35399815986298627 0.4630044256211166 0 0.33487364944439563 0.46976051928323348 0 0.35892881030932788 0.4489803420703653 0 0.35399815986298627 0.4630044256211166 0 0.37758400451589053 0.4537220236487548 0 0.36835759133761709 0.44211754499971262 0 0.35892881030932788 0.4489803420703653 0 0.37758400451589053 0.4537220236487548 0 0.36835759133761709 0.44211754499971262 0 0.35710516123592329 0.43865215743625252 0 0.35892881030932788 0.4489803420703653 0 0.35892881030932788 0.4489803420703653 0 0.34910382586083899 0.44361043007262302 0 0.35399815986298627 0.4630044256211166 0 0.34910382586083899 0.44361043007262302 0 0.35399815986298627 0.4630044256211166 0 0.3351873228440666 0.44601597469070392 0 0.35710516123592329 0.43865215743625252 0 0.34910382586083899 0.44361043007262302 0 0.34979432701995672 0.43190741971542251 0 0.35710516123592329 0.43865215743625252 0 0.35892881030932788 0.4489803420703653 0 0.34910382586083899 0.44361043007262302 0 0.35399815986298627 0.4630044256211166 0 0.3351873228440666 0.44601597469070392 0 0.33487364944439563 0.46976051928323348 0 0.3351873228440666 0.44601597469070392 0 0.31625176932355148 0.4585758395089341 0 0.33487364944439563 0.46976051928323348 0 0.3351873228440666 0.44601597469070392 0 0.32849792444970788 0.42995489319709512 0 0.34910382586083899 0.44361043007262302 0 0.3351873228440666 0.44601597469070392 0 0.33960917389277312 0.43310226090187692 0 0.31625176932355148 0.4585758395089341 0 0.31903014768945093 0.43623482560621007 0 0.3351873228440666 0.44601597469070392 0 0.31625176932355148 0.4585758395089341 0 0.31903014768945093 0.43623482560621007 0 0.35087984519022652 0.5 0 0.3189436856059561 0.48076062511130319 0 0.30531627497209679 0.5 0 0.35087984519022652 0.5 0 0.3189436856059561 0.48076062511130319 0 0.33487364944439563 0.46976051928323348 0 0.31625176932355148 0.4585758395089341 0 0.3189436856059561 0.48076062511130319 0 0.33487364944439563 0.46976051928323348 0 0.30531627497209679 0.5 0 0.2722202699235764 0.49999999999998818 0 0.27805737373794409 0.47643409158567018 0 0.31625176932355148 0.4585758395089341 0 0.3189436856059561 0.48076062511130319 0 0.3000780349726313 0.46913381383811831 0 0.3189436856059561 0.48076062511130319 0 0.30531627497209679 0.5 0 0.3000780349726313 0.46913381383811831 0 0.30531627497209679 0.5 0 0.3000780349726313 0.46913381383811831 0 0.27805737373794409 0.47643409158567018 0 0.2722202699235764 0.49999999999998818 0 0.27805737373794409 0.47643409158567018 0 0.25395145086678 0.47931997149685251 0 0.27805737373794409 0.47643409158567018 0 0.25395145086678 0.47931997149685251 0 0.26037529622306371 0.45477666375641262 0 0.24609435025551629 0.5 0 0.2722202699235764 0.49999999999998818 0 0.25395145086678 0.47931997149685251 0 0.2722202699235764 0.49999999999998818 0 0.25395145086678 0.47931997149685251 0 0.2413572522936252 0.44063384562486702 0 0.26037529622306371 0.45477666375641262 0 0.2569889404866213 0.42991855114511829 0 0.26037529622306371 0.45477666375641262 0 0.27887385756777111 0.43167167703371778 0 0.2569889404866213 0.42991855114511829 0 0.23568263180997781 0.45863994299372202 0 0.25395145086678 0.47931997149685251 0 0.26037529622306371 0.45477666375641262 0 0.27805737373794409 0.47643409158567018 0 0.26037529622306371 0.45477666375641262 0 0.28262621373032359 0.45480054526104968 0 0.26037529622306371 0.45477666375641262 0 0.28262621373032359 0.45480054526104968 0 0.27887385756777111 0.43167167703371778 0 0.28262621373032359 0.45480054526104968 0 0.30016542807072483 0.44378605007764282 0 0.27887385756777111 0.43167167703371778 0 0.3000780349726313 0.46913381383811831 0 0.27805737373794409 0.47643409158567018 0 0.28262621373032359 0.45480054526104968 0 0.3000780349726313 0.46913381383811831 0 0.28262621373032359 0.45480054526104968 0 0.30016542807072483 0.44378605007764282 0 0.31625176932355148 0.4585758395089341 0 0.3000780349726313 0.46913381383811831 0 0.30016542807072483 0.44378605007764282 0 0.31625176932355148 0.4585758395089341 0 0.30016542807072483 0.44378605007764282 0 0.31903014768945093 0.43623482560621007 0 0.30016542807072483 0.44378605007764282 0 0.30761095373710939 0.43196509385547632 0 0.29940483713713811 0.42354155293878609 0 0.30016542807072483 0.44378605007764282 0 0.30761095373710939 0.43196509385547632 0 0.31903014768945093 0.43623482560621007 0 0.30761095373710939 0.43196509385547632 0 0.31184340205112399 0.42429794679926641 0 0.29940483713713811 0.42354155293878609 0 0.31184340205112399 0.42429794679926641 0 0.29940483713713811 0.42354155293878609 0 0.30915972771026029 0.41272739156397981 0 0.29940483713713811 0.42354155293878609 0 0.30915972771026029 0.41272739156397981 0 0.29878635657983299 0.41080983543495619 0 0.30915972771026029 0.41272739156397981 0 0.29878635657983299 0.41080983543495619 0 0.29983569586798497 0.39763081706799092 0 0.29940483713713811 0.42354155293878609 0 0.28674516560394842 0.40933958016906802 0 0.27887385756777111 0.43167167703371778 0 0.29940483713713811 0.42354155293878609 0 0.29878635657983299 0.41080983543495619 0 0.28674516560394842 0.40933958016906802 0 0.30016542807072483 0.44378605007764282 0 0.29940483713713811 0.42354155293878609 0 0.27887385756777111 0.43167167703371778 0 0.27887385756777111 0.43167167703371778 0 0.26919053561600848 0.40988002622311009 0 0.2569889404866213 0.42991855114511829 0 0.28674516560394842 0.40933958016906802 0 0.27887385756777111 0.43167167703371778 0 0.26919053561600848 0.40988002622311009 0 0.26919053561600848 0.40988002622311009 0 0.2569889404866213 0.42991855114511829 0 0.26919053561600848 0.40988002622311009 0 0.2569889404866213 0.42991855114511829 0 0.2515523382997783 0.39946832503077651 0 0.25913917432535888 0.38044335603196727 0 0.2515523382997783 0.39946832503077651 0 0.28139213074539471 0.38984150130110129 0 0.28674516560394842 0.40933958016906802 0 0.26919053561600848 0.40988002622311009 0 0.28139213074539471 0.38984150130110129 0 0.26919053561600848 0.40988002622311009 0 0.28139213074539471 0.38984150130110129 0 0.26919053561600848 0.40988002622311009 0 0.2515523382997783 0.39946832503077651 0 0.28139213074539471 0.38984150130110129 0 0.25913917432535888 0.38044335603196727 0 0.28139213074539471 0.38984150130110129 0 0.25913917432535888 0.38044335603196727 0 0.28139213074539471 0.38984150130110129 0 0.27476018493055188 0.37111896908391401 0 0.28139213074539471 0.38984150130110129 0 0.29295063948833389 0.37085910899496671 0 0.28139213074539471 0.38984150130110129 0 0.29295063948833389 0.37085910899496671 0 0.27476018493055188 0.37111896908391401 0 0.28139213074539471 0.38984150130110129 0 0.30423973425917189 0.38483776107216172 0 0.29295063948833389 0.37085910899496671 0 0.28139213074539471 0.38984150130110129 0 0.29983569586798497 0.39763081706799092 0 0.28139213074539471 0.38984150130110129 0 0.29983569586798497 0.39763081706799092 0 0.30423973425917189 0.38483776107216172 0 0.28674516560394842 0.40933958016906802 0 0.28139213074539471 0.38984150130110129 0 0.29983569586798497 0.39763081706799092 0 0.29878635657983299 0.41080983543495619 0 0.28674516560394842 0.40933958016906802 0 0.29983569586798497 0.39763081706799092 0 0.29983569586798497 0.39763081706799092 0 0.30423973425917189 0.38483776107216172 0 0.31552882903001278 0.39881641314935429 0 0.29983569586798497 0.39763081706799092 0 0.31827926099057241 0.4054201328348872 0 0.30915972771026029 0.41272739156397981 0 0.29983569586798497 0.39763081706799092 0 0.31827926099057241 0.4054201328348872 0 0.29983569586798497 0.39763081706799092 0 0.31827926099057241 0.4054201328348872 0 0.31552882903001278 0.39881641314935429 0 0.30423973425917189 0.38483776107216172 0 0.31552882903001278 0.39881641314935429 0 0.30423973425917189 0.38483776107216172 0 0.30813560111065041 0.38106545422697569 0 0.31552882903001278 0.39881641314935429 0 0.30813560111065041 0.38106545422697569 0 0.31552882903001278 0.39881641314935429 0 0.30423973425917189 0.38483776107216172 0 0.29295063948833389 0.37085910899496671 0 0.30423973425917189 0.38483776107216172 0 0.30813560111065041 0.38106545422697569 0 0.29295063948833389 0.37085910899496671 0 0.30813560111065041 0.38106545422697569 0 0.32663924998365418 0.37504983286782001 0 0.32463644028526628 0.39115447860843661 0 0.30813560111065041 0.38106545422697569 0 0.32463644028526628 0.39115447860843661 0 0.31552882903001278 0.39881641314935429 0 0.32663924998365418 0.37504983286782001 0 0.32463644028526628 0.39115447860843661 0 0.32663924998365418 0.37504983286782001 0 0.3437620373009751 0.38280913491814872 0 0.33753762015999178 0.37318322623638439 0 0.32663924998365418 0.37504983286782001 0 0.32463644028526628 0.39115447860843661 0 0.3437620373009751 0.38280913491814872 0 0.32663924998365418 0.37504983286782001 0 0.3437620373009751 0.38280913491814872 0 0.33741802102114471 0.39969034286402438 0 0.32463644028526628 0.39115447860843661 0 0.3437620373009751 0.38280913491814872 0 0.33741802102114471 0.39969034286402438 0 0.32463644028526628 0.39115447860843661 0 0.322633630586878 0.40725912434905298 0 0.32463644028526628 0.39115447860843661 0 0.322633630586878 0.40725912434905298 0 0.32463644028526628 0.39115447860843661 0 0.31552882903001278 0.39881641314935429 0 0.322633630586878 0.40725912434905298 0 0.31827926099057241 0.4054201328348872 0 0.31552882903001278 0.39881641314935429 0 0.322633630586878 0.40725912434905298 0 0.31827926099057241 0.4054201328348872 0 0.31552882903001278 0.39881641314935429 0 0.32180852605534982 0.41389381170348599 0 0.32849792444970788 0.42995489319709512 0 0.32920001498290929 0.42114191972314258 0 0.31827926099057241 0.4054201328348872 0 0.32180852605534982 0.41389381170348599 0 0.30915972771026029 0.41272739156397981 0 0.31827926099057241 0.4054201328348872 0 0.32180852605534982 0.41389381170348599 0 0.31184340205112399 0.42429794679926641 0 0.30915972771026029 0.41272739156397981 0 0.32180852605534982 0.41389381170348599 0 0.32180852605534982 0.41389381170348599 0 0.32966190043053267 0.41610983051536798 0 0.32920001498290929 0.42114191972314258 0 0.31827926099057241 0.4054201328348872 0 0.322633630586878 0.40725912434905298 0 0.32180852605534982 0.41389381170348599 0 0.322633630586878 0.40725912434905298 0 0.32180852605534982 0.41389381170348599 0 0.32966190043053267 0.41610983051536798 0 0.31827926099057241 0.4054201328348872 0 0.322633630586878 0.40725912434905298 0 0.322633630586878 0.40725912434905298 0 0.32180852605534982 0.41389381170348599 0 0.31184340205112399 0.42429794679926641 0 0.32180852605534982 0.41389381170348599 0 0.31903014768945093 0.43623482560621007 0 0.32180852605534982 0.41389381170348599 0 0.31903014768945093 0.43623482560621007 0 0.3351873228440666 0.44601597469070392 0 0.31903014768945093 0.43623482560621007 0 0.32849792444970788 0.42995489319709512 0 0.32180852605534982 0.41389381170348599 0 0.31903014768945093 0.43623482560621007 0 0.32849792444970788 0.42995489319709512 0 0.32180852605534982 0.41389381170348599 0 0.32849792444970788 0.42995489319709512 0 0.30761095373710939 0.43196509385547632 0 0.31184340205112399 0.42429794679926641 0 0.31903014768945093 0.43623482560621007 0 0.3351873228440666 0.44601597469070392 0 0.32849792444970788 0.42995489319709512 0 0.33960917389277312 0.43310226090187692 0 0.32849792444970788 0.42995489319709512 0 0.33683170899604647 0.42460914347662132 0 0.32920001498290929 0.42114191972314258 0 0.32849792444970788 0.42995489319709512 0 0.33683170899604647 0.42460914347662132 0 0.33960917389277312 0.43310226090187692 0 0.34356119315253297 0.42795824637370578 0 0.33683170899604647 0.42460914347662132 0 0.34800956270135552 0.42221416140090268 0 0.34356119315253297 0.42795824637370578 0 0.33683170899604647 0.42460914347662132 0 0.33960917389277312 0.43310226090187692 0 0.33683170899604647 0.42460914347662132 0 0.32966190043053267 0.41610983051536798 0 0.34800956270135552 0.42221416140090268 0 0.322633630586878 0.40725912434905298 0 0.32966190043053267 0.41610983051536798 0 0.34429518814250548 0.4164075026957621 0 0.33741802102114471 0.39969034286402438 0 0.322633630586878 0.40725912434905298 0 0.34429518814250548 0.4164075026957621 0 0.32966190043053267 0.41610983051536798 0 0.34429518814250548 0.4164075026957621 0 0.34800956270135552 0.42221416140090268 0 0.322633630586878 0.40725912434905298 0 0.34429518814250548 0.4164075026957621 0 0.32966190043053267 0.41610983051536798 0 0.34800956270135552 0.42221416140090268 0 0.33683170899604647 0.42460914347662132 0 0.32966190043053267 0.41610983051536798 0 0.32920001498290929 0.42114191972314258 0 0.34429518814250548 0.4164075026957621 0 0.36342078515821269 0.40806215900547599 0 0.35110441318446001 0.40034262591404829 0 0.34429518814250548 0.4164075026957621 0 0.36595674569813169 0.42555588104247422 0 0.36342078515821269 0.40806215900547599 0 0.34429518814250548 0.4164075026957621 0 0.34800956270135552 0.42221416140090268 0 0.36595674569813169 0.42555588104247422 0 0.34429518814250548 0.4164075026957621 0 0.36595674569813169 0.42555588104247422 0 0.34800956270135552 0.42221416140090268 0 0.36635722497217932 0.42831849228643498 0 0.35710516123592329 0.43865215743625252 0 0.34979432701995672 0.43190741971542251 0 0.36635722497217932 0.42831849228643498 0 0.34979432701995672 0.43190741971542251 0 0.34800956270135552 0.42221416140090268 0 0.36635722497217932 0.42831849228643498 0 0.34910382586083899 0.44361043007262302 0 0.33960917389277312 0.43310226090187692 0 0.34979432701995672 0.43190741971542251 0 0.34356119315253297 0.42795824637370578 0 0.33960917389277312 0.43310226090187692 0 0.34979432701995672 0.43190741971542251 0 0.34356119315253297 0.42795824637370578 0 0.34979432701995672 0.43190741971542251 0 0.34800956270135552 0.42221416140090268 0 0.34800956270135552 0.42221416140090268 0 0.36635722497217932 0.42831849228643498 0 0.36595674569813169 0.42555588104247422 0 0.36835759133761709 0.44211754499971262 0 0.36635722497217932 0.42831849228643498 0 0.38963568852557739 0.43606331786363273 0 0.36835759133761709 0.44211754499971262 0 0.35710516123592329 0.43865215743625252 0 0.36635722497217932 0.42831849228643498 0 0.36635722497217932 0.42831849228643498 0 0.36595674569813169 0.42555588104247422 0 0.36595674569813169 0.42555588104247422 0 0.37030578461259972 0.42739262123679572 0 0.37337211939326398 0.4171775521054909 0 0.36635722497217932 0.42831849228643498 0 0.36595674569813169 0.42555588104247422 0 0.37030578461259972 0.42739262123679572 0 0.36595674569813169 0.42555588104247422 0 0.37030578461259972 0.42739262123679572 0 0.36835759133761709 0.44211754499971262 0 0.36635722497217932 0.42831849228643498 0 0.36342078515821269 0.40806215900547599 0 0.37337211939326398 0.4171775521054909 0 0.3837220384954238 0.40091726845114661 0 0.36595674569813169 0.42555588104247422 0 0.36342078515821269 0.40806215900547599 0 0.37337211939326398 0.4171775521054909 0 0.36595674569813169 0.42555588104247422 0 0.36342078515821269 0.40806215900547599 0 0.36342078515821269 0.40806215900547599 0 0.36088482461829607 0.39056843696847748 0 0.36088482461829607 0.39056843696847748 0 0.3837220384954238 0.40091726845114661 0 0.36342078515821269 0.40806215900547599 0 0.36088482461829607 0.39056843696847748 0 0.3837220384954238 0.40091726845114661 0 0.35845473470558048 0.3738050383316226 0 0.38498463211938949 0.38669804936284108 0 0.36088482461829607 0.39056843696847748 0 0.35845473470558048 0.3738050383316226 0 0.36037450573218538 0.38243284260130922 0 0.38498463211938949 0.38669804936284108 0 0.36088482461829607 0.39056843696847748 0 0.36037450573218538 0.38243284260130922 0 0.35845473470558048 0.3738050383316226 0 0.36088482461829607 0.39056843696847748 0 0.36037450573218538 0.38243284260130922 0 0.38498463211938949 0.38669804936284108 0 0.36037450573218538 0.38243284260130922 0 0.35845473470558048 0.3738050383316226 0 0.38498463211938949 0.38669804936284108 0 0.35845473470558048 0.3738050383316226 0 0.37799249470829072 0.36861859632590072 0 0.38498463211938949 0.38669804936284108 0 0.36088482461829607 0.39056843696847748 0 0.3437620373009751 0.38280913491814872 0 0.36088482461829607 0.39056843696847748 0 0.3437620373009751 0.38280913491814872 0 0.35845473470558048 0.3738050383316226 0 0.36342078515821269 0.40806215900547599 0 0.36088482461829607 0.39056843696847748 0 0.35110441318446001 0.40034262591404829 0 0.36088482461829607 0.39056843696847748 0 0.3437620373009751 0.38280913491814872 0 0.35110441318446001 0.40034262591404829 0 0.33741802102114471 0.39969034286402438 0 0.34429518814250548 0.4164075026957621 0 0.35110441318446001 0.40034262591404829 0 0.33741802102114471 0.39969034286402438 0 0.3437620373009751 0.38280913491814872 0 0.35110441318446001 0.40034262591404829 0 0.35547574974504559 0.35325521745244021 0 0.34303253047672222 0.35602670101757039 0 0.3434888764479338 0.34518077454191071 0 0.35547574974504559 0.35325521745244021 0 0.34722529065367969 0.36834774824951561 0 0.34303253047672222 0.35602670101757039 0 0.35547574974504559 0.35325521745244021 0 0.34722529065367969 0.36834774824951561 0 0.35845473470558048 0.3738050383316226 0 0.35547574974504559 0.35325521745244021 0 0.35845473470558048 0.3738050383316226 0 0.3437620373009751 0.38280913491814872 0 0.34722529065367969 0.36834774824951561 0 0.35845473470558048 0.3738050383316226 0 0.34722529065367969 0.36834774824951561 0 0.35845473470558048 0.3738050383316226 0 0.35547574974504559 0.35325521745244021 0 0.35845473470558048 0.3738050383316226 0 0.3654818894532329 0.36229552034215001 0 0.35845473470558048 0.3738050383316226 0 0.3654818894532329 0.36229552034215001 0 0.37799249470829072 0.36861859632590072 0 0.3654818894532329 0.36229552034215001 0 0.37944729564891883 0.34900134949228478 0 0.37799249470829072 0.36861859632590072 0 0.35547574974504559 0.35325521745244021 0 0.3654818894532329 0.36229552034215001 0 0.36571393491784288 0.34128021553488069 0 0.3654818894532329 0.36229552034215001 0 0.36571393491784288 0.34128021553488069 0 0.37944729564891883 0.34900134949228478 0 0.36571393491784288 0.34128021553488069 0 0.37263116992220002 0.32388446461771031 0 0.37944729564891883 0.34900134949228478 0 0.36571393491784288 0.34128021553488069 0 0.37263116992220002 0.32388446461771031 0 0.35249676478451192 0.33270539657325771 0 0.35249676478451192 0.33270539657325771 0 0.34951777982397819 0.3121555756940752 0 0.37263116992220002 0.32388446461771031 0 0.35249676478451192 0.33270539657325771 0 0.34951777982397819 0.3121555756940752 0 0.35249676478451192 0.33270539657325771 0 0.33552588926381649 0.33295745059661491 0 0.34951777982397819 0.3121555756940752 0 0.35547574974504559 0.35325521745244021 0 0.36571393491784288 0.34128021553488069 0 0.35249676478451192 0.33270539657325771 0 0.35547574974504559 0.35325521745244021 0 0.35249676478451192 0.33270539657325771 0 0.35249676478451192 0.33270539657325771 0 0.33552588926381649 0.33295745059661491 0 0.3434888764479338 0.34518077454191071 0 0.35547574974504559 0.35325521745244021 0 0.35249676478451192 0.33270539657325771 0 0.3434888764479338 0.34518077454191071 0 0.33552588926381649 0.33295745059661491 0 0.33091344796957289 0.35095910706967021 0 0.3434888764479338 0.34518077454191071 0 0.33552588926381649 0.33295745059661491 0 0.32508451802931609 0.31808604783730138 0 0.34951777982397819 0.3121555756940752 0 0.33552588926381649 0.33295745059661491 0 0.33091344796957289 0.35095910706967021 0 0.3122640132071739 0.33914100029777761 0 0.32508451802931609 0.31808604783730138 0 0.3122640132071739 0.33914100029777761 0 0.32508451802931609 0.31808604783730138 0 0.3122640132071739 0.33914100029777761 0 0.30045895688034402 0.32812712097613378 0 0.33552588926381649 0.33295745059661491 0 0.32508451802931609 0.31808604783730138 0 0.3122640132071739 0.33914100029777761 0 0.31606678286748768 0.35795694522732041 0 0.33091344796957289 0.35095910706967021 0 0.3122640132071739 0.33914100029777761 0 0.31606678286748768 0.35795694522732041 0 0.33091344796957289 0.35095910706967021 0 0.32868914146342282 0.36275496342237762 0 0.33091344796957289 0.35095910706967021 0 0.33644512327000642 0.36358818804411908 0 0.32868914146342282 0.36275496342237762 0 0.33091344796957289 0.35095910706967021 0 0.34303253047672222 0.35602670101757039 0 0.33644512327000642 0.36358818804411908 0 0.33091344796957289 0.35095910706967021 0 0.34303253047672222 0.35602670101757039 0 0.3434888764479338 0.34518077454191071 0 0.3437620373009751 0.38280913491814872 0 0.34722529065367969 0.36834774824951561 0 0.33753762015999178 0.37318322623638439 0 0.34722529065367969 0.36834774824951561 0 0.33753762015999178 0.37318322623638439 0 0.33644512327000642 0.36358818804411908 0 0.34722529065367969 0.36834774824951561 0 0.34303253047672222 0.35602670101757039 0 0.33644512327000642 0.36358818804411908 0 0.33644512327000642 0.36358818804411908 0 0.32868914146342282 0.36275496342237762 0 0.33126571176288772 0.36931702733550609 0 0.32868914146342282 0.36275496342237762 0 0.33126571176288772 0.36931702733550609 0 0.32701742393736338 0.37200892610682817 0 0.33753762015999178 0.37318322623638439 0 0.33644512327000642 0.36358818804411908 0 0.33126571176288772 0.36931702733550609 0 0.32663924998365418 0.37504983286782001 0 0.33753762015999178 0.37318322623638439 0 0.33126571176288772 0.36931702733550609 0 0.32663924998365418 0.37504983286782001 0 0.33126571176288772 0.36931702733550609 0 0.32701742393736338 0.37200892610682817 0 0.32663924998365418 0.37504983286782001 0 0.32701742393736338 0.37200892610682817 0 0.30074237319128899 0.36331449530459647 0 0.32663924998365418 0.37504983286782001 0 0.30074237319128899 0.36331449530459647 0 0.31606678286748768 0.35795694522732041 0 0.32701742393736338 0.37200892610682817 0 0.30074237319128899 0.36331449530459647 0 0.32663924998365418 0.37504983286782001 0 0.32701742393736338 0.37200892610682817 0 0.31606678286748768 0.35795694522732041 0 0.32868914146342282 0.36275496342237762 0 0.32701742393736338 0.37200892610682817 0 0.30813560111065041 0.38106545422697569 0 0.30074237319128899 0.36331449530459647 0 0.30813560111065041 0.38106545422697569 0 0.32663924998365418 0.37504983286782001 0 0.30074237319128899 0.36331449530459647 0 0.30813560111065041 0.38106545422697569 0 0.30074237319128899 0.36331449530459647 0 0.29295063948833389 0.37085910899496671 0 0.31606678286748768 0.35795694522732041 0 0.29944350838503658 0.36019595275825661 0 0.30074237319128899 0.36331449530459647 0 0.29823614909255802 0.36217878361073519 0 0.30074237319128899 0.36331449530459647 0 0.29295063948833389 0.37085910899496671 0 0.29944350838503658 0.36019595275825661 0 0.29823614909255802 0.36217878361073519 0 0.29944350838503658 0.36019595275825661 0 0.30074237319128899 0.36331449530459647 0 0.29823614909255802 0.36217878361073519 0 0.30074237319128899 0.36331449530459647 0 0.29944350838503658 0.36019595275825661 0 0.29823614909255802 0.36217878361073519 0 0.30074237319128899 0.36331449530459647 0 0.29944350838503658 0.36019595275825661 0 0.29037361898523473 0.33841937073987138 0 0.3122640132071739 0.33914100029777761 0 0.29944350838503658 0.36019595275825661 0 0.3122640132071739 0.33914100029777761 0 0.31606678286748768 0.35795694522732041 0 0.29944350838503658 0.36019595275825661 0 0.3122640132071739 0.33914100029777761 0 0.29944350838503658 0.36019595275825661 0 0.2788433071352846 0.35339079158745978 0 0.29037361898523473 0.33841937073987138 0 0.29944350838503658 0.36019595275825661 0 0.29823614909255802 0.36217878361073519 0 0.2788433071352846 0.35339079158745978 0 0.29823614909255802 0.36217878361073519 0 0.2788433071352846 0.35339079158745978 0 0.29944350838503658 0.36019595275825661 0 0.29037361898523473 0.33841937073987138 0 0.29823614909255802 0.36217878361073519 0 0.29295063948833389 0.37085910899496671 0 0.2788433071352846 0.35339079158745978 0 0.29295063948833389 0.37085910899496671 0 0.27476018493055188 0.37111896908391401 0 0.2788433071352846 0.35339079158745978 0 0.29295063948833389 0.37085910899496671 0 0.2788433071352846 0.35339079158745978 0 0.29823614909255802 0.36217878361073519 0 0.29295063948833389 0.37085910899496671 0 0.27476018493055188 0.37111896908391401 0 0.2788433071352846 0.35339079158745978 0 0.25801751143915141 0.36182926001624582 0 0.2788433071352846 0.35339079158745978 0 0.26344664621337061 0.33432597101975131 0 0.2788433071352846 0.35339079158745978 0 0.256881731206555 0.34343876111635702 0 0.2788433071352846 0.35339079158745978 0 0.25801751143915141 0.36182926001624582 0 0.256881731206555 0.34343876111635702 0 0.2415944531318375 0.35153847151493689 0 0.25801751143915141 0.36182926001624582 0 0.256881731206555 0.34343876111635702 0 0.23688621790532011 0.37104521076284058 0 0.25913917432535888 0.38044335603196727 0 0.25801751143915141 0.36182926001624582 0 0.25913917432535888 0.38044335603196727 0 0.27476018493055188 0.37111896908391401 0 0.25801751143915141 0.36182926001624582 0 0.24926794444985581 0.33103263873945571 0 0.24804998529145589 0.31526115045204323 0 0.26344664621337061 0.33432597101975131 0 0.24804998529145589 0.31526115045204323 0 0.26760091884498549 0.31472632058921901 0 0.25080394818916718 0.31143836130783681 0 0.24804998529145589 0.31526115045204323 0 0.26344664621337061 0.33432597101975131 0 0.26760091884498549 0.31472632058921901 0 0.24804998529145589 0.31526115045204323 0 0.26344664621337061 0.33432597101975131 0 0.24926794444985581 0.33103263873945571 0 0.256881731206555 0.34343876111635702 0 0.26344664621337061 0.33432597101975131 0 0.2788433071352846 0.35339079158745978 0 0.26344664621337061 0.33432597101975131 0 0.29037361898523473 0.33841937073987138 0 0.2788433071352846 0.35339079158745978 0 0.256881731206555 0.34343876111635702 0 0.26344664621337061 0.33432597101975131 0 0.26344664621337061 0.33432597101975131 0 0.28421234195831591 0.32288679219969152 0 0.29037361898523473 0.33841937073987138 0 0.26760091884498549 0.31472632058921901 0 0.28421234195831591 0.32288679219969152 0 0.28418092940500322 0.30795075328555882 0 0.26344664621337061 0.33432597101975131 0 0.26760091884498549 0.31472632058921901 0 0.28421234195831591 0.32288679219969152 0 0.28421234195831591 0.32288679219969152 0 0.30045895688034402 0.32812712097613378 0 0.29921298142095748 0.31377121658761492 0 0.28421234195831591 0.32288679219969152 0 0.29921298142095748 0.31377121658761492 0 0.28418092940500322 0.30795075328555882 0 0.28421234195831591 0.32288679219969152 0 0.29037361898523473 0.33841937073987138 0 0.30045895688034402 0.32812712097613378 0 0.29037361898523473 0.33841937073987138 0 0.3122640132071739 0.33914100029777761 0 0.30045895688034402 0.32812712097613378 0 0.32508451802931609 0.31808604783730138 0 0.30045895688034402 0.32812712097613378 0 0.29921298142095748 0.31377121658761492 0 0.29921298142095748 0.31377121658761492 0 0.31270393341374308 0.28666308426052522 0 0.29921298142095748 0.31377121658761492 0 0.30637701198803852 0.28844142731746453 0 0.2939263315899095 0.30389956014510311 0 0.29921298142095748 0.31377121658761492 0 0.31270393341374308 0.28666308426052522 0 0.32137557025801478 0.3013969212790531 0 0.29921298142095748 0.31377121658761492 0 0.30637701198803852 0.28844142731746453 0 0.31270393341374308 0.28666308426052522 0 0.30637701198803852 0.28844142731746453 0 0.30506221546711959 0.2795600984908363 0 0.31378865231733849 0.28448349726087452 0 0.30637701198803852 0.28844142731746453 0 0.31378865231733849 0.28448349726087452 0 0.30637701198803852 0.28844142731746453 0 0.31270393341374308 0.28666308426052522 0 0.30637701198803852 0.28844142731746453 0 0.31378865231733849 0.28448349726087452 0 0.31270393341374308 0.28666308426052522 0 0.30637701198803852 0.28844142731746453 0 0.29391054537722971 0.29509871244007752 0 0.30637701198803852 0.28844142731746453 0 0.29391054537722971 0.29509871244007752 0 0.2939263315899095 0.30389956014510311 0 0.30637701198803852 0.28844142731746453 0 0.29391054537722971 0.29509871244007752 0 0.2952807327128088 0.2915603203586794 0 0.30637701198803852 0.28844142731746453 0 0.2952807327128088 0.2915603203586794 0 0.29911111639214882 0.28541368746172779 0 0.29365417882613498 0.28079947237343161 0 0.30506221546711959 0.2795600984908363 0 0.30637701198803852 0.28844142731746453 0 0.29911111639214882 0.28541368746172779 0 0.30506221546711959 0.2795600984908363 0 0.30637701198803852 0.28844142731746453 0 0.29911111639214882 0.28541368746172779 0 0.2952807327128088 0.2915603203586794 0 0.27222906350765091 0.29611891684063391 0 0.28094075800525731 0.2782881758503869 0 0.29365417882613498 0.28079947237343161 0 0.28644465919679668 0.29585520732038761 0 0.27222906350765091 0.29611891684063391 0 0.29365417882613498 0.28079947237343161 0 0.27222906350765091 0.29611891684063391 0 0.29365417882613498 0.28079947237343161 0 0.29362267178197232 0.28840717187855658 0 0.28644465919679668 0.29585520732038761 0 0.29365417882613498 0.28079947237343161 0 0.29911111639214882 0.28541368746172779 0 0.29362267178197232 0.28840717187855658 0 0.29365417882613498 0.28079947237343161 0 0.29911111639214882 0.28541368746172779 0 0.29362267178197232 0.28840717187855658 0 0.2952807327128088 0.2915603203586794 0 0.29362267178197232 0.28840717187855658 0 0.2952807327128088 0.2915603203586794 0 0.28644465919679668 0.29585520732038761 0 0.29391054537722971 0.29509871244007752 0 0.2952807327128088 0.2915603203586794 0 0.28644465919679668 0.29585520732038761 0 0.29921298142095748 0.31377121658761492 0 0.2939263315899095 0.30389956014510311 0 0.28418092940500322 0.30795075328555882 0 0.29391054537722971 0.29509871244007752 0 0.28644465919679668 0.29585520732038761 0 0.2939263315899095 0.30389956014510311 0 0.28644465919679668 0.29585520732038761 0 0.2939263315899095 0.30389956014510311 0 0.28418092940500322 0.30795075328555882 0 0.26760091884498549 0.31472632058921901 0 0.28418092940500322 0.30795075328555882 0 0.27222906350765091 0.29611891684063391 0 0.28644465919679668 0.29585520732038761 0 0.28418092940500322 0.30795075328555882 0 0.27222906350765091 0.29611891684063391 0 0.27222906350765091 0.29611891684063391 0 0.26467663007657771 0.28276711556378559 0 0.28094075800525731 0.2782881758503869 0 0.2485433229568853 0.29627740250536672 0 0.249863287478018 0.28312152291451942 0 0.26467663007657771 0.28276711556378559 0 0.2485433229568853 0.29627740250536672 0 0.27222906350765091 0.29611891684063391 0 0.26467663007657771 0.28276711556378559 0 0.2485433229568853 0.29627740250536672 0 0.27222906350765091 0.29611891684063391 0 0.2526787178163884 0.30883598457110623 0 0.26760091884498549 0.31472632058921901 0 0.27222906350765091 0.29611891684063391 0 0.25080394818916718 0.31143836130783681 0 0.27222906350765091 0.29611891684063391 0 0.25080394818916718 0.31143836130783681 0 0.27222906350765091 0.29611891684063391 0 0.25080394818916718 0.31143836130783681 0 0.2526787178163884 0.30883598457110623 0 0.24746204362422861 0.30705434421611461 0 0.25080394818916718 0.31143836130783681 0 0.2526787178163884 0.30883598457110623 0 0.25080394818916718 0.31143836130783681 0 0.2526787178163884 0.30883598457110623 0 0.25648020029296009 0.25534243071471141 0 0.2581466906155262 0.27041699713618877 0 0.27331153016725629 0.27063467616830489 0 0.249863287478018 0.28312152291451942 0 0.26467663007657771 0.28276711556378559 0 0.2581466906155262 0.27041699713618877 0 0.26467663007657771 0.28276711556378559 0 0.2581466906155262 0.27041699713618877 0 0.27331153016725629 0.27063467616830489 0 0.26467663007657771 0.28276711556378559 0 0.27331153016725629 0.27063467616830489 0 0.28094075800525731 0.2782881758503869 0 0.27331153016725629 0.27063467616830489 0 0.27849782684333269 0.26042721030067489 0 0.28688199227603661 0.26655803209778439 0 0.27331153016725629 0.27063467616830489 0 0.28094075800525731 0.2782881758503869 0 0.28688199227603661 0.26655803209778439 0 0.25648020029296009 0.25534243071471141 0 0.27331153016725629 0.27063467616830489 0 0.27849782684333269 0.26042721030067489 0 0.25648020029296009 0.25534243071471141 0 0.27849782684333269 0.26042721030067489 0 0.28116346984589152 0.24929238295428011 0 0.25648020029296009 0.25534243071471141 0 0.28116346984589152 0.24929238295428011 0 0.27849782684333269 0.26042721030067489 0 0.29215712614179729 0.25296539125812162 0 0.28116346984589152 0.24929238295428011 0 0.27849782684333269 0.26042721030067489 0 0.29215712614179729 0.25296539125812162 0 0.28688199227603661 0.26655803209778439 0 0.29682437568916492 0.26363202838706168 0 0.29215712614179729 0.25296539125812162 0 0.28688199227603661 0.26655803209778439 0 0.28094075800525731 0.2782881758503869 0 0.28688199227603661 0.26655803209778439 0 0.29297875531895101 0.27212027439003339 0 0.29682437568916492 0.26363202838706168 0 0.28688199227603661 0.26655803209778439 0 0.29297875531895101 0.27212027439003339 0 0.29297875531895101 0.27212027439003339 0 0.29365417882613498 0.28079947237343161 0 0.30160056851599482 0.26927110673952909 0 0.28094075800525731 0.2782881758503869 0 0.29297875531895101 0.27212027439003339 0 0.29365417882613498 0.28079947237343161 0 0.29365417882613498 0.28079947237343161 0 0.30506221546711959 0.2795600984908363 0 0.3150792941446201 0.26548002790623049 0 0.29365417882613498 0.28079947237343161 0 0.3150792941446201 0.26548002790623049 0 0.29682437568916492 0.26363202838706168 0 0.30160056851599482 0.26927110673952909 0 0.3150792941446201 0.26548002790623049 0 0.29365417882613498 0.28079947237343161 0 0.30160056851599482 0.26927110673952909 0 0.3150792941446201 0.26548002790623049 0 0.29682437568916492 0.26363202838706168 0 0.29297875531895101 0.27212027439003339 0 0.30160056851599482 0.26927110673952909 0 0.30506221546711959 0.2795600984908363 0 0.31248832988425013 0.27406357497863831 0 0.3150792941446201 0.26548002790623049 0 0.30506221546711959 0.2795600984908363 0 0.31248832988425013 0.27406357497863831 0 0.31378865231733849 0.28448349726087452 0 0.29215712614179729 0.25296539125812162 0 0.3150792941446201 0.26548002790623049 0 0.29682437568916492 0.26363202838706168 0 0.29215712614179729 0.25296539125812162 0 0.3150792941446201 0.26548002790623049 0 0.29215712614179729 0.25296539125812162 0 0.31122083531834582 0.25734239929070551 0 0.30564632357021321 0.2489163216561793 0 0.29215712614179729 0.25296539125812162 0 0.31122083531834582 0.25734239929070551 0 0.3150792941446201 0.26548002790623049 0 0.31122083531834582 0.25734239929070551 0 0.30564632357021321 0.2489163216561793 0 0.31315294017503031 0.2487805694931679 0 0.31819378019255079 0.25457929758374892 0 0.32616531042253322 0.25961437862030612 0 0.32109064663039938 0.24355484364608501 0 0.31122083531834582 0.25734239929070551 0 0.31819378019255079 0.25457929758374892 0 0.31315294017503031 0.2487805694931679 0 0.31122083531834582 0.25734239929070551 0 0.3150792941446201 0.26548002790623049 0 0.31707423789021572 0.26405359778104398 0 0.31122083531834582 0.25734239929070551 0 0.31819378019255079 0.25457929758374892 0 0.31707423789021572 0.26405359778104398 0 0.3150792941446201 0.26548002790623049 0 0.31707423789021572 0.26405359778104398 0 0.3150792941446201 0.26548002790623049 0 0.31707423789021572 0.26405359778104398 0 0.317867231414455 0.26700213619570401 0 0.31819378019255079 0.25457929758374892 0 0.31707423789021572 0.26405359778104398 0 0.32616531042253322 0.25961437862030612 0 0.31707423789021572 0.26405359778104398 0 0.32616531042253322 0.25961437862030612 0 0.317867231414455 0.26700213619570401 0 0.32616531042253322 0.25961437862030612 0 0.34146053174196062 0.25520817275505892 0 0.33481635276755523 0.27325438144640662 0 0.33481635276755523 0.27325438144640662 0 0.33171473054367179 0.28131961358843721 0 0.35072552767360038 0.27597614291634881 0 0.33171473054367179 0.28131961358843721 0 0.35072552767360038 0.27597614291634881 0 0.33481635276755523 0.27325438144640662 0 0.31378865231733849 0.28448349726087452 0 0.32616531042253322 0.25961437862030612 0 0.33481635276755523 0.27325438144640662 0 0.31378865231733849 0.28448349726087452 0 0.32616531042253322 0.25961437862030612 0 0.31378865231733849 0.28448349726087452 0 0.33481635276755523 0.27325438144640662 0 0.31378865231733849 0.28448349726087452 0 0.33171473054367179 0.28131961358843721 0 0.31248832988425013 0.27406357497863831 0 0.317867231414455 0.26700213619570401 0 0.31378865231733849 0.28448349726087452 0 0.32616531042253322 0.25961437862030612 0 0.317867231414455 0.26700213619570401 0 0.31378865231733849 0.28448349726087452 0 0.31248832988425013 0.27406357497863831 0 0.3150792941446201 0.26548002790623049 0 0.317867231414455 0.26700213619570401 0 0.3150792941446201 0.26548002790623049 0 0.317867231414455 0.26700213619570401 0 0.31378865231733849 0.28448349726087452 0 0.31270393341374308 0.28666308426052522 0 0.33171473054367179 0.28131961358843721 0 0.31270393341374308 0.28666308426052522 0 0.33171473054367179 0.28131961358843721 0 0.31270393341374308 0.28666308426052522 0 0.3259248142667221 0.29160267862621031 0 0.33171473054367179 0.28131961358843721 0 0.31378865231733849 0.28448349726087452 0 0.31270393341374308 0.28666308426052522 0 0.31270393341374308 0.28666308426052522 0 0.3259248142667221 0.29160267862621031 0 0.32137557025801478 0.3013969212790531 0 0.32508451802931609 0.31808604783730138 0 0.29921298142095748 0.31377121658761492 0 0.32137557025801478 0.3013969212790531 0 0.32508451802931609 0.31808604783730138 0 0.32137557025801478 0.3013969212790531 0 0.33790502285145851 0.2970310953768252 0 0.32508451802931609 0.31808604783730138 0 0.33790502285145851 0.2970310953768252 0 0.32508451802931609 0.31808604783730138 0 0.33790502285145851 0.2970310953768252 0 0.34951777982397819 0.3121555756940752 0 0.3259248142667221 0.29160267862621031 0 0.32137557025801478 0.3013969212790531 0 0.33790502285145851 0.2970310953768252 0 0.3259248142667221 0.29160267862621031 0 0.33790502285145851 0.2970310953768252 0 0.33171473054367179 0.28131961358843721 0 0.33790502285145851 0.2970310953768252 0 0.33171473054367179 0.28131961358843721 0 0.35072552767360038 0.27597614291634881 0 0.33790502285145851 0.2970310953768252 0 0.35259245860265592 0.29151621771978908 0 0.35072552767360038 0.27597614291634881 0 0.33790502285145851 0.2970310953768252 0 0.35072552767360038 0.27597614291634881 0 0.35259245860265592 0.29151621771978908 0 0.36581504419548122 0.29876757974313561 0 0.35899891846876142 0.27365069486856131 0 0.33790502285145851 0.2970310953768252 0 0.35259245860265592 0.29151621771978908 0 0.34951777982397819 0.3121555756940752 0 0.35259245860265592 0.29151621771978908 0 0.34951777982397819 0.3121555756940752 0 0.36581504419548122 0.29876757974313561 0 0.37263116992220002 0.32388446461771031 0 0.34951777982397819 0.3121555756940752 0 0.36581504419548122 0.29876757974313561 0 0.37263116992220002 0.32388446461771031 0 0.36581504419548122 0.29876757974313561 0 0.37263116992220002 0.32388446461771031 0 0.36581504419548122 0.29876757974313561 0 0.38216381873773081 0.30982874819705242 0 0.36581504419548122 0.29876757974313561 0 0.35899891846876142 0.27365069486856131 0 0.36581504419548122 0.29876757974313561 0 0.35899891846876142 0.27365069486856131 0 0.37683247115226481 0.2845180330936678 0 0.36720713552841849 0.26750750586540728 0 0.35899891846876142 0.27365069486856131 0 0.38535156718836922 0.2662436090634428 0 0.35899891846876142 0.27365069486856131 0 0.38535156718836922 0.2662436090634428 0 0.36720713552841849 0.26750750586540728 0 0.37226466093687499 0.26549479397987391 0 0.38535156718836922 0.2662436090634428 0 0.35899891846876142 0.27365069486856131 0 0.38535156718836922 0.2662436090634428 0 0.38051111834588769 0.27591356521434068 0 0.35899891846876142 0.27365069486856131 0 0.38051111834588769 0.27591356521434068 0 0.37683247115226481 0.2845180330936678 0 0.36183762772090172 0.26742753723678903 0 0.36720713552841849 0.26750750586540728 0 0.35899891846876142 0.27365069486856131 0 0.36183762772090172 0.26742753723678903 0 0.36720713552841849 0.26750750586540728 0 0.36425956062898701 0.26269125819969902 0 0.36720713552841849 0.26750750586540728 0 0.37226466093687499 0.26549479397987391 0 0.36923808193834701 0.26390242165790312 0 0.37226466093687499 0.26549479397987391 0 0.37429926686591097 0.26285014803493573 0 0.37677440415832958 0.26458204815120479 0 0.37226466093687499 0.26549479397987391 0 0.3714343708618833 0.26209966012453317 0 0.37429926686591097 0.26285014803493573 0 0.3714343708618833 0.26209966012453317 0 0.37429926686591097 0.26285014803493573 0 0.37419881720766079 0.26041076486404341 0 0.3714343708618833 0.26209966012453317 0 0.37419881720766079 0.26041076486404341 0 0.36948686267009861 0.25851372971543912 0 0.3714343708618833 0.26209966012453317 0 0.36948686267009861 0.25851372971543912 0 0.36863033910146481 0.26079973239372939 0 0.36948686267009861 0.25851372971543912 0 0.36863033910146481 0.26079973239372939 0 0.3670291076315797 0.25774021581778528 0 0.36863033910146481 0.26079973239372939 0 0.36923808193834701 0.26390242165790312 0 0.36425956062898701 0.26269125819969902 0 0.37226466093687499 0.26549479397987391 0 0.3714343708618833 0.26209966012453317 0 0.36923808193834701 0.26390242165790312 0 0.3714343708618833 0.26209966012453317 0 0.36863033910146481 0.26079973239372939 0 0.36923808193834701 0.26390242165790312 0 0.37419881720766079 0.26041076486404341 0 0.36566976062550771 0.2514334186846684 0 0.378237879498459 0.26110535008175689 0 0.37419881720766079 0.26041076486404341 0 0.36948686267009861 0.25851372971543912 0 0.36566976062550771 0.2514334186846684 0 0.36948686267009861 0.25851372971543912 0 0.36566976062550771 0.2514334186846684 0 0.3670291076315797 0.25774021581778528 0 0.36566976062550771 0.2514334186846684 0 0.36084714641992832 0.25935353682685058 0 0.36566976062550771 0.2514334186846684 0 0.36341618278067811 0.2579816318534689 0 0.36084714641992832 0.25935353682685058 0 0.36566976062550771 0.2514334186846684 0 0.3670291076315797 0.25774021581778528 0 0.36341618278067811 0.2579816318534689 0 0.36720713552841849 0.26750750586540728 0 0.36923808193834701 0.26390242165790312 0 0.36425956062898701 0.26269125819969902 0 0.36425956062898701 0.26269125819969902 0 0.36583379753567741 0.25980320956617059 0 0.36341618278067811 0.2579816318534689 0 0.36863033910146481 0.26079973239372939 0 0.36425956062898701 0.26269125819969902 0 0.36583379753567741 0.25980320956617059 0 0.36863033910146481 0.26079973239372939 0 0.3670291076315797 0.25774021581778528 0 0.36583379753567741 0.25980320956617059 0 0.3670291076315797 0.25774021581778528 0 0.36583379753567741 0.25980320956617059 0 0.36341618278067811 0.2579816318534689 0 0.36425956062898701 0.26269125819969902 0 0.36341618278067811 0.2579816318534689 0 0.36084714641992832 0.25935353682685058 0 0.36341618278067811 0.2579816318534689 0 0.36084714641992832 0.25935353682685058 0 0.36183762772090172 0.26742753723678903 0 0.36425956062898701 0.26269125819969902 0 0.35688489625744207 0.26586069001348989 0 0.36425956062898701 0.26269125819969902 0 0.36084714641992832 0.25935353682685058 0 0.35688489625744207 0.26586069001348989 0 0.35584405321777313 0.26202526563194062 0 0.35042462279544723 0.24205509262445721 0 0.36084714641992832 0.25935353682685058 0 0.35584405321777313 0.26202526563194062 0 0.35688489625744207 0.26586069001348989 0 0.34146053174196062 0.25520817275505892 0 0.35584405321777313 0.26202526563194062 0 0.35042462279544723 0.24205509262445721 0 0.34146053174196062 0.25520817275505892 0 0.33481635276755523 0.27325438144640662 0 0.35584405321777313 0.26202526563194062 0 0.36084714641992832 0.25935353682685058 0 0.35688489625744207 0.26586069001348989 0 0.36084714641992832 0.25935353682685058 0 0.35584405321777313 0.26202526563194062 0 0.35042462279544723 0.24205509262445721 0 0.36566976062550771 0.2514334186846684 0 0.36084714641992832 0.25935353682685058 0 0.35042462279544723 0.24205509262445721 0 0.35584405321777313 0.26202526563194062 0 0.35688489625744207 0.26586069001348989 0 0.36084714641992832 0.25935353682685058 0 0.35584405321777313 0.26202526563194062 0 0.35259245860265592 0.29151621771978908 0 0.35072552767360038 0.27597614291634881 0 0.35899891846876142 0.27365069486856131 0 0.33481635276755523 0.27325438144640662 0 0.35584405321777313 0.26202526563194062 0 0.35072552767360038 0.27597614291634881 0 0.33481635276755523 0.27325438144640662 0 0.35584405321777313 0.26202526563194062 0 0.35072552767360038 0.27597614291634881 0 0.35899891846876142 0.27365069486856131 0 0.35072552767360038 0.27597614291634881 0 0.35688489625744207 0.26586069001348989 0 0.35072552767360038 0.27597614291634881 0 0.35899891846876142 0.27365069486856131 0 0.35688489625744207 0.26586069001348989 0 0.35899891846876142 0.27365069486856131 0 0.35688489625744207 0.26586069001348989 0 0.35584405321777313 0.26202526563194062 0 0.35072552767360038 0.27597614291634881 0 0.35688489625744207 0.26586069001348989 0 0.36183762772090172 0.26742753723678903 0 0.35899891846876142 0.27365069486856131 0 0.35688489625744207 0.26586069001348989 0 0.39058331214230813 0.27264365199997947 0 0.39078932277773509 0.28251183704605232 0 0.40679200475885691 0.2767305211516401 0 0.38623088269218231 0.26408196991815419 0 0.39058331214230813 0.27264365199997947 0 0.40679200475885691 0.2767305211516401 0 0.40032253422749842 0.26421104613444119 0 0.38623088269218231 0.26408196991815419 0 0.40679200475885691 0.2767305211516401 0 0.38623088269218231 0.26408196991815419 0 0.40679200475885691 0.2767305211516401 0 0.40032253422749842 0.26421104613444119 0 0.39977963730110577 0.25154022270667931 0 0.41519011662213018 0.25621305437172082 0 0.39977963730110577 0.25154022270667931 0 0.3940759733667869 0.25855859638579981 0 0.38997083924636128 0.2544011467839245 0 0.40032253422749842 0.26421104613444119 0 0.3940759733667869 0.25855859638579981 0 0.38623088269218231 0.26408196991815419 0 0.40032253422749842 0.26421104613444119 0 0.39977963730110577 0.25154022270667931 0 0.3940759733667869 0.25855859638579981 0 0.36566976062550771 0.2514334186846684 0 0.38623088269218231 0.26408196991815419 0 0.378237879498459 0.26110535008175689 0 0.36566976062550771 0.2514334186846684 0 0.38623088269218231 0.26408196991815419 0 0.38059922333817042 0.25455401822115192 0 0.36566976062550771 0.2514334186846684 0 0.38623088269218231 0.26408196991815419 0 0.3940759733667869 0.25855859638579981 0 0.38623088269218231 0.26408196991815419 0 0.38997083924636128 0.2544011467839245 0 0.38623088269218231 0.26408196991815419 0 0.38207521107849129 0.26384033058657419 0 0.38535156718836922 0.2662436090634428 0 0.38623088269218231 0.26408196991815419 0 0.38997083924636128 0.2544011467839245 0 0.38059922333817042 0.25455401822115192 0 0.38997083924636128 0.2544011467839245 0 0.38059922333817042 0.25455401822115192 0 0.38052541078862723 0.24829953749785871 0 0.36566976062550771 0.2514334186846684 0 0.38059922333817042 0.25455401822115192 0 0.38052541078862723 0.24829953749785871 0 0.37226466093687499 0.26549479397987391 0 0.37677440415832958 0.26458204815120479 0 0.38535156718836922 0.2662436090634428 0 0.38623088269218231 0.26408196991815419 0 0.38207521107849129 0.26384033058657419 0 0.378237879498459 0.26110535008175689 0 0.3794605961369093 0.26361365678626969 0 0.37677440415832958 0.26458204815120479 0 0.38535156718836922 0.2662436090634428 0 0.3794605961369093 0.26361365678626969 0 0.38207521107849129 0.26384033058657419 0 0.38535156718836922 0.2662436090634428 0 0.3794605961369093 0.26361365678626969 0 0.38207521107849129 0.26384033058657419 0 0.378237879498459 0.26110535008175689 0 0.37429926686591097 0.26285014803493573 0 0.37419881720766079 0.26041076486404341 0 0.378237879498459 0.26110535008175689 0 0.37429926686591097 0.26285014803493573 0 0.378237879498459 0.26110535008175689 0 0.37677440415832958 0.26458204815120479 0 0.3794605961369093 0.26361365678626969 0 0.378237879498459 0.26110535008175689 0 0.37677440415832958 0.26458204815120479 0 0.38535156718836922 0.2662436090634428 0 0.39058331214230813 0.27264365199997947 0 0.38051111834588769 0.27591356521434068 0 0.38623088269218231 0.26408196991815419 0 0.38535156718836922 0.2662436090634428 0 0.39058331214230813 0.27264365199997947 0 0.39058331214230813 0.27264365199997947 0 0.38051111834588769 0.27591356521434068 0 0.39078932277773509 0.28251183704605232 0 0.38051111834588769 0.27591356521434068 0 0.37683247115226481 0.2845180330936678 0 0.39078932277773509 0.28251183704605232 0 0.36581504419548122 0.29876757974313561 0 0.37683247115226481 0.2845180330936678 0 0.38500679122999049 0.2952956460395787 0 0.37683247115226481 0.2845180330936678 0 0.38500679122999049 0.2952956460395787 0 0.39078932277773509 0.28251183704605232 0 0.36581504419548122 0.29876757974313561 0 0.38500679122999049 0.2952956460395787 0 0.38216381873773081 0.30982874819705242 0 0.38500679122999049 0.2952956460395787 0 0.38216381873773081 0.30982874819705242 0 0.39543159761595259 0.30665387383792558 0 0.38500679122999049 0.2952956460395787 0 0.39543159761595259 0.30665387383792558 0 0.40266687436949061 0.29186731851635711 0 0.39543159761595259 0.30665387383792558 0 0.40266687436949061 0.29186731851635711 0 0.41950116564597129 0.31693752417159771 0 0.38500679122999049 0.2952956460395787 0 0.40266687436949061 0.29186731851635711 0 0.39078932277773509 0.28251183704605232 0 0.40266687436949061 0.29186731851635711 0 0.39078932277773509 0.28251183704605232 0 0.40679200475885691 0.2767305211516401 0 0.40266687436949061 0.29186731851635711 0 0.41882126218047422 0.29147624400308969 0 0.40679200475885691 0.2767305211516401 0 0.40266687436949061 0.29186731851635711 0 0.41882126218047422 0.29147624400308969 0 0.41950116564597129 0.31693752417159771 0 0.41882126218047422 0.29147624400308969 0 0.43316524293980979 0.30475282774090923 0 0.41950116564597129 0.31693752417159771 0 0.41882126218047422 0.29147624400308969 0 0.43764875802522879 0.27104813869731093 0 0.41882126218047422 0.29147624400308969 0 0.43764875802522879 0.27104813869731093 0 0.43794632740365752 0.28976657297877562 0 0.41882126218047422 0.29147624400308969 0 0.43316524293980979 0.30475282774090923 0 0.43794632740365752 0.28976657297877562 0 0.40032253422749842 0.26421104613444119 0 0.40679200475885691 0.2767305211516401 0 0.41519011662213018 0.25621305437172082 0 0.40679200475885691 0.2767305211516401 0 0.41519011662213018 0.25621305437172082 0 0.43764875802522879 0.27104813869731093 0 0.41882126218047422 0.29147624400308969 0 0.40679200475885691 0.2767305211516401 0 0.43764875802522879 0.27104813869731093 0 0.41519011662213018 0.25621305437172082 0 0.43764875802522879 0.27104813869731093 0 0.43185737368061472 0.2416123191336198 0 0.43764875802522879 0.27104813869731093 0 0.45647625386998181 0.25062003339153083 0 0.43185737368061472 0.2416123191336198 0 0.43764875802522879 0.27104813869731093 0 0.45647625386998181 0.25062003339153083 0 0.43764875802522879 0.27104813869731093 0 0.45647625386998181 0.25062003339153083 0 0.45773583252766092 0.26464653132343807 0 0.43764875802522879 0.27104813869731093 0 0.45773583252766092 0.26464653132343807 0 0.45820283107645032 0.2813141420685536 0 0.43764875802522879 0.27104813869731093 0 0.45820283107645032 0.2813141420685536 0 0.43794632740365752 0.28976657297877562 0 0.45773583252766092 0.26464653132343807 0 0.46986026294836941 0.27129466228617072 0 0.45820283107645032 0.2813141420685536 0 0.45773583252766092 0.26464653132343807 0 0.4676162735583666 0.25469601545930087 0 0.46986026294836941 0.27129466228617072 0 0.45647625386998181 0.25062003339153083 0 0.45773583252766092 0.26464653132343807 0 0.4676162735583666 0.25469601545930087 0 0.45647625386998181 0.25062003339153083 0 0.4676162735583666 0.25469601545930087 0 0.47944782654762041 0.26345887554496922 0 0.46625783612658889 0.2400068751657814 0 0.47588751982959471 0.24844019444835849 0 0.4676162735583666 0.25469601545930087 0 0.47944782654762041 0.26345887554496922 0 0.46625783612658889 0.2400068751657814 0 0.47944782654762041 0.26345887554496922 0 0.46625783612658889 0.2400068751657814 0 0.4676162735583666 0.25469601545930087 0 0.47944782654762041 0.26345887554496922 0 0.46986026294836941 0.27129466228617072 0 0.47944782654762041 0.26345887554496922 0 0.47588751982959471 0.24844019444835849 0 0.47944782654762041 0.26345887554496922 0 0.46986026294836941 0.27129466228617072 0 0.48629855103174852 0.29235774703459189 0 0.47944782654762041 0.26345887554496922 0 0.48629855103174852 0.29235774703459189 0 0.47944782654762041 0.26345887554496922 0 0.48967801122677401 0.26973044615813868 0 0.48972391327381037 0.28172991154321442 0 0.47944782654762041 0.26345887554496922 0 0.48972391327381037 0.28172991154321442 0 0.47944782654762041 0.26345887554496922 0 0.48629855103174852 0.29235774703459189 0 0.48972391327381037 0.28172991154321442 0 0.48967801122677401 0.26973044615813868 0 0.5 0.27584974548820551 0 0.5 0.25169854343495118 0 0.48967801122677401 0.26973044615813868 0 0.5 0.27584974548820551 0 0.48972391327381037 0.28172991154321442 0 0.47944782654762041 0.26345887554496922 0 0.5 0.25169854343495118 0 0.47588751982959471 0.24844019444835849 0 0.47944782654762041 0.26345887554496922 0 0.48967801122677401 0.26973044615813868 0 0.5 0.25169854343495118 0 0.50000000000000022 0.30000094754145978 0 0.48629855103174852 0.29235774703459189 0 0.49314927551587662 0.32125661852421472 0 0.48629855103174852 0.29235774703459189 0 0.49314927551587662 0.32125661852421472 0 0.48629855103174852 0.29235774703459189 0 0.47860521627971969 0.30944552366175199 0 0.49314927551587662 0.32125661852421472 0 0.50000000000000022 0.30000094754145978 0 0.48629855103174852 0.29235774703459189 0 0.48972391327381037 0.28172991154321442 0 0.50000000000000022 0.30000094754145978 0 0.48972391327381037 0.28172991154321442 0 0.5 0.27584974548820551 0 0.50000000000000022 0.30000094754145978 0 0.48972391327381037 0.28172991154321442 0 0.48629855103174852 0.29235774703459189 0 0.46674309854425577 0.29881208971504858 0 0.45820283107645032 0.2813141420685536 0 0.46986026294836941 0.27129466228617072 0 0.48629855103174852 0.29235774703459189 0 0.45820283107645032 0.2813141420685536 0 0.47860521627971969 0.30944552366175199 0 0.46674309854425577 0.29881208971504858 0 0.46789609903754181 0.32457934398553617 0 0.48629855103174852 0.29235774703459189 0 0.47860521627971969 0.30944552366175199 0 0.46674309854425577 0.29881208971504858 0 0.46674309854425577 0.29881208971504858 0 0.44842819224258251 0.30302438773828139 0 0.46789609903754181 0.32457934398553617 0 0.46674309854425577 0.29881208971504858 0 0.45820283107645032 0.2813141420685536 0 0.44842819224258251 0.30302438773828139 0 0.45820283107645032 0.2813141420685536 0 0.43794632740365752 0.28976657297877562 0 0.44842819224258251 0.30302438773828139 0 0.43316524293980979 0.30475282774090923 0 0.44842819224258251 0.30302438773828139 0 0.44112926722636309 0.32255940981280168 0 0.43316524293980979 0.30475282774090923 0 0.43794632740365752 0.28976657297877562 0 0.44842819224258251 0.30302438773828139 0 0.44842819224258251 0.30302438773828139 0 0.44112926722636309 0.32255940981280168 0 0.46789609903754181 0.32457934398553617 0 0.44112926722636309 0.32255940981280168 0 0.45133610156717452 0.34091609010799279 0 0.42850645347912419 0.34142527593276051 0 0.45133610156717452 0.34091609010799279 0 0.46789609903754181 0.32457934398553617 0 0.47134059114710469 0.34883549130695801 0 0.44112926722636309 0.32255940981280168 0 0.45133610156717452 0.34091609010799279 0 0.46789609903754181 0.32457934398553617 0 0.47860521627971969 0.30944552366175199 0 0.46789609903754181 0.32457934398553617 0 0.49314927551587662 0.32125661852421472 0 0.46789609903754181 0.32457934398553617 0 0.47134059114710469 0.34883549130695801 0 0.46789609903754181 0.32457934398553617 0 0.48421040208600052 0.3394291527551383 0 0.47134059114710469 0.34883549130695801 0 0.46789609903754181 0.32457934398553617 0 0.48421040208600052 0.3394291527551383 0 0.49314927551587662 0.32125661852421472 0 0.49314927551587662 0.32125661852421472 0 0.50000000000000244 0.35015549001383822 0 0.49314927551587662 0.32125661852421472 0 0.5 0.32507821877764898 0 0.50000000000000244 0.35015549001383822 0 0.48421040208600052 0.3394291527551383 0 0.49314927551587662 0.32125661852421472 0 0.50000000000000244 0.35015549001383822 0 0.50000000000000022 0.30000094754145978 0 0.49314927551587662 0.32125661852421472 0 0.5 0.32507821877764898 0 0.4873925416283334 0.36378689425243232 0 0.49999999999999872 0.35448214987648519 0 0.48329989995126699 0.39837933610419313 0 0.48421040208600052 0.3394291527551383 0 0.50000000000000244 0.35015549001383822 0 0.48866604472947422 0.35231881994514491 0 0.4873925416283334 0.36378689425243232 0 0.49999999999999872 0.35448214987648519 0 0.49999999999999872 0.35448214987648519 0 0.50000000000000244 0.35015549001383822 0 0.48866604472947422 0.35231881994514491 0 0.4873925416283334 0.36378689425243232 0 0.49999999999999872 0.35448214987648519 0 0.48866604472947422 0.35231881994514491 0 0.48421040208600052 0.3394291527551383 0 0.48866604472947422 0.35231881994514491 0 0.47134059114710469 0.34883549130695801 0 0.4873925416283334 0.36378689425243232 0 0.48866604472947422 0.35231881994514491 0 0.47134059114710469 0.34883549130695801 0 0.4873925416283334 0.36378689425243232 0 0.47134059114710469 0.34883549130695801 0 0.47478508325666841 0.3730916386283798 0 0.47134059114710469 0.34883549130695801 0 0.47478508325666841 0.3730916386283798 0 0.46062303730871967 0.3634742404081906 0 0.47134059114710469 0.34883549130695801 0 0.47478508325666841 0.3730916386283798 0 0.4873925416283334 0.36378689425243232 0 0.47478508325666841 0.3730916386283798 0 0.47478508325666841 0.3730916386283798 0 0.46174774604534508 0.37341013926215799 0 0.46062303730871967 0.3634742404081906 0 0.46062303730871967 0.3634742404081906 0 0.455397413667889 0.35342735123088509 0 0.44889493058259711 0.36177559373030682 0 0.46174774604534508 0.37341013926215799 0 0.46062303730871967 0.3634742404081906 0 0.44846554267145877 0.37137529375782269 0 0.45133610156717452 0.34091609010799279 0 0.47134059114710469 0.34883549130695801 0 0.455397413667889 0.35342735123088509 0 0.47134059114710469 0.34883549130695801 0 0.46062303730871967 0.3634742404081906 0 0.455397413667889 0.35342735123088509 0 0.45133610156717452 0.34091609010799279 0 0.44479240773384882 0.35213534060097729 0 0.42850645347912419 0.34142527593276051 0 0.44479240773384882 0.35213534060097729 0 0.43938671575492272 0.36316572515838719 0 0.42850645347912419 0.34142527593276051 0 0.45133610156717452 0.34091609010799279 0 0.455397413667889 0.35342735123088509 0 0.44479240773384882 0.35213534060097729 0 0.455397413667889 0.35342735123088509 0 0.44479240773384882 0.35213534060097729 0 0.44889493058259711 0.36177559373030682 0 0.44479240773384882 0.35213534060097729 0 0.44889493058259711 0.36177559373030682 0 0.43938671575492272 0.36316572515838719 0 0.44846554267145877 0.37137529375782269 0 0.4375117413122771 0.36591302769392331 0 0.45002218240245312 0.38159062827488383 0 0.44846554267145877 0.37137529375782269 0 0.44889493058259711 0.36177559373030682 0 0.44429582222121328 0.36609171505485932 0 0.46062303730871967 0.3634742404081906 0 0.44846554267145877 0.37137529375782269 0 0.44889493058259711 0.36177559373030682 0 0.44889493058259711 0.36177559373030682 0 0.44429582222121328 0.36609171505485932 0 0.43938671575492272 0.36316572515838719 0 0.44429582222121328 0.36609171505485932 0 0.43938671575492272 0.36316572515838719 0 0.4375117413122771 0.36591302769392331 0 0.43938671575492272 0.36316572515838719 0 0.4375117413122771 0.36591302769392331 0 0.44846554267145877 0.37137529375782269 0 0.44429582222121328 0.36609171505485932 0 0.4375117413122771 0.36591302769392331 0 0.4375117413122771 0.36591302769392331 0 0.41837995635420899 0.36910746274939782 0 0.4203446215856787 0.35526895673800452 0 0.4375117413122771 0.36591302769392331 0 0.41837995635420899 0.36910746274939782 0 0.42317589302115888 0.38691860060385369 0 0.41837995635420899 0.36910746274939782 0 0.40912193217335169 0.35952842139229391 0 0.4203446215856787 0.35526895673800452 0 0.41837995635420899 0.36910746274939782 0 0.40912193217335169 0.35952842139229391 0 0.40537786528165393 0.3710647899421961 0 0.41837995635420899 0.36910746274939782 0 0.40537786528165393 0.3710647899421961 0 0.41344087987728029 0.37793687115887192 0 0.4203446215856787 0.35526895673800452 0 0.42850645347912419 0.34142527593276051 0 0.40609027824811711 0.34332061436161848 0 0.40912193217335169 0.35952842139229391 0 0.4203446215856787 0.35526895673800452 0 0.40609027824811711 0.34332061436161848 0 0.43938671575492272 0.36316572515838719 0 0.4375117413122771 0.36591302769392331 0 0.42850645347912419 0.34142527593276051 0 0.4375117413122771 0.36591302769392331 0 0.4203446215856787 0.35526895673800452 0 0.42850645347912419 0.34142527593276051 0 0.4375117413122771 0.36591302769392331 0 0.42850645347912419 0.34142527593276051 0 0.42850645347912419 0.34142527593276051 0 0.41950116564597129 0.31693752417159771 0 0.44112926722636309 0.32255940981280168 0 0.42850645347912419 0.34142527593276051 0 0.41950116564597129 0.31693752417159771 0 0.43316524293980979 0.30475282774090923 0 0.44112926722636309 0.32255940981280168 0 0.41950116564597129 0.31693752417159771 0 0.42850645347912419 0.34142527593276051 0 0.41950116564597129 0.31693752417159771 0 0.40609027824811711 0.34332061436161848 0 0.40609027824811711 0.34332061436161848 0 0.39193449072502978 0.32454217674691188 0 0.37944729564891883 0.34900134949228478 0 0.41950116564597129 0.31693752417159771 0 0.40609027824811711 0.34332061436161848 0 0.39193449072502978 0.32454217674691188 0 0.39543159761595259 0.30665387383792558 0 0.41950116564597129 0.31693752417159771 0 0.39193449072502978 0.32454217674691188 0 0.38216381873773081 0.30982874819705242 0 0.39543159761595259 0.30665387383792558 0 0.39193449072502978 0.32454217674691188 0 0.37263116992220002 0.32388446461771031 0 0.38216381873773081 0.30982874819705242 0 0.39193449072502978 0.32454217674691188 0 0.37263116992220002 0.32388446461771031 0 0.39193449072502978 0.32454217674691188 0 0.37944729564891883 0.34900134949228478 0 0.37263116992220002 0.32388446461771031 0 0.37944729564891883 0.34900134949228478 0 0.37944729564891883 0.34900134949228478 0 0.37799249470829072 0.36861859632590072 0 0.3943605662164425 0.360355292390238 0 0.37799249470829072 0.36861859632590072 0 0.3943605662164425 0.360355292390238 0 0.3948678197407765 0.37662308390187482 0 0.3943605662164425 0.360355292390238 0 0.40537786528165393 0.3710647899421961 0 0.3948678197407765 0.37662308390187482 0 0.40912193217335169 0.35952842139229391 0 0.3943605662164425 0.360355292390238 0 0.40537786528165393 0.3710647899421961 0 0.40912193217335169 0.35952842139229391 0 0.40609027824811711 0.34332061436161848 0 0.3943605662164425 0.360355292390238 0 0.40609027824811711 0.34332061436161848 0 0.37944729564891883 0.34900134949228478 0 0.3943605662164425 0.360355292390238 0 0.3993807476287155 0.39369427981082827 0 0.3837220384954238 0.40091726845114661 0 0.40655925237255058 0.41126609993381769 0 0.3837220384954238 0.40091726845114661 0 0.40655925237255058 0.41126609993381769 0 0.3993807476287155 0.39369427981082827 0 0.40212781044312662 0.38966915154046222 0 0.41377686313804141 0.40069051025881558 0 0.40212781044312662 0.38966915154046222 0 0.38498463211938949 0.38669804936284108 0 0.40212781044312662 0.38966915154046222 0 0.3948678197407765 0.37662308390187482 0 0.38498463211938949 0.38669804936284108 0 0.40212781044312662 0.38966915154046222 0 0.40436354967575577 0.3833326238496107 0 0.3948678197407765 0.37662308390187482 0 0.3993807476287155 0.39369427981082827 0 0.40212781044312662 0.38966915154046222 0 0.38498463211938949 0.38669804936284108 0 0.40537786528165393 0.3710647899421961 0 0.40436354967575577 0.3833326238496107 0 0.3948678197407765 0.37662308390187482 0 0.3993807476287155 0.39369427981082827 0 0.38498463211938949 0.38669804936284108 0 0.37799249470829072 0.36861859632590072 0 0.3948678197407765 0.37662308390187482 0 0.38498463211938949 0.38669804936284108 0 0.36088482461829607 0.39056843696847748 0 0.38498463211938949 0.38669804936284108 0 0.3837220384954238 0.40091726845114661 0 0.3993807476287155 0.39369427981082827 0 0.38498463211938949 0.38669804936284108 0 0.3837220384954238 0.40091726845114661 0 0.37337211939326398 0.4171775521054909 0 0.3837220384954238 0.40091726845114661 0 0.38471897667988331 0.4185633719181765 0 0.37030578461259972 0.42739262123679572 0 0.37337211939326398 0.4171775521054909 0 0.38471897667988331 0.4185633719181765 0 0.36635722497217932 0.42831849228643498 0 0.38963568852557739 0.43606331786363273 0 0.37030578461259972 0.42739262123679572 0 0.38471897667988331 0.4185633719181765 0 0.38963568852557739 0.43606331786363273 0 0.36635722497217932 0.42831849228643498 0 0.37030578461259972 0.42739262123679572 0 0.38963568852557739 0.43606331786363273 0 0.38963568852557739 0.43606331786363273 0 0.40655925237255058 0.41126609993381769 0 0.41093693937608639 0.42903470451347298 0 0.38963568852557739 0.43606331786363273 0 0.40655925237255058 0.41126609993381769 0 0.38471897667988331 0.4185633719181765 0 0.38963568852557739 0.43606331786363273 0 0.40655925237255058 0.41126609993381769 0 0.38963568852557739 0.43606331786363273 0 0.41093693937608639 0.42903470451347298 0 0.40954224387570981 0.44268629788445268 0 0.3837220384954238 0.40091726845114661 0 0.38471897667988331 0.4185633719181765 0 0.40655925237255058 0.41126609993381769 0 0.40655925237255058 0.41126609993381769 0 0.42151181238115848 0.41804194941336198 0 0.41093693937608639 0.42903470451347298 0 0.40655925237255058 0.41126609993381769 0 0.42151181238115848 0.41804194941336198 0 0.41660593264002183 0.40206538268022701 0 0.42151181238115848 0.41804194941336198 0 0.42313883513062622 0.40650778892426659 0 0.41660593264002183 0.40206538268022701 0 0.40655925237255058 0.41126609993381769 0 0.42151181238115848 0.41804194941336198 0 0.41093693937608639 0.42903470451347298 0 0.42743569972543127 0.43711585747209702 0 0.40954224387570981 0.44268629788445268 0 0.42151181238115848 0.41804194941336198 0 0.41093693937608639 0.42903470451347298 0 0.42743569972543127 0.43711585747209702 0 0.42151181238115848 0.41804194941336198 0 0.42743569972543127 0.43711585747209702 0 0.43328424229425699 0.42460006036507991 0 0.42743569972543127 0.43711585747209702 0 0.43328424229425699 0.42460006036507991 0 0.44722149455619059 0.44190248576700331 0 0.42151181238115848 0.41804194941336198 0 0.4280479584789586 0.410367587227353 0 0.42313883513062622 0.40650778892426659 0 0.4280479584789586 0.410367587227353 0 0.42313883513062622 0.40650778892426659 0 0.42692599622702881 0.40384075917040191 0 0.4280479584789586 0.410367587227353 0 0.43048359293171462 0.40539103453432063 0 0.42692599622702881 0.40384075917040191 0 0.42151181238115848 0.41804194941336198 0 0.43328424229425699 0.42460006036507991 0 0.4280479584789586 0.410367587227353 0 0.43328424229425699 0.42460006036507991 0 0.4280479584789586 0.410367587227353 0 0.43713255049278171 0.41235125750522772 0 0.4280479584789586 0.410367587227353 0 0.43713255049278171 0.41235125750522772 0 0.43048359293171462 0.40539103453432063 0 0.43713255049278171 0.41235125750522772 0 0.43571763520143608 0.40422110828197338 0 0.43048359293171462 0.40539103453432063 0 0.41927098876686381 0.39264025371808298 0 0.42317589302115888 0.38691860060385369 0 0.4427776762244493 0.39671422232384412 0 0.41927098876686381 0.39264025371808298 0 0.4427776762244493 0.39671422232384412 0 0.43402511832414042 0.399285719882706 0 0.41927098876686381 0.39264025371808298 0 0.4427776762244493 0.39671422232384412 0 0.43571763520143608 0.40422110828197338 0 0.43402511832414042 0.399285719882706 0 0.43111353032958571 0.40230990756061058 0 0.43571763520143608 0.40422110828197338 0 0.43402511832414042 0.399285719882706 0 0.43881804660969692 0.40180417037510441 0 0.43402511832414042 0.399285719882706 0 0.43111353032958571 0.40230990756061058 0 0.42693559346461579 0.39921915716883938 0 0.43571763520143608 0.40422110828197338 0 0.43111353032958571 0.40230990756061058 0 0.43048359293171462 0.40539103453432063 0 0.42693559346461579 0.39921915716883938 0 0.42257546924583123 0.40085466833236372 0 0.41927098876686381 0.39264025371808298 0 0.43402511832414042 0.399285719882706 0 0.42693559346461579 0.39921915716883938 0 0.41927098876686381 0.39264025371808298 0 0.43111353032958571 0.40230990756061058 0 0.43048359293171462 0.40539103453432063 0 0.42692599622702881 0.40384075917040191 0 0.43111353032958571 0.40230990756061058 0 0.42692599622702881 0.40384075917040191 0 0.42693559346461579 0.39921915716883938 0 0.42692599622702881 0.40384075917040191 0 0.42693559346461579 0.39921915716883938 0 0.42257546924583123 0.40085466833236372 0 0.42313883513062622 0.40650778892426659 0 0.42692599622702881 0.40384075917040191 0 0.42257546924583123 0.40085466833236372 0 0.41660593264002183 0.40206538268022701 0 0.41927098876686381 0.39264025371808298 0 0.41377686313804141 0.40069051025881558 0 0.40212781044312662 0.38966915154046222 0 0.41927098876686381 0.39264025371808298 0 0.42313883513062622 0.40650778892426659 0 0.42257546924583123 0.40085466833236372 0 0.41660593264002183 0.40206538268022701 0 0.40212781044312662 0.38966915154046222 0 0.41927098876686381 0.39264025371808298 0 0.41377686313804141 0.40069051025881558 0 0.42257546924583123 0.40085466833236372 0 0.41660593264002183 0.40206538268022701 0 0.41927098876686381 0.39264025371808298 0 0.3993807476287155 0.39369427981082827 0 0.40655925237255058 0.41126609993381769 0 0.41377686313804141 0.40069051025881558 0 0.41660593264002183 0.40206538268022701 0 0.41377686313804141 0.40069051025881558 0 0.41927098876686381 0.39264025371808298 0 0.41377686313804141 0.40069051025881558 0 0.3993807476287155 0.39369427981082827 0 0.41377686313804141 0.40069051025881558 0 0.40655925237255058 0.41126609993381769 0 0.41377686313804141 0.40069051025881558 0 0.40655925237255058 0.41126609993381769 0 0.41660593264002183 0.40206538268022701 0 0.41377686313804141 0.40069051025881558 0 0.40436354967575577 0.3833326238496107 0 0.42317589302115888 0.38691860060385369 0 0.41837995635420899 0.36910746274939782 0 0.41344087987728029 0.37793687115887192 0 0.42317589302115888 0.38691860060385369 0 0.40436354967575577 0.3833326238496107 0 0.41344087987728029 0.37793687115887192 0 0.42317589302115888 0.38691860060385369 0 0.40436354967575577 0.3833326238496107 0 0.41927098876686381 0.39264025371808298 0 0.42317589302115888 0.38691860060385369 0 0.40212781044312662 0.38966915154046222 0 0.40436354967575577 0.3833326238496107 0 0.41927098876686381 0.39264025371808298 0 0.40537786528165393 0.3710647899421961 0 0.40436354967575577 0.3833326238496107 0 0.41344087987728029 0.37793687115887192 0 0.41927098876686381 0.39264025371808298 0 0.42317589302115888 0.38691860060385369 0 0.4375117413122771 0.36591302769392331 0 0.42317589302115888 0.38691860060385369 0 0.44689947449224648 0.39144074918049332 0 0.4375117413122771 0.36591302769392331 0 0.42317589302115888 0.38691860060385369 0 0.42317589302115888 0.38691860060385369 0 0.44689947449224648 0.39144074918049332 0 0.4375117413122771 0.36591302769392331 0 0.45002218240245312 0.38159062827488383 0 0.44689947449224648 0.39144074918049332 0 0.4375117413122771 0.36591302769392331 0 0.44689947449224648 0.39144074918049332 0 0.49999999999999872 0.35448214987648519 0 0.48329989995126699 0.39837933610419313 0 0.5 0.43513050581075341 0 0.45002218240245312 0.38159062827488383 0 0.44689947449224648 0.39144074918049332 0 0.44930235442648342 0.39189878204908452 0 0.42317589302115888 0.38691860060385369 0 0.4427776762244493 0.39671422232384412 0 0.44689947449224648 0.39144074918049332 0 0.44199311477120062 0.40438868045146609 0 0.4427776762244493 0.39671422232384412 0 0.44751671687556033 0.40691660955945808 0 0.43571763520143608 0.40422110828197338 0 0.44199311477120062 0.40438868045146609 0 0.43881804660969692 0.40180417037510441 0 0.43402511832414042 0.399285719882706 0 0.43881804660969692 0.40180417037510441 0 0.44076256135796321 0.39820144743838032 0 0.44199311477120062 0.40438868045146609 0 0.43881804660969692 0.40180417037510441 0 0.44076256135796321 0.39820144743838032 0 0.44199311477120062 0.40438868045146609 0 0.4427776762244493 0.39671422232384412 0 0.44076256135796321 0.39820144743838032 0 0.43402511832414042 0.399285719882706 0 0.4427776762244493 0.39671422232384412 0 0.44076256135796321 0.39820144743838032 0 0.4427776762244493 0.39671422232384412 0 0.44754490389590662 0.39319584188924628 0 0.4427776762244493 0.39671422232384412 0 0.44076256135796321 0.39820144743838032 0 0.4427776762244493 0.39671422232384412 0 0.44812735268699327 0.39477967370828138 0 0.45503171308298018 0.39883798227707551 0 0.4427776762244493 0.39671422232384412 0 0.45503171308298018 0.39883798227707551 0 0.4427776762244493 0.39671422232384412 0 0.44689947449224648 0.39144074918049332 0 0.44754490389590662 0.39319584188924628 0 0.44689947449224648 0.39144074918049332 0 0.44754490389590662 0.39319584188924628 0 0.44754490389590662 0.39319584188924628 0 0.44930235442648342 0.39189878204908452 0 0.44812735268699327 0.39477967370828138 0 0.44754490389590662 0.39319584188924628 0 0.44812735268699327 0.39477967370828138 0 0.44689947449224648 0.39144074918049332 0 0.44754490389590662 0.39319584188924628 0 0.44930235442648342 0.39189878204908452 0 0.44689947449224648 0.39144074918049332 0 0.44930235442648342 0.39189878204908452 0 0.44754490389590662 0.39319584188924628 0 0.44930235442648342 0.39189878204908452 0 0.44930235442648342 0.39189878204908452 0 0.44812735268699327 0.39477967370828138 0 0.45503171308298018 0.39883798227707551 0 0.4427776762244493 0.39671422232384412 0 0.44754490389590662 0.39319584188924628 0 0.44812735268699327 0.39477967370828138 0 0.4427776762244493 0.39671422232384412 0 0.45503171308298018 0.39883798227707551 0 0.44751671687556033 0.40691660955945808 0 0.44930235442648342 0.39189878204908452 0 0.47823907030494589 0.39741464940165189 0 0.44930235442648342 0.39189878204908452 0 0.46687494947481473 0.40203229109750621 0 0.47823907030494589 0.39741464940165189 0 0.44930235442648342 0.39189878204908452 0 0.45503171308298018 0.39883798227707551 0 0.46687494947481473 0.40203229109750621 0 0.45503171308298018 0.39883798227707551 0 0.46687494947481473 0.40203229109750621 0 0.45710600473461649 0.40768064790070557 0 0.45503171308298018 0.39883798227707551 0 0.45710600473461649 0.40768064790070557 0 0.44751671687556033 0.40691660955945808 0 0.44930235442648342 0.39189878204908452 0 0.46204371884157608 0.38249521033873252 0 0.47823907030494589 0.39741464940165189 0 0.46174774604534508 0.37341013926215799 0 0.45002218240245312 0.38159062827488383 0 0.46204371884157608 0.38249521033873252 0 0.46174774604534508 0.37341013926215799 0 0.44846554267145877 0.37137529375782269 0 0.45002218240245312 0.38159062827488383 0 0.44930235442648342 0.39189878204908452 0 0.46204371884157608 0.38249521033873252 0 0.45002218240245312 0.38159062827488383 0 0.44930235442648342 0.39189878204908452 0 0.46204371884157608 0.38249521033873252 0 0.47478508325666841 0.3730916386283798 0 0.46174774604534508 0.37341013926215799 0 0.46204371884157608 0.38249521033873252 0 0.47478508325666841 0.3730916386283798 0 0.46204371884157608 0.38249521033873252 0 0.47478508325666841 0.3730916386283798 0 0.46204371884157608 0.38249521033873252 0 0.47823907030494589 0.39741464940165189 0 0.4873925416283334 0.36378689425243232 0 0.47478508325666841 0.3730916386283798 0 0.48329989995126699 0.39837933610419313 0 0.47478508325666841 0.3730916386283798 0 0.47823907030494589 0.39741464940165189 0 0.47478508325666841 0.3730916386283798 0 0.47823907030494589 0.39741464940165189 0 0.48329989995126699 0.39837933610419313 0 0.47823907030494589 0.39741464940165189 0 0.48067587274046092 0.41457463612507173 0 0.46687494947481473 0.40203229109750621 0 0.47823907030494589 0.39741464940165189 0 0.48067587274046092 0.41457463612507173 0 0.47823907030494589 0.39741464940165189 0 0.48329989995126699 0.39837933610419313 0 0.48067587274046092 0.41457463612507173 0 0.47823907030494589 0.39741464940165189 0 0.48329989995126699 0.39837933610419313 0 0.48329989995126699 0.39837933610419313 0 0.5 0.43513050581075341 0 0.48067587274046092 0.41457463612507173 0 0.5 0.43513050581075341 0 0.48067587274046092 0.41457463612507173 0 0.48311267517597473 0.43173462284849151 0 0.46687494947481473 0.40203229109750621 0 0.48067587274046092 0.41457463612507173 0 0.46435836632650651 0.41502083534475592 0 0.48067587274046092 0.41457463612507173 0 0.47285232339405631 0.42322624635643508 0 0.46435836632650651 0.41502083534475592 0 0.48067587274046092 0.41457463612507173 0 0.48311267517597473 0.43173462284849151 0 0.47285232339405631 0.42322624635643508 0 0.48311267517597473 0.43173462284849151 0 0.46326237933328279 0.43157489110742131 0 0.48067587274046092 0.41457463612507173 0 0.47285232339405631 0.42322624635643508 0 0.48311267517597473 0.43173462284849151 0 0.47285232339405631 0.42322624635643508 0 0.46326237933328279 0.43157489110742131 0 0.46435836632650651 0.41502083534475592 0 0.46326237933328279 0.43157489110742131 0 0.45266347905046411 0.41648451906105072 0 0.44660485654003762 0.42536287294873548 0 0.46326237933328279 0.43157489110742131 0 0.46435836632650651 0.41502083534475592 0 0.45266347905046411 0.41648451906105072 0 0.46687494947481473 0.40203229109750621 0 0.46435836632650651 0.41502083534475592 0 0.45710600473461649 0.40768064790070557 0 0.46435836632650651 0.41502083534475592 0 0.45710600473461649 0.40768064790070557 0 0.45266347905046411 0.41648451906105072 0 0.45710600473461649 0.40768064790070557 0 0.44751671687556033 0.40691660955945808 0 0.45266347905046411 0.41648451906105072 0 0.43713255049278171 0.41235125750522772 0 0.44751671687556033 0.40691660955945808 0 0.45266347905046411 0.41648451906105072 0 0.43713255049278171 0.41235125750522772 0 0.45266347905046411 0.41648451906105072 0 0.44660485654003762 0.42536287294873548 0 0.43328424229425699 0.42460006036507991 0 0.43713255049278171 0.41235125750522772 0 0.44660485654003762 0.42536287294873548 0 0.43713255049278171 0.41235125750522772 0 0.43571763520143608 0.40422110828197338 0 0.44199311477120062 0.40438868045146609 0 0.43713255049278171 0.41235125750522772 0 0.44199311477120062 0.40438868045146609 0 0.44751671687556033 0.40691660955945808 0 0.46326237933328279 0.43157489110742131 0 0.44660485654003762 0.42536287294873548 0 0.44722149455619059 0.44190248576700331 0 0.43328424229425699 0.42460006036507991 0 0.44660485654003762 0.42536287294873548 0 0.44722149455619059 0.44190248576700331 0 0.5 0.43513050581075341 0 0.47542590291461362 0.45660311654626629 0 0.5 0.5 0 0.5 0.5 0 0.45317868065322398 0.47257144722045569 0 0.41361828881124579 0.5 0 0.44722149455619059 0.44190248576700331 0 0.45317868065322398 0.47257144722045569 0 0.42527112959749891 0.46003073862491378 0 0.44722149455619059 0.44190248576700331 0 0.47542590291461362 0.45660311654626629 0 0.45317868065322398 0.47257144722045569 0 0.46326237933328279 0.43157489110742131 0 0.44722149455619059 0.44190248576700331 0 0.47542590291461362 0.45660311654626629 0 0.48311267517597473 0.43173462284849151 0 0.46326237933328279 0.43157489110742131 0 0.47542590291461362 0.45660311654626629 0 0.5 0.43513050581075341 0 0.48311267517597473 0.43173462284849151 0 0.47542590291461362 0.45660311654626629 0 0.47542590291461362 0.45660311654626629 0 0.5 0.5 0 0.45317868065322398 0.47257144722045569 0 0.35087984519022652 0.5 0 0.41361828881124579 0.5 0 0.39456333821203482 0.46722628045989822 0 0.41361828881124579 0.5 0 0.42527112959749891 0.46003073862491378 0 0.39456333821203482 0.46722628045989822 0 0.45317868065322398 0.47257144722045569 0 0.41361828881124579 0.5 0 0.42527112959749891 0.46003073862491378 0 0.42743569972543127 0.43711585747209702 0 0.44722149455619059 0.44190248576700331 0 0.42527112959749891 0.46003073862491378 0 0.42743569972543127 0.43711585747209702 0 0.42527112959749891 0.46003073862491378 0 0.40954224387570981 0.44268629788445268 0 0.42527112959749891 0.46003073862491378 0 0.40954224387570981 0.44268629788445268 0 0.39456333821203482 0.46722628045989822 0 0.40954224387570981 0.44268629788445268 0 0.39456333821203482 0.46722628045989822 0 0.39283131878230321 0.4499244799641845 0 0.35399815986298627 0.4630044256211166 0 0.39456333821203482 0.46722628045989822 0 0.37758400451589053 0.4537220236487548 0 0.38963568852557739 0.43606331786363273 0 0.40954224387570981 0.44268629788445268 0 0.39283131878230321 0.4499244799641845 0 0.38963568852557739 0.43606331786363273 0 0.40954224387570981 0.44268629788445268 0 0.38963568852557739 0.43606331786363273 0 0.39283131878230321 0.4499244799641845 0 0.37758400451589053 0.4537220236487548 0 0.38963568852557739 0.43606331786363273 0 0.37758400451589053 0.4537220236487548 0 0.36835759133761709 0.44211754499971262 0 0.38963568852557739 0.43606331786363273 0 0.37758400451589053 0.4537220236487548 0 0.39456333821203482 0.46722628045989822 0 0.39283131878230321 0.4499244799641845 0 0.37758400451589053 0.4537220236487548 0 0.32396123206059402 0.07331467679089114 0 0.33488919505488091 0.094680519848913708 0 0.33530815043582368 0.079177156025423523 0 0.32396123206059402 0.07331467679089114 0 0.33488919505488091 0.094680519848913708 0 0.33530815043582368 0.079177156025423523 0 0.33488919505488091 0.094680519848913708 0 0.33530815043582368 0.079177156025423523 0 0.33488919505488091 0.094680519848913708 0 0.34667284195663273 0.085165445817830032 0 0.33530815043582368 0.079177156025423523 0 0.33572710581676529 0.063673792201933282 0 0.34762405736536173 0.068462984631153093 0 0.33530815043582368 0.079177156025423523 0 0.34667284195663273 0.085165445817830032 0 0.34762405736536173 0.068462984631153093 0 0.33572710581676529 0.063673792201933282 0 0.32396123206059402 0.07331467679089114 0 0.32730422508776918 0.059242749220191432 0 0.33530815043582368 0.079177156025423523 0 0.33572710581676529 0.063673792201933282 0 0.32396123206059402 0.07331467679089114 0 0.33530815043582368 0.079177156025423523 0 0.33572710581676529 0.063673792201933282 0 0.32396123206059402 0.07331467679089114 0 0.31876275203936821 0.06178863284318379 0 0.30747609860754388 0.07123831301682948 0 0.32396123206059402 0.07331467679089114 0 0.31200503470638469 0.08546246631735635 0 0.30747609860754388 0.07123831301682948 0 0.32396123206059402 0.07331467679089114 0 0.32730422508776918 0.059242749220191432 0 0.31876275203936821 0.06178863284318379 0 0.32396123206059402 0.07331467679089114 0 0.3220286345515942 0.091753911920747513 0 0.31200503470638469 0.08546246631735635 0 0.32396123206059402 0.07331467679089114 0 0.3220286345515942 0.091753911920747513 0 0.33488919505488091 0.094680519848913708 0 0.3220286345515942 0.091753911920747513 0 0.31471536567222469 0.10005571465255091 0 0.31200503470638469 0.08546246631735635 0 0.31471536567222469 0.10005571465255091 0 0.32457234526388667 0.1052561819940256 0 0.31612369212307861 0.1168460110343051 0 0.3220286345515942 0.091753911920747513 0 0.32457234526388667 0.1052561819940256 0 0.33488919505488091 0.094680519848913708 0 0.3220286345515942 0.091753911920747513 0 0.31471536567222469 0.10005571465255091 0 0.32457234526388667 0.1052561819940256 0 0.31612369212307861 0.1168460110343051 0 0.33414562681144683 0.1221961206264181 0 0.32161705984599981 0.1334097914584319 0 0.32457234526388667 0.1052561819940256 0 0.31612369212307861 0.1168460110343051 0 0.33414562681144683 0.1221961206264181 0 0.33414562681144683 0.1221961206264181 0 0.33488919505488091 0.094680519848913708 0 0.34426622038125421 0.1130140419864978 0 0.33414562681144683 0.1221961206264181 0 0.33488919505488091 0.094680519848913708 0 0.33488919505488091 0.094680519848913708 0 0.34426622038125421 0.1130140419864978 0 0.33488919505488091 0.094680519848913708 0 0.35124570403373812 0.097502916352859403 0 0.34426622038125421 0.1130140419864978 0 0.32457234526388667 0.1052561819940256 0 0.33414562681144683 0.1221961206264181 0 0.33488919505488091 0.094680519848913708 0 0.35124570403373812 0.097502916352859403 0 0.34426622038125421 0.1130140419864978 0 0.36326429244760722 0.1107478987048401 0 0.34426622038125421 0.1130140419864978 0 0.35364324570762867 0.13134756412408119 0 0.33414562681144683 0.1221961206264181 0 0.34426622038125421 0.1130140419864978 0 0.35364324570762867 0.13134756412408119 0 0.34426622038125421 0.1130140419864978 0 0.36326429244760722 0.1107478987048401 0 0.35364324570762867 0.13134756412408119 0 0.36326429244760722 0.1107478987048401 0 0.3809701484213564 0.10354431983044771 0 0.37703018163666319 0.1169655376785344 0 0.36326429244760722 0.1107478987048401 0 0.35364324570762867 0.13134756412408119 0 0.37155438552144998 0.1279060582428837 0 0.36326429244760722 0.1107478987048401 0 0.37155438552144998 0.1279060582428837 0 0.37703018163666319 0.1169655376785344 0 0.35124570403373812 0.097502916352859403 0 0.36326429244760722 0.1107478987048401 0 0.36429710289335909 0.08600365223080042 0 0.36326429244760722 0.1107478987048401 0 0.36429710289335909 0.08600365223080042 0 0.3809701484213564 0.10354431983044771 0 0.36429710289335909 0.08600365223080042 0 0.3809701484213564 0.10354431983044771 0 0.36429710289335909 0.08600365223080042 0 0.37907796159537632 0.077976084497466847 0 0.3809701484213564 0.10354431983044771 0 0.35124570403373812 0.097502916352859403 0 0.36429710289335909 0.08600365223080042 0 0.34667284195663273 0.085165445817830032 0 0.33488919505488091 0.094680519848913708 0 0.35124570403373812 0.097502916352859403 0 0.34667284195663273 0.085165445817830032 0 0.36429710289335909 0.08600365223080042 0 0.34667284195663273 0.085165445817830032 0 0.34762405736536173 0.068462984631153093 0 0.34762405736536173 0.068462984631153093 0 0.3655493984813572 0.068117119886358615 0 0.35378571417030069 0.051874675678153591 0 0.36429710289335909 0.08600365223080042 0 0.34762405736536173 0.068462984631153093 0 0.3655493984813572 0.068117119886358615 0 0.36429710289335909 0.08600365223080042 0 0.34762405736536173 0.068462984631153093 0 0.36429710289335909 0.08600365223080042 0 0.3655493984813572 0.068117119886358615 0 0.37907796159537632 0.077976084497466847 0 0.35378571417030069 0.051874675678153591 0 0.38200279492775091 0.057285654079436213 0 0.3655493984813572 0.068117119886358615 0 0.35378571417030069 0.051874675678153591 0 0.38200279492775091 0.057285654079436213 0 0.36596701370889417 0.034654631267918588 0 0.35378571417030069 0.051874675678153591 0 0.38200279492775091 0.057285654079436213 0 0.36596701370889417 0.034654631267918588 0 0.38200279492775091 0.057285654079436213 0 0.36596701370889417 0.034654631267918588 0 0.34534056782877942 0.033161574764758082 0 0.35378571417030069 0.051874675678153591 0 0.34762405736536173 0.068462984631153093 0 0.35378571417030069 0.051874675678153591 0 0.33095101183736442 0.050922317031505793 0 0.36596701370889417 0.034654631267918588 0 0.36909861384751302 0.0062369004923781089 0 0.34993123249004582 0.012023608456395111 0 0.36596701370889417 0.034654631267918588 0 0.36909861384751302 0.0062369004923781089 0 0.38131243673512882 0.026001829024623439 0 0.36596701370889417 0.034654631267918588 0 0.34993123249004582 0.012023608456395111 0 0.36596701370889417 0.034654631267918588 0 0.34534056782877942 0.033161574764758082 0 0.34993123249004582 0.012023608456395111 0 0.36909861384751302 0.0062369004923781089 0 0.34993123249004582 0.012023608456395111 0 0.3559181981730396 -0.01207771809287486 0 0.34993123249004582 0.012023608456395111 0 0.33389545127119741 -0.010607414355128349 0 0.34993123249004582 0.012023608456395111 0 0.33141841751597467 0.023374090697625579 0 0.32428985140229089 0.0045442459904301274 0 0.34993123249004582 0.012023608456395111 0 0.32428985140229089 0.0045442459904301274 0 0.33389545127119741 -0.010607414355128349 0 0.34534056782877942 0.033161574764758082 0 0.34993123249004582 0.012023608456395111 0 0.33141841751597467 0.023374090697625579 0 0.33141841751597467 0.023374090697625579 0 0.32428985140229089 0.0045442459904301274 0 0.31196180244590832 0.020677326999666439 0 0.33141841751597467 0.023374090697625579 0 0.32556863341284931 0.046463697276878123 0 0.31196180244590832 0.020677326999666439 0 0.32428985140229089 0.0045442459904301274 0 0.3084370594916051 0.00067207699937176261 0 0.31196180244590832 0.020677326999666439 0 0.35378571417030069 0.051874675678153591 0 0.32556863341284931 0.046463697276878123 0 0.33572710581676529 0.063673792201933282 0 0.34762405736536173 0.068462984631153093 0 0.33095101183736442 0.050922317031505793 0 0.34762405736536173 0.068462984631153093 0 0.33095101183736442 0.050922317031505793 0 0.35378571417030069 0.051874675678153591 0 0.33095101183736442 0.050922317031505793 0 0.32556863341284931 0.046463697276878123 0 0.33572710581676529 0.063673792201933282 0 0.33095101183736442 0.050922317031505793 0 0.32730422508776918 0.059242749220191432 0 0.34534056782877942 0.033161574764758082 0 0.33141841751597467 0.023374090697625579 0 0.32556863341284931 0.046463697276878123 0 0.34534056782877942 0.033161574764758082 0 0.35378571417030069 0.051874675678153591 0 0.32556863341284931 0.046463697276878123 0 0.32556863341284931 0.046463697276878123 0 0.31876275203936821 0.06178863284318379 0 0.30902331552179779 0.0564985336013335 0 0.33095101183736442 0.050922317031505793 0 0.32556863341284931 0.046463697276878123 0 0.32730422508776918 0.059242749220191432 0 0.32556863341284931 0.046463697276878123 0 0.32730422508776918 0.059242749220191432 0 0.31876275203936821 0.06178863284318379 0 0.32556863341284931 0.046463697276878123 0 0.30902331552179779 0.0564985336013335 0 0.29735155265539792 0.041052718875602683 0 0.30902331552179779 0.0564985336013335 0 0.29735155265539792 0.041052718875602683 0 0.29595754089383031 0.061949305994173462 0 0.32556863341284931 0.046463697276878123 0 0.29735155265539792 0.041052718875602683 0 0.31196180244590832 0.020677326999666439 0 0.32556863341284931 0.046463697276878123 0 0.29735155265539792 0.041052718875602683 0 0.29735155265539792 0.041052718875602683 0 0.28100449905570107 0.02588021439129717 0 0.26913447189794693 0.03564174047432505 0 0.29735155265539792 0.041052718875602683 0 0.26913447189794693 0.03564174047432505 0 0.29735155265539792 0.041052718875602683 0 0.28518889072929537 0.058522810565924163 0 0.27264223701655232 0.052196700615651632 0 0.29735155265539792 0.041052718875602683 0 0.28518889072929537 0.058522810565924163 0 0.29595754089383031 0.061949305994173462 0 0.3084370594916051 0.00067207699937176261 0 0.29730932667835253 0.0093792757849015841 0 0.31196180244590832 0.020677326999666439 0 0.3084370594916051 0.00067207699937176261 0 0.29730932667835253 0.0093792757849015841 0 0.29480674430808651 -0.0053593656848261971 0 0.29735155265539792 0.041052718875602683 0 0.31196180244590832 0.020677326999666439 0 0.29574447228298673 0.023534828910649661 0 0.29730932667835253 0.0093792757849015841 0 0.31196180244590832 0.020677326999666439 0 0.29574447228298673 0.023534828910649661 0 0.29735155265539792 0.041052718875602683 0 0.29574447228298673 0.023534828910649661 0 0.28100449905570107 0.02588021439129717 0 0.29574447228298673 0.023534828910649661 0 0.28479910348507659 0.01423225571360121 0 0.28100449905570107 0.02588021439129717 0 0.29730932667835253 0.0093792757849015841 0 0.29574447228298673 0.023534828910649661 0 0.28479910348507659 0.01423225571360121 0 0.29730932667835253 0.0093792757849015841 0 0.28479910348507659 0.01423225571360121 0 0.28620635765796709 0.003067424845049098 0 0.28479910348507659 0.01423225571360121 0 0.28620635765796709 0.003067424845049098 0 0.27729315394716642 0.0070525882866151364 0 0.29730932667835253 0.0093792757849015841 0 0.28620635765796709 0.003067424845049098 0 0.29480674430808651 -0.0053593656848261971 0 0.26620112804302892 0.0052484816967997266 0 0.27087841858074718 0.01481692551439801 0 0.26680729270403042 0.02465857669500263 0 0.26620112804302892 0.0052484816967997266 0 0.26680729270403042 0.02465857669500263 0 0.26950436116676529 5.0784174151398597e-05 0 0.26620112804302892 0.0052484816967997266 0 0.27236747284283069 0.0035342108706479681 0 0.26620112804302892 0.0052484816967997266 0 0.27168504335344329 0.0076630515921152099 0 0.27236747284283069 0.0035342108706479681 0 0.26950436116676529 5.0784174151398597e-05 0 0.27236747284283069 0.0035342108706479681 0 0.27342826679344762 -0.001719184532610826 0 0.27236747284283069 0.0035342108706479681 0 0.27830450817623342 0.00016121309183629701 0 0.27729315394716642 0.0070525882866151364 0 0.27236747284283069 0.0035342108706479681 0 0.27830450817623342 0.00016121309183629701 0 0.27342826679344762 -0.001719184532610826 0 0.28620635765796709 0.003067424845049098 0 0.27830450817623342 0.00016121309183629701 0 0.27729315394716642 0.0070525882866151364 0 0.27168504335344329 0.0076630515921152099 0 0.27236747284283069 0.0035342108706479681 0 0.27729315394716642 0.0070525882866151364 0 0.28479910348507659 0.01423225571360121 0 0.27729315394716642 0.0070525882866151364 0 0.27087841858074718 0.01481692551439801 0 0.26620112804302892 0.0052484816967997266 0 0.27168504335344329 0.0076630515921152099 0 0.27087841858074718 0.01481692551439801 0 0.27168504335344329 0.0076630515921152099 0 0.27729315394716642 0.0070525882866151364 0 0.27087841858074718 0.01481692551439801 0 0.27087841858074718 0.01481692551439801 0 0.28100449905570107 0.02588021439129717 0 0.26680729270403042 0.02465857669500263 0 0.28479910348507659 0.01423225571360121 0 0.27087841858074718 0.01481692551439801 0 0.28100449905570107 0.02588021439129717 0 0.28100449905570107 0.02588021439129717 0 0.26680729270403042 0.02465857669500263 0 0.26913447189794693 0.03564174047432505 0 0.26680729270403042 0.02465857669500263 0 0.26713833567692602 0.03525895637023202 0 0.26680729270403042 0.02465857669500263 0 0.26913447189794693 0.03564174047432505 0 0.24622542171544631 0.03124864337130712 0 0.26680729270403042 0.02465857669500263 0 0.26713833567692602 0.03525895637023202 0 0.24622542171544631 0.03124864337130712 0 0.26680729270403042 0.02465857669500263 0 0.2546022002950461 0.017760820163893649 0 0.26680729270403042 0.02465857669500263 0 0.26249141269217191 0.0042897038784872124 0 0.26680729270403042 0.02465857669500263 0 0.2546022002950461 0.017760820163893649 0 0.26249141269217191 0.0042897038784872124 0 0.24288467406853601 0.01084635671077764 0 0.2546022002950461 0.017760820163893649 0 0.26249141269217191 0.0042897038784872124 0 0.26620112804302892 0.0052484816967997266 0 0.26680729270403042 0.02465857669500263 0 0.26249141269217191 0.0042897038784872124 0 0.27264223701655232 0.052196700615651632 0 0.27615000213515689 0.068751660756978375 0 0.27264223701655232 0.052196700615651632 0 0.26772831493401089 0.054150775976049483 0 0.26913447189794693 0.03564174047432505 0 0.28518889072929537 0.058522810565924163 0 0.27264223701655232 0.052196700615651632 0 0.27615000213515689 0.068751660756978375 0 0.27264223701655232 0.052196700615651632 0 0.26772831493401089 0.054150775976049483 0 0.27615000213515689 0.068751660756978375 0 0.26772831493401089 0.054150775976049483 0 0.26713833567692602 0.03525895637023202 0 0.26248452189999738 0.047582333005579042 0 0.29735155265539792 0.041052718875602683 0 0.27264223701655232 0.052196700615651632 0 0.26913447189794693 0.03564174047432505 0 0.27264223701655232 0.052196700615651632 0 0.26913447189794693 0.03564174047432505 0 0.26772831493401089 0.054150775976049483 0 0.26713833567692602 0.03525895637023202 0 0.26772831493401089 0.054150775976049483 0 0.26713833567692602 0.03525895637023202 0 0.26913447189794693 0.03564174047432505 0 0.26680729270403042 0.02465857669500263 0 0.26713833567692602 0.03525895637023202 0 0.26913447189794693 0.03564174047432505 0 0.26713833567692602 0.03525895637023202 0 0.26913447189794693 0.03564174047432505 0 0.26713833567692602 0.03525895637023202 0 0.2573651418193017 0.045938980385183507 0 0.26248452189999738 0.047582333005579042 0 0.26713833567692602 0.03525895637023202 0 0.25177438564587512 0.040318721698458918 0 0.2573651418193017 0.045938980385183507 0 0.24622542171544631 0.03124864337130712 0 0.26713833567692602 0.03525895637023202 0 0.25177438564587512 0.040318721698458918 0 0.24622542171544631 0.03124864337130712 0 0.26713833567692602 0.03525895637023202 0 0.2491398822511017 0.049107863529107253 0 0.25177438564587512 0.040318721698458918 0 0.2573651418193017 0.045938980385183507 0 0.24895312849188919 0.059115038947649613 0 0.2491398822511017 0.049107863529107253 0 0.25770629516975108 0.054980619290851941 0 0.2491398822511017 0.049107863529107253 0 0.2573651418193017 0.045938980385183507 0 0.25770629516975108 0.054980619290851941 0 0.26772831493401089 0.054150775976049483 0 0.26248452189999738 0.047582333005579042 0 0.25770629516975108 0.054980619290851941 0 0.2573651418193017 0.045938980385183507 0 0.26248452189999738 0.047582333005579042 0 0.25770629516975108 0.054980619290851941 0 0.26772831493401089 0.054150775976049483 0 0.25770629516975108 0.054980619290851941 0 0.25954342958035859 0.062852465308431096 0 0.24895312849188919 0.059115038947649613 0 0.25770629516975108 0.054980619290851941 0 0.25954342958035859 0.062852465308431096 0 0.26772831493401089 0.054150775976049483 0 0.25954342958035859 0.062852465308431096 0 0.26831829419109959 0.073042595581866876 0 0.24895312849188919 0.059115038947649613 0 0.25415704794100669 0.07065646625888182 0 0.25954342958035859 0.062852465308431096 0 0.25415704794100669 0.07065646625888182 0 0.26170145874673872 0.082579933790113275 0 0.26831829419109959 0.073042595581866876 0 0.25415704794100669 0.07065646625888182 0 0.25954342958035859 0.062852465308431096 0 0.26831829419109959 0.073042595581866876 0 0.24577971206005911 0.094681192802855224 0 0.26170145874673872 0.082579933790113275 0 0.26076916483989981 0.093456144482601658 0 0.24577971206005911 0.094681192802855224 0 0.25415704794100669 0.07065646625888182 0 0.26170145874673872 0.082579933790113275 0 0.26170145874673872 0.082579933790113275 0 0.26076916483989981 0.093456144482601658 0 0.26944667348346601 0.089868152663259926 0 0.26170145874673872 0.082579933790113275 0 0.27475758046448823 0.081873465961334865 0 0.26831829419109959 0.073042595581866876 0 0.26170145874673872 0.082579933790113275 0 0.26944667348346601 0.089868152663259926 0 0.27475758046448823 0.081873465961334865 0 0.27475758046448823 0.081873465961334865 0 0.2787225987422593 0.07533384127107294 0 0.28585864252824378 0.079046334725644846 0 0.26944667348346601 0.089868152663259926 0 0.27475758046448823 0.081873465961334865 0 0.27936458627574923 0.092024045980960353 0 0.27475758046448823 0.081873465961334865 0 0.27936458627574923 0.092024045980960353 0 0.28719642859734651 0.087950241406075519 0 0.26772831493401089 0.054150775976049483 0 0.26831829419109959 0.073042595581866876 0 0.27615000213515689 0.068751660756978375 0 0.26772831493401089 0.054150775976049483 0 0.26831829419109959 0.073042595581866876 0 0.2787225987422593 0.07533384127107294 0 0.27615000213515689 0.068751660756978375 0 0.28649935834788898 0.069113819527687886 0 0.26831829419109959 0.073042595581866876 0 0.2787225987422593 0.07533384127107294 0 0.27615000213515689 0.068751660756978375 0 0.27475758046448823 0.081873465961334865 0 0.26831829419109959 0.073042595581866876 0 0.2787225987422593 0.07533384127107294 0 0.28518889072929537 0.058522810565924163 0 0.27615000213515689 0.068751660756978375 0 0.28649935834788898 0.069113819527687886 0 0.28518889072929537 0.058522810565924163 0 0.29595754089383031 0.061949305994173462 0 0.28649935834788898 0.069113819527687886 0 0.29595754089383031 0.061949305994173462 0 0.28649935834788898 0.069113819527687886 0 0.29494717390873632 0.072805210420462993 0 0.28649935834788898 0.069113819527687886 0 0.29494717390873632 0.072805210420462993 0 0.28585864252824378 0.079046334725644846 0 0.2787225987422593 0.07533384127107294 0 0.28649935834788898 0.069113819527687886 0 0.28585864252824378 0.079046334725644846 0 0.27475758046448823 0.081873465961334865 0 0.28585864252824378 0.079046334725644846 0 0.28719642859734651 0.087950241406075519 0 0.27936458627574923 0.092024045980960353 0 0.28719642859734651 0.087950241406075519 0 0.29270330855594251 0.095329361106856261 0 0.28719642859734651 0.087950241406075519 0 0.29894422916617441 0.082678278837979277 0 0.29270330855594251 0.095329361106856261 0 0.28585864252824378 0.079046334725644846 0 0.28719642859734651 0.087950241406075519 0 0.29894422916617441 0.082678278837979277 0 0.29494717390873632 0.072805210420462993 0 0.28585864252824378 0.079046334725644846 0 0.29894422916617441 0.082678278837979277 0 0.29894422916617441 0.082678278837979277 0 0.30428099687122639 0.093516315049203103 0 0.29270330855594251 0.095329361106856261 0 0.29894422916617441 0.082678278837979277 0 0.30428099687122639 0.093516315049203103 0 0.31200503470638469 0.08546246631735635 0 0.31471536567222469 0.10005571465255091 0 0.30428099687122639 0.093516315049203103 0 0.31200503470638469 0.08546246631735635 0 0.29894422916617441 0.082678278837979277 0 0.31200503470638469 0.08546246631735635 0 0.30747609860754388 0.07123831301682948 0 0.31876275203936821 0.06178863284318379 0 0.30902331552179779 0.0564985336013335 0 0.30747609860754388 0.07123831301682948 0 0.29595754089383031 0.061949305994173462 0 0.29494717390873632 0.072805210420462993 0 0.30747609860754388 0.07123831301682948 0 0.30902331552179779 0.0564985336013335 0 0.29595754089383031 0.061949305994173462 0 0.30747609860754388 0.07123831301682948 0 0.29494717390873632 0.072805210420462993 0 0.29894422916617441 0.082678278837979277 0 0.30747609860754388 0.07123831301682948 0 0.31612369212307861 0.1168460110343051 0 0.30228325590560728 0.118246001377217 0 0.30758450129370812 0.13366877386987541 0 0.30228325590560728 0.118246001377217 0 0.30385913821366622 0.10573257657661141 0 0.29304821015391791 0.11040205623953631 0 0.31612369212307861 0.1168460110343051 0 0.30228325590560728 0.118246001377217 0 0.30385913821366622 0.10573257657661141 0 0.31471536567222469 0.10005571465255091 0 0.31612369212307861 0.1168460110343051 0 0.30385913821366622 0.10573257657661141 0 0.31471536567222469 0.10005571465255091 0 0.30428099687122639 0.093516315049203103 0 0.30385913821366622 0.10573257657661141 0 0.30428099687122639 0.093516315049203103 0 0.30385913821366622 0.10573257657661141 0 0.29270330855594251 0.095329361106856261 0 0.29270330855594251 0.095329361106856261 0 0.28179242523426151 0.10422267257032659 0 0.29304821015391791 0.11040205623953631 0 0.30385913821366622 0.10573257657661141 0 0.29270330855594251 0.095329361106856261 0 0.29304821015391791 0.11040205623953631 0 0.27936458627574923 0.092024045980960353 0 0.29270330855594251 0.095329361106856261 0 0.28179242523426151 0.10422267257032659 0 0.28311903477961742 0.1163689364920561 0 0.27482616798860171 0.12790891193398521 0 0.29162282970192632 0.12625741141109581 0 0.28311903477961742 0.1163689364920561 0 0.29304821015391791 0.11040205623953631 0 0.29162282970192632 0.12625741141109581 0 0.30228325590560728 0.118246001377217 0 0.29304821015391791 0.11040205623953631 0 0.29162282970192632 0.12625741141109581 0 0.28179242523426151 0.10422267257032659 0 0.28311903477961742 0.1163689364920561 0 0.29304821015391791 0.11040205623953631 0 0.28311903477961742 0.1163689364920561 0 0.2720198289581735 0.11203976332025491 0 0.27482616798860171 0.12790891193398521 0 0.2720198289581735 0.11203976332025491 0 0.26019051644867958 0.1236751623368475 0 0.27482616798860171 0.12790891193398521 0 0.28179242523426151 0.10422267257032659 0 0.28311903477961742 0.1163689364920561 0 0.2720198289581735 0.11203976332025491 0 0.27936458627574923 0.092024045980960353 0 0.28179242523426151 0.10422267257032659 0 0.27064057709045408 0.099407173101289395 0 0.28179242523426151 0.10422267257032659 0 0.2720198289581735 0.11203976332025491 0 0.27064057709045408 0.099407173101289395 0 0.2720198289581735 0.11203976332025491 0 0.27064057709045408 0.099407173101289395 0 0.25936412099114742 0.1049423596113938 0 0.26944667348346601 0.089868152663259926 0 0.27936458627574923 0.092024045980960353 0 0.27064057709045408 0.099407173101289395 0 0.26076916483989981 0.093456144482601658 0 0.26944667348346601 0.089868152663259926 0 0.27064057709045408 0.099407173101289395 0 0.24522452711027151 0.1162476081772815 0 0.24577971206005911 0.094681192802855224 0 0.25936412099114742 0.1049423596113938 0 0.26076916483989981 0.093456144482601658 0 0.27064057709045408 0.099407173101289395 0 0.25936412099114742 0.1049423596113938 0 0.24577971206005911 0.094681192802855224 0 0.26076916483989981 0.093456144482601658 0 0.25936412099114742 0.1049423596113938 0 0.24547992539022981 0.13490344779148691 0 0.24522452711027151 0.1162476081772815 0 0.26019051644867958 0.1236751623368475 0 0.2720198289581735 0.11203976332025491 0 0.25936412099114742 0.1049423596113938 0 0.26019051644867958 0.1236751623368475 0 0.24522452711027151 0.1162476081772815 0 0.25936412099114742 0.1049423596113938 0 0.26019051644867958 0.1236751623368475 0 0.24547992539022981 0.13490344779148691 0 0.26019051644867958 0.1236751623368475 0 0.26422852825365378 0.14600888318668259 0 0.27482616798860171 0.12790891193398521 0 0.26422852825365378 0.14600888318668259 0 0.28138976695940732 0.13980007894522539 0 0.26019051644867958 0.1236751623368475 0 0.27482616798860171 0.12790891193398521 0 0.26422852825365378 0.14600888318668259 0 0.26422852825365378 0.14600888318668259 0 0.28138976695940732 0.13980007894522539 0 0.28563018054188338 0.1537610002235317 0 0.24132172988827849 0.15576576713774071 0 0.24547992539022981 0.13490344779148691 0 0.26422852825365378 0.14600888318668259 0 0.24395940064542521 0.1784341937588439 0 0.24132172988827849 0.15576576713774071 0 0.26472281937626052 0.17113477256424151 0 0.24132172988827849 0.15576576713774071 0 0.26422852825365378 0.14600888318668259 0 0.26472281937626052 0.17113477256424151 0 0.24395940064542521 0.1784341937588439 0 0.26472281937626052 0.17113477256424151 0 0.25828039321235191 0.1910576923913809 0 0.26472281937626052 0.17113477256424151 0 0.28582750555466152 0.17418595515757851 0 0.27645814623162979 0.19655325836930071 0 0.26472281937626052 0.17113477256424151 0 0.25828039321235191 0.1910576923913809 0 0.27645814623162979 0.19655325836930071 0 0.26472281937626052 0.17113477256424151 0 0.28582750555466152 0.17418595515757851 0 0.28563018054188338 0.1537610002235317 0 0.26422852825365378 0.14600888318668259 0 0.26472281937626052 0.17113477256424151 0 0.28563018054188338 0.1537610002235317 0 0.29592850201630089 0.1648502398347618 0 0.28582750555466152 0.17418595515757851 0 0.30579797968783501 0.17615097038686151 0 0.29592850201630089 0.1648502398347618 0 0.30645834228082358 0.15530303357107539 0 0.28563018054188338 0.1537610002235317 0 0.29592850201630089 0.1648502398347618 0 0.28582750555466152 0.17418595515757851 0 0.28563018054188338 0.1537610002235317 0 0.28582750555466152 0.17418595515757851 0 0.30579797968783501 0.17615097038686151 0 0.2944715411422949 0.19066504192227701 0 0.28582750555466152 0.17418595515757851 0 0.27645814623162979 0.19655325836930071 0 0.2944715411422949 0.19066504192227701 0 0.29592850201630089 0.1648502398347618 0 0.30579797968783501 0.17615097038686151 0 0.30645834228082358 0.15530303357107539 0 0.30579797968783501 0.17615097038686151 0 0.30645834228082358 0.15530303357107539 0 0.32081325776788733 0.16432187562446909 0 0.30645834228082358 0.15530303357107539 0 0.30758450129370812 0.13366877386987541 0 0.29444976998863098 0.1418321880428754 0 0.30645834228082358 0.15530303357107539 0 0.30758450129370812 0.13366877386987541 0 0.31769437945268231 0.14700023009031171 0 0.30228325590560728 0.118246001377217 0 0.30758450129370812 0.13366877386987541 0 0.29162282970192632 0.12625741141109581 0 0.30758450129370812 0.13366877386987541 0 0.29162282970192632 0.12625741141109581 0 0.29444976998863098 0.1418321880428754 0 0.29162282970192632 0.12625741141109581 0 0.28138976695940732 0.13980007894522539 0 0.29444976998863098 0.1418321880428754 0 0.27482616798860171 0.12790891193398521 0 0.29162282970192632 0.12625741141109581 0 0.28138976695940732 0.13980007894522539 0 0.30645834228082358 0.15530303357107539 0 0.28563018054188338 0.1537610002235317 0 0.29444976998863098 0.1418321880428754 0 0.28138976695940732 0.13980007894522539 0 0.28563018054188338 0.1537610002235317 0 0.29444976998863098 0.1418321880428754 0 0.25648020029296009 0.25534243071471141 0 0.26923495813897608 0.24045075461000981 0 0.28116346984589152 0.24929238295428011 0 0.29215712614179729 0.25296539125812162 0 0.26923495813897608 0.24045075461000981 0 0.29215712614179729 0.25296539125812162 0 0.26923495813897608 0.24045075461000981 0 0.28116346984589152 0.24929238295428011 0 0.2463127901361549 0.227936117961898 0 0.25648020029296009 0.25534243071471141 0 0.26923495813897608 0.24045075461000981 0 0.2463127901361549 0.227936117961898 0 0.26451193180195681 0.22534657843437919 0 0.26205798907003719 0.21059709465077861 0 0.2463127901361549 0.227936117961898 0 0.26923495813897608 0.24045075461000981 0 0.2463127901361549 0.227936117961898 0 0.26923495813897608 0.24045075461000981 0 0.26451193180195681 0.22534657843437919 0 0.26451193180195681 0.22534657843437919 0 0.280441989862659 0.22240234651483029 0 0.26205798907003719 0.21059709465077861 0 0.26923495813897608 0.24045075461000981 0 0.26451193180195681 0.22534657843437919 0 0.280441989862659 0.22240234651483029 0 0.26923495813897608 0.24045075461000981 0 0.280441989862659 0.22240234651483029 0 0.28790211262554372 0.23801227549171169 0 0.280441989862659 0.22240234651483029 0 0.26205798907003719 0.21059709465077861 0 0.27645814623162979 0.19655325836930071 0 0.24420361073840699 0.19856914261373959 0 0.2463127901361549 0.227936117961898 0 0.26205798907003719 0.21059709465077861 0 0.26205798907003719 0.21059709465077861 0 0.25828039321235191 0.1910576923913809 0 0.27645814623162979 0.19655325836930071 0 0.24420361073840699 0.19856914261373959 0 0.26205798907003719 0.21059709465077861 0 0.25828039321235191 0.1910576923913809 0 0.27645814623162979 0.19655325836930071 0 0.2944715411422949 0.19066504192227701 0 0.29715275366366301 0.20928392557278 0 0.27645814623162979 0.19655325836930071 0 0.29715275366366301 0.20928392557278 0 0.2944715411422949 0.19066504192227701 0 0.29715275366366301 0.20928392557278 0 0.31428034740318989 0.19764045568352739 0 0.30579797968783501 0.17615097038686151 0 0.2944715411422949 0.19066504192227701 0 0.31428034740318989 0.19764045568352739 0 0.29715275366366301 0.20928392557278 0 0.31784736109569622 0.22201459277625929 0 0.31428034740318989 0.19764045568352739 0 0.29715275366366301 0.20928392557278 0 0.31784736109569622 0.22201459277625929 0 0.280441989862659 0.22240234651483029 0 0.27645814623162979 0.19655325836930071 0 0.29715275366366301 0.20928392557278 0 0.280441989862659 0.22240234651483029 0 0.29715275366366301 0.20928392557278 0 0.29820477080971758 0.22957116406897959 0 0.280441989862659 0.22240234651483029 0 0.29820477080971758 0.22957116406897959 0 0.28790211262554372 0.23801227549171169 0 0.29715275366366301 0.20928392557278 0 0.29820477080971758 0.22957116406897959 0 0.31784736109569622 0.22201459277625929 0 0.29820477080971758 0.22957116406897959 0 0.30961311516364243 0.23950998528912071 0 0.31784736109569622 0.22201459277625929 0 0.29820477080971758 0.22957116406897959 0 0.29870468966218278 0.24179502755282259 0 0.30961311516364243 0.23950998528912071 0 0.30961311516364243 0.23950998528912071 0 0.30564632357021321 0.2489163216561793 0 0.31315294017503031 0.2487805694931679 0 0.29215712614179729 0.25296539125812162 0 0.29870468966218278 0.24179502755282259 0 0.30564632357021321 0.2489163216561793 0 0.29870468966218278 0.24179502755282259 0 0.30961311516364243 0.23950998528912071 0 0.30564632357021321 0.2489163216561793 0 0.29215712614179729 0.25296539125812162 0 0.26923495813897608 0.24045075461000981 0 0.28790211262554372 0.23801227549171169 0 0.29215712614179729 0.25296539125812162 0 0.29870468966218278 0.24179502755282259 0 0.28790211262554372 0.23801227549171169 0 0.29820477080971758 0.22957116406897959 0 0.29870468966218278 0.24179502755282259 0 0.28790211262554372 0.23801227549171169 0 0.32616531042253322 0.25961437862030612 0 0.33854196852772928 0.23474525997973869 0 0.32109064663039938 0.24355484364608501 0 0.34146053174196062 0.25520817275505892 0 0.33854196852772928 0.23474525997973869 0 0.35042462279544723 0.24205509262445721 0 0.32616531042253322 0.25961437862030612 0 0.33854196852772928 0.23474525997973869 0 0.32616531042253322 0.25961437862030612 0 0.34146053174196062 0.25520817275505892 0 0.33854196852772928 0.23474525997973869 0 0.30961311516364243 0.23950998528912071 0 0.32109064663039938 0.24355484364608501 0 0.31784736109569622 0.22201459277625929 0 0.31819378019255079 0.25457929758374892 0 0.32109064663039938 0.24355484364608501 0 0.31315294017503031 0.2487805694931679 0 0.30961311516364243 0.23950998528912071 0 0.32109064663039938 0.24355484364608501 0 0.31315294017503031 0.2487805694931679 0 0.33854196852772928 0.23474525997973869 0 0.32109064663039938 0.24355484364608501 0 0.31784736109569622 0.22201459277625929 0 0.33854196852772928 0.23474525997973869 0 0.31784736109569622 0.22201459277625929 0 0.34376042551252628 0.22425951942096939 0 0.33854196852772928 0.23474525997973869 0 0.31784736109569622 0.22201459277625929 0 0.31784736109569622 0.22201459277625929 0 0.33626589526878098 0.21177636344717729 0 0.34376042551252628 0.22425951942096939 0 0.33854196852772928 0.23474525997973869 0 0.34376042551252628 0.22425951942096939 0 0.33854196852772928 0.23474525997973869 0 0.34376042551252628 0.22425951942096939 0 0.34798290122279463 0.23305754150891889 0 0.33626589526878098 0.21177636344717729 0 0.3479189490733765 0.21769706751428189 0 0.34376042551252628 0.22425951942096939 0 0.31784736109569622 0.22201459277625929 0 0.33626589526878098 0.21177636344717729 0 0.31428034740318989 0.19764045568352739 0 0.31428034740318989 0.19764045568352739 0 0.3344407510884011 0.19339637990769851 0 0.32288753223063082 0.1819104082915641 0 0.33626589526878098 0.21177636344717729 0 0.31428034740318989 0.19764045568352739 0 0.3344407510884011 0.19339637990769851 0 0.33626589526878098 0.21177636344717729 0 0.3344407510884011 0.19339637990769851 0 0.34911938162752321 0.19970277702159109 0 0.3344407510884011 0.19339637990769851 0 0.34911938162752321 0.19970277702159109 0 0.34985097480335109 0.1858618716386955 0 0.34911938162752321 0.19970277702159109 0 0.36134187678282043 0.19759939199151069 0 0.35818811642538678 0.207286579324202 0 0.34911938162752321 0.19970277702159109 0 0.36134187678282043 0.19759939199151069 0 0.34985097480335109 0.1858618716386955 0 0.36134187678282043 0.19759939199151069 0 0.34985097480335109 0.1858618716386955 0 0.36861041777666043 0.1870512735084518 0 0.37239507437115182 0.19875944883037641 0 0.36134187678282043 0.19759939199151069 0 0.36861041777666043 0.1870512735084518 0 0.37239507437115182 0.19875944883037641 0 0.36861041777666043 0.1870512735084518 0 0.38053227584765431 0.19016301222305351 0 0.37239507437115182 0.19875944883037641 0 0.36134187678282043 0.19759939199151069 0 0.36640471235773953 0.20505808080360149 0 0.36640471235773953 0.20505808080360149 0 0.36624984599594651 0.21396985339625621 0 0.35818811642538678 0.207286579324202 0 0.36134187678282043 0.19759939199151069 0 0.36640471235773953 0.20505808080360149 0 0.35818811642538678 0.207286579324202 0 0.36640471235773953 0.20505808080360149 0 0.37353132084991841 0.20909636526528061 0 0.36624984599594651 0.21396985339625621 0 0.37239507437115182 0.19875944883037641 0 0.36640471235773953 0.20505808080360149 0 0.37353132084991841 0.20909636526528061 0 0.37378978781423788 0.21535935166171941 0 0.37141198828750321 0.21909524466324601 0 0.37713144353006262 0.21951947974540309 0 0.37353132084991841 0.20909636526528061 0 0.37378978781423788 0.21535935166171941 0 0.36624984599594651 0.21396985339625621 0 0.37378978781423788 0.21535935166171941 0 0.36624984599594651 0.21396985339625621 0 0.37141198828750321 0.21909524466324601 0 0.36624984599594651 0.21396985339625621 0 0.36695606785871759 0.21893267869953159 0 0.37141198828750321 0.21909524466324601 0 0.36624984599594651 0.21396985339625621 0 0.36245126607859368 0.2207014045299335 0 0.36695606785871759 0.21893267869953159 0 0.36624984599594651 0.21396985339625621 0 0.35592849549077549 0.21671784509635789 0 0.36245126607859368 0.2207014045299335 0 0.36624984599594651 0.21396985339625621 0 0.35592849549077549 0.21671784509635789 0 0.35818811642538678 0.207286579324202 0 0.35592849549077549 0.21671784509635789 0 0.35818811642538678 0.207286579324202 0 0.35006205188285711 0.21077155823764179 0 0.34911938162752321 0.19970277702159109 0 0.35818811642538678 0.207286579324202 0 0.35006205188285711 0.21077155823764179 0 0.33626589526878098 0.21177636344717729 0 0.34911938162752321 0.19970277702159109 0 0.35006205188285711 0.21077155823764179 0 0.35592849549077549 0.21671784509635789 0 0.35006205188285711 0.21077155823764179 0 0.3479189490733765 0.21769706751428189 0 0.33626589526878098 0.21177636344717729 0 0.35006205188285711 0.21077155823764179 0 0.3479189490733765 0.21769706751428189 0 0.3479189490733765 0.21769706751428189 0 0.34376042551252628 0.22425951942096939 0 0.35357787721194273 0.2249600513692632 0 0.34376042551252628 0.22425951942096939 0 0.34798290122279463 0.23305754150891889 0 0.35357787721194273 0.2249600513692632 0 0.35357787721194273 0.2249600513692632 0 0.36085528730661842 0.2263184668023884 0 0.3613918287148376 0.2338806100720541 0 0.34798290122279463 0.23305754150891889 0 0.35357787721194273 0.2249600513692632 0 0.3613918287148376 0.2338806100720541 0 0.35357787721194273 0.2249600513692632 0 0.36245126607859368 0.2207014045299335 0 0.36085528730661842 0.2263184668023884 0 0.35592849549077549 0.21671784509635789 0 0.3479189490733765 0.21769706751428189 0 0.35357787721194273 0.2249600513692632 0 0.35592849549077549 0.21671784509635789 0 0.35357787721194273 0.2249600513692632 0 0.36245126607859368 0.2207014045299335 0 0.36245126607859368 0.2207014045299335 0 0.36085528730661842 0.2263184668023884 0 0.36719888111489901 0.22433948176982249 0 0.36245126607859368 0.2207014045299335 0 0.36695606785871759 0.21893267869953159 0 0.36719888111489901 0.22433948176982249 0 0.36719888111489901 0.22433948176982249 0 0.37413624613917112 0.22277425424305489 0 0.37141198828750321 0.21909524466324601 0 0.36695606785871759 0.21893267869953159 0 0.36719888111489901 0.22433948176982249 0 0.37141198828750321 0.21909524466324601 0 0.36719888111489901 0.22433948176982249 0 0.37413624613917112 0.22277425424305489 0 0.37361582241810309 0.2277945527495123 0 0.37413624613917112 0.22277425424305489 0 0.37141198828750321 0.21909524466324601 0 0.37713144353006262 0.21951947974540309 0 0.37361582241810309 0.2277945527495123 0 0.3613918287148376 0.2338806100720541 0 0.37414468696369518 0.2375151546512346 0 0.36719888111489901 0.22433948176982249 0 0.37361582241810309 0.2277945527495123 0 0.3613918287148376 0.2338806100720541 0 0.36085528730661842 0.2263184668023884 0 0.36719888111489901 0.22433948176982249 0 0.3613918287148376 0.2338806100720541 0 0.36566976062550771 0.2514334186846684 0 0.3613918287148376 0.2338806100720541 0 0.37414468696369518 0.2375151546512346 0 0.36566976062550771 0.2514334186846684 0 0.37414468696369518 0.2375151546512346 0 0.36566976062550771 0.2514334186846684 0 0.37414468696369518 0.2375151546512346 0 0.38052541078862723 0.24829953749785871 0 0.36566976062550771 0.2514334186846684 0 0.35042462279544723 0.24205509262445721 0 0.36566976062550771 0.2514334186846684 0 0.3613918287148376 0.2338806100720541 0 0.35042462279544723 0.24205509262445721 0 0.34798290122279463 0.23305754150891889 0 0.3613918287148376 0.2338806100720541 0 0.35042462279544723 0.24205509262445721 0 0.34798290122279463 0.23305754150891889 0 0.35042462279544723 0.24205509262445721 0 0.33854196852772928 0.23474525997973869 0 0.35042462279544723 0.24205509262445721 0 0.33854196852772928 0.23474525997973869 0 0.34798290122279463 0.23305754150891889 0 0.35042462279544723 0.24205509262445721 0 0.33414562681144683 0.1221961206264181 0 0.33340205856801131 0.1497117214039223 0 0.35364324570762867 0.13134756412408119 0 0.33414562681144683 0.1221961206264181 0 0.33340205856801131 0.1497117214039223 0 0.32161705984599981 0.1334097914584319 0 0.33414562681144683 0.1221961206264181 0 0.33340205856801131 0.1497117214039223 0 0.31612369212307861 0.1168460110343051 0 0.30758450129370812 0.13366877386987541 0 0.32161705984599981 0.1334097914584319 0 0.30758450129370812 0.13366877386987541 0 0.32161705984599981 0.1334097914584319 0 0.31769437945268231 0.14700023009031171 0 0.30645834228082358 0.15530303357107539 0 0.31769437945268231 0.14700023009031171 0 0.32081325776788733 0.16432187562446909 0 0.33340205856801131 0.1497117214039223 0 0.32161705984599981 0.1334097914584319 0 0.31769437945268231 0.14700023009031171 0 0.33340205856801131 0.1497117214039223 0 0.31769437945268231 0.14700023009031171 0 0.32081325776788733 0.16432187562446909 0 0.30579797968783501 0.17615097038686151 0 0.32081325776788733 0.16432187562446909 0 0.32288753223063082 0.1819104082915641 0 0.30579797968783501 0.17615097038686151 0 0.31428034740318989 0.19764045568352739 0 0.32288753223063082 0.1819104082915641 0 0.32081325776788733 0.16432187562446909 0 0.32288753223063082 0.1819104082915641 0 0.33817318356884152 0.17366742015089559 0 0.3344407510884011 0.19339637990769851 0 0.33817318356884152 0.17366742015089559 0 0.34985097480335109 0.1858618716386955 0 0.3344407510884011 0.19339637990769851 0 0.32288753223063082 0.1819104082915641 0 0.33817318356884152 0.17366742015089559 0 0.33340205856801131 0.1497117214039223 0 0.32081325776788733 0.16432187562446909 0 0.33817318356884152 0.17366742015089559 0 0.33340205856801131 0.1497117214039223 0 0.33817318356884152 0.17366742015089559 0 0.35009384657966353 0.16135745924078901 0 0.33817318356884152 0.17366742015089559 0 0.35009384657966353 0.16135745924078901 0 0.36263167296339183 0.1732573632151681 0 0.33817318356884152 0.17366742015089559 0 0.34985097480335109 0.1858618716386955 0 0.36263167296339183 0.1732573632151681 0 0.36263167296339183 0.1732573632151681 0 0.37986472803833621 0.16473589871120559 0 0.38238487797128612 0.17826561151300691 0 0.34985097480335109 0.1858618716386955 0 0.36263167296339183 0.1732573632151681 0 0.36861041777666043 0.1870512735084518 0 0.36263167296339183 0.1732573632151681 0 0.36861041777666043 0.1870512735084518 0 0.38238487797128612 0.17826561151300691 0 0.36263167296339183 0.1732573632151681 0 0.36710246058100332 0.1613775667402583 0 0.37986472803833621 0.16473589871120559 0 0.35009384657966353 0.16135745924078901 0 0.36710246058100332 0.1613775667402583 0 0.36302027103400342 0.14968108626166471 0 0.35009384657966353 0.16135745924078901 0 0.36263167296339183 0.1732573632151681 0 0.36710246058100332 0.1613775667402583 0 0.36710246058100332 0.1613775667402583 0 0.3747963480420754 0.15091761685116489 0 0.37986472803833621 0.16473589871120559 0 0.36710246058100332 0.1613775667402583 0 0.3747963480420754 0.15091761685116489 0 0.36302027103400342 0.14968108626166471 0 0.3747963480420754 0.15091761685116489 0 0.36302027103400342 0.14968108626166471 0 0.36933503490562097 0.13940677471245869 0 0.33340205856801131 0.1497117214039223 0 0.36302027103400342 0.14968108626166471 0 0.35364324570762867 0.13134756412408119 0 0.33340205856801131 0.1497117214039223 0 0.35009384657966353 0.16135745924078901 0 0.36302027103400342 0.14968108626166471 0 0.36302027103400342 0.14968108626166471 0 0.35364324570762867 0.13134756412408119 0 0.36302027103400342 0.14968108626166471 0 0.35364324570762867 0.13134756412408119 0 0.36933503490562097 0.13940677471245869 0 0.35364324570762867 0.13134756412408119 0 0.36933503490562097 0.13940677471245869 0 0.37155438552144998 0.1279060582428837 0 0.36933503490562097 0.13940677471245869 0 0.37155438552144998 0.1279060582428837 0 0.38103432819402161 0.13806048732748011 0 0.37155438552144998 0.1279060582428837 0 0.38103432819402161 0.13806048732748011 0 0.38396313478627958 0.12762814536926789 0 0.38103432819402161 0.13806048732748011 0 0.38396313478627958 0.12762814536926789 0 0.39400896125691798 0.1361857684872777 0 0.38396313478627958 0.12762814536926789 0 0.39203260045468802 0.12757650340287921 0 0.38853520789213453 0.1206241338259607 0 0.38396313478627958 0.12762814536926789 0 0.39203260045468802 0.12757650340287921 0 0.39400896125691798 0.1361857684872777 0 0.39203260045468802 0.12757650340287921 0 0.39764262794136268 0.13061483814974159 0 0.39400896125691798 0.1361857684872777 0 0.39203260045468802 0.12757650340287921 0 0.39746132602578399 0.1273203730327451 0 0.39764262794136268 0.13061483814974159 0 0.39203260045468802 0.12757650340287921 0 0.39746132602578399 0.1273203730327451 0 0.3959263065393997 0.1230611111046948 0 0.39400896125691798 0.1361857684872777 0 0.40371170495811559 0.13328530276069769 0 0.40606239904654401 0.14076346290639971 0 0.39764262794136268 0.13061483814974159 0 0.39400896125691798 0.1361857684872777 0 0.40371170495811559 0.13328530276069769 0 0.39746132602578399 0.1273203730327451 0 0.40424376916768529 0.12802903947366481 0 0.3959263065393997 0.1230611111046948 0 0.40371170495811559 0.13328530276069769 0 0.40424376916768529 0.12802903947366481 0 0.40836841856006129 0.12948521485697109 0 0.40424376916768529 0.12802903947366481 0 0.40769675716243142 0.12503741342449259 0 0.40313626129021812 0.12297936307423479 0 0.39746132602578399 0.1273203730327451 0 0.39764262794136268 0.13061483814974159 0 0.40424376916768529 0.12802903947366481 0 0.39764262794136268 0.13061483814974159 0 0.40371170495811559 0.13328530276069769 0 0.40424376916768529 0.12802903947366481 0 0.39879280624223101 0.1492664936096692 0 0.40556058708462539 0.1577227212091489 0 0.41117754126835721 0.14923565375977721 0 0.39400896125691798 0.1361857684872777 0 0.39879280624223101 0.1492664936096692 0 0.40606239904654401 0.14076346290639971 0 0.39879280624223101 0.1492664936096692 0 0.40606239904654401 0.14076346290639971 0 0.41117754126835721 0.14923565375977721 0 0.39400896125691798 0.1361857684872777 0 0.39879280624223101 0.1492664936096692 0 0.38735763294789499 0.15079838539115131 0 0.39879280624223101 0.1492664936096692 0 0.38735763294789499 0.15079838539115131 0 0.39422266479940549 0.16384768566893909 0 0.38103432819402161 0.13806048732748011 0 0.39400896125691798 0.1361857684872777 0 0.38735763294789499 0.15079838539115131 0 0.3747963480420754 0.15091761685116489 0 0.36933503490562097 0.13940677471245869 0 0.38103432819402161 0.13806048732748011 0 0.3747963480420754 0.15091761685116489 0 0.38103432819402161 0.13806048732748011 0 0.38735763294789499 0.15079838539115131 0 0.3747963480420754 0.15091761685116489 0 0.38735763294789499 0.15079838539115131 0 0.37986472803833621 0.16473589871120559 0 0.37986472803833621 0.16473589871120559 0 0.38238487797128612 0.17826561151300691 0 0.39422266479940549 0.16384768566893909 0 0.38735763294789499 0.15079838539115131 0 0.37986472803833621 0.16473589871120559 0 0.39422266479940549 0.16384768566893909 0 0.36861041777666043 0.1870512735084518 0 0.38238487797128612 0.17826561151300691 0 0.38053227584765431 0.19016301222305351 0 0.38238487797128612 0.17826561151300691 0 0.38053227584765431 0.19016301222305351 0 0.3938025083661868 0.1916661047533843 0 0.38238487797128612 0.17826561151300691 0 0.39702987800736822 0.177137942510846 0 0.3938025083661868 0.1916661047533843 0 0.38238487797128612 0.17826561151300691 0 0.39702987800736822 0.177137942510846 0 0.39422266479940549 0.16384768566893909 0 0.39702987800736822 0.177137942510846 0 0.40695587345690049 0.16991751859103479 0 0.40684796025651643 0.1813147020506351 0 0.39702987800736822 0.177137942510846 0 0.40684796025651643 0.1813147020506351 0 0.3938025083661868 0.1916661047533843 0 0.39702987800736822 0.177137942510846 0 0.39422266479940549 0.16384768566893909 0 0.40695587345690049 0.16991751859103479 0 0.39422266479940549 0.16384768566893909 0 0.40556058708462539 0.1577227212091489 0 0.40695587345690049 0.16991751859103479 0 0.39879280624223101 0.1492664936096692 0 0.39422266479940549 0.16384768566893909 0 0.40556058708462539 0.1577227212091489 0 0.40695587345690049 0.16991751859103479 0 0.41866965560462388 0.17705231919419789 0 0.4221695084045502 0.15695034020035989 0 0.40556058708462539 0.1577227212091489 0 0.40695587345690049 0.16991751859103479 0 0.4221695084045502 0.15695034020035989 0 0.40684796025651643 0.1813147020506351 0 0.41866965560462388 0.17705231919419789 0 0.41460780154100291 0.19346088138744211 0 0.40695587345690049 0.16991751859103479 0 0.40684796025651643 0.1813147020506351 0 0.41866965560462388 0.17705231919419789 0 0.43432904667462291 0.1682904666940469 0 0.42520162646622828 0.19256676680955001 0 0.41866965560462388 0.17705231919419789 0 0.43432904667462291 0.1682904666940469 0 0.42520162646622828 0.19256676680955001 0 0.43742994246387762 0.18380664699281921 0 0.43432904667462291 0.1682904666940469 0 0.42520162646622828 0.19256676680955001 0 0.4221695084045502 0.15695034020035989 0 0.43432904667462291 0.1682904666940469 0 0.42884843649854659 0.14553045833657399 0 0.41866965560462388 0.17705231919419789 0 0.4221695084045502 0.15695034020035989 0 0.43432904667462291 0.1682904666940469 0 0.43432904667462291 0.1682904666940469 0 0.42884843649854659 0.14553045833657399 0 0.44345646688301832 0.14401416657854421 0 0.4221695084045502 0.15695034020035989 0 0.42884843649854659 0.14553045833657399 0 0.41767973468677871 0.14201960181832551 0 0.42884843649854659 0.14553045833657399 0 0.43145954274652931 0.12708311344831599 0 0.42092627644285091 0.1331476755042357 0 0.43145954274652931 0.12708311344831599 0 0.44345646688301832 0.14401416657854421 0 0.42884843649854659 0.14553045833657399 0 0.43145954274652931 0.12708311344831599 0 0.44345646688301832 0.14401416657854421 0 0.43145954274652931 0.12708311344831599 0 0.42092627644285091 0.1331476755042357 0 0.42127546188908221 0.1239960411161859 0 0.42884843649854659 0.14553045833657399 0 0.42092627644285091 0.1331476755042357 0 0.41767973468677871 0.14201960181832551 0 0.42092627644285091 0.1331476755042357 0 0.41151428475924429 0.13432144044462291 0 0.41767973468677871 0.14201960181832551 0 0.42092627644285091 0.1331476755042357 0 0.41478019807692418 0.12593539786138999 0 0.41151428475924429 0.13432144044462291 0 0.42092627644285091 0.1331476755042357 0 0.41478019807692418 0.12593539786138999 0 0.42127546188908221 0.1239960411161859 0 0.41478019807692418 0.12593539786138999 0 0.40836841856006129 0.12948521485697109 0 0.41151428475924429 0.13432144044462291 0 0.41478019807692418 0.12593539786138999 0 0.40836841856006129 0.12948521485697109 0 0.40769675716243142 0.12503741342449259 0 0.40371170495811559 0.13328530276069769 0 0.40836841856006129 0.12948521485697109 0 0.41151428475924429 0.13432144044462291 0 0.40424376916768529 0.12802903947366481 0 0.40836841856006129 0.12948521485697109 0 0.40769675716243142 0.12503741342449259 0 0.40606239904654401 0.14076346290639971 0 0.41151428475924429 0.13432144044462291 0 0.41767973468677871 0.14201960181832551 0 0.40371170495811559 0.13328530276069769 0 0.40606239904654401 0.14076346290639971 0 0.41151428475924429 0.13432144044462291 0 0.40556058708462539 0.1577227212091489 0 0.4221695084045502 0.15695034020035989 0 0.41117754126835721 0.14923565375977721 0 0.40606239904654401 0.14076346290639971 0 0.41117754126835721 0.14923565375977721 0 0.41767973468677871 0.14201960181832551 0 0.4221695084045502 0.15695034020035989 0 0.41117754126835721 0.14923565375977721 0 0.41767973468677871 0.14201960181832551 0 0.39977963730110577 0.25154022270667931 0 0.38904644684881928 0.24132625952220091 0 0.40723849349124719 0.2326046048757095 0 0.39977963730110577 0.25154022270667931 0 0.38997083924636128 0.2544011467839245 0 0.38904644684881928 0.24132625952220091 0 0.38997083924636128 0.2544011467839245 0 0.38052541078862723 0.24829953749785871 0 0.38904644684881928 0.24132625952220091 0 0.37414468696369518 0.2375151546512346 0 0.38052541078862723 0.24829953749785871 0 0.38904644684881928 0.24132625952220091 0 0.37414468696369518 0.2375151546512346 0 0.38904644684881928 0.24132625952220091 0 0.38261961330187982 0.22359689061779919 0 0.37361582241810309 0.2277945527495123 0 0.37414468696369518 0.2375151546512346 0 0.38261961330187982 0.22359689061779919 0 0.37414468696369518 0.2375151546512346 0 0.38261961330187982 0.22359689061779919 0 0.37413624613917112 0.22277425424305489 0 0.38261961330187982 0.22359689061779919 0 0.37713144353006262 0.21951947974540309 0 0.37413624613917112 0.22277425424305489 0 0.37361582241810309 0.2277945527495123 0 0.38261961330187982 0.22359689061779919 0 0.38261961330187982 0.22359689061779919 0 0.37713144353006262 0.21951947974540309 0 0.38062434040775872 0.2151158152384112 0 0.38261961330187982 0.22359689061779919 0 0.40339775823647972 0.21734219459125079 0 0.40723849349124719 0.2326046048757095 0 0.38904644684881928 0.24132625952220091 0 0.38261961330187982 0.22359689061779919 0 0.40723849349124719 0.2326046048757095 0 0.38261961330187982 0.22359689061779919 0 0.40723849349124719 0.2326046048757095 0 0.38261961330187982 0.22359689061779919 0 0.40339775823647972 0.21734219459125079 0 0.39162913623957141 0.2088006653695508 0 0.40339775823647972 0.21734219459125079 0 0.39162913623957141 0.2088006653695508 0 0.40336291443599548 0.20205661338301309 0 0.38261961330187982 0.22359689061779919 0 0.39162913623957141 0.2088006653695508 0 0.38062434040775872 0.2151158152384112 0 0.38261961330187982 0.22359689061779919 0 0.39162913623957141 0.2088006653695508 0 0.37353132084991841 0.20909636526528061 0 0.37378978781423788 0.21535935166171941 0 0.38062434040775872 0.2151158152384112 0 0.37378978781423788 0.21535935166171941 0 0.37713144353006262 0.21951947974540309 0 0.38062434040775872 0.2151158152384112 0 0.37353132084991841 0.20909636526528061 0 0.38062434040775872 0.2151158152384112 0 0.38208577601370691 0.2022669019466761 0 0.37239507437115182 0.19875944883037641 0 0.37353132084991841 0.20909636526528061 0 0.38208577601370691 0.2022669019466761 0 0.39162913623957141 0.2088006653695508 0 0.38062434040775872 0.2151158152384112 0 0.38208577601370691 0.2022669019466761 0 0.39162913623957141 0.2088006653695508 0 0.38208577601370691 0.2022669019466761 0 0.3938025083661868 0.1916661047533843 0 0.37239507437115182 0.19875944883037641 0 0.38208577601370691 0.2022669019466761 0 0.38053227584765431 0.19016301222305351 0 0.38208577601370691 0.2022669019466761 0 0.38053227584765431 0.19016301222305351 0 0.3938025083661868 0.1916661047533843 0 0.39162913623957141 0.2088006653695508 0 0.3938025083661868 0.1916661047533843 0 0.40336291443599548 0.20205661338301309 0 0.40684796025651643 0.1813147020506351 0 0.3938025083661868 0.1916661047533843 0 0.40560490095570401 0.1915511132540422 0 0.3938025083661868 0.1916661047533843 0 0.40336291443599548 0.20205661338301309 0 0.40560490095570401 0.1915511132540422 0 0.41866965560462388 0.17705231919419789 0 0.41460780154100291 0.19346088138744211 0 0.42520162646622828 0.19256676680955001 0 0.40684796025651643 0.1813147020506351 0 0.40560490095570401 0.1915511132540422 0 0.41460780154100291 0.19346088138744211 0 0.40336291443599548 0.20205661338301309 0 0.40560490095570401 0.1915511132540422 0 0.41460780154100291 0.19346088138744211 0 0.40336291443599548 0.20205661338301309 0 0.41460780154100291 0.19346088138744211 0 0.41483310281661923 0.20789706589109661 0 0.41460780154100291 0.19346088138744211 0 0.42286366008493681 0.20094885619986949 0 0.41483310281661923 0.20789706589109661 0 0.41460780154100291 0.19346088138744211 0 0.42520162646622828 0.19256676680955001 0 0.42286366008493681 0.20094885619986949 0 0.42520162646622828 0.19256676680955001 0 0.43451639964067329 0.19212502583999599 0 0.43096123480844978 0.20042782406414991 0 0.43742994246387762 0.18380664699281921 0 0.42520162646622828 0.19256676680955001 0 0.43451639964067329 0.19212502583999599 0 0.43451639964067329 0.19212502583999599 0 0.43096123480844978 0.20042782406414991 0 0.4462741648104297 0.19427178730614869 0 0.42520162646622828 0.19256676680955001 0 0.43096123480844978 0.20042782406414991 0 0.42286366008493681 0.20094885619986949 0 0.43096123480844978 0.20042782406414991 0 0.42286366008493681 0.20094885619986949 0 0.42728830194914802 0.20907629078970241 0 0.43096123480844978 0.20042782406414991 0 0.42728830194914802 0.20907629078970241 0 0.44174388208685311 0.20965339813639899 0 0.42728830194914802 0.20907629078970241 0 0.4279650748400306 0.2199515139935366 0 0.44174388208685311 0.20965339813639899 0 0.42728830194914802 0.20907629078970241 0 0.41483310281661923 0.20789706589109661 0 0.4279650748400306 0.2199515139935366 0 0.40339775823647972 0.21734219459125079 0 0.41483310281661923 0.20789706589109661 0 0.4279650748400306 0.2199515139935366 0 0.42286366008493681 0.20094885619986949 0 0.42728830194914802 0.20907629078970241 0 0.41483310281661923 0.20789706589109661 0 0.40339775823647972 0.21734219459125079 0 0.40336291443599548 0.20205661338301309 0 0.41483310281661923 0.20789706589109661 0 0.40339775823647972 0.21734219459125079 0 0.40723849349124719 0.2326046048757095 0 0.4279650748400306 0.2199515139935366 0 0.40723849349124719 0.2326046048757095 0 0.4279650748400306 0.2199515139935366 0 0.43185737368061472 0.2416123191336198 0 0.4279650748400306 0.2199515139935366 0 0.43185737368061472 0.2416123191336198 0 0.44733283965934778 0.22382980342559419 0 0.40723849349124719 0.2326046048757095 0 0.43185737368061472 0.2416123191336198 0 0.41519011662213018 0.25621305437172082 0 0.40723849349124719 0.2326046048757095 0 0.43185737368061472 0.2416123191336198 0 0.39977963730110577 0.25154022270667931 0 0.41519011662213018 0.25621305437172082 0 0.40723849349124719 0.2326046048757095 0 0.45647625386998181 0.25062003339153083 0 0.46625783612658889 0.2400068751657814 0 0.45647625386998181 0.25062003339153083 0 0.4676162735583666 0.25469601545930087 0 0.46625783612658889 0.2400068751657814 0 0.45647625386998181 0.25062003339153083 0 0.46625783612658889 0.2400068751657814 0 0.45215026876237607 0.23649731441151489 0 0.45647625386998181 0.25062003339153083 0 0.43185737368061472 0.2416123191336198 0 0.45647625386998181 0.25062003339153083 0 0.43185737368061472 0.2416123191336198 0 0.45215026876237607 0.23649731441151489 0 0.43185737368061472 0.2416123191336198 0 0.45215026876237607 0.23649731441151489 0 0.44733283965934778 0.22382980342559419 0 0.44733283965934778 0.22382980342559419 0 0.46087575747175308 0.22590066008256349 0 0.46695715396198978 0.21076863194994769 0 0.46087575747175308 0.22590066008256349 0 0.46695715396198978 0.21076863194994769 0 0.47232721311157277 0.2334215133517471 0 0.45215026876237607 0.23649731441151489 0 0.44733283965934778 0.22382980342559419 0 0.46087575747175308 0.22590066008256349 0 0.46625783612658889 0.2400068751657814 0 0.45215026876237607 0.23649731441151489 0 0.46087575747175308 0.22590066008256349 0 0.46625783612658889 0.2400068751657814 0 0.46087575747175308 0.22590066008256349 0 0.47232721311157277 0.2334215133517471 0 0.44733283965934778 0.22382980342559419 0 0.46695715396198978 0.21076863194994769 0 0.44174388208685311 0.20965339813639899 0 0.46695715396198978 0.21076863194994769 0 0.44174388208685311 0.20965339813639899 0 0.4462741648104297 0.19427178730614869 0 0.4279650748400306 0.2199515139935366 0 0.44733283965934778 0.22382980342559419 0 0.44174388208685311 0.20965339813639899 0 0.43096123480844978 0.20042782406414991 0 0.4462741648104297 0.19427178730614869 0 0.43096123480844978 0.20042782406414991 0 0.44174388208685311 0.20965339813639899 0 0.4462741648104297 0.19427178730614869 0 0.43742994246387762 0.18380664699281921 0 0.43451639964067329 0.19212502583999599 0 0.4462741648104297 0.19427178730614869 0 0.46695715396198978 0.21076863194994769 0 0.4462741648104297 0.19427178730614869 0 0.46158709481240962 0.18811575054814761 0 0.4462741648104297 0.19427178730614869 0 0.46158709481240962 0.18811575054814761 0 0.46695715396198978 0.21076863194994769 0 0.46158709481240962 0.18811575054814761 0 0.46695715396198978 0.21076863194994769 0 0.46158709481240962 0.18811575054814761 0 0.48258356712273193 0.19818640941457841 0 0.46158709481240962 0.18811575054814761 0 0.48258356712273193 0.19818640941457841 0 0.48079354740620428 0.18039445696534381 0 0.48258356712273193 0.19818640941457841 0 0.5 0.18803465135549161 0 0.48079354740620428 0.18039445696534381 0 0.48258356712273193 0.19818640941457841 0 0.5 0.18803465135549161 0 0.49999999999999978 0.20339613932844269 0 0.48258356712273193 0.19818640941457841 0 0.49999999999999978 0.20339613932844269 0 0.48616360655578872 0.21840882634009709 0 0.49999999999999978 0.20339613932844269 0 0.48616360655578872 0.21840882634009709 0 0.5 0.22754734138169699 0 0.49999999999999978 0.20339613932844269 0 0.48616360655578872 0.21840882634009709 0 0.46695715396198978 0.21076863194994769 0 0.48258356712273193 0.19818640941457841 0 0.48616360655578872 0.21840882634009709 0 0.46695715396198978 0.21076863194994769 0 0.47232721311157277 0.2334215133517471 0 0.46695715396198978 0.21076863194994769 0 0.48616360655578872 0.21840882634009709 0 0.47232721311157277 0.2334215133517471 0 0.48616360655578872 0.21840882634009709 0 0.47232721311157277 0.2334215133517471 0 0.48769723956875399 0.23770925833002279 0 0.48616360655578872 0.21840882634009709 0 0.47232721311157277 0.2334215133517471 0 0.48616360655578872 0.21840882634009709 0 0.5 0.22754734138169699 0 0.48769723956875399 0.23770925833002279 0 0.5 0.25169854343495118 0 0.48769723956875399 0.23770925833002279 0 0.47588751982959471 0.24844019444835849 0 0.5 0.25169854343495118 0 0.5 0.22754734138169699 0 0.48769723956875399 0.23770925833002279 0 0.47232721311157277 0.2334215133517471 0 0.48769723956875399 0.23770925833002279 0 0.47588751982959471 0.24844019444835849 0 0.46625783612658889 0.2400068751657814 0 0.47232721311157277 0.2334215133517471 0 0.47588751982959471 0.24844019444835849 0 0.47232721311157277 0.2334215133517471 0 0.47588751982959471 0.24844019444835849 0 0.46625783612658889 0.2400068751657814 0 0.47232721311157277 0.2334215133517471 0 0.46479813108120183 0.14244981695825459 0 0.44816418628133547 0.1314929934142163 0 0.45499158946715779 0.16029348710385699 0 0.46479813108120183 0.14244981695825459 0 0.45499158946715779 0.16029348710385699 0 0.47860036964801639 0.15377651366335571 0 0.46479813108120183 0.14244981695825459 0 0.46314399697609537 0.12536843352725249 0 0.47785371706908242 0.12964547793928791 0 0.46479813108120183 0.14244981695825459 0 0.46314399697609537 0.12536843352725249 0 0.44816418628133547 0.1314929934142163 0 0.44816418628133547 0.1314929934142163 0 0.44345646688301832 0.14401416657854421 0 0.43145954274652931 0.12708311344831599 0 0.44816418628133547 0.1314929934142163 0 0.44345646688301832 0.14401416657854421 0 0.43432904667462291 0.1682904666940469 0 0.44345646688301832 0.14401416657854421 0 0.44816418628133547 0.1314929934142163 0 0.45499158946715779 0.16029348710385699 0 0.44816418628133547 0.1314929934142163 0 0.44345646688301832 0.14401416657854421 0 0.45499158946715779 0.16029348710385699 0 0.44345646688301832 0.14401416657854421 0 0.45499158946715779 0.16029348710385699 0 0.43432904667462291 0.1682904666940469 0 0.44345646688301832 0.14401416657854421 0 0.45499158946715779 0.16029348710385699 0 0.43432904667462291 0.1682904666940469 0 0.44692236764569909 0.178955627729004 0 0.45499158946715779 0.16029348710385699 0 0.43742994246387762 0.18380664699281921 0 0.4462741648104297 0.19427178730614869 0 0.44692236764569909 0.178955627729004 0 0.43742994246387762 0.18380664699281921 0 0.43432904667462291 0.1682904666940469 0 0.44692236764569909 0.178955627729004 0 0.4462741648104297 0.19427178730614869 0 0.46158709481240962 0.18811575054814761 0 0.44692236764569909 0.178955627729004 0 0.46158709481240962 0.18811575054814761 0 0.44692236764569909 0.178955627729004 0 0.45499158946715779 0.16029348710385699 0 0.46158709481240962 0.18811575054814761 0 0.45499158946715779 0.16029348710385699 0 0.46158709481240962 0.18811575054814761 0 0.46642527495685449 0.1764296511987429 0 0.45499158946715779 0.16029348710385699 0 0.46642527495685449 0.1764296511987429 0 0.45499158946715779 0.16029348710385699 0 0.46642527495685449 0.1764296511987429 0 0.45499158946715779 0.16029348710385699 0 0.47616215629564579 0.16871345446276809 0 0.45499158946715779 0.16029348710385699 0 0.47616215629564579 0.16871345446276809 0 0.47860036964801639 0.15377651366335571 0 0.46158709481240962 0.18811575054814761 0 0.48079354740620428 0.18039445696534381 0 0.46158709481240962 0.18811575054814761 0 0.46642527495685449 0.1764296511987429 0 0.48079354740620428 0.18039445696534381 0 0.46642527495685449 0.1764296511987429 0 0.47616215629564579 0.16871345446276809 0 0.48079354740620428 0.18039445696534381 0 0.5 0.18803465135549161 0 0.48079354740620428 0.18039445696534381 0 0.49999999999999928 0.17267316338254049 0 0.48079354740620428 0.18039445696534381 0 0.49999999999999928 0.17267316338254049 0 0.47616215629564579 0.16871345446276809 0 0.48079354740620428 0.18039445696534381 0 0.49999999999999928 0.17267316338254049 0 0.49999999999999928 0.17267316338254049 0 0.5 0.14623476749186401 0 0.47860036964801639 0.15377651366335571 0 0.47616215629564579 0.16871345446276809 0 0.49999999999999928 0.17267316338254049 0 0.47860036964801639 0.15377651366335571 0 0.5 0.14623476749186401 0 0.47860036964801639 0.15377651366335571 0 0.47785371706908242 0.12964547793928791 0 0.46479813108120183 0.14244981695825459 0 0.47860036964801639 0.15377651366335571 0 0.47785371706908242 0.12964547793928791 0 0.5 0.14623476749186401 0 0.47785371706908242 0.12964547793928791 0 0.5 0.1197963716011876 0 0.47785371706908242 0.12964547793928791 0 0.5 0.1197963716011876 0 0.4814488261822345 0.1069292723707706 0 0.4814488261822345 0.1069292723707706 0 0.5 0.093357975710511187 0 0.47557581581983988 0.085004492748098431 0 0.5 0.1197963716011876 0 0.4814488261822345 0.1069292723707706 0 0.5 0.093357975710511187 0 0.4814488261822345 0.1069292723707706 0 0.46876657895733842 0.1141416279563725 0 0.465153511077607 0.098732259005410952 0 0.4814488261822345 0.1069292723707706 0 0.47557581581983988 0.085004492748098431 0 0.465153511077607 0.098732259005410952 0 0.47785371706908242 0.12964547793928791 0 0.4814488261822345 0.1069292723707706 0 0.46876657895733842 0.1141416279563725 0 0.46314399697609537 0.12536843352725249 0 0.47785371706908242 0.12964547793928791 0 0.46876657895733842 0.1141416279563725 0 0.5 0.066919579819834762 0 0.48593516698936878 0.073408451459184648 0 0.5 0.093357975710511187 0 0.5 0.066919579819834762 0 0.48593516698936878 0.073408451459184648 0 0.48213020129837919 0.054851398054295793 0 0.48593516698936878 0.073408451459184648 0 0.5 0.093357975710511187 0 0.47557581581983988 0.085004492748098431 0 0.48593516698936878 0.073408451459184648 0 0.47557581581983988 0.085004492748098431 0 0.47196981782862518 0.066908810963183102 0 0.48593516698936878 0.073408451459184648 0 0.47196981782862518 0.066908810963183102 0 0.48213020129837919 0.054851398054295793 0 0.47557581581983988 0.085004492748098431 0 0.47196981782862518 0.066908810963183102 0 0.46281269049019852 0.074272470107078672 0 0.46281269049019852 0.074272470107078672 0 0.44827483166113441 0.07370084363903201 0 0.45889923475422101 0.060259584595689773 0 0.44827483166113441 0.07370084363903201 0 0.45889923475422101 0.060259584595689773 0 0.47196981782862518 0.066908810963183102 0 0.46281269049019852 0.074272470107078672 0 0.45889923475422101 0.060259584595689773 0 0.46281269049019852 0.074272470107078672 0 0.45577316065726797 0.081005273748295067 0 0.44827483166113441 0.07370084363903201 0 0.45577316065726797 0.081005273748295067 0 0.45562426068332101 0.091018869660116269 0 0.44891901392742178 0.085116427490637692 0 0.46281269049019852 0.074272470107078672 0 0.45577316065726797 0.081005273748295067 0 0.46330790101669628 0.085554106762637624 0 0.45577316065726797 0.081005273748295067 0 0.46330790101669628 0.085554106762637624 0 0.45562426068332101 0.091018869660116269 0 0.47557581581983988 0.085004492748098431 0 0.46281269049019852 0.074272470107078672 0 0.46330790101669628 0.085554106762637624 0 0.47557581581983988 0.085004492748098431 0 0.46330790101669628 0.085554106762637624 0 0.465153511077607 0.098732259005410952 0 0.46330790101669628 0.085554106762637624 0 0.45562426068332101 0.091018869660116269 0 0.465153511077607 0.098732259005410952 0 0.45562426068332101 0.091018869660116269 0 0.44891901392742178 0.085116427490637692 0 0.44770885190236381 0.094467514318431256 0 0.43765042856804831 0.087142102682374739 0 0.44891901392742178 0.085116427490637692 0 0.44770885190236381 0.094467514318431256 0 0.43765042856804831 0.087142102682374739 0 0.44827483166113441 0.07370084363903201 0 0.43765042856804831 0.087142102682374739 0 0.44891901392742178 0.085116427490637692 0 0.44827483166113441 0.07370084363903201 0 0.43765042856804831 0.087142102682374739 0 0.44827483166113441 0.07370084363903201 0 0.43539594683224497 0.077631870865331354 0 0.45577316065726797 0.081005273748295067 0 0.44891901392742178 0.085116427490637692 0 0.44827483166113441 0.07370084363903201 0 0.44695026706617319 0.064332940704960845 0 0.43539594683224497 0.077631870865331354 0 0.43110958951022171 0.05955044171215168 0 0.44827483166113441 0.07370084363903201 0 0.44695026706617319 0.064332940704960845 0 0.43539594683224497 0.077631870865331354 0 0.44695026706617319 0.064332940704960845 0 0.43539594683224497 0.077631870865331354 0 0.44827483166113441 0.07370084363903201 0 0.44695026706617319 0.064332940704960845 0 0.45889923475422101 0.060259584595689773 0 0.46314399697609537 0.12536843352725249 0 0.44816418628133547 0.1314929934142163 0 0.45623284348167259 0.1100326969391406 0 0.46314399697609537 0.12536843352725249 0 0.46876657895733842 0.1141416279563725 0 0.45623284348167259 0.1100326969391406 0 0.46876657895733842 0.1141416279563725 0 0.45623284348167259 0.1100326969391406 0 0.465153511077607 0.098732259005410952 0 0.45562426068332101 0.091018869660116269 0 0.465153511077607 0.098732259005410952 0 0.45441379021468431 0.10049660789965389 0 0.45623284348167259 0.1100326969391406 0 0.465153511077607 0.098732259005410952 0 0.45441379021468431 0.10049660789965389 0 0.43765042856804831 0.087142102682374739 0 0.44770885190236381 0.094467514318431256 0 0.44290730742469631 0.10931754804829449 0 0.45623284348167259 0.1100326969391406 0 0.45441379021468431 0.10049660789965389 0 0.44290730742469631 0.10931754804829449 0 0.43765042856804831 0.087142102682374739 0 0.44290730742469631 0.10931754804829449 0 0.45562426068332101 0.091018869660116269 0 0.45441379021468431 0.10049660789965389 0 0.44770885190236381 0.094467514318431256 0 0.45441379021468431 0.10049660789965389 0 0.44770885190236381 0.094467514318431256 0 0.44290730742469631 0.10931754804829449 0 0.44816418628133547 0.1314929934142163 0 0.45623284348167259 0.1100326969391406 0 0.44290730742469631 0.10931754804829449 0 0.43145954274652931 0.12708311344831599 0 0.44816418628133547 0.1314929934142163 0 0.44290730742469631 0.10931754804829449 0 0.44816418628133547 0.1314929934142163 0 0.45623284348167259 0.1100326969391406 0 0.44816418628133547 0.1314929934142163 0 0.44290730742469631 0.10931754804829449 0 0.43145954274652931 0.12708311344831599 0 0.42127546188908221 0.1239960411161859 0 0.4194626186100387 0.11015206031808911 0 0.43145954274652931 0.12708311344831599 0 0.44290730742469631 0.10931754804829449 0 0.4194626186100387 0.11015206031808911 0 0.43145954274652931 0.12708311344831599 0 0.4194626186100387 0.11015206031808911 0 0.41478019807692418 0.12593539786138999 0 0.40769675716243142 0.12503741342449259 0 0.4194626186100387 0.11015206031808911 0 0.4095056004195356 0.1143744472136678 0 0.41392806161386442 0.1023412350191705 0 0.39764319394935349 0.12108498743009501 0 0.41478019807692418 0.12593539786138999 0 0.42127546188908221 0.1239960411161859 0 0.4194626186100387 0.11015206031808911 0 0.40769675716243142 0.12503741342449259 0 0.4194626186100387 0.11015206031808911 0 0.4095056004195356 0.1143744472136678 0 0.40769675716243142 0.12503741342449259 0 0.4194626186100387 0.11015206031808911 0 0.40769675716243142 0.12503741342449259 0 0.4095056004195356 0.1143744472136678 0 0.40527525567517858 0.1204700199416486 0 0.4194626186100387 0.11015206031808911 0 0.41392806161386442 0.1023412350191705 0 0.42466200422305539 0.089986552942251608 0 0.4194626186100387 0.11015206031808911 0 0.4095056004195356 0.1143744472136678 0 0.41392806161386442 0.1023412350191705 0 0.4194626186100387 0.11015206031808911 0 0.41392806161386442 0.1023412350191705 0 0.41392806161386442 0.1023412350191705 0 0.42466200422305539 0.089986552942251608 0 0.43765042856804831 0.087142102682374739 0 0.4194626186100387 0.11015206031808911 0 0.42466200422305539 0.089986552942251608 0 0.43765042856804831 0.087142102682374739 0 0.4194626186100387 0.11015206031808911 0 0.43765042856804831 0.087142102682374739 0 0.44290730742469631 0.10931754804829449 0 0.4194626186100387 0.11015206031808911 0 0.42466200422305539 0.089986552942251608 0 0.42569731884150608 0.077301963232087503 0 0.41695892967624593 0.072453749966772507 0 0.43765042856804831 0.087142102682374739 0 0.43539594683224497 0.077631870865331354 0 0.43765042856804831 0.087142102682374739 0 0.42466200422305539 0.089986552942251608 0 0.43539594683224497 0.077631870865331354 0 0.42466200422305539 0.089986552942251608 0 0.43539594683224497 0.077631870865331354 0 0.42466200422305539 0.089986552942251608 0 0.43539594683224497 0.077631870865331354 0 0.42569731884150608 0.077301963232087503 0 0.43539594683224497 0.077631870865331354 0 0.43110958951022171 0.05955044171215168 0 0.43539594683224497 0.077631870865331354 0 0.42577239463447941 0.069135679153994295 0 0.43110958951022171 0.05955044171215168 0 0.42569731884150608 0.077301963232087503 0 0.42577239463447941 0.069135679153994295 0 0.41695892967624593 0.072453749966772507 0 0.43539594683224497 0.077631870865331354 0 0.42569731884150608 0.077301963232087503 0 0.42577239463447941 0.069135679153994295 0 0.42577239463447941 0.069135679153994295 0 0.41695892967624593 0.072453749966772507 0 0.41991281143554271 0.056181263279091433 0 0.41695892967624593 0.072453749966772507 0 0.39958533392809598 0.064542988380651978 0 0.40565765411195531 0.054126972936676662 0 0.41392806161386442 0.1023412350191705 0 0.42466200422305539 0.089986552942251608 0 0.39796542827080372 0.07981344454930614 0 0.42466200422305539 0.089986552942251608 0 0.41695892967624593 0.072453749966772507 0 0.39796542827080372 0.07981344454930614 0 0.41392806161386442 0.1023412350191705 0 0.39796542827080372 0.07981344454930614 0 0.39796542827080372 0.07981344454930614 0 0.39958533392809598 0.064542988380651978 0 0.38708095687609262 0.058259455191487473 0 0.41695892967624593 0.072453749966772507 0 0.39796542827080372 0.07981344454930614 0 0.39958533392809598 0.064542988380651978 0 0.39796542827080372 0.07981344454930614 0 0.38200279492775091 0.057285654079436213 0 0.3655493984813572 0.068117119886358615 0 0.37907796159537632 0.077976084497466847 0 0.38200279492775091 0.057285654079436213 0 0.39796542827080372 0.07981344454930614 0 0.38200279492775091 0.057285654079436213 0 0.38708095687609262 0.058259455191487473 0 0.39796542827080372 0.07981344454930614 0 0.37907796159537632 0.077976084497466847 0 0.38200279492775091 0.057285654079436213 0 0.39796542827080372 0.07981344454930614 0 0.37907796159537632 0.077976084497466847 0 0.3809701484213564 0.10354431983044771 0 0.3809701484213564 0.10354431983044771 0 0.37703018163666319 0.1169655376785344 0 0.38853520789213453 0.1206241338259607 0 0.3809701484213564 0.10354431983044771 0 0.39764319394935349 0.12108498743009501 0 0.3809701484213564 0.10354431983044771 0 0.38853520789213453 0.1206241338259607 0 0.39764319394935349 0.12108498743009501 0 0.37155438552144998 0.1279060582428837 0 0.38396313478627958 0.12762814536926789 0 0.37703018163666319 0.1169655376785344 0 0.38396313478627958 0.12762814536926789 0 0.37703018163666319 0.1169655376785344 0 0.38853520789213453 0.1206241338259607 0 0.41392806161386442 0.1023412350191705 0 0.39764319394935349 0.12108498743009501 0 0.38853520789213453 0.1206241338259607 0 0.39764319394935349 0.12108498743009501 0 0.3959263065393997 0.1230611111046948 0 0.39203260045468802 0.12757650340287921 0 0.38853520789213453 0.1206241338259607 0 0.3959263065393997 0.1230611111046948 0 0.39764319394935349 0.12108498743009501 0 0.3959263065393997 0.1230611111046948 0 0.4095056004195356 0.1143744472136678 0 0.39764319394935349 0.12108498743009501 0 0.40527525567517858 0.1204700199416486 0 0.40424376916768529 0.12802903947366481 0 0.39764319394935349 0.12108498743009501 0 0.3959263065393997 0.1230611111046948 0 0.39764319394935349 0.12108498743009501 0 0.40527525567517858 0.1204700199416486 0 0.40313626129021812 0.12297936307423479 0 0.40424376916768529 0.12802903947366481 0 0.39764319394935349 0.12108498743009501 0 0.40424376916768529 0.12802903947366481 0 0.39764319394935349 0.12108498743009501 0 0.40313626129021812 0.12297936307423479 0 0.40769675716243142 0.12503741342449259 0 0.40527525567517858 0.1204700199416486 0 0.40313626129021812 0.12297936307423479 0 0.3809701484213564 0.10354431983044771 0 0.39764319394935349 0.12108498743009501 0 0.39762670806384448 0.10169599670725479 0 0.39796542827080372 0.07981344454930614 0 0.3809701484213564 0.10354431983044771 0 0.39762670806384448 0.10169599670725479 0 0.41392806161386442 0.1023412350191705 0 0.39764319394935349 0.12108498743009501 0 0.39762670806384448 0.10169599670725479 0 0.41392806161386442 0.1023412350191705 0 0.39796542827080372 0.07981344454930614 0 0.39762670806384448 0.10169599670725479 0 0.40349847540936601 0.014984419008706579 0 0.3970612349209951 0.033150740924336917 0 0.41668856808841559 0.02398805172632509 0 0.40349847540936601 0.014984419008706579 0 0.38846481573003488 0.012174508911997161 0 0.3970612349209951 0.033150740924336917 0 0.38846481573003488 0.012174508911997161 0 0.3970612349209951 0.033150740924336917 0 0.40349847540936601 0.014984419008706579 0 0.38846481573003488 0.012174508911997161 0 0.40188217154941991 -0.0013514814532323721 0 0.38846481573003488 0.012174508911997161 0 0.40188217154941991 -0.0013514814532323721 0 0.390685480365905 -0.0036449975442120579 0 0.36909861384751302 0.0062369004923781089 0 0.38846481573003488 0.012174508911997161 0 0.38131243673512882 0.026001829024623439 0 0.38846481573003488 0.012174508911997161 0 0.37986839653907473 -0.0088017231003426274 0 0.36909861384751302 0.0062369004923781089 0 0.38846481573003488 0.012174508911997161 0 0.37986839653907473 -0.0088017231003426274 0 0.38846481573003488 0.012174508911997161 0 0.38131243673512882 0.026001829024623439 0 0.3970612349209951 0.033150740924336917 0 0.38131243673512882 0.026001829024623439 0 0.38597050546820671 0.043792363526486418 0 0.3970612349209951 0.033150740924336917 0 0.36596701370889417 0.034654631267918588 0 0.38597050546820671 0.043792363526486418 0 0.38200279492775091 0.057285654079436213 0 0.36596701370889417 0.034654631267918588 0 0.38131243673512882 0.026001829024623439 0 0.38597050546820671 0.043792363526486418 0 0.38597050546820671 0.043792363526486418 0 0.38708095687609262 0.058259455191487473 0 0.39507113706106922 0.050774504191927902 0 0.38597050546820671 0.043792363526486418 0 0.38200279492775091 0.057285654079436213 0 0.38708095687609262 0.058259455191487473 0 0.38200279492775091 0.057285654079436213 0 0.38708095687609262 0.058259455191487473 0 0.39958533392809598 0.064542988380651978 0 0.38708095687609262 0.058259455191487473 0 0.39507113706106922 0.050774504191927902 0 0.39958533392809598 0.064542988380651978 0 0.39507113706106922 0.050774504191927902 0 0.40565765411195531 0.054126972936676662 0 0.40565765411195531 0.054126972936676662 0 0.3970612349209951 0.033150740924336917 0 0.41131347224234488 0.039559525860957213 0 0.40565765411195531 0.054126972936676662 0 0.3970612349209951 0.033150740924336917 0 0.39507113706106922 0.050774504191927902 0 0.40565765411195531 0.054126972936676662 0 0.3970612349209951 0.033150740924336917 0 0.38597050546820671 0.043792363526486418 0 0.39507113706106922 0.050774504191927902 0 0.3970612349209951 0.033150740924336917 0 0.41131347224234488 0.039559525860957213 0 0.41991281143554271 0.056181263279091433 0 0.42682323218819967 0.041469012558971757 0 0.41131347224234488 0.039559525860957213 0 0.42682323218819967 0.041469012558971757 0 0.41668856808841559 0.02398805172632509 0 0.3970612349209951 0.033150740924336917 0 0.41131347224234488 0.039559525860957213 0 0.41668856808841559 0.02398805172632509 0 0.40565765411195531 0.054126972936676662 0 0.41131347224234488 0.039559525860957213 0 0.41991281143554271 0.056181263279091433 0 0.41695892967624593 0.072453749966772507 0 0.40565765411195531 0.054126972936676662 0 0.41991281143554271 0.056181263279091433 0 0.41991281143554271 0.056181263279091433 0 0.43110958951022171 0.05955044171215168 0 0.42682323218819967 0.041469012558971757 0 0.43110958951022171 0.05955044171215168 0 0.42682323218819967 0.041469012558971757 0 0.43110958951022171 0.05955044171215168 0 0.42682323218819967 0.041469012558971757 0 0.44248654194716758 0.049908848887165541 0 0.42577239463447941 0.069135679153994295 0 0.41991281143554271 0.056181263279091433 0 0.43110958951022171 0.05955044171215168 0 0.42682323218819967 0.041469012558971757 0 0.43709237452325111 0.02577638329127678 0 0.44070914880421719 0.037919558422115203 0 0.42682323218819967 0.041469012558971757 0 0.44248654194716758 0.049908848887165541 0 0.44070914880421719 0.037919558422115203 0 0.43709237452325111 0.02577638329127678 0 0.41668856808841559 0.02398805172632509 0 0.43038682142773188 0.0062041082775384192 0 0.42682323218819967 0.041469012558971757 0 0.43709237452325111 0.02577638329127678 0 0.41668856808841559 0.02398805172632509 0 0.40349847540936601 0.014984419008706579 0 0.41668856808841559 0.02398805172632509 0 0.41339558675796428 0.0069602749341060761 0 0.41339558675796428 0.0069602749341060761 0 0.43038682142773188 0.0062041082775384192 0 0.41830876589503913 -0.0077348852993141988 0 0.41668856808841559 0.02398805172632509 0 0.41339558675796428 0.0069602749341060761 0 0.43038682142773188 0.0062041082775384192 0 0.40349847540936601 0.014984419008706579 0 0.41339558675796428 0.0069602749341060761 0 0.40188217154941991 -0.0013514814532323721 0 0.44633973602081378 0.010609817974053351 0 0.46190342482226632 0.0086137532046262656 0 0.44806623115436839 -0.0071531577580003546 0 0.43038682142773188 0.0062041082775384192 0 0.44633973602081378 0.010609817974053351 0 0.44806623115436839 -0.0071531577580003546 0 0.43709237452325111 0.02577638329127678 0 0.43038682142773188 0.0062041082775384192 0 0.44633973602081378 0.010609817974053351 0 0.43709237452325111 0.02577638329127678 0 0.45490711252487143 0.021608126062995909 0 0.45175425147000059 0.034383754643626321 0 0.43709237452325111 0.02577638329127678 0 0.44633973602081378 0.010609817974053351 0 0.45490711252487143 0.021608126062995909 0 0.45490711252487143 0.021608126062995909 0 0.46224388215995588 0.030825799232918338 0 0.45175425147000059 0.034383754643626321 0 0.46224388215995588 0.030825799232918338 0 0.47251668831401389 0.034560067134848597 0 0.46947205943085318 0.021748490632606182 0 0.45490711252487143 0.021608126062995909 0 0.46224388215995588 0.030825799232918338 0 0.46947205943085318 0.021748490632606182 0 0.45490711252487143 0.021608126062995909 0 0.46190342482226632 0.0086137532046262656 0 0.46947205943085318 0.021748490632606182 0 0.44633973602081378 0.010609817974053351 0 0.45490711252487143 0.021608126062995909 0 0.46190342482226632 0.0086137532046262656 0 0.44695026706617319 0.064332940704960845 0 0.43110958951022171 0.05955044171215168 0 0.44248654194716758 0.049908848887165541 0 0.44695026706617319 0.064332940704960845 0 0.44248654194716758 0.049908848887165541 0 0.45850458730009991 0.051034010544588899 0 0.44248654194716758 0.049908848887165541 0 0.45120476571630508 0.043014946037602142 0 0.45850458730009991 0.051034010544588899 0 0.44695026706617319 0.064332940704960845 0 0.45850458730009991 0.051034010544588899 0 0.44248654194716758 0.049908848887165541 0 0.45120476571630508 0.043014946037602142 0 0.44070914880421719 0.037919558422115203 0 0.43709237452325111 0.02577638329127678 0 0.44070914880421719 0.037919558422115203 0 0.45175425147000059 0.034383754643626321 0 0.45120476571630508 0.043014946037602142 0 0.44070914880421719 0.037919558422115203 0 0.45175425147000059 0.034383754643626321 0 0.46224388215995588 0.030825799232918338 0 0.45175425147000059 0.034383754643626321 0 0.46256929906004041 0.041828557690514689 0 0.46224388215995588 0.030825799232918338 0 0.46256929906004041 0.041828557690514689 0 0.47251668831401389 0.034560067134848597 0 0.45120476571630508 0.043014946037602142 0 0.45175425147000059 0.034383754643626321 0 0.46256929906004041 0.041828557690514689 0 0.45120476571630508 0.043014946037602142 0 0.46256929906004041 0.041828557690514689 0 0.45850458730009991 0.051034010544588899 0 0.46256929906004041 0.041828557690514689 0 0.46754869724344 0.054598302700198303 0 0.47410959836543048 0.045112961078687369 0 0.46256929906004041 0.041828557690514689 0 0.45850458730009991 0.051034010544588899 0 0.46754869724344 0.054598302700198303 0 0.47196981782862518 0.066908810963183102 0 0.46754869724344 0.054598302700198303 0 0.45889923475422101 0.060259584595689773 0 0.45850458730009991 0.051034010544588899 0 0.46754869724344 0.054598302700198303 0 0.45889923475422101 0.060259584595689773 0 0.44695026706617319 0.064332940704960845 0 0.45850458730009991 0.051034010544588899 0 0.45889923475422101 0.060259584595689773 0 0.47196981782862518 0.066908810963183102 0 0.46754869724344 0.054598302700198303 0 0.48213020129837919 0.054851398054295793 0 0.46754869724344 0.054598302700198303 0 0.48213020129837919 0.054851398054295793 0 0.47410959836543048 0.045112961078687369 0 0.48213020129837919 0.054851398054295793 0 0.47410959836543048 0.045112961078687369 0 0.48315076052663641 0.03726470098888246 0 0.46256929906004041 0.041828557690514689 0 0.47410959836543048 0.045112961078687369 0 0.47251668831401389 0.034560067134848597 0 0.47251668831401389 0.034560067134848597 0 0.48315076052663641 0.03726470098888246 0 0.47746928475445111 0.027572541517823419 0 0.47410959836543048 0.045112961078687369 0 0.47251668831401389 0.034560067134848597 0 0.48315076052663641 0.03726470098888246 0 0.48213020129837919 0.054851398054295793 0 0.48315076052663641 0.03726470098888246 0 0.50000000000000067 0.040481183929158317 0 0.48315076052663641 0.03726470098888246 0 0.50000000000000067 0.040481183929158317 0 0.48473763074630039 0.016716907314956422 0 0.5 0.066919579819834762 0 0.48213020129837919 0.054851398054295793 0 0.50000000000000067 0.040481183929158317 0 0.48473763074630039 0.016716907314956422 0 0.46947526149259972 -0.0070473692992451802 0 0.48473763074630039 0.016716907314956422 0 0.48709371571524868 -0.003261479794080222 0 0.46947526149259972 -0.0070473692992451802 0 0.46190342482226632 0.0086137532046262656 0 0.48473763074630039 0.016716907314956422 0 0.46947526149259972 -0.0070473692992451802 0 0.46190342482226632 0.0086137532046262656 0 0.46947205943085318 0.021748490632606182 0 0.48473763074630039 0.016716907314956422 0 0.48315076052663641 0.03726470098888246 0 0.47746928475445111 0.027572541517823419 0 0.48473763074630039 0.016716907314956422 0 0.47251668831401389 0.034560067134848597 0 0.46947205943085318 0.021748490632606182 0 0.47746928475445111 0.027572541517823419 0 0.46947205943085318 0.021748490632606182 0 0.47746928475445111 0.027572541517823419 0 0.48473763074630039 0.016716907314956422 0 0.50000000000000067 0.040481183929158317 0 0.48473763074630039 0.016716907314956422 0 0.50000000000000067 0.040481183929158317 0 0.48473763074630039 0.016716907314956422 0 0.5 0.012315275186936311 0 0.48473763074630039 0.016716907314956422 0 0.5 0.012315275186936311 0 0.48709371571524868 -0.003261479794080222 0 0.5 0.012315275186936311 0 0.48709371571524868 -0.003261479794080222 0 0.5 -0.01585063355528582 0 0.48709371571524868 -0.003261479794080222 0 0.46947526149259972 -0.0070473692992451802 0 0.47847697698141739 -0.029611821545309058 0 0.47847697698141739 -0.029611821545309058 0 0.5 -0.01585063355528582 0 0.5 -0.044016542297507837 0 0.48709371571524868 -0.003261479794080222 0 0.47847697698141739 -0.029611821545309058 0 0.5 -0.01585063355528582 0 0.5 -0.044016542297507837 0 0.48698330602965179 -0.061272261341214683 0 0.5 -0.072182451039729922 0 0.5 -0.044016542297507837 0 0.48698330602965179 -0.061272261341214683 0 0.47439764835789672 -0.051566615319364649 0 0.48698330602965179 -0.061272261341214683 0 0.47439764835789672 -0.051566615319364649 0 0.47388855414118303 -0.072360962171833562 0 0.47439764835789672 -0.051566615319364649 0 0.47388855414118303 -0.072360962171833562 0 0.46009485294123781 -0.063407221093350757 0 0.47847697698141739 -0.029611821545309058 0 0.47439764835789672 -0.051566615319364649 0 0.46545296516518819 -0.040297912691038537 0 0.47847697698141739 -0.029611821545309058 0 0.5 -0.044016542297507837 0 0.47439764835789672 -0.051566615319364649 0 0.46545296516518819 -0.040297912691038537 0 0.45302871367425662 -0.049933764347553818 0 0.45421289223889882 -0.03081164591344682 0 0.47847697698141739 -0.029611821545309058 0 0.46545296516518819 -0.040297912691038537 0 0.45421289223889882 -0.03081164591344682 0 0.47439764835789672 -0.051566615319364649 0 0.45302871367425662 -0.049933764347553818 0 0.46009485294123781 -0.063407221093350757 0 0.47439764835789672 -0.051566615319364649 0 0.46545296516518819 -0.040297912691038537 0 0.45302871367425662 -0.049933764347553818 0 0.45302871367425662 -0.049933764347553818 0 0.44212827525373349 -0.068612736861054083 0 0.43493470865549122 -0.053390743793520809 0 0.45302871367425662 -0.049933764347553818 0 0.46009485294123781 -0.063407221093350757 0 0.44212827525373349 -0.068612736861054083 0 0.45302871367425662 -0.049933764347553818 0 0.44246734012373101 -0.040138498882543117 0 0.43493470865549122 -0.053390743793520809 0 0.45302871367425662 -0.049933764347553818 0 0.44246734012373101 -0.040138498882543117 0 0.45421289223889882 -0.03081164591344682 0 0.44246734012373101 -0.040138498882543117 0 0.44279855404430418 -0.025143883911290871 0 0.45421289223889882 -0.03081164591344682 0 0.44279855404430418 -0.025143883911290871 0 0.44806623115436839 -0.0071531577580003546 0 0.45421289223889882 -0.03081164591344682 0 0.44279855404430418 -0.025143883911290871 0 0.44806623115436839 -0.0071531577580003546 0 0.43278072669222362 -0.01206743299497361 0 0.46947526149259972 -0.0070473692992451802 0 0.44806623115436839 -0.0071531577580003546 0 0.45421289223889882 -0.03081164591344682 0 0.46190342482226632 0.0086137532046262656 0 0.46947526149259972 -0.0070473692992451802 0 0.44806623115436839 -0.0071531577580003546 0 0.46947526149259972 -0.0070473692992451802 0 0.45421289223889882 -0.03081164591344682 0 0.46947526149259972 -0.0070473692992451802 0 0.47847697698141739 -0.029611821545309058 0 0.45421289223889882 -0.03081164591344682 0 0.48536452046868223 -0.11117807442961079 0 0.46804159012809748 -0.1075739587984407 0 0.47801784229779409 -0.12693947210822021 0 0.48536452046868223 -0.11117807442961079 0 0.5 -0.1003483597819521 0 0.50000000000000044 -0.12851426852417419 0 0.48536452046868223 -0.11117807442961079 0 0.50000000000000044 -0.12851426852417419 0 0.47801784229779409 -0.12693947210822021 0 0.48536452046868223 -0.11117807442961079 0 0.5 -0.1003483597819521 0 0.48076316991751911 -0.092514312935266685 0 0.48536452046868223 -0.11117807442961079 0 0.48076316991751911 -0.092514312935266685 0 0.46804159012809748 -0.1075739587984407 0 0.48076316991751911 -0.092514312935266685 0 0.462020927969642 -0.089353643139137656 0 0.46804159012809748 -0.1075739587984407 0 0.48076316991751911 -0.092514312935266685 0 0.47388855414118303 -0.072360962171833562 0 0.462020927969642 -0.089353643139137656 0 0.5 -0.1003483597819521 0 0.48076316991751911 -0.092514312935266685 0 0.5 -0.072182451039729922 0 0.48076316991751911 -0.092514312935266685 0 0.5 -0.072182451039729922 0 0.47388855414118303 -0.072360962171833562 0 0.48698330602965179 -0.061272261341214683 0 0.5 -0.072182451039729922 0 0.47388855414118303 -0.072360962171833562 0 0.47388855414118303 -0.072360962171833562 0 0.46009485294123781 -0.063407221093350757 0 0.45489497743810392 -0.076079574896867827 0 0.46009485294123781 -0.063407221093350757 0 0.45489497743810392 -0.076079574896867827 0 0.44212827525373349 -0.068612736861054083 0 0.45489497743810392 -0.076079574896867827 0 0.44212827525373349 -0.068612736861054083 0 0.44468983136015178 -0.086740898363212873 0 0.44468983136015178 -0.086740898363212873 0 0.462020927969642 -0.089353643139137656 0 0.44984744483279748 -0.1008521516692044 0 0.45489497743810392 -0.076079574896867827 0 0.44468983136015178 -0.086740898363212873 0 0.462020927969642 -0.089353643139137656 0 0.47388855414118303 -0.072360962171833562 0 0.45489497743810392 -0.076079574896867827 0 0.462020927969642 -0.089353643139137656 0 0.462020927969642 -0.089353643139137656 0 0.46804159012809748 -0.1075739587984407 0 0.44984744483279748 -0.1008521516692044 0 0.44468983136015178 -0.086740898363212873 0 0.44984744483279748 -0.1008521516692044 0 0.43430578692852162 -0.097946233678770117 0 0.44984744483279748 -0.1008521516692044 0 0.4402579155679025 -0.1119455457889663 0 0.43430578692852162 -0.097946233678770117 0 0.4402579155679025 -0.1119455457889663 0 0.43405352689338139 -0.1237898792763122 0 0.45603568459558769 -0.1253646756922662 0 0.44984744483279748 -0.1008521516692044 0 0.4402579155679025 -0.1119455457889663 0 0.45603568459558769 -0.1253646756922662 0 0.43405352689338139 -0.1237898792763122 0 0.45603568459558769 -0.1253646756922662 0 0.46804159012809748 -0.1075739587984407 0 0.45603568459558769 -0.1253646756922662 0 0.47801784229779409 -0.12693947210822021 0 0.46804159012809748 -0.1075739587984407 0 0.44984744483279748 -0.1008521516692044 0 0.45603568459558769 -0.1253646756922662 0 0.41223207255701028 -0.1116351367039546 0 0.41809802924037148 -0.1245556586332161 0 0.4029285439519591 -0.12917429444513351 0 0.41223207255701028 -0.1116351367039546 0 0.41809802924037148 -0.1245556586332161 0 0.42704713458922378 -0.11177478862827871 0 0.41809802924037148 -0.1245556586332161 0 0.42704713458922378 -0.11177478862827871 0 0.42997093061011571 -0.13418524686746491 0 0.43405352689338139 -0.1237898792763122 0 0.42704713458922378 -0.11177478862827871 0 0.42997093061011571 -0.13418524686746491 0 0.42704713458922378 -0.11177478862827871 0 0.42997093061011571 -0.13418524686746491 0 0.4402579155679025 -0.1119455457889663 0 0.43405352689338139 -0.1237898792763122 0 0.42704713458922378 -0.11177478862827871 0 0.42704713458922378 -0.11177478862827871 0 0.43430578692852162 -0.097946233678770117 0 0.42140842460601091 -0.10020300276393319 0 0.4402579155679025 -0.1119455457889663 0 0.42704713458922378 -0.11177478862827871 0 0.43430578692852162 -0.097946233678770117 0 0.43430578692852162 -0.097946233678770117 0 0.42140842460601091 -0.10020300276393319 0 0.4249059785733269 -0.084842765768954054 0 0.41223207255701028 -0.1116351367039546 0 0.42140842460601091 -0.10020300276393319 0 0.40787765064742021 -0.095502434015276264 0 0.41223207255701028 -0.1116351367039546 0 0.42704713458922378 -0.11177478862827871 0 0.42140842460601091 -0.10020300276393319 0 0.42140842460601091 -0.10020300276393319 0 0.40787765064742021 -0.095502434015276264 0 0.4249059785733269 -0.084842765768954054 0 0.40787765064742021 -0.095502434015276264 0 0.4249059785733269 -0.084842765768954054 0 0.40543357189758311 -0.077408115715914508 0 0.44212827525373349 -0.068612736861054083 0 0.44468983136015178 -0.086740898363212873 0 0.4249059785733269 -0.084842765768954054 0 0.44468983136015178 -0.086740898363212873 0 0.43430578692852162 -0.097946233678770117 0 0.4249059785733269 -0.084842765768954054 0 0.44212827525373349 -0.068612736861054083 0 0.42099339321936219 -0.066434553446371003 0 0.43493470865549122 -0.053390743793520809 0 0.44212827525373349 -0.068612736861054083 0 0.4249059785733269 -0.084842765768954054 0 0.42099339321936219 -0.066434553446371003 0 0.4249059785733269 -0.084842765768954054 0 0.42099339321936219 -0.066434553446371003 0 0.40543357189758311 -0.077408115715914508 0 0.42099339321936219 -0.066434553446371003 0 0.40543357189758311 -0.077408115715914508 0 0.406875079104003 -0.061823985721959747 0 0.40543357189758311 -0.077408115715914508 0 0.38700078851973452 -0.090159798354707762 0 0.39132114613694652 -0.06158886296756097 0 0.40543357189758311 -0.077408115715914508 0 0.406875079104003 -0.061823985721959747 0 0.39132114613694652 -0.06158886296756097 0 0.38700078851973452 -0.090159798354707762 0 0.39132114613694652 -0.06158886296756097 0 0.37005356554619001 -0.07659827762438684 0 0.38700078851973452 -0.090159798354707762 0 0.39132114613694652 -0.06158886296756097 0 0.39132114613694652 -0.06158886296756097 0 0.37269378129169922 -0.057419697024313023 0 0.37005356554619001 -0.07659827762438684 0 0.40787765064742021 -0.095502434015276264 0 0.40543357189758311 -0.077408115715914508 0 0.38700078851973452 -0.090159798354707762 0 0.40787765064742021 -0.095502434015276264 0 0.38700078851973452 -0.090159798354707762 0 0.39854389731572931 -0.1090404794521853 0 0.41223207255701028 -0.1116351367039546 0 0.40787765064742021 -0.095502434015276264 0 0.39854389731572931 -0.1090404794521853 0 0.38700078851973452 -0.090159798354707762 0 0.38268043090252241 -0.1187307337418545 0 0.38700078851973452 -0.090159798354707762 0 0.39854389731572931 -0.1090404794521853 0 0.38268043090252241 -0.1187307337418545 0 0.38700078851973452 -0.090159798354707762 0 0.38268043090252241 -0.1187307337418545 0 0.36338194566641369 -0.10150792429658349 0 0.39854389731572931 -0.1090404794521853 0 0.38268043090252241 -0.1187307337418545 0 0.4029285439519591 -0.12917429444513351 0 0.41223207255701028 -0.1116351367039546 0 0.39854389731572931 -0.1090404794521853 0 0.4029285439519591 -0.12917429444513351 0 0.42017257135643682 -0.026609778402821801 0 0.3975465886685694 -0.02807567289435272 0 0.40537496543039148 -0.0181323598715479 0 0.42017257135643682 -0.026609778402821801 0 0.41830876589503913 -0.0077348852993141988 0 0.40537496543039148 -0.0181323598715479 0 0.42017257135643682 -0.026609778402821801 0 0.3975465886685694 -0.02807567289435272 0 0.42017257135643682 -0.026609778402821801 0 0.40927820795407271 -0.035436148666985322 0 0.3975465886685694 -0.02807567289435272 0 0.41339558675796428 0.0069602749341060761 0 0.41830876589503913 -0.0077348852993141988 0 0.40188217154941991 -0.0013514814532323721 0 0.41830876589503913 -0.0077348852993141988 0 0.40537496543039148 -0.0181323598715479 0 0.40188217154941991 -0.0013514814532323721 0 0.42017257135643682 -0.026609778402821801 0 0.41830876589503913 -0.0077348852993141988 0 0.43278072669222362 -0.01206743299497361 0 0.43038682142773188 0.0062041082775384192 0 0.44806623115436839 -0.0071531577580003546 0 0.43278072669222362 -0.01206743299497361 0 0.43038682142773188 0.0062041082775384192 0 0.41830876589503913 -0.0077348852993141988 0 0.43278072669222362 -0.01206743299497361 0 0.44279855404430418 -0.025143883911290871 0 0.42017257135643682 -0.026609778402821801 0 0.44279855404430418 -0.025143883911290871 0 0.42017257135643682 -0.026609778402821801 0 0.4267967251304271 -0.040828234591711629 0 0.44279855404430418 -0.025143883911290871 0 0.42017257135643682 -0.026609778402821801 0 0.43278072669222362 -0.01206743299497361 0 0.44246734012373101 -0.040138498882543117 0 0.4267967251304271 -0.040828234591711629 0 0.43493470865549122 -0.053390743793520809 0 0.44246734012373101 -0.040138498882543117 0 0.44279855404430418 -0.025143883911290871 0 0.4267967251304271 -0.040828234591711629 0 0.4267967251304271 -0.040828234591711629 0 0.43493470865549122 -0.053390743793520809 0 0.41553408699255379 -0.049842131675817428 0 0.42099339321936219 -0.066434553446371003 0 0.43493470865549122 -0.053390743793520809 0 0.41553408699255379 -0.049842131675817428 0 0.42099339321936219 -0.066434553446371003 0 0.41553408699255379 -0.049842131675817428 0 0.406875079104003 -0.061823985721959747 0 0.41553408699255379 -0.049842131675817428 0 0.406875079104003 -0.061823985721959747 0 0.40367088354362102 -0.048465229562044999 0 0.4267967251304271 -0.040828234591711629 0 0.41553408699255379 -0.049842131675817428 0 0.40927820795407271 -0.035436148666985322 0 0.42017257135643682 -0.026609778402821801 0 0.4267967251304271 -0.040828234591711629 0 0.40927820795407271 -0.035436148666985322 0 0.41553408699255379 -0.049842131675817428 0 0.40927820795407271 -0.035436148666985322 0 0.40367088354362102 -0.048465229562044999 0 0.40927820795407271 -0.035436148666985322 0 0.39564150375415857 -0.033017927580414178 0 0.3975465886685694 -0.02807567289435272 0 0.40927820795407271 -0.035436148666985322 0 0.39564150375415857 -0.033017927580414178 0 0.40367088354362102 -0.048465229562044999 0 0.39564150375415857 -0.033017927580414178 0 0.38485245714265243 -0.033834410735546078 0 0.3975465886685694 -0.02807567289435272 0 0.39564150375415857 -0.033017927580414178 0 0.40367088354362102 -0.048465229562044999 0 0.39132114613694652 -0.06158886296756097 0 0.39564150375415857 -0.033017927580414178 0 0.39132114613694652 -0.06158886296756097 0 0.406875079104003 -0.061823985721959747 0 0.40367088354362102 -0.048465229562044999 0 0.39132114613694652 -0.06158886296756097 0 0.39132114613694652 -0.06158886296756097 0 0.38130675307229811 -0.04434643705146863 0 0.37269378129169922 -0.057419697024313023 0 0.39564150375415857 -0.033017927580414178 0 0.39132114613694652 -0.06158886296756097 0 0.38130675307229811 -0.04434643705146863 0 0.39564150375415857 -0.033017927580414178 0 0.38485245714265243 -0.033834410735546078 0 0.38130675307229811 -0.04434643705146863 0 0.38485245714265243 -0.033834410735546078 0 0.38130675307229811 -0.04434643705146863 0 0.37681622178135987 -0.037478248864893933 0 0.38485245714265243 -0.033834410735546078 0 0.37681622178135987 -0.037478248864893933 0 0.37492060598070209 -0.029541567385883479 0 0.38079459090889561 -0.021036065352780908 0 0.38822024265093358 -0.022846589718731481 0 0.37492060598070209 -0.029541567385883479 0 0.3975465886685694 -0.02807567289435272 0 0.37492060598070209 -0.029541567385883479 0 0.37986839653907473 -0.0088017231003426274 0 0.37127197734811351 -0.029777955112682001 0 0.38079459090889561 -0.021036065352780908 0 0.37492060598070209 -0.029541567385883479 0 0.38822024265093358 -0.022846589718731481 0 0.3975465886685694 -0.02807567289435272 0 0.37492060598070209 -0.029541567385883479 0 0.38485245714265243 -0.033834410735546078 0 0.3975465886685694 -0.02807567289435272 0 0.37492060598070209 -0.029541567385883479 0 0.38079459090889561 -0.021036065352780908 0 0.37127197734811351 -0.029777955112682001 0 0.37492060598070209 -0.029541567385883479 0 0.38079459090889561 -0.021036065352780908 0 0.37986839653907473 -0.0088017231003426274 0 0.37127197734811351 -0.029777955112682001 0 0.38079459090889561 -0.021036065352780908 0 0.38822024265093358 -0.022846589718731481 0 0.39199121835514172 -0.01404432802005285 0 0.38822024265093358 -0.022846589718731481 0 0.3975465886685694 -0.02807567289435272 0 0.3958150687469203 -0.021147265290375021 0 0.38822024265093358 -0.022846589718731481 0 0.3958150687469203 -0.021147265290375021 0 0.39199121835514172 -0.01404432802005285 0 0.3958150687469203 -0.021147265290375021 0 0.40537496543039148 -0.0181323598715479 0 0.39199121835514172 -0.01404432802005285 0 0.3975465886685694 -0.02807567289435272 0 0.3958150687469203 -0.021147265290375021 0 0.40537496543039148 -0.0181323598715479 0 0.40537496543039148 -0.0181323598715479 0 0.40188217154941991 -0.0013514814532323721 0 0.39199121835514172 -0.01404432802005285 0 0.40188217154941991 -0.0013514814532323721 0 0.39199121835514172 -0.01404432802005285 0 0.390685480365905 -0.0036449975442120579 0 0.38846481573003488 0.012174508911997161 0 0.390685480365905 -0.0036449975442120579 0 0.37986839653907473 -0.0088017231003426274 0 0.38079459090889561 -0.021036065352780908 0 0.39199121835514172 -0.01404432802005285 0 0.37986839653907473 -0.0088017231003426274 0 0.39199121835514172 -0.01404432802005285 0 0.390685480365905 -0.0036449975442120579 0 0.37986839653907473 -0.0088017231003426274 0 0.36909861384751302 0.0062369004923781089 0 0.36917274574799891 -0.015234216915674901 0 0.3559181981730396 -0.01207771809287486 0 0.36909861384751302 0.0062369004923781089 0 0.37986839653907473 -0.0088017231003426274 0 0.36917274574799891 -0.015234216915674901 0 0.37986839653907473 -0.0088017231003426274 0 0.36917274574799891 -0.015234216915674901 0 0.37127197734811351 -0.029777955112682001 0 0.36917274574799891 -0.015234216915674901 0 0.37127197734811351 -0.029777955112682001 0 0.3559181981730396 -0.01207771809287486 0 0.37127197734811351 -0.029777955112682001 0 0.37492060598070209 -0.029541567385883479 0 0.37127197734811351 -0.029777955112682001 0 0.34456582370023142 -0.031508196139666912 0 0.3559181981730396 -0.01207771809287486 0 0.33389545127119741 -0.010607414355128349 0 0.34456582370023142 -0.031508196139666912 0 0.37127197734811351 -0.029777955112682001 0 0.3559181981730396 -0.01207771809287486 0 0.34456582370023142 -0.031508196139666912 0 0.34993123249004582 0.012023608456395111 0 0.3559181981730396 -0.01207771809287486 0 0.33389545127119741 -0.010607414355128349 0 0.33389545127119741 -0.010607414355128349 0 0.31785967005234922 -0.033238437166652091 0 0.34456582370023142 -0.031508196139666912 0 0.33389545127119741 -0.010607414355128349 0 0.31785967005234922 -0.033238437166652091 0 0.3100633173531816 -0.016291383302169171 0 0.33389545127119741 -0.010607414355128349 0 0.31785967005234922 -0.033238437166652091 0 0.32428985140229089 0.0045442459904301274 0 0.33389545127119741 -0.010607414355128349 0 0.3100633173531816 -0.016291383302169171 0 0.32428985140229089 0.0045442459904301274 0 0.3084370594916051 0.00067207699937176261 0 0.3100633173531816 -0.016291383302169171 0 0.31612328822729258 -0.059275095265816258 0 0.33258224231859279 -0.039879474865671442 0 0.31612328822729258 -0.059275095265816258 0 0.33258224231859279 -0.039879474865671442 0 0.33112469782759452 -0.052755416762772157 0 0.31612328822729258 -0.059275095265816258 0 0.33112469782759452 -0.052755416762772157 0 0.32933493726664698 -0.062440336698660712 0 0.31612328822729258 -0.059275095265816258 0 0.31785967005234922 -0.033238437166652091 0 0.33258224231859279 -0.039879474865671442 0 0.31785967005234922 -0.033238437166652091 0 0.34456582370023142 -0.031508196139666912 0 0.31785967005234922 -0.033238437166652091 0 0.33258224231859279 -0.039879474865671442 0 0.34456582370023142 -0.031508196139666912 0 0.33258224231859279 -0.039879474865671442 0 0.34043628637428552 -0.046050744908789812 0 0.33112469782759452 -0.052755416762772157 0 0.33258224231859279 -0.039879474865671442 0 0.34043628637428552 -0.046050744908789812 0 0.34456582370023142 -0.031508196139666912 0 0.34043628637428552 -0.046050744908789812 0 0.33714673495115449 -0.056131432074922563 0 0.34711077221104131 -0.053604203772291817 0 0.34043628637428552 -0.046050744908789812 0 0.33112469782759452 -0.052755416762772157 0 0.33714673495115449 -0.056131432074922563 0 0.32933493726664698 -0.062440336698660712 0 0.33714673495115449 -0.056131432074922563 0 0.33914355508548338 -0.066320794040477693 0 0.33112469782759452 -0.052755416762772157 0 0.32933493726664698 -0.062440336698660712 0 0.33714673495115449 -0.056131432074922563 0 0.33714673495115449 -0.056131432074922563 0 0.34711077221104131 -0.053604203772291817 0 0.33914355508548338 -0.066320794040477693 0 0.34711077221104131 -0.053604203772291817 0 0.35006461325797572 -0.065532925760535751 0 0.33914355508548338 -0.066320794040477693 0 0.36618507092978658 -0.042190580286676958 0 0.35006461325797572 -0.065532925760535751 0 0.34711077221104131 -0.053604203772291817 0 0.36618507092978658 -0.042190580286676958 0 0.35006461325797572 -0.065532925760535751 0 0.36618507092978658 -0.042190580286676958 0 0.35736960086404418 -0.063701321129944199 0 0.35006461325797572 -0.065532925760535751 0 0.34043628637428552 -0.046050744908789812 0 0.34711077221104131 -0.053604203772291817 0 0.35036814075176048 -0.044443355452204583 0 0.34711077221104131 -0.053604203772291817 0 0.35036814075176048 -0.044443355452204583 0 0.36618507092978658 -0.042190580286676958 0 0.35036814075176048 -0.044443355452204583 0 0.35809775318247278 -0.036980021747807443 0 0.36618507092978658 -0.042190580286676958 0 0.37127197734811351 -0.029777955112682001 0 0.34456582370023142 -0.031508196139666912 0 0.35809775318247278 -0.036980021747807443 0 0.34456582370023142 -0.031508196139666912 0 0.35036814075176048 -0.044443355452204583 0 0.35809775318247278 -0.036980021747807443 0 0.34043628637428552 -0.046050744908789812 0 0.34456582370023142 -0.031508196139666912 0 0.35036814075176048 -0.044443355452204583 0 0.37127197734811351 -0.029777955112682001 0 0.35809775318247278 -0.036980021747807443 0 0.36618507092978658 -0.042190580286676958 0 0.38130675307229811 -0.04434643705146863 0 0.37681622178135987 -0.037478248864893933 0 0.36618507092978658 -0.042190580286676958 0 0.37681622178135987 -0.037478248864893933 0 0.37492060598070209 -0.029541567385883479 0 0.36618507092978658 -0.042190580286676958 0 0.37127197734811351 -0.029777955112682001 0 0.36618507092978658 -0.042190580286676958 0 0.37492060598070209 -0.029541567385883479 0 0.36618507092978658 -0.042190580286676958 0 0.37127197734811351 -0.029777955112682001 0 0.37492060598070209 -0.029541567385883479 0 0.36618507092978658 -0.042190580286676958 0 0.36618507092978658 -0.042190580286676958 0 0.37269378129169922 -0.057419697024313023 0 0.35736960086404418 -0.063701321129944199 0 0.36618507092978658 -0.042190580286676958 0 0.35736960086404418 -0.063701321129944199 0 0.38130675307229811 -0.04434643705146863 0 0.36618507092978658 -0.042190580286676958 0 0.37269378129169922 -0.057419697024313023 0 0.37269378129169922 -0.057419697024313023 0 0.37005356554619001 -0.07659827762438684 0 0.35736960086404418 -0.063701321129944199 0 0.37005356554619001 -0.07659827762438684 0 0.34855413079830239 -0.085212061973211656 0 0.36338194566641369 -0.10150792429658349 0 0.38700078851973452 -0.090159798354707762 0 0.37005356554619001 -0.07659827762438684 0 0.36338194566641369 -0.10150792429658349 0 0.34855413079830239 -0.085212061973211656 0 0.35006461325797572 -0.065532925760535751 0 0.33394415558616419 -0.088875271234394176 0 0.34855413079830239 -0.085212061973211656 0 0.35736960086404418 -0.063701321129944199 0 0.34855413079830239 -0.085212061973211656 0 0.35736960086404418 -0.063701321129944199 0 0.35006461325797572 -0.065532925760535751 0 0.37005356554619001 -0.07659827762438684 0 0.34855413079830239 -0.085212061973211656 0 0.35736960086404418 -0.063701321129944199 0 0.38268043090252241 -0.1187307337418545 0 0.36338194566641369 -0.10150792429658349 0 0.3536652365318943 -0.12733519680265429 0 0.34855413079830239 -0.085212061973211656 0 0.3397386607325612 -0.10672280281647931 0 0.34855413079830239 -0.085212061973211656 0 0.36338194566641369 -0.10150792429658349 0 0.3397386607325612 -0.10672280281647931 0 0.3397386607325612 -0.10672280281647931 0 0.3536652365318943 -0.12733519680265429 0 0.36338194566641369 -0.10150792429658349 0 0.3397386607325612 -0.10672280281647931 0 0.3536652365318943 -0.12733519680265429 0 0.33238356573625621 -0.1246700638432007 0 0.3397386607325612 -0.10672280281647931 0 0.3536652365318943 -0.12733519680265429 0 0.33238356573625621 -0.1246700638432007 0 0.3397386607325612 -0.10672280281647931 0 0.33238356573625621 -0.1246700638432007 0 0.32992626371395273 -0.10988115919502391 0 0.3397386607325612 -0.10672280281647931 0 0.32992626371395273 -0.10988115919502391 0 0.33695787000922561 -0.10260702053026589 0 0.33394415558616419 -0.088875271234394176 0 0.34855413079830239 -0.085212061973211656 0 0.3397386607325612 -0.10672280281647931 0 0.33695787000922561 -0.10260702053026589 0 0.32992626371395273 -0.10988115919502391 0 0.3397386607325612 -0.10672280281647931 0 0.33695787000922561 -0.10260702053026589 0 0.3397386607325612 -0.10672280281647931 0 0.33695787000922561 -0.10260702053026589 0 0.3178236979143525 -0.1122176167082527 0 0.31819808276666378 -0.091098456324580912 0 0.30447614669950152 -0.097708086838430852 0 0.3178236979143525 -0.1122176167082527 0 0.33394415558616419 -0.088875271234394176 0 0.31819808276666378 -0.091098456324580912 0 0.3178236979143525 -0.1122176167082527 0 0.33394415558616419 -0.088875271234394176 0 0.32992626371395273 -0.10988115919502391 0 0.3178236979143525 -0.1122176167082527 0 0.33394415558616419 -0.088875271234394176 0 0.33238356573625621 -0.1246700638432007 0 0.3178236979143525 -0.1122176167082527 0 0.30170324024254092 -0.13555996218211119 0 0.33238356573625621 -0.1246700638432007 0 0.32992626371395273 -0.10988115919502391 0 0.3178236979143525 -0.1122176167082527 0 0.35006461325797572 -0.065532925760535751 0 0.33914355508548338 -0.066320794040477693 0 0.33394415558616419 -0.088875271234394176 0 0.33124208916306752 -0.070838285854241803 0 0.33914355508548338 -0.066320794040477693 0 0.33394415558616419 -0.088875271234394176 0 0.35006461325797572 -0.065532925760535751 0 0.33394415558616419 -0.088875271234394176 0 0.32933493726664698 -0.062440336698660712 0 0.33124208916306752 -0.070838285854241803 0 0.33914355508548338 -0.066320794040477693 0 0.34855413079830239 -0.085212061973211656 0 0.33695787000922561 -0.10260702053026589 0 0.33394415558616419 -0.088875271234394176 0 0.33124208916306752 -0.070838285854241803 0 0.33394415558616419 -0.088875271234394176 0 0.32441410858025432 -0.080765262628494594 0 0.33394415558616419 -0.088875271234394176 0 0.32441410858025432 -0.080765262628494594 0 0.31819808276666378 -0.091098456324580912 0 0.31819808276666378 -0.091098456324580912 0 0.31717626352542488 -0.081675693920731651 0 0.30972755686829639 -0.085122337361762723 0 0.31717626352542488 -0.081675693920731651 0 0.3128402789233915 -0.075216489604559275 0 0.30972755686829639 -0.085122337361762723 0 0.32441410858025432 -0.080765262628494594 0 0.31819808276666378 -0.091098456324580912 0 0.31717626352542488 -0.081675693920731651 0 0.31717626352542488 -0.081675693920731651 0 0.3128402789233915 -0.075216489604559275 0 0.32150995185995118 -0.071338605808524455 0 0.31612328822729258 -0.059275095265816258 0 0.3128402789233915 -0.075216489604559275 0 0.32150995185995118 -0.071338605808524455 0 0.32441410858025432 -0.080765262628494594 0 0.31717626352542488 -0.081675693920731651 0 0.32150995185995118 -0.071338605808524455 0 0.33124208916306752 -0.070838285854241803 0 0.32441410858025432 -0.080765262628494594 0 0.32150995185995118 -0.071338605808524455 0 0.32933493726664698 -0.062440336698660712 0 0.33124208916306752 -0.070838285854241803 0 0.32150995185995118 -0.071338605808524455 0 0.31612328822729258 -0.059275095265816258 0 0.32933493726664698 -0.062440336698660712 0 0.32150995185995118 -0.071338605808524455 0 0.31612328822729258 -0.059275095265816258 0 0.30068220208848551 -0.064461724945827859 0 0.29966433413599242 -0.078670715665961205 0 0.31612328822729258 -0.059275095265816258 0 0.3128402789233915 -0.075216489604559275 0 0.29966433413599242 -0.078670715665961205 0 0.31612328822729258 -0.059275095265816258 0 0.29966433413599242 -0.078670715665961205 0 0.30068220208848551 -0.064461724945827859 0 0.29966433413599242 -0.078670715665961205 0 0.29174467363149131 -0.071933042261296418 0 0.3128402789233915 -0.075216489604559275 0 0.30972755686829639 -0.085122337361762723 0 0.29966433413599242 -0.078670715665961205 0 0.30972755686829639 -0.085122337361762723 0 0.29966433413599242 -0.078670715665961205 0 0.30447614669950152 -0.097708086838430852 0 0.31819808276666378 -0.091098456324580912 0 0.30972755686829639 -0.085122337361762723 0 0.30447614669950152 -0.097708086838430852 0 0.29966433413599242 -0.078670715665961205 0 0.28320538004469209 -0.098066336066106055 0 0.29966433413599242 -0.078670715665961205 0 0.30447614669950152 -0.097708086838430852 0 0.28320538004469209 -0.098066336066106055 0 0.29966433413599242 -0.078670715665961205 0 0.28320538004469209 -0.098066336066106055 0 0.27980101819816589 -0.077986999334262799 0 0.28264746743242603 -0.062618378529017776 0 0.29174467363149131 -0.071933042261296418 0 0.27586501636160837 -0.065917900788499934 0 0.29966433413599242 -0.078670715665961205 0 0.29174467363149131 -0.071933042261296418 0 0.27980101819816589 -0.077986999334262799 0 0.28264746743242603 -0.062618378529017776 0 0.29174467363149131 -0.071933042261296418 0 0.29248891400058269 -0.05877025574232575 0 0.30068220208848551 -0.064461724945827859 0 0.29174467363149131 -0.071933042261296418 0 0.29248891400058269 -0.05877025574232575 0 0.3178236979143525 -0.1122176167082527 0 0.29702705167923699 -0.1146271593805115 0 0.30170324024254092 -0.13555996218211119 0 0.3178236979143525 -0.1122176167082527 0 0.30170324024254092 -0.13555996218211119 0 0.3178236979143525 -0.1122176167082527 0 0.29702705167923699 -0.1146271593805115 0 0.30447614669950152 -0.097708086838430852 0 0.29702705167923699 -0.1146271593805115 0 0.30447614669950152 -0.097708086838430852 0 0.28320538004469209 -0.098066336066106055 0 0.29702705167923699 -0.1146271593805115 0 0.28320538004469209 -0.098066336066106055 0 0.27508226902004979 -0.12538382156482611 0 0.28320538004469209 -0.098066336066106055 0 0.2555976831826946 -0.097776824926890368 0 0.27203342762988719 -0.087173556127698018 0 0.28320538004469209 -0.098066336066106055 0 0.2555976831826946 -0.097776824926890368 0 0.27508226902004979 -0.12538382156482611 0 0.2555976831826946 -0.097776824926890368 0 0.27508226902004979 -0.12538382156482611 0 0.24519980570365221 -0.12581360546915299 0 0.2555976831826946 -0.097776824926890368 0 0.24519980570365221 -0.12581360546915299 0 0.29174467363149131 -0.071933042261296418 0 0.26599556066173707 -0.069740044384627706 0 0.29174467363149131 -0.071933042261296418 0 0.26599556066173707 -0.069740044384627706 0 0.27586501636160837 -0.065917900788499934 0 0.29174467363149131 -0.071933042261296418 0 0.26599556066173707 -0.069740044384627706 0 0.27980101819816589 -0.077986999334262799 0 0.27044118367174608 -0.077440070825352605 0 0.26599556066173707 -0.069740044384627706 0 0.27980101819816589 -0.077986999334262799 0 0.26599556066173707 -0.069740044384627706 0 0.26859794288035799 -0.066578580494666084 0 0.27586501636160837 -0.065917900788499934 0 0.26599556066173707 -0.069740044384627706 0 0.26859794288035799 -0.066578580494666084 0 0.26548703533093548 -0.066705310873265977 0 0.26568850322730098 -0.065253537867017541 0 0.26956613604297308 -0.063373692440574003 0 0.26388937419802783 -0.061895847476177879 0 0.26859794288035799 -0.066578580494666084 0 0.26568850322730098 -0.065253537867017541 0 0.26548703533093548 -0.066705310873265977 0 0.26859794288035799 -0.066578580494666084 0 0.26568850322730098 -0.065253537867017541 0 0.26956613604297308 -0.063373692440574003 0 0.26859794288035799 -0.066578580494666084 0 0.26956613604297308 -0.063373692440574003 0 0.27586501636160837 -0.065917900788499934 0 0.26956613604297308 -0.063373692440574003 0 0.27586501636160837 -0.065917900788499934 0 0.27568573979135819 -0.061194152054485709 0 0.28264746743242603 -0.062618378529017776 0 0.27586501636160837 -0.065917900788499934 0 0.27568573979135819 -0.061194152054485709 0 0.28320538004469209 -0.098066336066106055 0 0.27980101819816589 -0.077986999334262799 0 0.27203342762988719 -0.087173556127698018 0 0.2555976831826946 -0.097776824926890368 0 0.27044118367174608 -0.077440070825352605 0 0.27203342762988719 -0.087173556127698018 0 0.27044118367174608 -0.077440070825352605 0 0.27980101819816589 -0.077986999334262799 0 0.27203342762988719 -0.087173556127698018 0 0.2555976831826946 -0.097776824926890368 0 0.27044118367174608 -0.077440070825352605 0 0.26599556066173707 -0.069740044384627706 0 0.2555976831826946 -0.097776824926890368 0 0.26599556066173707 -0.069740044384627706 0 0.252679373456828 -0.080748026421374769 0 0.2555976831826946 -0.097776824926890368 0 0.26599556066173707 -0.069740044384627706 0 0.26599556066173707 -0.069740044384627706 0 0.252679373456828 -0.080748026421374769 0 0.25149583211142079 -0.073284726092292446 0 0.26599556066173707 -0.069740044384627706 0 0.25149583211142079 -0.073284726092292446 0 0.2421906552545611 -0.067019104370792421 0 0.26599556066173707 -0.069740044384627706 0 0.26069403077305697 -0.065513051815335871 0 0.24752958393788471 -0.066322914211265252 0 0.26599556066173707 -0.069740044384627706 0 0.24752958393788471 -0.066322914211265252 0 0.2421906552545611 -0.067019104370792421 0 0.26599556066173707 -0.069740044384627706 0 0.2421906552545611 -0.067019104370792421 0 0.26568850322730098 -0.065253537867017541 0 0.26548703533093548 -0.066705310873265977 0 0.26069403077305697 -0.065513051815335871 0 0.26568850322730098 -0.065253537867017541 0 0.26069403077305697 -0.065513051815335871 0 0.26388937419802783 -0.061895847476177879 0 0.26599556066173707 -0.069740044384627706 0 0.26548703533093548 -0.066705310873265977 0 0.26069403077305697 -0.065513051815335871 0 0.26069403077305697 -0.065513051815335871 0 0.26009896326405968 -0.061456879003810173 0 0.26388937419802783 -0.061895847476177879 0 0.26069403077305697 -0.065513051815335871 0 0.25658122001858491 -0.06274115568125388 0 0.26009896326405968 -0.061456879003810173 0 0.26069403077305697 -0.065513051815335871 0 0.25658122001858491 -0.06274115568125388 0 0.24752958393788471 -0.066322914211265252 0 0.25285255830909897 -0.041201041574646727 0 0.24752958393788471 -0.066322914211265252 0 0.25923122806656901 -0.055677461042473057 0 0.25285255830909897 -0.041201041574646727 0 0.24752958393788471 -0.066322914211265252 0 0.25658122001858491 -0.06274115568125388 0 0.25923122806656901 -0.055677461042473057 0 0.24752958393788471 -0.066322914211265252 0 0.25923122806656901 -0.055677461042473057 0 0.26945131723713062 -0.056971830462735323 0 0.26749680052027319 -0.045995390219771878 0 0.25923122806656901 -0.055677461042473057 0 0.26749680052027319 -0.045995390219771878 0 0.25285255830909897 -0.041201041574646727 0 0.25923122806656901 -0.055677461042473057 0 0.26388937419802783 -0.061895847476177879 0 0.26945131723713062 -0.056971830462735323 0 0.26009896326405968 -0.061456879003810173 0 0.25923122806656901 -0.055677461042473057 0 0.26388937419802783 -0.061895847476177879 0 0.25658122001858491 -0.06274115568125388 0 0.26009896326405968 -0.061456879003810173 0 0.25923122806656901 -0.055677461042473057 0 0.26956613604297308 -0.063373692440574003 0 0.26388937419802783 -0.061895847476177879 0 0.26945131723713062 -0.056971830462735323 0 0.26956613604297308 -0.063373692440574003 0 0.26945131723713062 -0.056971830462735323 0 0.27568573979135819 -0.061194152054485709 0 0.26945131723713062 -0.056971830462735323 0 0.28117618802921668 -0.05235079415072616 0 0.26749680052027319 -0.045995390219771878 0 0.28264746743242603 -0.062618378529017776 0 0.28117618802921668 -0.05235079415072616 0 0.27568573979135819 -0.061194152054485709 0 0.26945131723713062 -0.056971830462735323 0 0.28117618802921668 -0.05235079415072616 0 0.27568573979135819 -0.061194152054485709 0 0.2806107996170556 -0.035355177483722633 0 0.27268398483100359 -0.035273121562662789 0 0.27990939836770551 -0.027893146479206099 0 0.2806107996170556 -0.035355177483722633 0 0.27655083520392448 -0.042269817778551197 0 0.27268398483100359 -0.035273121562662789 0 0.28117618802921668 -0.05235079415072616 0 0.27655083520392448 -0.042269817778551197 0 0.26749680052027319 -0.045995390219771878 0 0.28117618802921668 -0.05235079415072616 0 0.27655083520392448 -0.042269817778551197 0 0.28371797069443588 -0.04180987109130152 0 0.2806107996170556 -0.035355177483722633 0 0.27655083520392448 -0.042269817778551197 0 0.28371797069443588 -0.04180987109130152 0 0.27655083520392448 -0.042269817778551197 0 0.26749680052027319 -0.045995390219771878 0 0.27268398483100359 -0.035273121562662789 0 0.26749680052027319 -0.045995390219771878 0 0.27268398483100359 -0.035273121562662789 0 0.26512551099602011 -0.035224547424097863 0 0.27268398483100359 -0.035273121562662789 0 0.26512551099602011 -0.035224547424097863 0 0.27034983971768772 -0.027497381001413339 0 0.26512551099602011 -0.035224547424097863 0 0.25285255830909897 -0.041201041574646727 0 0.26338654314138682 -0.02666940318757554 0 0.26749680052027319 -0.045995390219771878 0 0.26512551099602011 -0.035224547424097863 0 0.25285255830909897 -0.041201041574646727 0 0.25285255830909897 -0.041201041574646727 0 0.25817553268031312 -0.01607916893802816 0 0.25285255830909897 -0.041201041574646727 0 0.25817553268031312 -0.01607916893802816 0 0.2462810632475016 -0.0267022375416851 0 0.25285255830909897 -0.041201041574646727 0 0.25817553268031312 -0.01607916893802816 0 0.26338654314138682 -0.02666940318757554 0 0.25817553268031312 -0.01607916893802816 0 0.26507354242832087 -0.0183998427927442 0 0.26338654314138682 -0.02666940318757554 0 0.25817553268031312 -0.01607916893802816 0 0.26507354242832087 -0.0183998427927442 0 0.25817553268031312 -0.01607916893802816 0 0.26507354242832087 -0.0183998427927442 0 0.26559496338202748 -0.014161613301403199 0 0.26249141269217191 0.0042897038784872124 0 0.25817553268031312 -0.01607916893802816 0 0.26249141269217191 0.0042897038784872124 0 0.25817553268031312 -0.01607916893802816 0 0.26559496338202748 -0.014161613301403199 0 0.26249141269217191 0.0042897038784872124 0 0.25817553268031312 -0.01607916893802816 0 0.23525203801956171 -0.0083670959399735415 0 0.26620112804302892 0.0052484816967997266 0 0.26249141269217191 0.0042897038784872124 0 0.26559496338202748 -0.014161613301403199 0 0.26620112804302892 0.0052484816967997266 0 0.26559496338202748 -0.014161613301403199 0 0.26620112804302892 0.0052484816967997266 0 0.26559496338202748 -0.014161613301403199 0 0.26882831774364357 -0.0061206532463611418 0 0.26950436116676529 5.0784174151398597e-05 0 0.26620112804302892 0.0052484816967997266 0 0.26882831774364357 -0.0061206532463611418 0 0.26950436116676529 5.0784174151398597e-05 0 0.27342826679344762 -0.001719184532610826 0 0.27047363337969832 -0.003122736703557066 0 0.26950436116676529 5.0784174151398597e-05 0 0.27047363337969832 -0.003122736703557066 0 0.26882831774364357 -0.0061206532463611418 0 0.27342826679344762 -0.001719184532610826 0 0.27047363337969832 -0.003122736703557066 0 0.27251236210179047 -0.0056080626697872877 0 0.26882831774364357 -0.0061206532463611418 0 0.27251236210179047 -0.0056080626697872877 0 0.27254304326544249 -0.010829131196369751 0 0.27047363337969832 -0.003122736703557066 0 0.26882831774364357 -0.0061206532463611418 0 0.27251236210179047 -0.0056080626697872877 0 0.26559496338202748 -0.014161613301403199 0 0.26882831774364357 -0.0061206532463611418 0 0.26901210708933881 -0.01166485402952439 0 0.26882831774364357 -0.0061206532463611418 0 0.27254304326544249 -0.010829131196369751 0 0.26901210708933881 -0.01166485402952439 0 0.26559496338202748 -0.014161613301403199 0 0.26901210708933881 -0.01166485402952439 0 0.26908210396624138 -0.01554801837396344 0 0.27254304326544249 -0.010829131196369751 0 0.26901210708933881 -0.01166485402952439 0 0.26908210396624138 -0.01554801837396344 0 0.27254304326544249 -0.010829131196369751 0 0.26908210396624138 -0.01554801837396344 0 0.2744280876361504 -0.017113085006664679 0 0.27254304326544249 -0.010829131196369751 0 0.27910547273021552 -0.01198476158282614 0 0.2744280876361504 -0.017113085006664679 0 0.27254304326544249 -0.010829131196369751 0 0.27910547273021552 -0.01198476158282614 0 0.27655938171606731 -0.0058674636309922106 0 0.27251236210179047 -0.0056080626697872877 0 0.27254304326544249 -0.010829131196369751 0 0.27655938171606731 -0.0058674636309922106 0 0.27342826679344762 -0.001719184532610826 0 0.27251236210179047 -0.0056080626697872877 0 0.27655938171606731 -0.0058674636309922106 0 0.27910547273021552 -0.01198476158282614 0 0.27655938171606731 -0.0058674636309922106 0 0.28397241609992152 -0.005100297287691383 0 0.27830450817623342 0.00016121309183629701 0 0.27655938171606731 -0.0058674636309922106 0 0.28397241609992152 -0.005100297287691383 0 0.27830450817623342 0.00016121309183629701 0 0.27342826679344762 -0.001719184532610826 0 0.27655938171606731 -0.0058674636309922106 0 0.26512551099602011 -0.035224547424097863 0 0.26338654314138682 -0.02666940318757554 0 0.27034983971768772 -0.027497381001413339 0 0.27034983971768772 -0.027497381001413339 0 0.2696858453667888 -0.021395780115632139 0 0.27566463051677598 -0.022898831679742989 0 0.26338654314138682 -0.02666940318757554 0 0.27034983971768772 -0.027497381001413339 0 0.2696858453667888 -0.021395780115632139 0 0.26507354242832087 -0.0183998427927442 0 0.26338654314138682 -0.02666940318757554 0 0.2696858453667888 -0.021395780115632139 0 0.26507354242832087 -0.0183998427927442 0 0.26559496338202748 -0.014161613301403199 0 0.26908210396624138 -0.01554801837396344 0 0.26507354242832087 -0.0183998427927442 0 0.26908210396624138 -0.01554801837396344 0 0.2696858453667888 -0.021395780115632139 0 0.26908210396624138 -0.01554801837396344 0 0.2696858453667888 -0.021395780115632139 0 0.2744280876361504 -0.017113085006664679 0 0.2696858453667888 -0.021395780115632139 0 0.27566463051677598 -0.022898831679742989 0 0.2744280876361504 -0.017113085006664679 0 0.27910547273021552 -0.01198476158282614 0 0.2744280876361504 -0.017113085006664679 0 0.28281354929038632 -0.018431171153073911 0 0.27566463051677598 -0.022898831679742989 0 0.27990939836770551 -0.027893146479206099 0 0.28281354929038632 -0.018431171153073911 0 0.27566463051677598 -0.022898831679742989 0 0.2744280876361504 -0.017113085006664679 0 0.28281354929038632 -0.018431171153073911 0 0.27034983971768772 -0.027497381001413339 0 0.27566463051677598 -0.022898831679742989 0 0.27990939836770551 -0.027893146479206099 0 0.27268398483100359 -0.035273121562662789 0 0.27034983971768772 -0.027497381001413339 0 0.27990939836770551 -0.027893146479206099 0 0.27990939836770551 -0.027893146479206099 0 0.28854657041947801 -0.02536591679524423 0 0.28281354929038632 -0.018431171153073911 0 0.27990939836770551 -0.027893146479206099 0 0.28854657041947801 -0.02536591679524423 0 0.2888622132689781 -0.033575821226129739 0 0.28281354929038632 -0.018431171153073911 0 0.29348092137777959 -0.017582422929641631 0 0.28800415063365942 -0.01115577843642509 0 0.28854657041947801 -0.02536591679524423 0 0.28281354929038632 -0.018431171153073911 0 0.29348092137777959 -0.017582422929641631 0 0.28854657041947801 -0.02536591679524423 0 0.29348092137777959 -0.017582422929641631 0 0.29707285050847282 -0.027445714552001371 0 0.28854657041947801 -0.02536591679524423 0 0.29707285050847282 -0.027445714552001371 0 0.2888622132689781 -0.033575821226129739 0 0.28397241609992152 -0.005100297287691383 0 0.28800415063365942 -0.01115577843642509 0 0.29480674430808651 -0.0053593656848261971 0 0.28620635765796709 0.003067424845049098 0 0.27830450817623342 0.00016121309183629701 0 0.28397241609992152 -0.005100297287691383 0 0.28620635765796709 0.003067424845049098 0 0.28397241609992152 -0.005100297287691383 0 0.29480674430808651 -0.0053593656848261971 0 0.27910547273021552 -0.01198476158282614 0 0.28397241609992152 -0.005100297287691383 0 0.28800415063365942 -0.01115577843642509 0 0.27910547273021552 -0.01198476158282614 0 0.28281354929038632 -0.018431171153073911 0 0.28800415063365942 -0.01115577843642509 0 0.29348092137777959 -0.017582422929641631 0 0.28800415063365942 -0.01115577843642509 0 0.29480674430808651 -0.0053593656848261971 0 0.3084370594916051 0.00067207699937176261 0 0.29480674430808651 -0.0053593656848261971 0 0.3100633173531816 -0.016291383302169171 0 0.29348092137777959 -0.017582422929641631 0 0.29480674430808651 -0.0053593656848261971 0 0.3100633173531816 -0.016291383302169171 0 0.3100633173531816 -0.016291383302169171 0 0.29707285050847282 -0.027445714552001371 0 0.30514946176226843 -0.034061907447509129 0 0.31785967005234922 -0.033238437166652091 0 0.3100633173531816 -0.016291383302169171 0 0.30514946176226843 -0.034061907447509129 0 0.29348092137777959 -0.017582422929641631 0 0.3100633173531816 -0.016291383302169171 0 0.29707285050847282 -0.027445714552001371 0 0.31785967005234922 -0.033238437166652091 0 0.30514946176226843 -0.034061907447509129 0 0.30292776814632749 -0.041685868699823103 0 0.31785967005234922 -0.033238437166652091 0 0.30514946176226843 -0.034061907447509129 0 0.31785967005234922 -0.033238437166652091 0 0.30338980044706798 -0.053659515793739683 0 0.31785967005234922 -0.033238437166652091 0 0.30292776814632749 -0.041685868699823103 0 0.30338980044706798 -0.053659515793739683 0 0.29707285050847282 -0.027445714552001371 0 0.30514946176226843 -0.034061907447509129 0 0.29670315392566637 -0.037317386518304491 0 0.30514946176226843 -0.034061907447509129 0 0.30292776814632749 -0.041685868699823103 0 0.29670315392566637 -0.037317386518304491 0 0.30292776814632749 -0.041685868699823103 0 0.29670315392566637 -0.037317386518304491 0 0.29271710163509918 -0.045636824575013002 0 0.31612328822729258 -0.059275095265816258 0 0.31785967005234922 -0.033238437166652091 0 0.30338980044706798 -0.053659515793739683 0 0.31612328822729258 -0.059275095265816258 0 0.30068220208848551 -0.064461724945827859 0 0.30338980044706798 -0.053659515793739683 0 0.30068220208848551 -0.064461724945827859 0 0.30338980044706798 -0.053659515793739683 0 0.29248891400058269 -0.05877025574232575 0 0.30292776814632749 -0.041685868699823103 0 0.30338980044706798 -0.053659515793739683 0 0.29271710163509918 -0.045636824575013002 0 0.30338980044706798 -0.053659515793739683 0 0.29248891400058269 -0.05877025574232575 0 0.29271710163509918 -0.045636824575013002 0 0.28264746743242603 -0.062618378529017776 0 0.28117618802921668 -0.05235079415072616 0 0.29248891400058269 -0.05877025574232575 0 0.28117618802921668 -0.05235079415072616 0 0.29248891400058269 -0.05877025574232575 0 0.29271710163509918 -0.045636824575013002 0 0.28371797069443588 -0.04180987109130152 0 0.2888622132689781 -0.033575821226129739 0 0.29271710163509918 -0.045636824575013002 0 0.28117618802921668 -0.05235079415072616 0 0.28371797069443588 -0.04180987109130152 0 0.29271710163509918 -0.045636824575013002 0 0.2806107996170556 -0.035355177483722633 0 0.28371797069443588 -0.04180987109130152 0 0.2888622132689781 -0.033575821226129739 0 0.2806107996170556 -0.035355177483722633 0 0.27990939836770551 -0.027893146479206099 0 0.2888622132689781 -0.033575821226129739 0 0.29707285050847282 -0.027445714552001371 0 0.2888622132689781 -0.033575821226129739 0 0.29670315392566637 -0.037317386518304491 0 0.2888622132689781 -0.033575821226129739 0 0.29670315392566637 -0.037317386518304491 0 0.29271710163509918 -0.045636824575013002 0 0.28971397713005842 -0.20603457687627011 0 0.29404868753522029 -0.21640569891733369 0 0.27739939288663112 -0.21244868276635129 0 0.29404868753522029 -0.21640569891733369 0 0.28759776413990701 -0.22657191141399011 0 0.27739939288663112 -0.21244868276635129 0 0.28971397713005842 -0.20603457687627011 0 0.28596534285256109 -0.1921063307840751 0 0.27739939288663112 -0.21244868276635129 0 0.28971397713005842 -0.20603457687627011 0 0.29404868753522029 -0.21640569891733369 0 0.30261335912915099 -0.2045543973543551 0 0.28971397713005842 -0.20603457687627011 0 0.28596534285256109 -0.1921063307840751 0 0.30261335912915099 -0.2045543973543551 0 0.28596534285256109 -0.1921063307840751 0 0.30261335912915099 -0.2045543973543551 0 0.28596534285256109 -0.1921063307840751 0 0.29891264919088117 -0.19216162270198289 0 0.30261335912915099 -0.2045543973543551 0 0.28596534285256109 -0.1921063307840751 0 0.27821819423612459 -0.18631362731087731 0 0.28596534285256109 -0.1921063307840751 0 0.29891264919088117 -0.19216162270198289 0 0.29902569171846172 -0.18002784805210581 0 0.29891264919088117 -0.19216162270198289 0 0.31063249370683849 -0.19277612657211249 0 0.30261335912915099 -0.2045543973543551 0 0.29891264919088117 -0.19216162270198289 0 0.31063249370683849 -0.19277612657211249 0 0.29902569171846172 -0.18002784805210581 0 0.31063249370683849 -0.19277612657211249 0 0.30261335912915099 -0.2045543973543551 0 0.31438348477095218 -0.20541421950788641 0 0.29404868753522029 -0.21640569891733369 0 0.30261335912915099 -0.2045543973543551 0 0.30585546227474242 -0.22677380164707861 0 0.30261335912915099 -0.2045543973543551 0 0.30585546227474242 -0.22677380164707861 0 0.31438348477095218 -0.20541421950788641 0 0.30585546227474242 -0.22677380164707861 0 0.28917533577701149 -0.23960001680084941 0 0.30585546227474242 -0.22677380164707861 0 0.3019564501337329 -0.24366028749932159 0 0.31511381228511531 -0.24106673712159241 0 0.30585546227474242 -0.22677380164707861 0 0.3019564501337329 -0.24366028749932159 0 0.28917533577701149 -0.23960001680084941 0 0.3019564501337329 -0.24366028749932159 0 0.31511381228511531 -0.24106673712159241 0 0.30555600159032242 -0.2566669108934001 0 0.28917533577701149 -0.23960001680084941 0 0.27672644931797519 -0.23838866835328451 0 0.28934312027097869 -0.25461743690163502 0 0.3019564501337329 -0.24366028749932159 0 0.28917533577701149 -0.23960001680084941 0 0.28934312027097869 -0.25461743690163502 0 0.28917533577701149 -0.23960001680084941 0 0.28759776413990701 -0.22657191141399011 0 0.27672644931797519 -0.23838866835328451 0 0.30585546227474242 -0.22677380164707861 0 0.28917533577701149 -0.23960001680084941 0 0.28759776413990701 -0.22657191141399011 0 0.29404868753522029 -0.21640569891733369 0 0.30585546227474242 -0.22677380164707861 0 0.28759776413990701 -0.22657191141399011 0 0.28759776413990701 -0.22657191141399011 0 0.27672644931797519 -0.23838866835328451 0 0.27739939288663112 -0.21244868276635129 0 0.2649527899029816 -0.23051322114060371 0 0.25596260931772219 -0.21701241972076021 0 0.27739939288663112 -0.21244868276635129 0 0.27672644931797519 -0.23838866835328451 0 0.27739939288663112 -0.21244868276635129 0 0.27672644931797519 -0.23838866835328451 0 0.2649527899029816 -0.23051322114060371 0 0.27739939288663112 -0.21244868276635129 0 0.27672644931797519 -0.23838866835328451 0 0.26201284875209052 -0.24864288363549761 0 0.2649527899029816 -0.23051322114060371 0 0.26201284875209052 -0.24864288363549761 0 0.25266264924048881 -0.23607345122712481 0 0.24106351552099611 -0.25430938085000399 0 0.26201284875209052 -0.24864288363549761 0 0.25266264924048881 -0.23607345122712481 0 0.2649527899029816 -0.23051322114060371 0 0.25266264924048881 -0.23607345122712481 0 0.2649527899029816 -0.23051322114060371 0 0.25596260931772219 -0.21701241972076021 0 0.25266264924048881 -0.23607345122712481 0 0.25596260931772219 -0.21701241972076021 0 0.24412969886453681 -0.22894283192195949 0 0.25596260931772219 -0.21701241972076021 0 0.26467203080016249 -0.19676410507855849 0 0.24689540112038311 -0.19692544440775719 0 0.25596260931772219 -0.21701241972076021 0 0.27739939288663112 -0.21244868276635129 0 0.26467203080016249 -0.19676410507855849 0 0.27739939288663112 -0.21244868276635129 0 0.27821819423612459 -0.18631362731087731 0 0.27739939288663112 -0.21244868276635129 0 0.26467203080016249 -0.19676410507855849 0 0.27821819423612459 -0.18631362731087731 0 0.28596534285256109 -0.1921063307840751 0 0.27739939288663112 -0.21244868276635129 0 0.27821819423612459 -0.18631362731087731 0 0.26467203080016249 -0.19676410507855849 0 0.27821819423612459 -0.18631362731087731 0 0.26931732657597141 -0.1796582642137951 0 0.26467203080016249 -0.19676410507855849 0 0.26931732657597141 -0.1796582642137951 0 0.24689540112038311 -0.19692544440775719 0 0.26931732657597141 -0.1796582642137951 0 0.24689540112038311 -0.19692544440775719 0 0.25200319217637229 -0.18136374100611921 0 0.25205962740029131 -0.16675432511260549 0 0.26931732657597141 -0.1796582642137951 0 0.25200319217637229 -0.18136374100611921 0 0.26931732657597141 -0.1796582642137951 0 0.24689540112038311 -0.19692544440775719 0 0.25205962740029131 -0.16675432511260549 0 0.26931732657597141 -0.1796582642137951 0 0.26546319222197923 -0.15978345364830179 0 0.25205962740029131 -0.16675432511260549 0 0.26931732657597141 -0.1796582642137951 0 0.26546319222197923 -0.15978345364830179 0 0.25205962740029131 -0.16675432511260549 0 0.24719800764502139 -0.15526407084396271 0 0.26546319222197923 -0.15978345364830179 0 0.28178227103384629 -0.1486096845000246 0 0.28662940579849161 -0.16632618922944459 0 0.26546319222197923 -0.15978345364830179 0 0.26931732657597141 -0.1796582642137951 0 0.28662940579849161 -0.16632618922944459 0 0.27821819423612459 -0.18631362731087731 0 0.26931732657597141 -0.1796582642137951 0 0.28523444173637141 -0.17952965806985521 0 0.26931732657597141 -0.1796582642137951 0 0.28662940579849161 -0.16632618922944459 0 0.26931732657597141 -0.1796582642137951 0 0.28523444173637141 -0.17952965806985521 0 0.28662940579849161 -0.16632618922944459 0 0.27821819423612459 -0.18631362731087731 0 0.26931732657597141 -0.1796582642137951 0 0.25466928141146888 -0.14527200608688259 0 0.27508226902004979 -0.12538382156482611 0 0.24519980570365221 -0.12581360546915299 0 0.26546319222197923 -0.15978345364830179 0 0.25466928141146888 -0.14527200608688259 0 0.24719800764502139 -0.15526407084396271 0 0.26546319222197923 -0.15978345364830179 0 0.25466928141146888 -0.14527200608688259 0 0.28178227103384629 -0.1486096845000246 0 0.25466928141146888 -0.14527200608688259 0 0.27508226902004979 -0.12538382156482611 0 0.28178227103384629 -0.1486096845000246 0 0.27508226902004979 -0.12538382156482611 0 0.28178227103384629 -0.1486096845000246 0 0.30170324024254092 -0.13555996218211119 0 0.29702705167923699 -0.1146271593805115 0 0.27508226902004979 -0.12538382156482611 0 0.30170324024254092 -0.13555996218211119 0 0.28178227103384629 -0.1486096845000246 0 0.30170324024254092 -0.13555996218211119 0 0.30714623750854758 -0.15933267428858139 0 0.30170324024254092 -0.13555996218211119 0 0.30714623750854758 -0.15933267428858139 0 0.32502847073995172 -0.14261732486992229 0 0.28523444173637141 -0.17952965806985521 0 0.28662940579849161 -0.16632618922944459 0 0.29902569171846172 -0.18002784805210581 0 0.28596534285256109 -0.1921063307840751 0 0.28523444173637141 -0.17952965806985521 0 0.29902569171846172 -0.18002784805210581 0 0.28596534285256109 -0.1921063307840751 0 0.27821819423612459 -0.18631362731087731 0 0.28523444173637141 -0.17952965806985521 0 0.28178227103384629 -0.1486096845000246 0 0.28662940579849161 -0.16632618922944459 0 0.30714623750854758 -0.15933267428858139 0 0.28662940579849161 -0.16632618922944459 0 0.30714623750854758 -0.15933267428858139 0 0.29902569171846172 -0.18002784805210581 0 0.31063249370683849 -0.19277612657211249 0 0.29902569171846172 -0.18002784805210581 0 0.3178880493198144 -0.1799153141107328 0 0.30714623750854758 -0.15933267428858139 0 0.29902569171846172 -0.18002784805210581 0 0.3178880493198144 -0.1799153141107328 0 0.3178880493198144 -0.1799153141107328 0 0.3292084099802875 -0.16488224995252659 0 0.33105057444836811 -0.18347483885079729 0 0.3178880493198144 -0.1799153141107328 0 0.33105057444836811 -0.18347483885079729 0 0.32327761101866198 -0.19738968062632559 0 0.30714623750854758 -0.15933267428858139 0 0.3178880493198144 -0.1799153141107328 0 0.3292084099802875 -0.16488224995252659 0 0.3292084099802875 -0.16488224995252659 0 0.34550993387316092 -0.15167229139454269 0 0.34566308665287282 -0.17406557822486479 0 0.33105057444836811 -0.18347483885079729 0 0.34566308665287282 -0.17406557822486479 0 0.339215715270204 -0.2011213713395367 0 0.3292084099802875 -0.16488224995252659 0 0.33105057444836811 -0.18347483885079729 0 0.34566308665287282 -0.17406557822486479 0 0.33238356573625621 -0.1246700638432007 0 0.30170324024254092 -0.13555996218211119 0 0.32502847073995172 -0.14261732486992229 0 0.30714623750854758 -0.15933267428858139 0 0.3292084099802875 -0.16488224995252659 0 0.32502847073995172 -0.14261732486992229 0 0.32502847073995172 -0.14261732486992229 0 0.33914680172031569 -0.13657371922757999 0 0.34550993387316092 -0.15167229139454269 0 0.3292084099802875 -0.16488224995252659 0 0.32502847073995172 -0.14261732486992229 0 0.34550993387316092 -0.15167229139454269 0 0.33238356573625621 -0.1246700638432007 0 0.32502847073995172 -0.14261732486992229 0 0.33238356573625621 -0.1246700638432007 0 0.33914680172031569 -0.13657371922757999 0 0.3536652365318943 -0.12733519680265429 0 0.33238356573625621 -0.1246700638432007 0 0.32502847073995172 -0.14261732486992229 0 0.33914680172031569 -0.13657371922757999 0 0.33914680172031569 -0.13657371922757999 0 0.3536652365318943 -0.12733519680265429 0 0.34550993387316092 -0.15167229139454269 0 0.34550993387316092 -0.15167229139454269 0 0.36759181233122712 -0.14794759078882949 0 0.36002084120491118 -0.16273285954793679 0 0.3536652365318943 -0.12733519680265429 0 0.34550993387316092 -0.15167229139454269 0 0.36759181233122712 -0.14794759078882949 0 0.3536652365318943 -0.12733519680265429 0 0.36759181233122712 -0.14794759078882949 0 0.38390448925249981 -0.137867457507165 0 0.38268043090252241 -0.1187307337418545 0 0.3536652365318943 -0.12733519680265429 0 0.38390448925249981 -0.137867457507165 0 0.3536652365318943 -0.12733519680265429 0 0.36759181233122712 -0.14794759078882949 0 0.34566308665287282 -0.17406557822486479 0 0.35986916935657909 -0.17654894330908949 0 0.35194431037084201 -0.19133369380674201 0 0.35986916935657909 -0.17654894330908949 0 0.36557687130629601 -0.18677449891381559 0 0.35194431037084201 -0.19133369380674201 0 0.34550993387316092 -0.15167229139454269 0 0.34566308665287282 -0.17406557822486479 0 0.36002084120491118 -0.16273285954793679 0 0.34566308665287282 -0.17406557822486479 0 0.36002084120491118 -0.16273285954793679 0 0.35986916935657909 -0.17654894330908949 0 0.36759181233122712 -0.14794759078882949 0 0.36002084120491118 -0.16273285954793679 0 0.37351549096646658 -0.16702039940201849 0 0.36613796968121448 -0.17066664626282399 0 0.36002084120491118 -0.16273285954793679 0 0.37351549096646658 -0.16702039940201849 0 0.36759181233122712 -0.14794759078882949 0 0.37351549096646658 -0.16702039940201849 0 0.3815183881305601 -0.16855998477500461 0 0.36759181233122712 -0.14794759078882949 0 0.3815183881305601 -0.16855998477500461 0 0.36613796968121448 -0.17066664626282399 0 0.36002084120491118 -0.16273285954793679 0 0.35986916935657909 -0.17654894330908949 0 0.36613796968121448 -0.17066664626282399 0 0.37351549096646658 -0.16702039940201849 0 0.37114637719690119 -0.17636438279225139 0 0.36613796968121448 -0.17066664626282399 0 0.37114637719690119 -0.17636438279225139 0 0.35986916935657909 -0.17654894330908949 0 0.37114637719690119 -0.17636438279225139 0 0.35986916935657909 -0.17654894330908949 0 0.36557687130629601 -0.18677449891381559 0 0.37114637719690119 -0.17636438279225139 0 0.36557687130629601 -0.18677449891381559 0 0.37324357296736638 -0.1848514472565618 0 0.36557687130629601 -0.18677449891381559 0 0.37324357296736638 -0.1848514472565618 0 0.37277973029657752 -0.19258898053873769 0 0.37277973029657752 -0.19258898053873769 0 0.36234083102103049 -0.19801724373216001 0 0.37584136655445111 -0.20242635099391151 0 0.36557687130629601 -0.18677449891381559 0 0.36234083102103049 -0.19801724373216001 0 0.35194431037084201 -0.19133369380674201 0 0.36557687130629601 -0.18677449891381559 0 0.37277973029657752 -0.19258898053873769 0 0.36234083102103049 -0.19801724373216001 0 0.36234083102103049 -0.19801724373216001 0 0.35565332716364551 -0.20964302089381939 0 0.37584136655445111 -0.20242635099391151 0 0.364239949277744 -0.2118224570903664 0 0.35565332716364551 -0.20964302089381939 0 0.37584136655445111 -0.20242635099391151 0 0.35565332716364551 -0.20964302089381939 0 0.37584136655445111 -0.20242635099391151 0 0.37430879412312978 -0.2114105169084749 0 0.364239949277744 -0.2118224570903664 0 0.36505695777370861 -0.22348269864653189 0 0.37430879412312978 -0.2114105169084749 0 0.364239949277744 -0.2118224570903664 0 0.37584136655445111 -0.20242635099391151 0 0.364239949277744 -0.2118224570903664 0 0.37584136655445111 -0.20242635099391151 0 0.364239949277744 -0.2118224570903664 0 0.35781907257039741 -0.21867145425382639 0 0.36505695777370861 -0.22348269864653189 0 0.35565332716364551 -0.20964302089381939 0 0.33546528777284002 -0.21685969079372761 0 0.35565332716364551 -0.20964302089381939 0 0.33546528777284002 -0.21685969079372761 0 0.34849120938094341 -0.22077007824113079 0 0.35565332716364551 -0.20964302089381939 0 0.34952250612387231 -0.20135463251867511 0 0.33546528777284002 -0.21685969079372761 0 0.35781907257039741 -0.21867145425382639 0 0.35565332716364551 -0.20964302089381939 0 0.34849120938094341 -0.22077007824113079 0 0.364239949277744 -0.2118224570903664 0 0.35781907257039741 -0.21867145425382639 0 0.35565332716364551 -0.20964302089381939 0 0.34566308665287282 -0.17406557822486479 0 0.35194431037084201 -0.19133369380674201 0 0.339215715270204 -0.2011213713395367 0 0.36234083102103049 -0.19801724373216001 0 0.35194431037084201 -0.19133369380674201 0 0.34952250612387231 -0.20135463251867511 0 0.36234083102103049 -0.19801724373216001 0 0.35565332716364551 -0.20964302089381939 0 0.34952250612387231 -0.20135463251867511 0 0.35194431037084201 -0.19133369380674201 0 0.339215715270204 -0.2011213713395367 0 0.35194431037084201 -0.19133369380674201 0 0.34952250612387231 -0.20135463251867511 0 0.339215715270204 -0.2011213713395367 0 0.34566308665287282 -0.17406557822486479 0 0.339215715270204 -0.2011213713395367 0 0.33105057444836811 -0.18347483885079729 0 0.339215715270204 -0.2011213713395367 0 0.32327761101866198 -0.19738968062632559 0 0.339215715270204 -0.2011213713395367 0 0.33546528777284002 -0.21685969079372761 0 0.339215715270204 -0.2011213713395367 0 0.33546528777284002 -0.21685969079372761 0 0.32253558877247318 -0.2139475864933077 0 0.34952250612387231 -0.20135463251867511 0 0.339215715270204 -0.2011213713395367 0 0.33546528777284002 -0.21685969079372761 0 0.339215715270204 -0.2011213713395367 0 0.32253558877247318 -0.2139475864933077 0 0.32327761101866198 -0.19738968062632559 0 0.339215715270204 -0.2011213713395367 0 0.32253558877247318 -0.2139475864933077 0 0.33546528777284002 -0.21685969079372761 0 0.32253558877247318 -0.2139475864933077 0 0.3269628132802827 -0.21989909202320559 0 0.33546528777284002 -0.21685969079372761 0 0.3269628132802827 -0.21989909202320559 0 0.30585546227474242 -0.22677380164707861 0 0.32253558877247318 -0.2139475864933077 0 0.31438348477095218 -0.20541421950788641 0 0.32253558877247318 -0.2139475864933077 0 0.31438348477095218 -0.20541421950788641 0 0.32327761101866198 -0.19738968062632559 0 0.31063249370683849 -0.19277612657211249 0 0.3178880493198144 -0.1799153141107328 0 0.32327761101866198 -0.19738968062632559 0 0.31063249370683849 -0.19277612657211249 0 0.31438348477095218 -0.20541421950788641 0 0.32327761101866198 -0.19738968062632559 0 0.31511381228511531 -0.24106673712159241 0 0.32031297508770268 -0.22737543724808509 0 0.3310971988259 -0.2351899689552413 0 0.31511381228511531 -0.24106673712159241 0 0.3310971988259 -0.2351899689552413 0 0.3267291098789597 -0.25352024711675503 0 0.30585546227474242 -0.22677380164707861 0 0.32253558877247318 -0.2139475864933077 0 0.32031297508770268 -0.22737543724808509 0 0.30585546227474242 -0.22677380164707861 0 0.32253558877247318 -0.2139475864933077 0 0.30585546227474242 -0.22677380164707861 0 0.31511381228511531 -0.24106673712159241 0 0.32031297508770268 -0.22737543724808509 0 0.32253558877247318 -0.2139475864933077 0 0.3269628132802827 -0.21989909202320559 0 0.32031297508770268 -0.22737543724808509 0 0.3269628132802827 -0.21989909202320559 0 0.32031297508770268 -0.22737543724808509 0 0.3310971988259 -0.2351899689552413 0 0.33546528777284002 -0.21685969079372761 0 0.3269628132802827 -0.21989909202320559 0 0.3310971988259 -0.2351899689552413 0 0.33546528777284002 -0.21685969079372761 0 0.34071506904669119 -0.22810292989230219 0 0.3310971988259 -0.2351899689552413 0 0.33546528777284002 -0.21685969079372761 0 0.3310971988259 -0.2351899689552413 0 0.33546528777284002 -0.21685969079372761 0 0.34071506904669119 -0.22810292989230219 0 0.34849120938094341 -0.22077007824113079 0 0.34071506904669119 -0.22810292989230219 0 0.34291683112288501 -0.24736075120898571 0 0.3310971988259 -0.2351899689552413 0 0.3310971988259 -0.2351899689552413 0 0.3267291098789597 -0.25352024711675503 0 0.34291683112288501 -0.24736075120898571 0 0.3310971988259 -0.2351899689552413 0 0.3267291098789597 -0.25352024711675503 0 0.34071506904669119 -0.22810292989230219 0 0.34291683112288501 -0.24736075120898571 0 0.35352975218641408 -0.23015649416455261 0 0.34291683112288501 -0.24736075120898571 0 0.35352975218641408 -0.23015649416455261 0 0.36383203281962961 -0.24618222065141809 0 0.34071506904669119 -0.22810292989230219 0 0.34849120938094341 -0.22077007824113079 0 0.35352975218641408 -0.23015649416455261 0 0.35781907257039741 -0.21867145425382639 0 0.35352975218641408 -0.23015649416455261 0 0.36505695777370861 -0.22348269864653189 0 0.35781907257039741 -0.21867145425382639 0 0.34849120938094341 -0.22077007824113079 0 0.35352975218641408 -0.23015649416455261 0 0.36383203281962961 -0.24618222065141809 0 0.37674590994312501 -0.2218344328209943 0 0.36505695777370861 -0.22348269864653189 0 0.36383203281962961 -0.24618222065141809 0 0.37674590994312501 -0.2218344328209943 0 0.35352975218641408 -0.23015649416455261 0 0.36505695777370861 -0.22348269864653189 0 0.36383203281962961 -0.24618222065141809 0 0.37430879412312978 -0.2114105169084749 0 0.36505695777370861 -0.22348269864653189 0 0.37674590994312501 -0.2218344328209943 0 0.36383203281962961 -0.24618222065141809 0 0.38785060649788589 -0.23926610295104661 0 0.38812440974736068 -0.25584948403710173 0 0.36383203281962961 -0.24618222065141809 0 0.38785060649788589 -0.23926610295104661 0 0.37674590994312501 -0.2218344328209943 0 0.38785060649788589 -0.23926610295104661 0 0.38812440974736068 -0.25584948403710173 0 0.40548157904688631 -0.25073623437051878 0 0.38785060649788589 -0.23926610295104661 0 0.40564166139848168 -0.22986463262839801 0 0.40548157904688631 -0.25073623437051878 0 0.38785060649788589 -0.23926610295104661 0 0.40564166139848168 -0.22986463262839801 0 0.3889793814777408 -0.2264043892394903 0 0.40564166139848168 -0.22986463262839801 0 0.39753520034955608 -0.2206288507200522 0 0.41292673236745098 -0.20695124928664149 0 0.40564166139848168 -0.22986463262839801 0 0.39753520034955608 -0.2206288507200522 0 0.3889793814777408 -0.2264043892394903 0 0.39753520034955608 -0.2206288507200522 0 0.3889793814777408 -0.2264043892394903 0 0.38741723438792941 -0.21483199812469281 0 0.38785060649788589 -0.23926610295104661 0 0.3889793814777408 -0.2264043892394903 0 0.37674590994312501 -0.2218344328209943 0 0.3889793814777408 -0.2264043892394903 0 0.37674590994312501 -0.2218344328209943 0 0.38741723438792941 -0.21483199812469281 0 0.37674590994312501 -0.2218344328209943 0 0.38965978706662058 -0.19748664499057039 0 0.37430879412312978 -0.2114105169084749 0 0.37674590994312501 -0.2218344328209943 0 0.38965978706662058 -0.19748664499057039 0 0.37674590994312501 -0.2218344328209943 0 0.38741723438792941 -0.21483199812469281 0 0.38965978706662058 -0.19748664499057039 0 0.37430879412312978 -0.2114105169084749 0 0.37584136655445111 -0.20242635099391151 0 0.38965978706662058 -0.19748664499057039 0 0.37584136655445111 -0.20242635099391151 0 0.38965978706662058 -0.19748664499057039 0 0.39449856882269918 -0.18836361939352611 0 0.37584136655445111 -0.20242635099391151 0 0.39449856882269918 -0.18836361939352611 0 0.38262153637678559 -0.1889907577025372 0 0.37584136655445111 -0.20242635099391151 0 0.39449856882269918 -0.18836361939352611 0 0.37277973029657752 -0.19258898053873769 0 0.38262153637678559 -0.1889907577025372 0 0.37584136655445111 -0.20242635099391151 0 0.37324357296736638 -0.1848514472565618 0 0.37277973029657752 -0.19258898053873769 0 0.38262153637678559 -0.1889907577025372 0 0.37584136655445111 -0.20242635099391151 0 0.38965978706662058 -0.19748664499057039 0 0.38965978706662058 -0.19748664499057039 0 0.40110954771742202 -0.19339366986553611 0 0.41292673236745098 -0.20695124928664149 0 0.38965978706662058 -0.19748664499057039 0 0.39449856882269918 -0.18836361939352611 0 0.38965978706662058 -0.19748664499057039 0 0.39449856882269918 -0.18836361939352611 0 0.40110954771742202 -0.19339366986553611 0 0.38965978706662058 -0.19748664499057039 0 0.40110954771742202 -0.19339366986553611 0 0.39753520034955608 -0.2206288507200522 0 0.38741723438792941 -0.21483199812469281 0 0.41292673236745098 -0.20695124928664149 0 0.38741723438792941 -0.21483199812469281 0 0.38965978706662058 -0.19748664499057039 0 0.41292673236745098 -0.20695124928664149 0 0.38741723438792941 -0.21483199812469281 0 0.41292673236745098 -0.20695124928664149 0 0.40110954771742202 -0.19339366986553611 0 0.41292673236745098 -0.20695124928664149 0 0.41980221522420941 -0.19051986767327189 0 0.41980221522420941 -0.19051986767327189 0 0.43581852265189658 -0.17900616334583769 0 0.43843623034697271 -0.1990705004485904 0 0.41292673236745098 -0.20695124928664149 0 0.41980221522420941 -0.19051986767327189 0 0.43843623034697271 -0.1990705004485904 0 0.41292673236745098 -0.20695124928664149 0 0.43843623034697271 -0.1990705004485904 0 0.43581852265189658 -0.17900616334583769 0 0.43843623034697271 -0.1990705004485904 0 0.42378849416839809 -0.2226629533764472 0 0.44229604948655321 -0.2286554355877975 0 0.43843623034697271 -0.1990705004485904 0 0.41292673236745098 -0.20695124928664149 0 0.42378849416839809 -0.2226629533764472 0 0.43843623034697271 -0.1990705004485904 0 0.42378849416839809 -0.2226629533764472 0 0.42447166081872628 -0.24276247401476411 0 0.44229604948655321 -0.2286554355877975 0 0.40564166139848168 -0.22986463262839801 0 0.42447166081872628 -0.24276247401476411 0 0.40548157904688631 -0.25073623437051878 0 0.40564166139848168 -0.22986463262839801 0 0.42378849416839809 -0.2226629533764472 0 0.42447166081872628 -0.24276247401476411 0 0.40564166139848168 -0.22986463262839801 0 0.41292673236745098 -0.20695124928664149 0 0.42378849416839809 -0.2226629533764472 0 0.4029285439519591 -0.12917429444513351 0 0.38390448925249981 -0.137867457507165 0 0.39928370438245941 -0.1506454957085735 0 0.38268043090252241 -0.1187307337418545 0 0.4029285439519591 -0.12917429444513351 0 0.38390448925249981 -0.137867457507165 0 0.36759181233122712 -0.14794759078882949 0 0.38390448925249981 -0.137867457507165 0 0.3815183881305601 -0.16855998477500461 0 0.38390448925249981 -0.137867457507165 0 0.39928370438245941 -0.1506454957085735 0 0.3815183881305601 -0.16855998477500461 0 0.4029285439519591 -0.12917429444513351 0 0.39928370438245941 -0.1506454957085735 0 0.41141289483177768 -0.14481752109205129 0 0.39928370438245941 -0.1506454957085735 0 0.3815183881305601 -0.16855998477500461 0 0.41072004303730142 -0.17417775541975289 0 0.3815183881305601 -0.16855998477500461 0 0.41072004303730142 -0.17417775541975289 0 0.37351549096646658 -0.16702039940201849 0 0.3815183881305601 -0.16855998477500461 0 0.37351549096646658 -0.16702039940201849 0 0.37114637719690119 -0.17636438279225139 0 0.3815183881305601 -0.16855998477500461 0 0.3815183881305601 -0.16855998477500461 0 0.39031834039916158 -0.18158458506681821 0 0.3815183881305601 -0.16855998477500461 0 0.38110790107520082 -0.18028756179617161 0 0.39031834039916158 -0.18158458506681821 0 0.37114637719690119 -0.17636438279225139 0 0.3815183881305601 -0.16855998477500461 0 0.38110790107520082 -0.18028756179617161 0 0.37114637719690119 -0.17636438279225139 0 0.37324357296736638 -0.1848514472565618 0 0.38110790107520082 -0.18028756179617161 0 0.37324357296736638 -0.1848514472565618 0 0.38262153637678559 -0.1889907577025372 0 0.38110790107520082 -0.18028756179617161 0 0.38262153637678559 -0.1889907577025372 0 0.39449856882269918 -0.18836361939352611 0 0.38683212066175587 -0.18479123944308959 0 0.38110790107520082 -0.18028756179617161 0 0.39031834039916158 -0.18158458506681821 0 0.38683212066175587 -0.18479123944308959 0 0.38262153637678559 -0.1889907577025372 0 0.38110790107520082 -0.18028756179617161 0 0.38683212066175587 -0.18479123944308959 0 0.39449856882269918 -0.18836361939352611 0 0.39031834039916158 -0.18158458506681821 0 0.38683212066175587 -0.18479123944308959 0 0.3815183881305601 -0.16855998477500461 0 0.39031834039916158 -0.18158458506681821 0 0.41072004303730142 -0.17417775541975289 0 0.39449856882269918 -0.18836361939352611 0 0.40110954771742202 -0.19339366986553611 0 0.41072004303730142 -0.17417775541975289 0 0.39449856882269918 -0.18836361939352611 0 0.41072004303730142 -0.17417775541975289 0 0.39449856882269918 -0.18836361939352611 0 0.39031834039916158 -0.18158458506681821 0 0.41072004303730142 -0.17417775541975289 0 0.40110954771742202 -0.19339366986553611 0 0.41980221522420941 -0.19051986767327189 0 0.41072004303730142 -0.17417775541975289 0 0.41980221522420941 -0.19051986767327189 0 0.41072004303730142 -0.17417775541975289 0 0.43581852265189658 -0.17900616334583769 0 0.41072004303730142 -0.17417775541975289 0 0.43581852265189658 -0.17900616334583769 0 0.43581852265189658 -0.17900616334583769 0 0.43289472663100748 -0.15659570510665111 0 0.44020446596641311 -0.16455167262556891 0 0.43581852265189658 -0.17900616334583769 0 0.4300195154443564 -0.1585469160130531 0 0.43289472663100748 -0.15659570510665111 0 0.41072004303730142 -0.17417775541975289 0 0.43581852265189658 -0.17900616334583769 0 0.4300195154443564 -0.1585469160130531 0 0.43581852265189658 -0.17900616334583769 0 0.43289472663100748 -0.15659570510665111 0 0.43289472663100748 -0.15659570510665111 0 0.43937523047236471 -0.1569093664061697 0 0.44020446596641311 -0.16455167262556891 0 0.41072004303730142 -0.17417775541975289 0 0.4300195154443564 -0.1585469160130531 0 0.39928370438245941 -0.1506454957085735 0 0.41072004303730142 -0.17417775541975289 0 0.41463827740007048 -0.1565783090271623 0 0.41072004303730142 -0.17417775541975289 0 0.4300195154443564 -0.1585469160130531 0 0.41463827740007048 -0.1565783090271623 0 0.39928370438245941 -0.1506454957085735 0 0.41463827740007048 -0.1565783090271623 0 0.41141289483177768 -0.14481752109205129 0 0.41141289483177768 -0.14481752109205129 0 0.42272766421896057 -0.1484267801086856 0 0.41805904906976959 -0.13584368347494519 0 0.41463827740007048 -0.1565783090271623 0 0.41141289483177768 -0.14481752109205129 0 0.42272766421896057 -0.1484267801086856 0 0.4300195154443564 -0.1585469160130531 0 0.41463827740007048 -0.1565783090271623 0 0.42272766421896057 -0.1484267801086856 0 0.4300195154443564 -0.1585469160130531 0 0.43289472663100748 -0.15659570510665111 0 0.42272766421896057 -0.1484267801086856 0 0.43289472663100748 -0.15659570510665111 0 0.43726051855018128 -0.14403166833750369 0 0.42997093061011571 -0.13418524686746491 0 0.43289472663100748 -0.15659570510665111 0 0.42997093061011571 -0.13418524686746491 0 0.43289472663100748 -0.15659570510665111 0 0.42272766421896057 -0.1484267801086856 0 0.42997093061011571 -0.13418524686746491 0 0.43289472663100748 -0.15659570510665111 0 0.43726051855018128 -0.14403166833750369 0 0.43944763960928163 -0.15123749663807079 0 0.43289472663100748 -0.15659570510665111 0 0.43944763960928163 -0.15123749663807079 0 0.43937523047236471 -0.1569093664061697 0 0.42272766421896057 -0.1484267801086856 0 0.42997093061011571 -0.13418524686746491 0 0.41805904906976959 -0.13584368347494519 0 0.43726051855018128 -0.14403166833750369 0 0.42997093061011571 -0.13418524686746491 0 0.44092840394862748 -0.13413780759635199 0 0.43405352689338139 -0.1237898792763122 0 0.42997093061011571 -0.13418524686746491 0 0.44092840394862748 -0.13413780759635199 0 0.41809802924037148 -0.1245556586332161 0 0.42997093061011571 -0.13418524686746491 0 0.41805904906976959 -0.13584368347494519 0 0.4029285439519591 -0.12917429444513351 0 0.41141289483177768 -0.14481752109205129 0 0.41805904906976959 -0.13584368347494519 0 0.41809802924037148 -0.1245556586332161 0 0.4029285439519591 -0.12917429444513351 0 0.41805904906976959 -0.13584368347494519 0 0.45603568459558769 -0.1253646756922662 0 0.46224066433068112 -0.13946798081136741 0 0.47801784229779409 -0.12693947210822021 0 0.45603568459558769 -0.1253646756922662 0 0.46224066433068112 -0.13946798081136741 0 0.44732135909387161 -0.14331756780821289 0 0.45603568459558769 -0.1253646756922662 0 0.47801784229779409 -0.12693947210822021 0 0.45603568459558769 -0.1253646756922662 0 0.44092840394862748 -0.13413780759635199 0 0.44732135909387161 -0.14331756780821289 0 0.43405352689338139 -0.1237898792763122 0 0.45603568459558769 -0.1253646756922662 0 0.44092840394862748 -0.13413780759635199 0 0.43726051855018128 -0.14403166833750369 0 0.44092840394862748 -0.13413780759635199 0 0.44732135909387161 -0.14331756780821289 0 0.43726051855018128 -0.14403166833750369 0 0.44732135909387161 -0.14331756780821289 0 0.43944763960928163 -0.15123749663807079 0 0.44732135909387161 -0.14331756780821289 0 0.43944763960928163 -0.15123749663807079 0 0.44495408968275668 -0.15525259125438809 0 0.43944763960928163 -0.15123749663807079 0 0.44495408968275668 -0.15525259125438809 0 0.43937523047236471 -0.1569093664061697 0 0.44495408968275668 -0.15525259125438809 0 0.45462782785611261 -0.15062476729126831 0 0.45384103907820839 -0.15965432870698679 0 0.44732135909387161 -0.14331756780821289 0 0.44495408968275668 -0.15525259125438809 0 0.45462782785611261 -0.15062476729126831 0 0.45462782785611261 -0.15062476729126831 0 0.46478198709504498 -0.15543136787538631 0 0.45384103907820839 -0.15965432870698679 0 0.46224066433068112 -0.13946798081136741 0 0.45462782785611261 -0.15062476729126831 0 0.46478198709504498 -0.15543136787538631 0 0.46224066433068112 -0.13946798081136741 0 0.44732135909387161 -0.14331756780821289 0 0.45462782785611261 -0.15062476729126831 0 0.46478198709504498 -0.15543136787538631 0 0.45975822693672808 -0.1714798058019682 0 0.45384103907820839 -0.15965432870698679 0 0.45975822693672808 -0.1714798058019682 0 0.45384103907820839 -0.15965432870698679 0 0.44661586001820719 -0.1652986931045709 0 0.44495408968275668 -0.15525259125438809 0 0.45384103907820839 -0.15965432870698679 0 0.44661586001820719 -0.1652986931045709 0 0.44495408968275668 -0.15525259125438809 0 0.44020446596641311 -0.16455167262556891 0 0.44661586001820719 -0.1652986931045709 0 0.44495408968275668 -0.15525259125438809 0 0.43937523047236471 -0.1569093664061697 0 0.44020446596641311 -0.16455167262556891 0 0.44020446596641311 -0.16455167262556891 0 0.44661586001820719 -0.1652986931045709 0 0.4447706730156743 -0.17356678676512199 0 0.45975822693672808 -0.1714798058019682 0 0.44661586001820719 -0.1652986931045709 0 0.4447706730156743 -0.17356678676512199 0 0.45975822693672808 -0.1714798058019682 0 0.4447706730156743 -0.17356678676512199 0 0.4486435361934325 -0.18147342024694549 0 0.43581852265189658 -0.17900616334583769 0 0.4486435361934325 -0.18147342024694549 0 0.43843623034697271 -0.1990705004485904 0 0.43581852265189658 -0.17900616334583769 0 0.44020446596641311 -0.16455167262556891 0 0.4447706730156743 -0.17356678676512199 0 0.43581852265189658 -0.17900616334583769 0 0.4447706730156743 -0.17356678676512199 0 0.4486435361934325 -0.18147342024694549 0 0.43581852265189658 -0.17900616334583769 0 0.4486435361934325 -0.18147342024694549 0 0.45975822693672808 -0.1714798058019682 0 0.4486435361934325 -0.18147342024694549 0 0.4661752840856519 -0.19050096624234161 0 0.45975822693672808 -0.1714798058019682 0 0.47286616667508552 -0.17870811038920389 0 0.4661752840856519 -0.19050096624234161 0 0.47286616667508552 -0.17870811038920389 0 0.48189034731872271 -0.16637093324185459 0 0.4835849203782997 -0.18809547300347121 0 0.45975822693672808 -0.1714798058019682 0 0.47286616667508552 -0.17870811038920389 0 0.48189034731872271 -0.16637093324185459 0 0.47286616667508552 -0.17870811038920389 0 0.4661752840856519 -0.19050096624234161 0 0.4835849203782997 -0.18809547300347121 0 0.5 -0.1793354207594722 0 0.48189034731872271 -0.16637093324185459 0 0.4835849203782997 -0.18809547300347121 0 0.5 -0.1793354207594722 0 0.48189034731872271 -0.16637093324185459 0 0.5 -0.15392484464182329 0 0.46478198709504498 -0.15543136787538631 0 0.45975822693672808 -0.1714798058019682 0 0.48189034731872271 -0.16637093324185459 0 0.46224066433068112 -0.13946798081136741 0 0.46478198709504498 -0.15543136787538631 0 0.48118697129977628 -0.14601331275548121 0 0.46478198709504498 -0.15543136787538631 0 0.48189034731872271 -0.16637093324185459 0 0.48118697129977628 -0.14601331275548121 0 0.48189034731872271 -0.16637093324185459 0 0.48118697129977628 -0.14601331275548121 0 0.5 -0.15392484464182329 0 0.48118697129977628 -0.14601331275548121 0 0.5 -0.15392484464182329 0 0.50000000000000044 -0.12851426852417419 0 0.48118697129977628 -0.14601331275548121 0 0.50000000000000044 -0.12851426852417419 0 0.47801784229779409 -0.12693947210822021 0 0.50000000000000044 -0.12851426852417419 0 0.47801784229779409 -0.12693947210822021 0 0.46224066433068112 -0.13946798081136741 0 0.48118697129977628 -0.14601331275548121 0 0.47801784229779409 -0.12693947210822021 0 0.45467981751373487 -0.23733732564245441 0 0.45890028945874167 -0.2153283928188216 0 0.47327637908969611 -0.2283686974824535 0 0.45467981751373487 -0.23733732564245441 0 0.47327637908969611 -0.2283686974824535 0 0.46897211936132849 -0.2449017698852255 0 0.45467981751373487 -0.23733732564245441 0 0.46897211936132849 -0.2449017698852255 0 0.45552772156092769 -0.25243745756899538 0 0.45467981751373487 -0.23733732564245441 0 0.45552772156092769 -0.25243745756899538 0 0.4461558686261326 -0.2582403707270049 0 0.44229604948655321 -0.2286554355877975 0 0.4461558686261326 -0.2582403707270049 0 0.42447166081872628 -0.24276247401476411 0 0.44229604948655321 -0.2286554355877975 0 0.4461558686261326 -0.2582403707270049 0 0.45467981751373487 -0.23733732564245441 0 0.44229604948655321 -0.2286554355877975 0 0.4461558686261326 -0.2582403707270049 0 0.45467981751373487 -0.23733732564245441 0 0.44229604948655321 -0.2286554355877975 0 0.45890028945874167 -0.2153283928188216 0 0.44229604948655321 -0.2286554355877975 0 0.43843623034697271 -0.1990705004485904 0 0.44229604948655321 -0.2286554355877975 0 0.43843623034697271 -0.1990705004485904 0 0.45890028945874167 -0.2153283928188216 0 0.43843623034697271 -0.1990705004485904 0 0.4661752840856519 -0.19050096624234161 0 0.4486435361934325 -0.18147342024694549 0 0.43843623034697271 -0.1990705004485904 0 0.4661752840856519 -0.19050096624234161 0 0.43843623034697271 -0.1990705004485904 0 0.4661752840856519 -0.19050096624234161 0 0.45890028945874167 -0.2153283928188216 0 0.4661752840856519 -0.19050096624234161 0 0.45890028945874167 -0.2153283928188216 0 0.48054279420225121 -0.20992062096884659 0 0.45890028945874167 -0.2153283928188216 0 0.48054279420225121 -0.20992062096884659 0 0.47327637908969611 -0.2283686974824535 0 0.4661752840856519 -0.19050096624234161 0 0.48054279420225121 -0.20992062096884659 0 0.4835849203782997 -0.18809547300347121 0 0.48054279420225121 -0.20992062096884659 0 0.4835849203782997 -0.18809547300347121 0 0.5 -0.20474599687712119 0 0.5 -0.1793354207594722 0 0.4835849203782997 -0.18809547300347121 0 0.5 -0.20474599687712119 0 0.48054279420225121 -0.20992062096884659 0 0.5 -0.20474599687712119 0 0.5 -0.23015657299476999 0 0.5 -0.23015657299476999 0 0.47327637908969611 -0.2283686974824535 0 0.48548767353917271 -0.24122277598219319 0 0.48054279420225121 -0.20992062096884659 0 0.5 -0.23015657299476999 0 0.47327637908969611 -0.2283686974824535 0 0.47327637908969611 -0.2283686974824535 0 0.46897211936132849 -0.2449017698852255 0 0.48548767353917271 -0.24122277598219319 0 0.46897211936132849 -0.2449017698852255 0 0.48548767353917271 -0.24122277598219319 0 0.48002806034260359 -0.25457739829257647 0 0.5 -0.23015657299476999 0 0.48548767353917271 -0.24122277598219319 0 0.49999999999999772 -0.25556714911241879 0 0.48548767353917271 -0.24122277598219319 0 0.49999999999999772 -0.25556714911241879 0 0.48002806034260359 -0.25457739829257647 0 0.49999999999999772 -0.25556714911241879 0 0.48011656874964048 -0.26812184337486739 0 0.48002806034260359 -0.25457739829257647 0 0.49999999999999772 -0.25556714911241879 0 0.48896257373273599 -0.27745314871623888 0 0.48011656874964048 -0.26812184337486739 0 0.49999999999999772 -0.25556714911241879 0 0.48896257373273599 -0.27745314871623888 0 0.49999999999999772 -0.25556714911241879 0 0.48896257373273599 -0.27745314871623888 0 0.5 -0.28556654911024532 0 0.48011656874964048 -0.26812184337486739 0 0.47027418090554041 -0.25918535441323848 0 0.46672643451320128 -0.27588830294452771 0 0.48896257373273599 -0.27745314871623888 0 0.47816259615139961 -0.28064196019991827 0 0.48011656874964048 -0.26812184337486739 0 0.47816259615139961 -0.28064196019991827 0 0.48011656874964048 -0.26812184337486739 0 0.46672643451320128 -0.27588830294452771 0 0.48011656874964048 -0.26812184337486739 0 0.48002806034260359 -0.25457739829257647 0 0.47027418090554041 -0.25918535441323848 0 0.46897211936132849 -0.2449017698852255 0 0.48002806034260359 -0.25457739829257647 0 0.47027418090554041 -0.25918535441323848 0 0.45552772156092769 -0.25243745756899538 0 0.46672643451320128 -0.27588830294452771 0 0.46897211936132849 -0.2449017698852255 0 0.47027418090554041 -0.25918535441323848 0 0.45552772156092769 -0.25243745756899538 0 0.47027418090554041 -0.25918535441323848 0 0.45552772156092769 -0.25243745756899538 0 0.46672643451320128 -0.27588830294452771 0 0.45552772156092769 -0.25243745756899538 0 0.46672643451320128 -0.27588830294452771 0 0.45599112809264392 -0.27375174428423033 0 0.46672643451320128 -0.27588830294452771 0 0.45599112809264392 -0.27375174428423033 0 0.46273292608764088 -0.28650464575765849 0 0.4461558686261326 -0.2582403707270049 0 0.45001568776571221 -0.2878253058662123 0 0.42346631218590641 -0.26641521739841828 0 0.4461558686261326 -0.2582403707270049 0 0.45001568776571221 -0.2878253058662123 0 0.45599112809264392 -0.27375174428423033 0 0.4461558686261326 -0.2582403707270049 0 0.45001568776571221 -0.2878253058662123 0 0.45552772156092769 -0.25243745756899538 0 0.45599112809264392 -0.27375174428423033 0 0.4461558686261326 -0.2582403707270049 0 0.45001568776571221 -0.2878253058662123 0 0.45348050052947952 -0.31438257634410449 0 0.45001568776571221 -0.2878253058662123 0 0.45348050052947952 -0.31438257634410449 0 0.43092484188059299 -0.30904602540650661 0 0.46672643451320128 -0.27588830294452771 0 0.46273292608764088 -0.28650464575765849 0 0.46765083456251583 -0.2960920893180321 0 0.45001568776571221 -0.2878253058662123 0 0.46273292608764088 -0.28650464575765849 0 0.4594865641100489 -0.29891267694249829 0 0.45001568776571221 -0.2878253058662123 0 0.46273292608764088 -0.28650464575765849 0 0.45599112809264392 -0.27375174428423033 0 0.45001568776571221 -0.2878253058662123 0 0.46273292608764088 -0.28650464575765849 0 0.46273292608764088 -0.28650464575765849 0 0.46765083456251583 -0.2960920893180321 0 0.4594865641100489 -0.29891267694249829 0 0.46765083456251583 -0.2960920893180321 0 0.4594865641100489 -0.29891267694249829 0 0.46472628860809628 -0.30691193190695593 0 0.45001568776571221 -0.2878253058662123 0 0.4594865641100489 -0.29891267694249829 0 0.45348050052947952 -0.31438257634410449 0 0.4594865641100489 -0.29891267694249829 0 0.46472628860809628 -0.30691193190695593 0 0.45348050052947952 -0.31438257634410449 0 0.47792514746547571 -0.2993391483200597 0 0.46743523037936158 -0.32013949757102839 0 0.47792514746547571 -0.2993391483200597 0 0.48481798592447872 -0.31377320780434959 0 0.46743523037936158 -0.32013949757102839 0 0.46472628860809628 -0.30691193190695593 0 0.47792514746547571 -0.2993391483200597 0 0.46743523037936158 -0.32013949757102839 0 0.46765083456251583 -0.2960920893180321 0 0.46472628860809628 -0.30691193190695593 0 0.47792514746547571 -0.2993391483200597 0 0.47792514746547571 -0.2993391483200597 0 0.48481798592447872 -0.31377320780434959 0 0.46672643451320128 -0.27588830294452771 0 0.46765083456251583 -0.2960920893180321 0 0.47792514746547571 -0.2993391483200597 0 0.48896257373273599 -0.27745314871623888 0 0.47816259615139961 -0.28064196019991827 0 0.47792514746547571 -0.2993391483200597 0 0.47816259615139961 -0.28064196019991827 0 0.46672643451320128 -0.27588830294452771 0 0.47792514746547571 -0.2993391483200597 0 0.48896257373273599 -0.27745314871623888 0 0.47792514746547571 -0.2993391483200597 0 0.46672643451320128 -0.27588830294452771 0 0.47792514746547571 -0.2993391483200597 0 0.48896257373273599 -0.27745314871623888 0 0.47792514746547571 -0.2993391483200597 0 0.49296240512384037 -0.2943401217596831 0 0.48896257373273599 -0.27745314871623888 0 0.5 -0.28556654911024532 0 0.49296240512384037 -0.2943401217596831 0 0.49296240512384037 -0.2943401217596831 0 0.5 -0.31556594910807151 0 0.48481798592447872 -0.31377320780434959 0 0.47792514746547571 -0.2993391483200597 0 0.49296240512384037 -0.2943401217596831 0 0.48481798592447872 -0.31377320780434959 0 0.49296240512384037 -0.2943401217596831 0 0.48481798592447872 -0.31377320780434959 0 0.5 -0.28556654911024532 0 0.49296240512384037 -0.2943401217596831 0 0.5 -0.31556594910807151 0 0.5 -0.31556594910807151 0 0.48481798592447872 -0.31377320780434959 0 0.49240899296223789 -0.32966927845512412 0 0.48481798592447872 -0.31377320780434959 0 0.49240899296223789 -0.32966927845512412 0 0.48481798592447872 -0.31377320780434959 0 0.49240899296223789 -0.32966927845512412 0 0.47683176194058341 -0.33282883031739691 0 0.49240899296223789 -0.32966927845512412 0 0.49999999999999872 -0.3455653491058977 0 0.48387749969612498 -0.34546934435223309 0 0.49240899296223789 -0.32966927845512412 0 0.49999999999999872 -0.3455653491058977 0 0.5 -0.31556594910807151 0 0.49240899296223789 -0.32966927845512412 0 0.49999999999999872 -0.3455653491058977 0 0.49240899296223789 -0.32966927845512412 0 0.47683176194058341 -0.33282883031739691 0 0.48387749969612498 -0.34546934435223309 0 0.47683176194058341 -0.33282883031739691 0 0.48387749969612498 -0.34546934435223309 0 0.46884553795668737 -0.35188445283044378 0 0.47683176194058341 -0.33282883031739691 0 0.46884553795668737 -0.35188445283044378 0 0.48481798592447872 -0.31377320780434959 0 0.47683176194058341 -0.33282883031739691 0 0.48481798592447872 -0.31377320780434959 0 0.47683176194058341 -0.33282883031739691 0 0.46743523037936158 -0.32013949757102839 0 0.49999999999999872 -0.3455653491058977 0 0.48130120562111872 -0.36739881105230271 0 0.5 -0.38091007834664159 0 0.49999999999999872 -0.3455653491058977 0 0.48387749969612498 -0.34546934435223309 0 0.48130120562111872 -0.36739881105230271 0 0.48387749969612498 -0.34546934435223309 0 0.46884553795668737 -0.35188445283044378 0 0.48130120562111872 -0.36739881105230271 0 0.46884553795668737 -0.35188445283044378 0 0.48130120562111872 -0.36739881105230271 0 0.46085931397278929 -0.37094007534348988 0 0.46085931397278929 -0.37094007534348988 0 0.45237178336746903 -0.36876261071416477 0 0.456945313293247 -0.34093984682199691 0 0.46884553795668737 -0.35188445283044378 0 0.46085931397278929 -0.37094007534348988 0 0.46085931397278929 -0.37094007534348988 0 0.45987565248166612 -0.37328715227162362 0 0.45237178336746903 -0.36876261071416477 0 0.46085931397278929 -0.37094007534348988 0 0.45987565248166612 -0.37328715227162362 0 0.46884553795668737 -0.35188445283044378 0 0.46085931397278929 -0.37094007534348988 0 0.456945313293247 -0.34093984682199691 0 0.46085931397278929 -0.37094007534348988 0 0.456945313293247 -0.34093984682199691 0 0.44588430581635302 -0.36287260536510452 0 0.45237178336746903 -0.36876261071416477 0 0.456945313293247 -0.34093984682199691 0 0.43828042526866579 -0.34784089634659632 0 0.44588430581635302 -0.36287260536510452 0 0.456945313293247 -0.34093984682199691 0 0.44588430581635302 -0.36287260536510452 0 0.456945313293247 -0.34093984682199691 0 0.44588430581635302 -0.36287260536510452 0 0.45237178336746903 -0.36876261071416477 0 0.43482329833945899 -0.38480536390821202 0 0.44588430581635302 -0.36287260536510452 0 0.43482329833945899 -0.38480536390821202 0 0.45348050052947952 -0.31438257634410449 0 0.46743523037936158 -0.32013949757102839 0 0.456945313293247 -0.34093984682199691 0 0.45348050052947952 -0.31438257634410449 0 0.456945313293247 -0.34093984682199691 0 0.46472628860809628 -0.30691193190695593 0 0.45348050052947952 -0.31438257634410449 0 0.46743523037936158 -0.32013949757102839 0 0.47683176194058341 -0.33282883031739691 0 0.46884553795668737 -0.35188445283044378 0 0.456945313293247 -0.34093984682199691 0 0.46743523037936158 -0.32013949757102839 0 0.456945313293247 -0.34093984682199691 0 0.47683176194058341 -0.33282883031739691 0 0.46743523037936158 -0.32013949757102839 0 0.456945313293247 -0.34093984682199691 0 0.45348050052947952 -0.31438257634410449 0 0.456945313293247 -0.34093984682199691 0 0.43628149660596932 -0.32983340006086881 0 0.43828042526866579 -0.34784089634659632 0 0.456945313293247 -0.34093984682199691 0 0.43628149660596932 -0.32983340006086881 0 0.45348050052947952 -0.31438257634410449 0 0.43628149660596932 -0.32983340006086881 0 0.43092484188059299 -0.30904602540650661 0 0.43628149660596932 -0.32983340006086881 0 0.41458473269078772 -0.32373097187068872 0 0.43092484188059299 -0.30904602540650661 0 0.43628149660596932 -0.32983340006086881 0 0.42422457250317708 -0.34308428380434791 0 0.41458473269078772 -0.32373097187068872 0 0.43828042526866579 -0.34784089634659632 0 0.43628149660596932 -0.32983340006086881 0 0.42422457250317708 -0.34308428380434791 0 0.42422457250317708 -0.34308428380434791 0 0.41458473269078772 -0.32373097187068872 0 0.40478897816076931 -0.33914027469010971 0 0.41458473269078772 -0.32373097187068872 0 0.43092484188059299 -0.30904602540650661 0 0.4093633932181433 -0.30758022574527211 0 0.44588430581635302 -0.36287260536510452 0 0.42806643812458273 -0.36247434568066328 0 0.43482329833945899 -0.38480536390821202 0 0.42806643812458273 -0.36247434568066328 0 0.43482329833945899 -0.38480536390821202 0 0.41482136141528692 -0.37584837039035562 0 0.43828042526866579 -0.34784089634659632 0 0.44588430581635302 -0.36287260536510452 0 0.42806643812458273 -0.36247434568066328 0 0.43828042526866579 -0.34784089634659632 0 0.42422457250317708 -0.34308428380434791 0 0.42806643812458273 -0.36247434568066328 0 0.42422457250317708 -0.34308428380434791 0 0.40682757229895727 -0.35963381513623122 0 0.40478897816076931 -0.33914027469010971 0 0.42422457250317708 -0.34308428380434791 0 0.42806643812458273 -0.36247434568066328 0 0.40682757229895727 -0.35963381513623122 0 0.42806643812458273 -0.36247434568066328 0 0.40682757229895727 -0.35963381513623122 0 0.41482136141528692 -0.37584837039035562 0 0.40682757229895727 -0.35963381513623122 0 0.41482136141528692 -0.37584837039035562 0 0.39800288984005783 -0.37801533290038491 0 0.40682757229895727 -0.35963381513623122 0 0.38896916079744459 -0.36567426066007391 0 0.39800288984005783 -0.37801533290038491 0 0.38896916079744459 -0.36567426066007391 0 0.39800288984005783 -0.37801533290038491 0 0.3850910293602145 -0.37990840779429941 0 0.40682757229895727 -0.35963381513623122 0 0.38852825282261239 -0.34978877813009462 0 0.38896916079744459 -0.36567426066007391 0 0.40682757229895727 -0.35963381513623122 0 0.38852825282261239 -0.34978877813009462 0 0.40478897816076931 -0.33914027469010971 0 0.38852825282261239 -0.34978877813009462 0 0.37121840188661642 -0.33577984796825039 0 0.37295616137165088 -0.36570703907621399 0 0.38896916079744459 -0.36567426066007391 0 0.3850910293602145 -0.37990840779429941 0 0.37295616137165088 -0.36570703907621399 0 0.38852825282261239 -0.34978877813009462 0 0.38896916079744459 -0.36567426066007391 0 0.37295616137165088 -0.36570703907621399 0 0.41458473269078772 -0.32373097187068872 0 0.40478897816076931 -0.33914027469010971 0 0.38977976048831198 -0.31946352450918619 0 0.41458473269078772 -0.32373097187068872 0 0.38977976048831198 -0.31946352450918619 0 0.4093633932181433 -0.30758022574527211 0 0.38852825282261239 -0.34978877813009462 0 0.40478897816076931 -0.33914027469010971 0 0.38977976048831198 -0.31946352450918619 0 0.38852825282261239 -0.34978877813009462 0 0.38977976048831198 -0.31946352450918619 0 0.37121840188661642 -0.33577984796825039 0 0.38977976048831198 -0.31946352450918619 0 0.39799346276306879 -0.29322771129257719 0 0.37198235026174742 -0.29592891400576299 0 0.38977976048831198 -0.31946352450918619 0 0.39799346276306879 -0.29322771129257719 0 0.4093633932181433 -0.30758022574527211 0 0.39799346276306879 -0.29322771129257719 0 0.37198235026174742 -0.29592891400576299 0 0.39799346276306879 -0.29322771129257719 0 0.37940807851883712 -0.27232152391431907 0 0.37198235026174742 -0.29592891400576299 0 0.37940807851883712 -0.27232152391431907 0 0.38812440974736068 -0.25584948403710173 0 0.40315190114151772 -0.27213715685946099 0 0.36383203281962961 -0.24618222065141809 0 0.37940807851883712 -0.27232152391431907 0 0.38812440974736068 -0.25584948403710173 0 0.38812440974736068 -0.25584948403710173 0 0.40548157904688631 -0.25073623437051878 0 0.40315190114151772 -0.27213715685946099 0 0.39799346276306879 -0.29322771129257719 0 0.37940807851883712 -0.27232152391431907 0 0.40315190114151772 -0.27213715685946099 0 0.40315190114151772 -0.27213715685946099 0 0.42346631218590641 -0.26641521739841828 0 0.42400457526439028 -0.29052650857939138 0 0.40548157904688631 -0.25073623437051878 0 0.40315190114151772 -0.27213715685946099 0 0.42346631218590641 -0.26641521739841828 0 0.42447166081872628 -0.24276247401476411 0 0.40548157904688631 -0.25073623437051878 0 0.42346631218590641 -0.26641521739841828 0 0.42447166081872628 -0.24276247401476411 0 0.4461558686261326 -0.2582403707270049 0 0.42346631218590641 -0.26641521739841828 0 0.45001568776571221 -0.2878253058662123 0 0.42400457526439028 -0.29052650857939138 0 0.45001568776571221 -0.2878253058662123 0 0.42346631218590641 -0.26641521739841828 0 0.42400457526439028 -0.29052650857939138 0 0.45001568776571221 -0.2878253058662123 0 0.42400457526439028 -0.29052650857939138 0 0.43092484188059299 -0.30904602540650661 0 0.42400457526439028 -0.29052650857939138 0 0.43092484188059299 -0.30904602540650661 0 0.4093633932181433 -0.30758022574527211 0 0.39799346276306879 -0.29322771129257719 0 0.42400457526439028 -0.29052650857939138 0 0.4093633932181433 -0.30758022574527211 0 0.39799346276306879 -0.29322771129257719 0 0.40315190114151772 -0.27213715685946099 0 0.42400457526439028 -0.29052650857939138 0 0.39799346276306879 -0.29322771129257719 0 0.42400457526439028 -0.29052650857939138 0 0.5 -0.5 0 0.46732909817997881 -0.46983845281198588 0 0.4328388304215689 -0.49999999999999889 0 0.5 -0.5 0 0.46732909817997881 -0.46983845281198588 0 0.5 -0.43047938547919312 0 0.43890701971264512 -0.47541192361627538 0 0.46732909817997881 -0.46983845281198588 0 0.4328388304215689 -0.49999999999999889 0 0.46732909817997881 -0.46983845281198588 0 0.46999952589132332 -0.44099842963155123 0 0.5 -0.43047938547919312 0 0.46732909817997881 -0.46983845281198588 0 0.46999952589132332 -0.44099842963155123 0 0.45565980309991377 -0.448490867787115 0 0.46999952589132332 -0.44099842963155123 0 0.45565980309991377 -0.448490867787115 0 0.45188602644840142 -0.43214937180040219 0 0.46732909817997881 -0.46983845281198588 0 0.45565980309991377 -0.448490867787115 0 0.4423526780154543 -0.45731115431110481 0 0.43890701971264512 -0.47541192361627538 0 0.4423526780154543 -0.45731115431110481 0 0.43222286374566149 -0.46479889321230661 0 0.43890701971264512 -0.47541192361627538 0 0.46732909817997881 -0.46983845281198588 0 0.4423526780154543 -0.45731115431110481 0 0.45565980309991377 -0.448490867787115 0 0.43942373113660121 -0.44424904110188002 0 0.45188602644840142 -0.43214937180040219 0 0.45565980309991377 -0.448490867787115 0 0.4423526780154543 -0.45731115431110481 0 0.43942373113660121 -0.44424904110188002 0 0.45188602644840142 -0.43214937180040219 0 0.44695528862468509 -0.4139867918361792 0 0.43263469414452499 -0.42952346727145158 0 0.43942373113660121 -0.44424904110188002 0 0.45188602644840142 -0.43214937180040219 0 0.43263469414452499 -0.42952346727145158 0 0.44695528862468509 -0.4139867918361792 0 0.442513334463769 -0.3982356942716917 0 0.42376229086256489 -0.40673812245131957 0 0.45188602644840142 -0.43214937180040219 0 0.44695528862468509 -0.4139867918361792 0 0.46695278858514472 -0.41764564486886419 0 0.44695528862468509 -0.4139867918361792 0 0.46695278858514472 -0.41764564486886419 0 0.463906051278966 -0.39429286010617731 0 0.46999952589132332 -0.44099842963155123 0 0.46695278858514472 -0.41764564486886419 0 0.46999952589132332 -0.44099842963155123 0 0.45188602644840142 -0.43214937180040219 0 0.46695278858514472 -0.41764564486886419 0 0.46999952589132332 -0.44099842963155123 0 0.46695278858514472 -0.41764564486886419 0 0.5 -0.43047938547919312 0 0.46695278858514472 -0.41764564486886419 0 0.5 -0.43047938547919312 0 0.5 -0.38091007834664159 0 0.48130120562111872 -0.36739881105230271 0 0.5 -0.38091007834664159 0 0.463906051278966 -0.39429286010617731 0 0.46695278858514472 -0.41764564486886419 0 0.5 -0.38091007834664159 0 0.463906051278966 -0.39429286010617731 0 0.48130120562111872 -0.36739881105230271 0 0.46085931397278929 -0.37094007534348988 0 0.463906051278966 -0.39429286010617731 0 0.45987565248166612 -0.37328715227162362 0 0.463906051278966 -0.39429286010617731 0 0.45052810737700361 -0.38404441779702397 0 0.46085931397278929 -0.37094007534348988 0 0.463906051278966 -0.39429286010617731 0 0.46085931397278929 -0.37094007534348988 0 0.45987565248166612 -0.37328715227162362 0 0.463906051278966 -0.39429286010617731 0 0.45987565248166612 -0.37328715227162362 0 0.45237178336746903 -0.36876261071416477 0 0.45052810737700361 -0.38404441779702397 0 0.46695278858514472 -0.41764564486886419 0 0.463906051278966 -0.39429286010617731 0 0.44695528862468509 -0.4139867918361792 0 0.463906051278966 -0.39429286010617731 0 0.442513334463769 -0.3982356942716917 0 0.463906051278966 -0.39429286010617731 0 0.442513334463769 -0.3982356942716917 0 0.45052810737700361 -0.38404441779702397 0 0.45237178336746903 -0.36876261071416477 0 0.45052810737700361 -0.38404441779702397 0 0.43482329833945899 -0.38480536390821202 0 0.442513334463769 -0.3982356942716917 0 0.45052810737700361 -0.38404441779702397 0 0.43482329833945899 -0.38480536390821202 0 0.442513334463769 -0.3982356942716917 0 0.43482329833945899 -0.38480536390821202 0 0.42376229086256489 -0.40673812245131957 0 0.43482329833945899 -0.38480536390821202 0 0.42376229086256489 -0.40673812245131957 0 0.43482329833945899 -0.38480536390821202 0 0.40638660847337782 -0.3943129943262863 0 0.42376229086256489 -0.40673812245131957 0 0.40638660847337782 -0.3943129943262863 0 0.41482136141528692 -0.37584837039035562 0 0.39800288984005783 -0.37801533290038491 0 0.43482329833945899 -0.38480536390821202 0 0.40638660847337782 -0.3943129943262863 0 0.41482136141528692 -0.37584837039035562 0 0.40638660847337782 -0.3943129943262863 0 0.39800288984005783 -0.37801533290038491 0 0.39089043695276682 -0.39335864435168599 0 0.39800288984005783 -0.37801533290038491 0 0.3850910293602145 -0.37990840779429941 0 0.39089043695276682 -0.39335864435168599 0 0.3850910293602145 -0.37990840779429941 0 0.39089043695276682 -0.39335864435168599 0 0.3746939208566854 -0.39563423018417743 0 0.3850910293602145 -0.37990840779429941 0 0.3746939208566854 -0.39563423018417743 0 0.37295616137165088 -0.36570703907621399 0 0.39089043695276682 -0.39335864435168599 0 0.39077846494638729 -0.40887217926635 0 0.3746939208566854 -0.39563423018417743 0 0.40638660847337782 -0.3943129943262863 0 0.39089043695276682 -0.39335864435168599 0 0.39077846494638729 -0.40887217926635 0 0.40638660847337782 -0.3943129943262863 0 0.40479523520150917 -0.41850108622351029 0 0.39077846494638729 -0.40887217926635 0 0.40479523520150917 -0.41850108622351029 0 0.39077846494638729 -0.40887217926635 0 0.39121494721315009 -0.42315227544103651 0 0.37643168034171992 -0.42556142129214097 0 0.3746939208566854 -0.39563423018417743 0 0.39077846494638729 -0.40887217926635 0 0.37643168034171992 -0.42556142129214097 0 0.39121494721315009 -0.42315227544103651 0 0.39077846494638729 -0.40887217926635 0 0.37643168034171992 -0.42556142129214097 0 0.3746939208566854 -0.39563423018417743 0 0.37643168034171992 -0.42556142129214097 0 0.38591688278237968 -0.43376969007073191 0 0.37948242698450058 -0.44489909307822328 0 0.37643168034171992 -0.42556142129214097 0 0.38591688278237968 -0.43376969007073191 0 0.39121494721315009 -0.42315227544103651 0 0.38591688278237968 -0.43376969007073191 0 0.39610709707141822 -0.43256655232152308 0 0.39121494721315009 -0.42315227544103651 0 0.38591688278237968 -0.43376969007073191 0 0.39610709707141822 -0.43256655232152308 0 0.39060471922189077 -0.44004118718738572 0 0.40479523520150917 -0.41850108622351029 0 0.39610709707141822 -0.43256655232152308 0 0.40752669804717151 -0.43613841108015028 0 0.40479523520150917 -0.41850108622351029 0 0.39610709707141822 -0.43256655232152308 0 0.39121494721315009 -0.42315227544103651 0 0.39610709707141822 -0.43256655232152308 0 0.40752669804717151 -0.43613841108015028 0 0.3977003584278534 -0.44097169967842748 0 0.40752669804717151 -0.43613841108015028 0 0.41736441985434181 -0.42845822533813072 0 0.41490987713121052 -0.44153185286748342 0 0.40479523520150917 -0.41850108622351029 0 0.40752669804717151 -0.43613841108015028 0 0.41736441985434181 -0.42845822533813072 0 0.41736441985434181 -0.42845822533813072 0 0.42298575637157459 -0.43592669488680802 0 0.41490987713121052 -0.44153185286748342 0 0.40479523520150917 -0.41850108622351029 0 0.41736441985434181 -0.42845822533813072 0 0.42376229086256489 -0.40673812245131957 0 0.40638660847337782 -0.3943129943262863 0 0.40479523520150917 -0.41850108622351029 0 0.42376229086256489 -0.40673812245131957 0 0.41736441985434181 -0.42845822533813072 0 0.42376229086256489 -0.40673812245131957 0 0.43263469414452499 -0.42952346727145158 0 0.44695528862468509 -0.4139867918361792 0 0.42376229086256489 -0.40673812245131957 0 0.43263469414452499 -0.42952346727145158 0 0.41736441985434181 -0.42845822533813072 0 0.43263469414452499 -0.42952346727145158 0 0.42298575637157459 -0.43592669488680802 0 0.43263469414452499 -0.42952346727145158 0 0.42298575637157459 -0.43592669488680802 0 0.42703403435622123 -0.44419323407016681 0 0.42703403435622123 -0.44419323407016681 0 0.4269751507550914 -0.45382615137104021 0 0.42146324059782342 -0.45210316792899519 0 0.43942373113660121 -0.44424904110188002 0 0.43263469414452499 -0.42952346727145158 0 0.42703403435622123 -0.44419323407016681 0 0.4423526780154543 -0.45731115431110481 0 0.43942373113660121 -0.44424904110188002 0 0.4269751507550914 -0.45382615137104021 0 0.43942373113660121 -0.44424904110188002 0 0.42703403435622123 -0.44419323407016681 0 0.4269751507550914 -0.45382615137104021 0 0.4423526780154543 -0.45731115431110481 0 0.43222286374566149 -0.46479889321230661 0 0.4269751507550914 -0.45382615137104021 0 0.43222286374566149 -0.46479889321230661 0 0.42432962196164098 -0.4630888583407628 0 0.4285498482834757 -0.47435637842234968 0 0.4269751507550914 -0.45382615137104021 0 0.4177210226500338 -0.45650153471163119 0 0.42146324059782342 -0.45210316792899519 0 0.43222286374566149 -0.46479889321230661 0 0.42432962196164098 -0.4630888583407628 0 0.4269751507550914 -0.45382615137104021 0 0.42432962196164098 -0.4630888583407628 0 0.4269751507550914 -0.45382615137104021 0 0.4177210226500338 -0.45650153471163119 0 0.4177210226500338 -0.45650153471163119 0 0.41682732493633567 -0.46330205681075348 0 0.41182871458061582 -0.45959613372677999 0 0.4177210226500338 -0.45650153471163119 0 0.41402274106291992 -0.45355889745509609 0 0.41182871458061582 -0.45959613372677999 0 0.42432962196164098 -0.4630888583407628 0 0.41682732493633567 -0.46330205681075348 0 0.41873520387560809 -0.47061925864809712 0 0.42432962196164098 -0.4630888583407628 0 0.4177210226500338 -0.45650153471163119 0 0.41682732493633567 -0.46330205681075348 0 0.41682732493633567 -0.46330205681075348 0 0.4115220616137798 -0.46670449862649599 0 0.41873520387560809 -0.47061925864809712 0 0.4115220616137798 -0.46670449862649599 0 0.41182871458061582 -0.45959613372677999 0 0.40004082851704231 -0.46612965766530162 0 0.41682732493633567 -0.46330205681075348 0 0.4115220616137798 -0.46670449862649599 0 0.41182871458061582 -0.45959613372677999 0 0.41182871458061582 -0.45959613372677999 0 0.40958522797564528 -0.45193258926738422 0 0.40004082851704231 -0.46612965766530162 0 0.41402274106291992 -0.45355889745509609 0 0.41182871458061582 -0.45959613372677999 0 0.40958522797564528 -0.45193258926738422 0 0.40702751353882688 -0.45335724396762878 0 0.40958522797564528 -0.45193258926738422 0 0.40293414107250591 -0.45810730411024408 0 0.40735261946390511 -0.45007058748010098 0 0.40958522797564528 -0.45193258926738422 0 0.4107596083510795 -0.447465397520592 0 0.40702751353882688 -0.45335724396762878 0 0.40735261946390511 -0.45007058748010098 0 0.40958522797564528 -0.45193258926738422 0 0.4107596083510795 -0.447465397520592 0 0.4086335805136192 -0.44166032470654393 0 0.40562696328654813 -0.44700620022080878 0 0.40735261946390511 -0.45007058748010098 0 0.4107596083510795 -0.447465397520592 0 0.40562696328654813 -0.44700620022080878 0 0.4107596083510795 -0.447465397520592 0 0.41270547259737722 -0.45054648721529089 0 0.41645431299986407 -0.44922906461809142 0 0.4107596083510795 -0.447465397520592 0 0.41645431299986407 -0.44922906461809142 0 0.41490987713121052 -0.44153185286748342 0 0.40958522797564528 -0.45193258926738422 0 0.4107596083510795 -0.447465397520592 0 0.41270547259737722 -0.45054648721529089 0 0.41402274106291992 -0.45355889745509609 0 0.40958522797564528 -0.45193258926738422 0 0.41270547259737722 -0.45054648721529089 0 0.41402274106291992 -0.45355889745509609 0 0.41270547259737722 -0.45054648721529089 0 0.41645431299986407 -0.44922906461809142 0 0.42703403435622123 -0.44419323407016681 0 0.41645431299986407 -0.44922906461809142 0 0.42146324059782342 -0.45210316792899519 0 0.4177210226500338 -0.45650153471163119 0 0.41402274106291992 -0.45355889745509609 0 0.41645431299986407 -0.44922906461809142 0 0.4177210226500338 -0.45650153471163119 0 0.41645431299986407 -0.44922906461809142 0 0.42146324059782342 -0.45210316792899519 0 0.42703403435622123 -0.44419323407016681 0 0.41645431299986407 -0.44922906461809142 0 0.41490987713121052 -0.44153185286748342 0 0.42298575637157459 -0.43592669488680802 0 0.42703403435622123 -0.44419323407016681 0 0.41490987713121052 -0.44153185286748342 0 0.40752669804717151 -0.43613841108015028 0 0.41490987713121052 -0.44153185286748342 0 0.4086335805136192 -0.44166032470654393 0 0.4107596083510795 -0.447465397520592 0 0.41490987713121052 -0.44153185286748342 0 0.4086335805136192 -0.44166032470654393 0 0.40752669804717151 -0.43613841108015028 0 0.4086335805136192 -0.44166032470654393 0 0.40389534749696671 -0.44343887379424229 0 0.40752669804717151 -0.43613841108015028 0 0.40389534749696671 -0.44343887379424229 0 0.3977003584278534 -0.44097169967842748 0 0.4086335805136192 -0.44166032470654393 0 0.40389534749696671 -0.44343887379424229 0 0.40562696328654813 -0.44700620022080878 0 0.40389534749696671 -0.44343887379424229 0 0.40023166324445009 -0.44750997076462951 0 0.3977003584278534 -0.44097169967842748 0 0.40702751353882688 -0.45335724396762878 0 0.40376378416742559 -0.45059150642409068 0 0.39904886346648621 -0.4540517726458127 0 0.40702751353882688 -0.45335724396762878 0 0.40735261946390511 -0.45007058748010098 0 0.40376378416742559 -0.45059150642409068 0 0.40735261946390511 -0.45007058748010098 0 0.40376378416742559 -0.45059150642409068 0 0.40562696328654813 -0.44700620022080878 0 0.40389534749696671 -0.44343887379424229 0 0.40562696328654813 -0.44700620022080878 0 0.40023166324445009 -0.44750997076462951 0 0.40376378416742559 -0.45059150642409068 0 0.40562696328654813 -0.44700620022080878 0 0.40023166324445009 -0.44750997076462951 0 0.40376378416742559 -0.45059150642409068 0 0.40023166324445009 -0.44750997076462951 0 0.39904886346648621 -0.4540517726458127 0 0.40023166324445009 -0.44750997076462951 0 0.39381683084330238 -0.44799890078802268 0 0.39904886346648621 -0.4540517726458127 0 0.40023166324445009 -0.44750997076462951 0 0.39381683084330238 -0.44799890078802268 0 0.3977003584278534 -0.44097169967842748 0 0.39381683084330238 -0.44799890078802268 0 0.3977003584278534 -0.44097169967842748 0 0.39060471922189077 -0.44004118718738572 0 0.39610709707141822 -0.43256655232152308 0 0.3977003584278534 -0.44097169967842748 0 0.39060471922189077 -0.44004118718738572 0 0.39381683084330238 -0.44799890078802268 0 0.37948242698450058 -0.44489909307822328 0 0.39508299425851051 -0.46100972554066039 0 0.37948242698450058 -0.44489909307822328 0 0.39508299425851051 -0.46100972554066039 0 0.39381683084330238 -0.44799890078802268 0 0.39060471922189077 -0.44004118718738572 0 0.37948242698450058 -0.44489909307822328 0 0.38591688278237968 -0.43376969007073191 0 0.39060471922189077 -0.44004118718738572 0 0.37948242698450058 -0.44489909307822328 0 0.37948242698450058 -0.44489909307822328 0 0.38194399216685121 -0.45636163213584868 0 0.37005743112052492 -0.45645939833263988 0 0.38194399216685121 -0.45636163213584868 0 0.38828211823714798 -0.4653668350410583 0 0.37005743112052492 -0.45645939833263988 0 0.38828211823714798 -0.4653668350410583 0 0.37005743112052492 -0.45645939833263988 0 0.37948242698450058 -0.44489909307822328 0 0.38194399216685121 -0.45636163213584868 0 0.39508299425851051 -0.46100972554066039 0 0.38828211823714798 -0.4653668350410583 0 0.37026284337219001 -0.47691122336070513 0 0.37005743112052492 -0.45645939833263988 0 0.38194399216685121 -0.45636163213584868 0 0.38828211823714798 -0.4653668350410583 0 0.39508299425851051 -0.46100972554066039 0 0.38828211823714798 -0.4653668350410583 0 0.39751869419366592 -0.46988127280389852 0 0.38828211823714798 -0.4653668350410583 0 0.39523115880159182 -0.46559687276272982 0 0.39751869419366592 -0.46988127280389852 0 0.38828211823714798 -0.4653668350410583 0 0.39508299425851051 -0.46100972554066039 0 0.38828211823714798 -0.4653668350410583 0 0.39508299425851051 -0.46100972554066039 0 0.39523115880159182 -0.46559687276272982 0 0.39508299425851051 -0.46100972554066039 0 0.39523115880159182 -0.46559687276272982 0 0.40004082851704231 -0.46612965766530162 0 0.39508299425851051 -0.46100972554066039 0 0.40004082851704231 -0.46612965766530162 0 0.39523115880159182 -0.46559687276272982 0 0.40004082851704231 -0.46612965766530162 0 0.39751869419366592 -0.46988127280389852 0 0.39381683084330238 -0.44799890078802268 0 0.39508299425851051 -0.46100972554066039 0 0.39904886346648621 -0.4540517726458127 0 0.40702751353882688 -0.45335724396762878 0 0.39508299425851051 -0.46100972554066039 0 0.39904886346648621 -0.4540517726458127 0 0.40958522797564528 -0.45193258926738422 0 0.40293414107250591 -0.45810730411024408 0 0.40004082851704231 -0.46612965766530162 0 0.40702751353882688 -0.45335724396762878 0 0.39508299425851051 -0.46100972554066039 0 0.40958522797564528 -0.45193258926738422 0 0.40004082851704231 -0.46612965766530162 0 0.40702751353882688 -0.45335724396762878 0 0.39508299425851051 -0.46100972554066039 0 0.40293414107250591 -0.45810730411024408 0 0.39508299425851051 -0.46100972554066039 0 0.40293414107250591 -0.45810730411024408 0 0.40004082851704231 -0.46612965766530162 0 0.40004082851704231 -0.46612965766530162 0 0.39751869419366592 -0.46988127280389852 0 0.39751869419366592 -0.46988127280389852 0 0.40920422384254462 -0.47559265292722258 0 0.38828211823714798 -0.4653668350410583 0 0.39751869419366592 -0.46988127280389852 0 0.38739459126314779 -0.48494063640194829 0 0.40004082851704231 -0.46612965766530162 0 0.40920422384254462 -0.47559265292722258 0 0.40004082851704231 -0.46612965766530162 0 0.39751869419366592 -0.46988127280389852 0 0.40920422384254462 -0.47559265292722258 0 0.40034649665374328 -0.48267964331002489 0 0.39751869419366592 -0.46988127280389852 0 0.40920422384254462 -0.47559265292722258 0 0.40034649665374328 -0.48267964331002489 0 0.39751869419366592 -0.46988127280389852 0 0.38739459126314779 -0.48494063640194829 0 0.39751869419366592 -0.46988127280389852 0 0.38739459126314779 -0.48494063640194829 0 0.38828211823714798 -0.4653668350410583 0 0.37026284337219001 -0.47691122336070513 0 0.38828211823714798 -0.4653668350410583 0 0.38739459126314779 -0.48494063640194829 0 0.37026284337219001 -0.47691122336070513 0 0.37727048833263022 -0.49999999999999839 0 0.38739459126314779 -0.48494063640194829 0 0.4050546593770995 -0.5 0 0.37727048833263022 -0.49999999999999839 0 0.38739459126314779 -0.48494063640194829 0 0.36686769564251098 -0.49038901122409662 0 0.37727048833263022 -0.49999999999999839 0 0.38739459126314779 -0.48494063640194829 0 0.40034649665374328 -0.48267964331002489 0 0.38739459126314779 -0.48494063640194829 0 0.4050546593770995 -0.5 0 0.40034649665374328 -0.48267964331002489 0 0.4050546593770995 -0.5 0 0.40928727128562181 -0.48733565434068837 0 0.4050546593770995 -0.5 0 0.42102152713205732 -0.48779632646361032 0 0.40928727128562181 -0.48733565434068837 0 0.4050546593770995 -0.5 0 0.42102152713205732 -0.48779632646361032 0 0.4328388304215689 -0.49999999999999889 0 0.40034649665374328 -0.48267964331002489 0 0.40928727128562181 -0.48733565434068837 0 0.40920422384254462 -0.47559265292722258 0 0.42102152713205732 -0.48779632646361032 0 0.40928727128562181 -0.48733565434068837 0 0.40920422384254462 -0.47559265292722258 0 0.4115220616137798 -0.46670449862649599 0 0.40004082851704231 -0.46612965766530162 0 0.40920422384254462 -0.47559265292722258 0 0.4115220616137798 -0.46670449862649599 0 0.40920422384254462 -0.47559265292722258 0 0.41873520387560809 -0.47061925864809712 0 0.40920422384254462 -0.47559265292722258 0 0.41873520387560809 -0.47061925864809712 0 0.42072506188793191 -0.48122353893698211 0 0.42102152713205732 -0.48779632646361032 0 0.40920422384254462 -0.47559265292722258 0 0.40920422384254462 -0.47559265292722258 0 0.42072506188793191 -0.48122353893698211 0 0.42102152713205732 -0.48779632646361032 0 0.40920422384254462 -0.47559265292722258 0 0.42072506188793191 -0.48122353893698211 0 0.42102152713205732 -0.48779632646361032 0 0.42072506188793191 -0.48122353893698211 0 0.4285498482834757 -0.47435637842234968 0 0.43890701971264512 -0.47541192361627538 0 0.42102152713205732 -0.48779632646361032 0 0.4285498482834757 -0.47435637842234968 0 0.42432962196164098 -0.4630888583407628 0 0.41873520387560809 -0.47061925864809712 0 0.4285498482834757 -0.47435637842234968 0 0.41873520387560809 -0.47061925864809712 0 0.42072506188793191 -0.48122353893698211 0 0.4285498482834757 -0.47435637842234968 0 0.43890701971264512 -0.47541192361627538 0 0.43222286374566149 -0.46479889321230661 0 0.4285498482834757 -0.47435637842234968 0 0.43890701971264512 -0.47541192361627538 0 0.42102152713205732 -0.48779632646361032 0 0.4328388304215689 -0.49999999999999889 0 0.42102152713205732 -0.48779632646361032 0 0.4328388304215689 -0.49999999999999889 0 0.31531711244953953 -0.5 0 0.32244358875765011 -0.48397730744308848 0 0.30794199884827189 -0.47984073696357721 0 0.31531711244953953 -0.5 0 0.32244358875765011 -0.48397730744308848 0 0.33422429364227441 -0.49999999999999928 0 0.32244358875765011 -0.48397730744308848 0 0.34070668525660869 -0.4681175966897469 0 0.3194401219017734 -0.46734083576544788 0 0.32244358875765011 -0.48397730744308848 0 0.3194401219017734 -0.46734083576544788 0 0.30794199884827189 -0.47984073696357721 0 0.33779534477279383 -0.48321027214773399 0 0.35224356850723199 -0.48845561168035201 0 0.34070668525660869 -0.4681175966897469 0 0.32244358875765011 -0.48397730744308848 0 0.33779534477279383 -0.48321027214773399 0 0.34070668525660869 -0.4681175966897469 0 0.32244358875765011 -0.48397730744308848 0 0.33779534477279383 -0.48321027214773399 0 0.33422429364227441 -0.49999999999999928 0 0.33779534477279383 -0.48321027214773399 0 0.33422429364227441 -0.49999999999999928 0 0.35224356850723199 -0.48845561168035201 0 0.33422429364227441 -0.49999999999999928 0 0.35224356850723199 -0.48845561168035201 0 0.33422429364227441 -0.49999999999999928 0 0.35224356850723199 -0.48845561168035201 0 0.35574739098745217 -0.5 0 0.35224356850723199 -0.48845561168035201 0 0.35574739098745217 -0.5 0 0.36686769564251098 -0.49038901122409662 0 0.37727048833263022 -0.49999999999999839 0 0.35574739098745217 -0.5 0 0.36686769564251098 -0.49038901122409662 0 0.35224356850723199 -0.48845561168035201 0 0.36686769564251098 -0.49038901122409662 0 0.37026284337219001 -0.47691122336070513 0 0.35224356850723199 -0.48845561168035201 0 0.37026284337219001 -0.47691122336070513 0 0.35718026651999468 -0.46681567693715942 0 0.35224356850723199 -0.48845561168035201 0 0.37026284337219001 -0.47691122336070513 0 0.38739459126314779 -0.48494063640194829 0 0.36686769564251098 -0.49038901122409662 0 0.37026284337219001 -0.47691122336070513 0 0.35224356850723199 -0.48845561168035201 0 0.35718026651999468 -0.46681567693715942 0 0.34070668525660869 -0.4681175966897469 0 0.35718026651999468 -0.46681567693715942 0 0.35183274400390191 -0.44755196162422139 0 0.34070668525660869 -0.4681175966897469 0 0.37026284337219001 -0.47691122336070513 0 0.35718026651999468 -0.46681567693715942 0 0.37005743112052492 -0.45645939833263988 0 0.35718026651999468 -0.46681567693715942 0 0.37005743112052492 -0.45645939833263988 0 0.35183274400390191 -0.44755196162422139 0 0.37005743112052492 -0.45645939833263988 0 0.35183274400390191 -0.44755196162422139 0 0.37948242698450058 -0.44489909307822328 0 0.3653461148467318 -0.44297920567679577 0 0.36388185971049042 -0.42878846061578629 0 0.37005743112052492 -0.45645939833263988 0 0.3653461148467318 -0.44297920567679577 0 0.35183274400390191 -0.44755196162422139 0 0.37948242698450058 -0.44489909307822328 0 0.37005743112052492 -0.45645939833263988 0 0.3653461148467318 -0.44297920567679577 0 0.35183274400390191 -0.44755196162422139 0 0.33360805688727879 -0.43864452491580291 0 0.35278914069502387 -0.43356016779577411 0 0.3653461148467318 -0.44297920567679577 0 0.35183274400390191 -0.44755196162422139 0 0.35278914069502387 -0.43356016779577411 0 0.35183274400390191 -0.44755196162422139 0 0.33360805688727879 -0.43864452491580291 0 0.35183274400390191 -0.44755196162422139 0 0.33360805688727879 -0.43864452491580291 0 0.32908604864277591 -0.45497889906627348 0 0.35183274400390191 -0.44755196162422139 0 0.34070668525660869 -0.4681175966897469 0 0.32908604864277591 -0.45497889906627348 0 0.34070668525660869 -0.4681175966897469 0 0.32908604864277591 -0.45497889906627348 0 0.3194401219017734 -0.46734083576544788 0 0.3194401219017734 -0.46734083576544788 0 0.31333313680318098 -0.45052541186043449 0 0.30714888890801562 -0.46554375409781501 0 0.32908604864277591 -0.45497889906627348 0 0.3194401219017734 -0.46734083576544788 0 0.31333313680318098 -0.45052541186043449 0 0.33360805688727879 -0.43864452491580291 0 0.31333313680318098 -0.45052541186043449 0 0.31529353463598558 -0.43563630298067318 0 0.33360805688727879 -0.43864452491580291 0 0.32908604864277591 -0.45497889906627348 0 0.31333313680318098 -0.45052541186043449 0 0.33360805688727879 -0.43864452491580291 0 0.31529353463598558 -0.43563630298067318 0 0.32957349544036119 -0.42492623089047438 0 0.31529353463598558 -0.43563630298067318 0 0.31626031829554868 -0.42465806744652712 0 0.32957349544036119 -0.42492623089047438 0 0.31626031829554868 -0.42465806744652712 0 0.3163640708182886 -0.41292455899926511 0 0.32544447940149462 -0.41520174675046428 0 0.3163640708182886 -0.41292455899926511 0 0.31494815871221649 -0.40552511063673552 0 0.30703341364337111 -0.41134355311833642 0 0.3163640708182886 -0.41292455899926511 0 0.32183009818567798 -0.40780927714224863 0 0.31494815871221649 -0.40552511063673552 0 0.32183009818567798 -0.40780927714224863 0 0.32544447940149462 -0.41520174675046428 0 0.33074168703066198 -0.40587861457972879 0 0.3163640708182886 -0.41292455899926511 0 0.32183009818567798 -0.40780927714224863 0 0.32544447940149462 -0.41520174675046428 0 0.31626031829554868 -0.42465806744652712 0 0.32544447940149462 -0.41520174675046428 0 0.32957349544036119 -0.42492623089047438 0 0.33789720663842893 -0.41501373144454229 0 0.34784476508732598 -0.40884622473346932 0 0.33074168703066198 -0.40587861457972879 0 0.32544447940149462 -0.41520174675046428 0 0.33789720663842893 -0.41501373144454229 0 0.32957349544036119 -0.42492623089047438 0 0.32544447940149462 -0.41520174675046428 0 0.33789720663842893 -0.41501373144454229 0 0.33074168703066198 -0.40587861457972879 0 0.33789720663842893 -0.41501373144454229 0 0.32957349544036119 -0.42492623089047438 0 0.34429890336326752 -0.42302949252137417 0 0.33789720663842893 -0.41501373144454229 0 0.34429890336326752 -0.42302949252137417 0 0.34784476508732598 -0.40884622473346932 0 0.33360805688727879 -0.43864452491580291 0 0.34429890336326752 -0.42302949252137417 0 0.35278914069502387 -0.43356016779577411 0 0.33360805688727879 -0.43864452491580291 0 0.32957349544036119 -0.42492623089047438 0 0.34429890336326752 -0.42302949252137417 0 0.34429890336326752 -0.42302949252137417 0 0.35278914069502387 -0.43356016779577411 0 0.3573541544388027 -0.42017312966494291 0 0.35278914069502387 -0.43356016779577411 0 0.36388185971049042 -0.42878846061578629 0 0.3573541544388027 -0.42017312966494291 0 0.37643168034171992 -0.42556142129214097 0 0.37948242698450058 -0.44489909307822328 0 0.36388185971049042 -0.42878846061578629 0 0.3653461148467318 -0.44297920567679577 0 0.35278914069502387 -0.43356016779577411 0 0.36388185971049042 -0.42878846061578629 0 0.37948242698450058 -0.44489909307822328 0 0.36388185971049042 -0.42878846061578629 0 0.37643168034171992 -0.42556142129214097 0 0.36388185971049042 -0.42878846061578629 0 0.36684053551134421 -0.41564238868227887 0 0.36684053551134421 -0.41564238868227887 0 0.36142805128935213 -0.40786046989862529 0 0.3746939208566854 -0.39563423018417743 0 0.37643168034171992 -0.42556142129214097 0 0.36684053551134421 -0.41564238868227887 0 0.3746939208566854 -0.39563423018417743 0 0.36388185971049042 -0.42878846061578629 0 0.36684053551134421 -0.41564238868227887 0 0.3573541544388027 -0.42017312966494291 0 0.36684053551134421 -0.41564238868227887 0 0.36142805128935213 -0.40786046989862529 0 0.3573541544388027 -0.42017312966494291 0 0.36142805128935213 -0.40786046989862529 0 0.3573541544388027 -0.42017312966494291 0 0.34784476508732598 -0.40884622473346932 0 0.34429890336326752 -0.42302949252137417 0 0.3573541544388027 -0.42017312966494291 0 0.34784476508732598 -0.40884622473346932 0 0.34784476508732598 -0.40884622473346932 0 0.35872418755303798 -0.39523854881529619 0 0.34121435963392238 -0.39335469915018101 0 0.36142805128935213 -0.40786046989862529 0 0.34784476508732598 -0.40884622473346932 0 0.35872418755303798 -0.39523854881529619 0 0.36142805128935213 -0.40786046989862529 0 0.35872418755303798 -0.39523854881529619 0 0.3746939208566854 -0.39563423018417743 0 0.35872418755303798 -0.39523854881529619 0 0.3746939208566854 -0.39563423018417743 0 0.36188421270622761 -0.3860387683583037 0 0.3746939208566854 -0.39563423018417743 0 0.37295616137165088 -0.36570703907621399 0 0.3746939208566854 -0.39563423018417743 0 0.37295616137165088 -0.36570703907621399 0 0.36470107201732499 -0.37231361713882499 0 0.3746939208566854 -0.39563423018417743 0 0.36188421270622761 -0.3860387683583037 0 0.36470107201732499 -0.37231361713882499 0 0.36188421270622761 -0.3860387683583037 0 0.34941767039786159 -0.3809686772949159 0 0.36470107201732499 -0.37231361713882499 0 0.35872418755303798 -0.39523854881529619 0 0.34941767039786159 -0.3809686772949159 0 0.34121435963392238 -0.39335469915018101 0 0.35872418755303798 -0.39523854881529619 0 0.36188421270622761 -0.3860387683583037 0 0.34941767039786159 -0.3809686772949159 0 0.34941767039786159 -0.3809686772949159 0 0.33124532239560439 -0.37823301910301921 0 0.34121435963392238 -0.39335469915018101 0 0.33124532239560439 -0.37823301910301921 0 0.34121435963392238 -0.39335469915018101 0 0.32931252533904259 -0.39096311037465681 0 0.34784476508732598 -0.40884622473346932 0 0.34121435963392238 -0.39335469915018101 0 0.33074168703066198 -0.40587861457972879 0 0.34121435963392238 -0.39335469915018101 0 0.33074168703066198 -0.40587861457972879 0 0.32931252533904259 -0.39096311037465681 0 0.32931252533904259 -0.39096311037465681 0 0.32175996503536308 -0.39845531375755328 0 0.31988823849012932 -0.38593244015328232 0 0.33074168703066198 -0.40587861457972879 0 0.32931252533904259 -0.39096311037465681 0 0.32175996503536308 -0.39845531375755328 0 0.32183009818567798 -0.40780927714224863 0 0.33074168703066198 -0.40587861457972879 0 0.32175996503536308 -0.39845531375755328 0 0.32183009818567798 -0.40780927714224863 0 0.32175996503536308 -0.39845531375755328 0 0.31494815871221649 -0.40552511063673552 0 0.32175996503536308 -0.39845531375755328 0 0.3151604115840726 -0.39927007105820478 0 0.31494815871221649 -0.40552511063673552 0 0.3151604115840726 -0.39927007105820478 0 0.31494815871221649 -0.40552511063673552 0 0.30943889046679668 -0.39944244639504728 0 0.32175996503536308 -0.39845531375755328 0 0.31366156956861913 -0.39337091956528902 0 0.31988823849012932 -0.38593244015328232 0 0.32175996503536308 -0.39845531375755328 0 0.3151604115840726 -0.39927007105820478 0 0.31366156956861913 -0.39337091956528902 0 0.3151604115840726 -0.39927007105820478 0 0.31366156956861913 -0.39337091956528902 0 0.30943889046679668 -0.39944244639504728 0 0.31366156956861913 -0.39337091956528902 0 0.31988823849012932 -0.38593244015328232 0 0.30755326019307339 -0.38464230292200358 0 0.33124532239560439 -0.37823301910301921 0 0.31988823849012932 -0.38593244015328232 0 0.31511382326667542 -0.37455977839225429 0 0.31988823849012932 -0.38593244015328232 0 0.30755326019307339 -0.38464230292200358 0 0.31511382326667542 -0.37455977839225429 0 0.33124532239560439 -0.37823301910301921 0 0.32931252533904259 -0.39096311037465681 0 0.31988823849012932 -0.38593244015328232 0 0.30127091559097119 -0.3891294992474047 0 0.3002132253607403 -0.38353179507299051 0 0.29231327721022282 -0.3873697961029901 0 0.30127091559097119 -0.3891294992474047 0 0.3002132253607403 -0.38353179507299051 0 0.30755326019307339 -0.38464230292200358 0 0.3002132253607403 -0.38353179507299051 0 0.30755326019307339 -0.38464230292200358 0 0.29971544844869391 -0.37298558201956378 0 0.3002132253607403 -0.38353179507299051 0 0.29231327721022282 -0.3873697961029901 0 0.29971544844869391 -0.37298558201956378 0 0.30755326019307339 -0.38464230292200358 0 0.31511382326667542 -0.37455977839225429 0 0.29971544844869391 -0.37298558201956378 0 0.31366156956861913 -0.39337091956528902 0 0.30755326019307339 -0.38464230292200358 0 0.30654531312008249 -0.39220858776707451 0 0.30127091559097119 -0.3891294992474047 0 0.30755326019307339 -0.38464230292200358 0 0.30654531312008249 -0.39220858776707451 0 0.30158296211263302 -0.39805435788846388 0 0.29231327721022282 -0.3873697961029901 0 0.29699518058167729 -0.41202416323351859 0 0.30654531312008249 -0.39220858776707451 0 0.30943889046679668 -0.39944244639504728 0 0.30158296211263302 -0.39805435788846388 0 0.31366156956861913 -0.39337091956528902 0 0.30654531312008249 -0.39220858776707451 0 0.30943889046679668 -0.39944244639504728 0 0.30588784261219382 -0.40370846976913188 0 0.30943889046679668 -0.39944244639504728 0 0.30158296211263302 -0.39805435788846388 0 0.31494815871221649 -0.40552511063673552 0 0.30588784261219382 -0.40370846976913188 0 0.30943889046679668 -0.39944244639504728 0 0.30588784261219382 -0.40370846976913188 0 0.30158296211263302 -0.39805435788846388 0 0.29699518058167729 -0.41202416323351859 0 0.30127091559097119 -0.3891294992474047 0 0.30158296211263302 -0.39805435788846388 0 0.29231327721022282 -0.3873697961029901 0 0.30127091559097119 -0.3891294992474047 0 0.30654531312008249 -0.39220858776707451 0 0.30158296211263302 -0.39805435788846388 0 0.29344273016090422 -0.4000912696315202 0 0.29231327721022282 -0.3873697961029901 0 0.29699518058167729 -0.41202416323351859 0 0.29344273016090422 -0.4000912696315202 0 0.28688110369458758 -0.38915915503329152 0 0.29699518058167729 -0.41202416323351859 0 0.28490335995308252 -0.39259741843007723 0 0.28474476225410061 -0.40645592105432871 0 0.29699518058167729 -0.41202416323351859 0 0.29344273016090422 -0.4000912696315202 0 0.28688110369458758 -0.38915915503329152 0 0.29231327721022282 -0.3873697961029901 0 0.28490335995308252 -0.39259741843007723 0 0.28688110369458758 -0.38915915503329152 0 0.29699518058167729 -0.41202416323351859 0 0.29231327721022282 -0.3873697961029901 0 0.29699518058167729 -0.41202416323351859 0 0.28688110369458758 -0.38915915503329152 0 0.29699518058167729 -0.41202416323351859 0 0.28490335995308252 -0.39259741843007723 0 0.27659700962194778 -0.40784714297977198 0 0.28474476225410061 -0.40645592105432871 0 0.28688110369458758 -0.38915915503329152 0 0.28557892230701942 -0.37606573252756781 0 0.27676702680749982 -0.36629414683306349 0 0.28688110369458758 -0.38915915503329152 0 0.27676702680749982 -0.36629414683306349 0 0.28490335995308252 -0.39259741843007723 0 0.28688110369458758 -0.38915915503329152 0 0.27838987018473021 -0.38671768173084359 0 0.29231327721022282 -0.3873697961029901 0 0.28704519526331568 -0.36292762804969958 0 0.29231327721022282 -0.3873697961029901 0 0.28557892230701942 -0.37606573252756781 0 0.28704519526331568 -0.36292762804969958 0 0.28688110369458758 -0.38915915503329152 0 0.29231327721022282 -0.3873697961029901 0 0.28557892230701942 -0.37606573252756781 0 0.28688110369458758 -0.38915915503329152 0 0.27616762034734937 -0.37960006174152611 0 0.27676702680749982 -0.36629414683306349 0 0.28688110369458758 -0.38915915503329152 0 0.27616762034734937 -0.37960006174152611 0 0.27838987018473021 -0.38671768173084359 0 0.27616762034734937 -0.37960006174152611 0 0.27838987018473021 -0.38671768173084359 0 0.27098521632083927 -0.3822592211409252 0 0.27838987018473021 -0.38671768173084359 0 0.27098521632083927 -0.3822592211409252 0 0.26943119930783732 -0.39285764314052019 0 0.27098521632083927 -0.3822592211409252 0 0.26027769248478289 -0.38299983190099313 0 0.26943119930783732 -0.39285764314052019 0 0.27616762034734937 -0.37960006174152611 0 0.27098521632083927 -0.3822592211409252 0 0.26781488472909032 -0.37357010396950652 0 0.27098521632083927 -0.3822592211409252 0 0.26027769248478289 -0.38299983190099313 0 0.26781488472909032 -0.37357010396950652 0 0.26027769248478289 -0.38299983190099313 0 0.26781488472909032 -0.37357010396950652 0 0.25777313178627231 -0.36957024550709572 0 0.26027769248478289 -0.38299983190099313 0 0.25839105614575453 -0.3960188506821592 0 0.24909063106523199 -0.38936043408226417 0 0.26027769248478289 -0.38299983190099313 0 0.25777313178627231 -0.36957024550709572 0 0.24884497561725441 -0.37604231901838492 0 0.26027769248478289 -0.38299983190099313 0 0.24884497561725441 -0.37604231901838492 0 0.24909063106523199 -0.38936043408226417 0 0.25839105614575453 -0.3960188506821592 0 0.26521645709598363 -0.40608287143497168 0 0.2492721161217317 -0.40414112237106442 0 0.25839105614575453 -0.3960188506821592 0 0.2492721161217317 -0.40414112237106442 0 0.24909063106523199 -0.38936043408226417 0 0.26027769248478289 -0.38299983190099313 0 0.25839105614575453 -0.3960188506821592 0 0.26943119930783732 -0.39285764314052019 0 0.25839105614575453 -0.3960188506821592 0 0.26521645709598363 -0.40608287143497168 0 0.26943119930783732 -0.39285764314052019 0 0.28490335995308252 -0.39259741843007723 0 0.26521645709598363 -0.40608287143497168 0 0.28490335995308252 -0.39259741843007723 0 0.26521645709598363 -0.40608287143497168 0 0.26943119930783732 -0.39285764314052019 0 0.28490335995308252 -0.39259741843007723 0 0.26521645709598363 -0.40608287143497168 0 0.27659700962194778 -0.40784714297977198 0 0.28490335995308252 -0.39259741843007723 0 0.27838987018473021 -0.38671768173084359 0 0.26943119930783732 -0.39285764314052019 0 0.27954469531037879 -0.4183413113296684 0 0.26209421003908029 -0.42465845942581831 0 0.27659700962194778 -0.40784714297977198 0 0.27954469531037879 -0.4183413113296684 0 0.28474476225410061 -0.40645592105432871 0 0.27954469531037879 -0.4183413113296684 0 0.26857577349619333 -0.41575819264981367 0 0.26209421003908029 -0.42465845942581831 0 0.27659700962194778 -0.40784714297977198 0 0.27954469531037879 -0.4183413113296684 0 0.26857577349619333 -0.41575819264981367 0 0.26521645709598363 -0.40608287143497168 0 0.27659700962194778 -0.40784714297977198 0 0.26857577349619333 -0.41575819264981367 0 0.26521645709598363 -0.40608287143497168 0 0.2455295542388847 -0.41956832443986619 0 0.26521645709598363 -0.40608287143497168 0 0.2455295542388847 -0.41956832443986619 0 0.2492721161217317 -0.40414112237106442 0 0.26521645709598363 -0.40608287143497168 0 0.26857577349619333 -0.41575819264981367 0 0.26093193715532559 -0.42210664275047832 0 0.26521645709598363 -0.40608287143497168 0 0.26093193715532559 -0.42210664275047832 0 0.2455295542388847 -0.41956832443986619 0 0.26857577349619333 -0.41575819264981367 0 0.26093193715532559 -0.42210664275047832 0 0.26209421003908029 -0.42465845942581831 0 0.25584682968397537 -0.43558523313127762 0 0.26209421003908029 -0.42465845942581831 0 0.2406838634771726 -0.43263540959969637 0 0.26209421003908029 -0.42465845942581831 0 0.2406838634771726 -0.43263540959969637 0 0.26093193715532559 -0.42210664275047832 0 0.26209421003908029 -0.42465845942581831 0 0.2455295542388847 -0.41956832443986619 0 0.26093193715532559 -0.42210664275047832 0 0.26209421003908029 -0.42465845942581831 0 0.26209421003908029 -0.42465845942581831 0 0.26891084591225478 -0.43962465655044403 0 0.25584682968397537 -0.43558523313127762 0 0.26209421003908029 -0.42465845942581831 0 0.26891084591225478 -0.43962465655044403 0 0.26209421003908029 -0.42465845942581831 0 0.27290526564861051 -0.42883618425956671 0 0.26891084591225478 -0.43962465655044403 0 0.27954469531037879 -0.4183413113296684 0 0.26209421003908029 -0.42465845942581831 0 0.27290526564861051 -0.42883618425956671 0 0.27954469531037879 -0.4183413113296684 0 0.27290526564861051 -0.42883618425956671 0 0.28107131133272789 -0.43272030973233599 0 0.27290526564861051 -0.42883618425956671 0 0.28107131133272789 -0.43272030973233599 0 0.26891084591225478 -0.43962465655044403 0 0.28107131133272789 -0.43272030973233599 0 0.29604577630185941 -0.4337577063371677 0 0.2943081771672314 -0.42077547280273969 0 0.27954469531037879 -0.4183413113296684 0 0.28107131133272789 -0.43272030973233599 0 0.2943081771672314 -0.42077547280273969 0 0.27954469531037879 -0.4183413113296684 0 0.28474476225410061 -0.40645592105432871 0 0.29699518058167729 -0.41202416323351859 0 0.27954469531037879 -0.4183413113296684 0 0.29699518058167729 -0.41202416323351859 0 0.27954469531037879 -0.4183413113296684 0 0.2943081771672314 -0.42077547280273969 0 0.29699518058167729 -0.41202416323351859 0 0.2943081771672314 -0.42077547280273969 0 0.29822759940965587 -0.41481030643991201 0 0.29699518058167729 -0.41202416323351859 0 0.2943081771672314 -0.42077547280273969 0 0.2987674497970742 -0.41731503473113712 0 0.30339324883361152 -0.41828082360186919 0 0.3163640708182886 -0.41292455899926511 0 0.29604577630185941 -0.4337577063371677 0 0.30339324883361152 -0.41828082360186919 0 0.31494815871221649 -0.40552511063673552 0 0.29699518058167729 -0.41202416323351859 0 0.31494815871221649 -0.40552511063673552 0 0.30588784261219382 -0.40370846976913188 0 0.29699518058167729 -0.41202416323351859 0 0.31494815871221649 -0.40552511063673552 0 0.29699518058167729 -0.41202416323351859 0 0.30703341364337111 -0.41134355311833642 0 0.2987674497970742 -0.41731503473113712 0 0.29822759940965587 -0.41481030643991201 0 0.2943081771672314 -0.42077547280273969 0 0.2987674497970742 -0.41731503473113712 0 0.29822759940965587 -0.41481030643991201 0 0.29822759940965587 -0.41481030643991201 0 0.30051069098688299 -0.41523275113424529 0 0.30149269880714269 -0.41330086451465359 0 0.2987674497970742 -0.41731503473113712 0 0.29822759940965587 -0.41481030643991201 0 0.30051069098688299 -0.41523275113424529 0 0.30051069098688299 -0.41523275113424529 0 0.30322190791749992 -0.41457913380217221 0 0.30339324883361152 -0.41828082360186919 0 0.30322190791749992 -0.41457913380217221 0 0.30339324883361152 -0.41828082360186919 0 0.30703341364337111 -0.41134355311833642 0 0.2987674497970742 -0.41731503473113712 0 0.30051069098688299 -0.41523275113424529 0 0.30339324883361152 -0.41828082360186919 0 0.30051069098688299 -0.41523275113424529 0 0.30322190791749992 -0.41457913380217221 0 0.30149269880714269 -0.41330086451465359 0 0.29699518058167729 -0.41202416323351859 0 0.30149269880714269 -0.41330086451465359 0 0.30703341364337111 -0.41134355311833642 0 0.29822759940965587 -0.41481030643991201 0 0.29699518058167729 -0.41202416323351859 0 0.30149269880714269 -0.41330086451465359 0 0.29822759940965587 -0.41481030643991201 0 0.29699518058167729 -0.41202416323351859 0 0.30322190791749992 -0.41457913380217221 0 0.30149269880714269 -0.41330086451465359 0 0.30703341364337111 -0.41134355311833642 0 0.3163640708182886 -0.41292455899926511 0 0.30339324883361152 -0.41828082360186919 0 0.30703341364337111 -0.41134355311833642 0 0.3163640708182886 -0.41292455899926511 0 0.29604577630185941 -0.4337577063371677 0 0.31529353463598558 -0.43563630298067318 0 0.31626031829554868 -0.42465806744652712 0 0.29604577630185941 -0.4337577063371677 0 0.31626031829554868 -0.42465806744652712 0 0.3163640708182886 -0.41292455899926511 0 0.29604577630185941 -0.4337577063371677 0 0.29604577630185941 -0.4337577063371677 0 0.2943081771672314 -0.42077547280273969 0 0.30339324883361152 -0.41828082360186919 0 0.31529353463598558 -0.43563630298067318 0 0.29604577630185941 -0.4337577063371677 0 0.30210234209355868 -0.44592412016498928 0 0.31333313680318098 -0.45052541186043449 0 0.30210234209355868 -0.44592412016498928 0 0.29726398111214453 -0.45848898933130983 0 0.30210234209355868 -0.44592412016498928 0 0.29726398111214453 -0.45848898933130983 0 0.29166833067281422 -0.45119803711613371 0 0.31333313680318098 -0.45052541186043449 0 0.31529353463598558 -0.43563630298067318 0 0.30210234209355868 -0.44592412016498928 0 0.31333313680318098 -0.45052541186043449 0 0.30714888890801562 -0.46554375409781501 0 0.29726398111214453 -0.45848898933130983 0 0.30714888890801562 -0.46554375409781501 0 0.29726398111214453 -0.45848898933130983 0 0.29776520587470701 -0.47152279656830531 0 0.29726398111214453 -0.45848898933130983 0 0.28874859660017438 -0.46322143947251793 0 0.29166833067281422 -0.45119803711613371 0 0.28874859660017438 -0.46322143947251793 0 0.27572748178542938 -0.45459085367506979 0 0.2860687065211171 -0.47729542683753462 0 0.28874859660017438 -0.46322143947251793 0 0.29166833067281422 -0.45119803711613371 0 0.27572748178542938 -0.45459085367506979 0 0.29726398111214453 -0.45848898933130983 0 0.28874859660017438 -0.46322143947251793 0 0.29776520587470701 -0.47152279656830531 0 0.29604577630185941 -0.4337577063371677 0 0.30210234209355868 -0.44592412016498928 0 0.29166833067281422 -0.45119803711613371 0 0.29604577630185941 -0.4337577063371677 0 0.29166833067281422 -0.45119803711613371 0 0.27572748178542938 -0.45459085367506979 0 0.29604577630185941 -0.4337577063371677 0 0.27572748178542938 -0.45459085367506979 0 0.28107131133272789 -0.43272030973233599 0 0.29604577630185941 -0.4337577063371677 0 0.27572748178542938 -0.45459085367506979 0 0.28107131133272789 -0.43272030973233599 0 0.26891084591225478 -0.43962465655044403 0 0.27572748178542938 -0.45459085367506979 0 0.26891084591225478 -0.43962465655044403 0 0.27572748178542938 -0.45459085367506979 0 0.25584682968397537 -0.43558523313127762 0 0.26891084591225478 -0.43962465655044403 0 0.25117529495687341 -0.44583808875036729 0 0.26891084591225478 -0.43962465655044403 0 0.25117529495687341 -0.44583808875036729 0 0.27572748178542938 -0.45459085367506979 0 0.25117529495687341 -0.44583808875036729 0 0.26603106987168568 -0.46453296657655729 0 0.27572748178542938 -0.45459085367506979 0 0.25117529495687341 -0.44583808875036729 0 0.25230213972055199 -0.4623473954534576 0 0.26603106987168568 -0.46453296657655729 0 0.25117529495687341 -0.44583808875036729 0 0.26603106987168568 -0.46453296657655729 0 0.25230213972055199 -0.4623473954534576 0 0.26603106987168568 -0.46453296657655729 0 0.25353028064809929 -0.47735051794753891 0 0.27572748178542938 -0.45459085367506979 0 0.2860687065211171 -0.47729542683753462 0 0.26603106987168568 -0.46453296657655729 0 0.27572748178542938 -0.45459085367506979 0 0.2860687065211171 -0.47729542683753462 0 0.26603106987168568 -0.46453296657655729 0 0.27572748178542938 -0.45459085367506979 0 0.26603106987168568 -0.46453296657655729 0 0.27889028805885713 -0.4807153275996634 0 0.26603106987168568 -0.46453296657655729 0 0.27889028805885713 -0.4807153275996634 0 0.26642415204434311 -0.47742103776791361 0 0.26603106987168568 -0.46453296657655729 0 0.27889028805885713 -0.4807153275996634 0 0.2860687065211171 -0.47729542683753462 0 0.27889028805885713 -0.4807153275996634 0 0.26642415204434311 -0.47742103776791361 0 0.26973020488866112 -0.486375466898259 0 0.26642415204434311 -0.47742103776791361 0 0.25353028064809929 -0.47735051794753891 0 0.26973020488866112 -0.486375466898259 0 0.26603106987168568 -0.46453296657655729 0 0.26642415204434311 -0.47742103776791361 0 0.25353028064809929 -0.47735051794753891 0 0.26603106987168568 -0.46453296657655729 0 0.25353028064809929 -0.47735051794753891 0 0.25353028064809929 -0.47735051794753891 0 0.26775481558337461 -0.5 0 0.2390996999099444 -0.5 0 0.25353028064809929 -0.47735051794753891 0 0.26775481558337461 -0.5 0 0.26973020488866112 -0.486375466898259 0 0.26775481558337461 -0.5 0 0.26973020488866112 -0.486375466898259 0 0.27703120369423029 -0.49099712078017288 0 0.26775481558337461 -0.5 0 0.27703120369423029 -0.49099712078017288 0 0.29174950624602869 -0.49689768862276951 0 0.27889028805885713 -0.4807153275996634 0 0.26973020488866112 -0.486375466898259 0 0.27703120369423029 -0.49099712078017288 0 0.27889028805885713 -0.4807153275996634 0 0.27703120369423029 -0.49099712078017288 0 0.29174950624602869 -0.49689768862276951 0 0.27889028805885713 -0.4807153275996634 0 0.29174950624602869 -0.49689768862276951 0 0.2964099312568047 -0.49999999999999911 0 0.2860687065211171 -0.47729542683753462 0 0.3001772389130189 -0.48822007202940521 0 0.26775481558337461 -0.5 0 0.2964099312568047 -0.49999999999999911 0 0.29174950624602869 -0.49689768862276951 0 0.2964099312568047 -0.49999999999999911 0 0.29174950624602869 -0.49689768862276951 0 0.2860687065211171 -0.47729542683753462 0 0.2964099312568047 -0.49999999999999911 0 0.2860687065211171 -0.47729542683753462 0 0.27889028805885713 -0.4807153275996634 0 0.29174950624602869 -0.49689768862276951 0 0.2860687065211171 -0.47729542683753462 0 0.2860687065211171 -0.47729542683753462 0 0.29767274953373229 -0.47974691790483992 0 0.29776520587470701 -0.47152279656830531 0 0.28874859660017438 -0.46322143947251793 0 0.2860687065211171 -0.47729542683753462 0 0.29776520587470701 -0.47152279656830531 0 0.2860687065211171 -0.47729542683753462 0 0.29767274953373229 -0.47974691790483992 0 0.3001772389130189 -0.48822007202940521 0 0.29767274953373229 -0.47974691790483992 0 0.29776520587470701 -0.47152279656830531 0 0.30794199884827189 -0.47984073696357721 0 0.29767274953373229 -0.47974691790483992 0 0.30794199884827189 -0.47984073696357721 0 0.3001772389130189 -0.48822007202940521 0 0.30714888890801562 -0.46554375409781501 0 0.29776520587470701 -0.47152279656830531 0 0.30794199884827189 -0.47984073696357721 0 0.3194401219017734 -0.46734083576544788 0 0.30714888890801562 -0.46554375409781501 0 0.30794199884827189 -0.47984073696357721 0 0.31531711244953953 -0.5 0 0.30794199884827189 -0.47984073696357721 0 0.3001772389130189 -0.48822007202940521 0 0.31531711244953953 -0.5 0 0.2964099312568047 -0.49999999999999911 0 0.3001772389130189 -0.48822007202940521 0 0.32775184346130398 -0.28440849299773352 0 0.3341542791119505 -0.26853471337745871 0 0.34547991936167921 -0.29333040170409502 0 0.3255630306005502 -0.30572743082962511 0 0.32775184346130398 -0.28440849299773352 0 0.34547991936167921 -0.29333040170409502 0 0.3255630306005502 -0.30572743082962511 0 0.34547991936167921 -0.29333040170409502 0 0.34242853186188688 -0.31549106366762197 0 0.3255630306005502 -0.30572743082962511 0 0.3117226979922243 -0.32472502700032352 0 0.30981759667710929 -0.30490735047805301 0 0.3255630306005502 -0.30572743082962511 0 0.31312655104276799 -0.28969622974457099 0 0.30981759667710929 -0.30490735047805301 0 0.32775184346130398 -0.28440849299773352 0 0.31312655104276799 -0.28969622974457099 0 0.31750642397248152 -0.27135412922208813 0 0.3255630306005502 -0.30572743082962511 0 0.32775184346130398 -0.28440849299773352 0 0.31312655104276799 -0.28969622974457099 0 0.32775184346130398 -0.28440849299773352 0 0.31750642397248152 -0.27135412922208813 0 0.3341542791119505 -0.26853471337745871 0 0.31750642397248152 -0.27135412922208813 0 0.3267291098789597 -0.25352024711675503 0 0.30555600159032242 -0.2566669108934001 0 0.31750642397248152 -0.27135412922208813 0 0.3267291098789597 -0.25352024711675503 0 0.3341542791119505 -0.26853471337745871 0 0.31511381228511531 -0.24106673712159241 0 0.3267291098789597 -0.25352024711675503 0 0.30555600159032242 -0.2566669108934001 0 0.34291683112288501 -0.24736075120898571 0 0.3341542791119505 -0.26853471337745871 0 0.35091815569613433 -0.27053000848184178 0 0.34291683112288501 -0.24736075120898571 0 0.3267291098789597 -0.25352024711675503 0 0.3341542791119505 -0.26853471337745871 0 0.3341542791119505 -0.26853471337745871 0 0.35091815569613433 -0.27053000848184178 0 0.34547991936167921 -0.29333040170409502 0 0.34291683112288501 -0.24736075120898571 0 0.36383203281962961 -0.24618222065141809 0 0.35091815569613433 -0.27053000848184178 0 0.36383203281962961 -0.24618222065141809 0 0.35091815569613433 -0.27053000848184178 0 0.36383203281962961 -0.24618222065141809 0 0.37940807851883712 -0.27232152391431907 0 0.35091815569613433 -0.27053000848184178 0 0.37940807851883712 -0.27232152391431907 0 0.35091815569613433 -0.27053000848184178 0 0.37198235026174742 -0.29592891400576299 0 0.35091815569613433 -0.27053000848184178 0 0.37198235026174742 -0.29592891400576299 0 0.34547991936167921 -0.29333040170409502 0 0.34547991936167921 -0.29333040170409502 0 0.36272452986471571 -0.31588292910559412 0 0.34242853186188688 -0.31549106366762197 0 0.38977976048831198 -0.31946352450918619 0 0.37198235026174742 -0.29592891400576299 0 0.36272452986471571 -0.31588292910559412 0 0.37198235026174742 -0.29592891400576299 0 0.34547991936167921 -0.29333040170409502 0 0.36272452986471571 -0.31588292910559412 0 0.38977976048831198 -0.31946352450918619 0 0.36272452986471571 -0.31588292910559412 0 0.37121840188661642 -0.33577984796825039 0 0.36272452986471571 -0.31588292910559412 0 0.37121840188661642 -0.33577984796825039 0 0.34638618375488889 -0.33720910130847997 0 0.37121840188661642 -0.33577984796825039 0 0.34638618375488889 -0.33720910130847997 0 0.35837536903553691 -0.35594872607243722 0 0.36272452986471571 -0.31588292910559412 0 0.34638618375488889 -0.33720910130847997 0 0.34242853186188688 -0.31549106366762197 0 0.37295616137165088 -0.36570703907621399 0 0.36470107201732499 -0.37231361713882499 0 0.35837536903553691 -0.35594872607243722 0 0.37121840188661642 -0.33577984796825039 0 0.37295616137165088 -0.36570703907621399 0 0.37121840188661642 -0.33577984796825039 0 0.37295616137165088 -0.36570703907621399 0 0.35837536903553691 -0.35594872607243722 0 0.34638618375488889 -0.33720910130847997 0 0.35837536903553691 -0.35594872607243722 0 0.34146586520757433 -0.36062770652982951 0 0.34941767039786159 -0.3809686772949159 0 0.36470107201732499 -0.37231361713882499 0 0.34146586520757433 -0.36062770652982951 0 0.36470107201732499 -0.37231361713882499 0 0.34146586520757433 -0.36062770652982951 0 0.36470107201732499 -0.37231361713882499 0 0.35837536903553691 -0.35594872607243722 0 0.34146586520757433 -0.36062770652982951 0 0.34941767039786159 -0.3809686772949159 0 0.33124532239560439 -0.37823301910301921 0 0.34146586520757433 -0.36062770652982951 0 0.33124532239560439 -0.37823301910301921 0 0.34146586520757433 -0.36062770652982951 0 0.32346025474346879 -0.36514636275694418 0 0.34638618375488889 -0.33720910130847997 0 0.34146586520757433 -0.36062770652982951 0 0.31823065839782372 -0.34894179592083402 0 0.34146586520757433 -0.36062770652982951 0 0.31823065839782372 -0.34894179592083402 0 0.31823065839782372 -0.34894179592083402 0 0.32346025474346879 -0.36514636275694418 0 0.31124560444966631 -0.36336951383878441 0 0.34146586520757433 -0.36062770652982951 0 0.31823065839782372 -0.34894179592083402 0 0.32346025474346879 -0.36514636275694418 0 0.33124532239560439 -0.37823301910301921 0 0.32346025474346879 -0.36514636275694418 0 0.31511382326667542 -0.37455977839225429 0 0.32346025474346879 -0.36514636275694418 0 0.31511382326667542 -0.37455977839225429 0 0.31124560444966631 -0.36336951383878441 0 0.3255630306005502 -0.30572743082962511 0 0.32901671595410809 -0.32686312246526877 0 0.34242853186188688 -0.31549106366762197 0 0.34638618375488889 -0.33720910130847997 0 0.32901671595410809 -0.32686312246526877 0 0.34242853186188688 -0.31549106366762197 0 0.34638618375488889 -0.33720910130847997 0 0.31823065839782372 -0.34894179592083402 0 0.32901671595410809 -0.32686312246526877 0 0.31823065839782372 -0.34894179592083402 0 0.32901671595410809 -0.32686312246526877 0 0.3117226979922243 -0.32472502700032352 0 0.3255630306005502 -0.30572743082962511 0 0.32901671595410809 -0.32686312246526877 0 0.3117226979922243 -0.32472502700032352 0 0.29837335346972499 -0.31330367155418842 0 0.3117226979922243 -0.32472502700032352 0 0.30981759667710929 -0.30490735047805301 0 0.29837335346972499 -0.31330367155418842 0 0.29964405047644033 -0.32522290433110868 0 0.3117226979922243 -0.32472502700032352 0 0.31823065839782372 -0.34894179592083402 0 0.3117226979922243 -0.32472502700032352 0 0.294995451588073 -0.33725588531183848 0 0.29964405047644033 -0.32522290433110868 0 0.3117226979922243 -0.32472502700032352 0 0.294995451588073 -0.33725588531183848 0 0.31823065839782372 -0.34894179592083402 0 0.294995451588073 -0.33725588531183848 0 0.294995451588073 -0.33725588531183848 0 0.2817771133164087 -0.338485459996409 0 0.27176024477832228 -0.32556997470284299 0 0.29964405047644033 -0.32522290433110868 0 0.294995451588073 -0.33725588531183848 0 0.29203420624268839 -0.32237731506624151 0 0.294995451588073 -0.33725588531183848 0 0.27176024477832228 -0.32556997470284299 0 0.294995451588073 -0.33725588531183848 0 0.28358988415041969 -0.32284122890424261 0 0.27176024477832228 -0.32556997470284299 0 0.294995451588073 -0.33725588531183848 0 0.2817771133164087 -0.338485459996409 0 0.29116260154598639 -0.34930942536833293 0 0.28358988415041969 -0.32284122890424261 0 0.28640106906587182 -0.31349920648280383 0 0.27470761861200782 -0.3162086251140841 0 0.28358988415041969 -0.32284122890424261 0 0.28640106906587182 -0.31349920648280383 0 0.29203420624268839 -0.32237731506624151 0 0.29837335346972499 -0.31330367155418842 0 0.28640106906587182 -0.31349920648280383 0 0.29203420624268839 -0.32237731506624151 0 0.29837335346972499 -0.31330367155418842 0 0.29964405047644033 -0.32522290433110868 0 0.29203420624268839 -0.32237731506624151 0 0.294995451588073 -0.33725588531183848 0 0.28358988415041969 -0.32284122890424261 0 0.29203420624268839 -0.32237731506624151 0 0.31511382326667542 -0.37455977839225429 0 0.29971544844869391 -0.37298558201956378 0 0.31124560444966631 -0.36336951383878441 0 0.29971544844869391 -0.37298558201956378 0 0.31124560444966631 -0.36336951383878441 0 0.30052569464461659 -0.3577454317051556 0 0.31823065839782372 -0.34894179592083402 0 0.31124560444966631 -0.36336951383878441 0 0.30052569464461659 -0.3577454317051556 0 0.31823065839782372 -0.34894179592083402 0 0.294995451588073 -0.33725588531183848 0 0.30052569464461659 -0.3577454317051556 0 0.2817771133164087 -0.338485459996409 0 0.28704519526331568 -0.36292762804969958 0 0.2817771133164087 -0.338485459996409 0 0.29116260154598639 -0.34930942536833293 0 0.28704519526331568 -0.36292762804969958 0 0.294995451588073 -0.33725588531183848 0 0.30052569464461659 -0.3577454317051556 0 0.29116260154598639 -0.34930942536833293 0 0.2817771133164087 -0.338485459996409 0 0.28704519526331568 -0.36292762804969958 0 0.27782663286435222 -0.35215601445474221 0 0.30052569464461659 -0.3577454317051556 0 0.29116260154598639 -0.34930942536833293 0 0.28704519526331568 -0.36292762804969958 0 0.29231327721022282 -0.3873697961029901 0 0.29971544844869391 -0.37298558201956378 0 0.28704519526331568 -0.36292762804969958 0 0.29971544844869391 -0.37298558201956378 0 0.30052569464461659 -0.3577454317051556 0 0.28704519526331568 -0.36292762804969958 0 0.28557892230701942 -0.37606573252756781 0 0.28704519526331568 -0.36292762804969958 0 0.27676702680749982 -0.36629414683306349 0 0.26781488472909032 -0.37357010396950652 0 0.27676702680749982 -0.36629414683306349 0 0.26455459389853619 -0.36520576389029952 0 0.27616762034734937 -0.37960006174152611 0 0.26781488472909032 -0.37357010396950652 0 0.27676702680749982 -0.36629414683306349 0 0.28704519526331568 -0.36292762804969958 0 0.27676702680749982 -0.36629414683306349 0 0.27782663286435222 -0.35215601445474221 0 0.27676702680749982 -0.36629414683306349 0 0.26390236101412479 -0.35626434805112678 0 0.26455459389853619 -0.36520576389029952 0 0.27676702680749982 -0.36629414683306349 0 0.27782663286435222 -0.35215601445474221 0 0.26665294992041211 -0.34342913863283558 0 0.27676702680749982 -0.36629414683306349 0 0.26390236101412479 -0.35626434805112678 0 0.26665294992041211 -0.34342913863283558 0 0.27676702680749982 -0.36629414683306349 0 0.26665294992041211 -0.34342913863283558 0 0.2817771133164087 -0.338485459996409 0 0.27782663286435222 -0.35215601445474221 0 0.26665294992041211 -0.34342913863283558 0 0.25577361421002948 -0.34936586525465058 0 0.26390236101412479 -0.35626434805112678 0 0.26665294992041211 -0.34342913863283558 0 0.25577361421002948 -0.34936586525465058 0 0.2565155651556944 -0.3603299750907048 0 0.24834160719301851 -0.35624689525115733 0 0.25577361421002948 -0.34936586525465058 0 0.26390236101412479 -0.35626434805112678 0 0.2565155651556944 -0.3603299750907048 0 0.26455459389853619 -0.36520576389029952 0 0.2565155651556944 -0.3603299750907048 0 0.25777313178627231 -0.36957024550709572 0 0.26390236101412479 -0.35626434805112678 0 0.26455459389853619 -0.36520576389029952 0 0.2565155651556944 -0.3603299750907048 0 0.2565155651556944 -0.3603299750907048 0 0.25777313178627231 -0.36957024550709572 0 0.24854849572627649 -0.36540640846097788 0 0.2565155651556944 -0.3603299750907048 0 0.24854849572627649 -0.36540640846097788 0 0.24834160719301851 -0.35624689525115733 0 0.25777313178627231 -0.36957024550709572 0 0.24854849572627649 -0.36540640846097788 0 0.24884497561725441 -0.37604231901838492 0 0.26781488472909032 -0.37357010396950652 0 0.26455459389853619 -0.36520576389029952 0 0.25777313178627231 -0.36957024550709572 0 0.28358988415041969 -0.32284122890424261 0 0.27176024477832228 -0.32556997470284299 0 0.27470761861200782 -0.3162086251140841 0 0.2817771133164087 -0.338485459996409 0 0.27176024477832228 -0.32556997470284299 0 0.27121738162130599 -0.33542928728790061 0 0.2817771133164087 -0.338485459996409 0 0.26665294992041211 -0.34342913863283558 0 0.27121738162130599 -0.33542928728790061 0 0.27176024477832228 -0.32556997470284299 0 0.27121738162130599 -0.33542928728790061 0 0.25640862481954441 -0.33434173066108652 0 0.26665294992041211 -0.34342913863283558 0 0.27121738162130599 -0.33542928728790061 0 0.25640862481954441 -0.33434173066108652 0 0.25577361421002948 -0.34936586525465058 0 0.26665294992041211 -0.34342913863283558 0 0.25640862481954441 -0.33434173066108652 0 0.25577361421002948 -0.34936586525465058 0 0.25640862481954441 -0.33434173066108652 0 0.24232520286868889 -0.34630877690949952 0 0.27176024477832228 -0.32556997470284299 0 0.2485250379685715 -0.31388406409384761 0 0.27176024477832228 -0.32556997470284299 0 0.25640862481954441 -0.33434173066108652 0 0.2485250379685715 -0.31388406409384761 0 0.27176024477832228 -0.32556997470284299 0 0.27470761861200782 -0.3162086251140841 0 0.2485250379685715 -0.31388406409384761 0 0.26236365528042349 -0.29500099275464298 0 0.27397998969108239 -0.30009076219265518 0 0.2485250379685715 -0.31388406409384761 0 0.27397998969108239 -0.30009076219265518 0 0.2485250379685715 -0.31388406409384761 0 0.25225517647982437 -0.29074300662273977 0 0.26236365528042349 -0.29500099275464298 0 0.2485250379685715 -0.31388406409384761 0 0.25225517647982437 -0.29074300662273977 0 0.26167751008197548 -0.28001849133682138 0 0.24408226279292131 -0.27538555051393981 0 0.25225517647982437 -0.29074300662273977 0 0.26236365528042349 -0.29500099275464298 0 0.26167751008197548 -0.28001849133682138 0 0.27538056218066359 -0.29026863952715087 0 0.28952693468184038 -0.2894388978769839 0 0.27605350574931942 -0.26432865394021771 0 0.26236365528042349 -0.29500099275464298 0 0.27538056218066359 -0.29026863952715087 0 0.26167751008197548 -0.28001849133682138 0 0.26236365528042349 -0.29500099275464298 0 0.27538056218066359 -0.29026863952715087 0 0.27397998969108239 -0.30009076219265518 0 0.27538056218066359 -0.29026863952715087 0 0.28169672864762041 -0.30398686146426851 0 0.28283495559997818 -0.2963530189299341 0 0.27470761861200782 -0.3162086251140841 0 0.27538056218066359 -0.29026863952715087 0 0.27397998969108239 -0.30009076219265518 0 0.27470761861200782 -0.3162086251140841 0 0.27538056218066359 -0.29026863952715087 0 0.28169672864762041 -0.30398686146426851 0 0.27470761861200782 -0.3162086251140841 0 0.27538056218066359 -0.29026863952715087 0 0.27470761861200782 -0.3162086251140841 0 0.27397998969108239 -0.30009076219265518 0 0.2485250379685715 -0.31388406409384761 0 0.28640106906587182 -0.31349920648280383 0 0.27470761861200782 -0.3162086251140841 0 0.28169672864762041 -0.30398686146426851 0 0.28640106906587182 -0.31349920648280383 0 0.28915943777958047 -0.3036048172673696 0 0.28169672864762041 -0.30398686146426851 0 0.29837335346972499 -0.31330367155418842 0 0.28915943777958047 -0.3036048172673696 0 0.29962077206676779 -0.29604152468729589 0 0.29837335346972499 -0.31330367155418842 0 0.28640106906587182 -0.31349920648280383 0 0.28915943777958047 -0.3036048172673696 0 0.28915943777958047 -0.3036048172673696 0 0.28169672864762041 -0.30398686146426851 0 0.28283495559997818 -0.2963530189299341 0 0.28915943777958047 -0.3036048172673696 0 0.28283495559997818 -0.2963530189299341 0 0.28952693468184038 -0.2894388978769839 0 0.27538056218066359 -0.29026863952715087 0 0.28283495559997818 -0.2963530189299341 0 0.28952693468184038 -0.2894388978769839 0 0.28952693468184038 -0.2894388978769839 0 0.29962077206676779 -0.29604152468729589 0 0.29849963947839508 -0.27573845025263072 0 0.28915943777958047 -0.3036048172673696 0 0.28952693468184038 -0.2894388978769839 0 0.29962077206676779 -0.29604152468729589 0 0.31312655104276799 -0.28969622974457099 0 0.29962077206676779 -0.29604152468729589 0 0.29849963947839508 -0.27573845025263072 0 0.31312655104276799 -0.28969622974457099 0 0.29962077206676779 -0.29604152468729589 0 0.30981759667710929 -0.30490735047805301 0 0.29837335346972499 -0.31330367155418842 0 0.29962077206676779 -0.29604152468729589 0 0.30981759667710929 -0.30490735047805301 0 0.3019564501337329 -0.24366028749932159 0 0.30555600159032242 -0.2566669108934001 0 0.28934312027097869 -0.25461743690163502 0 0.30555600159032242 -0.2566669108934001 0 0.29849963947839508 -0.27573845025263072 0 0.28934312027097869 -0.25461743690163502 0 0.31750642397248152 -0.27135412922208813 0 0.30555600159032242 -0.2566669108934001 0 0.29849963947839508 -0.27573845025263072 0 0.31312655104276799 -0.28969622974457099 0 0.31750642397248152 -0.27135412922208813 0 0.29849963947839508 -0.27573845025263072 0 0.28952693468184038 -0.2894388978769839 0 0.29849963947839508 -0.27573845025263072 0 0.27605350574931942 -0.26432865394021771 0 0.29849963947839508 -0.27573845025263072 0 0.28934312027097869 -0.25461743690163502 0 0.27605350574931942 -0.26432865394021771 0 0.27672644931797519 -0.23838866835328451 0 0.28934312027097869 -0.25461743690163502 0 0.27605350574931942 -0.26432865394021771 0 0.27672644931797519 -0.23838866835328451 0 0.26201284875209052 -0.24864288363549761 0 0.27605350574931942 -0.26432865394021771 0 0.27672644931797519 -0.23838866835328451 0 0.27605350574931942 -0.26432865394021771 0 0.27538056218066359 -0.29026863952715087 0 0.27605350574931942 -0.26432865394021771 0 0.26167751008197548 -0.28001849133682138 0 0.27538056218066359 -0.29026863952715087 0 0.27605350574931942 -0.26432865394021771 0 0.26167751008197548 -0.28001849133682138 0 0.25591977640570329 -0.26415382514756458 0 0.24408226279292131 -0.27538555051393981 0 0.27605350574931942 -0.26432865394021771 0 0.26167751008197548 -0.28001849133682138 0 0.25591977640570329 -0.26415382514756458 0 0.26201284875209052 -0.24864288363549761 0 0.27605350574931942 -0.26432865394021771 0 0.25591977640570329 -0.26415382514756458 0 0.26201284875209052 -0.24864288363549761 0 0.25591977640570329 -0.26415382514756458 0 0.24106351552099611 -0.25430938085000399 0 0.24106351552099611 -0.25430938085000399 0 0.24408226279292131 -0.27538555051393981 0 0.22750030083881589 -0.26284629705022849 0 0.25591977640570329 -0.26415382514756458 0 0.24106351552099611 -0.25430938085000399 0 0.24408226279292131 -0.27538555051393981 0 0.24408226279292131 -0.27538555051393981 0 0.2248352709428928 -0.27885619063465372 0 0.22750030083881589 -0.26284629705022849 0 0.24106351552099611 -0.25430938085000399 0 0.22750030083881589 -0.26284629705022849 0 0.21794513624863049 -0.25021170180138103 0 0.22750030083881589 -0.26284629705022849 0 0.21794513624863049 -0.25021170180138103 0 0.20054283241948981 -0.26729971332757158 0 0.21794513624863049 -0.25021170180138103 0 0.20054283241948981 -0.26729971332757158 0 0.2056729391587073 -0.24359465449947981 0 0.20054283241948981 -0.26729971332757158 0 0.21098408579488551 -0.29500322456139461 0 0.2248352709428928 -0.27885619063465372 0 0.22750030083881589 -0.26284629705022849 0 0.20054283241948981 -0.26729971332757158 0 0.2248352709428928 -0.27885619063465372 0 0.20054283241948981 -0.26729971332757158 0 0.21098408579488551 -0.29500322456139461 0 0.20054283241948981 -0.26729971332757158 0 0.19087704166009439 -0.28043785276814742 0 0.20187404955813651 -0.29042142462395248 0 0.20054283241948981 -0.26729971332757158 0 0.19087704166009439 -0.28043785276814742 0 0.17688500001321411 -0.27065022192902882 0 0.20054283241948981 -0.26729971332757158 0 0.2056729391587073 -0.24359465449947981 0 0.19010157904409439 -0.23959620209374871 0 0.20054283241948981 -0.26729971332757158 0 0.18448204354290951 -0.25641715725236403 0 0.19010157904409439 -0.23959620209374871 0 0.20054283241948981 -0.26729971332757158 0 0.19010157904409439 -0.23959620209374871 0 0.19680750256473839 -0.30351112431789018 0 0.1898574746499678 -0.31570568246887148 0 0.18337123733158989 -0.29317795219895049 0 0.19680750256473839 -0.30351112431789018 0 0.20187404955813651 -0.29042142462395248 0 0.20456384181872059 -0.30226562166731019 0 0.19680750256473839 -0.30351112431789018 0 0.198697185824425 -0.31122667715489027 0 0.20456384181872059 -0.30226562166731019 0 0.19680750256473839 -0.30351112431789018 0 0.198697185824425 -0.31122667715489027 0 0.1898574746499678 -0.31570568246887148 0 0.19680750256473839 -0.30351112431789018 0 0.19323245777863979 -0.29188708847723521 0 0.18337123733158989 -0.29317795219895049 0 0.19087704166009439 -0.28043785276814742 0 0.19323245777863979 -0.29188708847723521 0 0.18337123733158989 -0.29317795219895049 0 0.19087704166009439 -0.28043785276814742 0 0.19323245777863979 -0.29188708847723521 0 0.20187404955813651 -0.29042142462395248 0 0.19680750256473839 -0.30351112431789018 0 0.19323245777863979 -0.29188708847723521 0 0.20187404955813651 -0.29042142462395248 0 0.20187404955813651 -0.29042142462395248 0 0.21098408579488551 -0.29500322456139461 0 0.20187404955813651 -0.29042142462395248 0 0.21098408579488551 -0.29500322456139461 0 0.20456384181872059 -0.30226562166731019 0 0.20054283241948981 -0.26729971332757158 0 0.20187404955813651 -0.29042142462395248 0 0.21098408579488551 -0.29500322456139461 0 0.21098408579488551 -0.29500322456139461 0 0.22087842086224829 -0.32125561139991698 0 0.21098408579488551 -0.29500322456139461 0 0.20456384181872059 -0.30226562166731019 0 0.20878983749409721 -0.31082096605040821 0 0.21098408579488551 -0.29500322456139461 0 0.20878983749409721 -0.31082096605040821 0 0.22087842086224829 -0.32125561139991698 0 0.198697185824425 -0.31122667715489027 0 0.20456384181872059 -0.30226562166731019 0 0.20878983749409721 -0.31082096605040821 0 0.21098408579488551 -0.29500322456139461 0 0.2297545618817286 -0.30444364432762078 0 0.2380892849463784 -0.29184359748069699 0 0.21098408579488551 -0.29500322456139461 0 0.2297545618817286 -0.30444364432762078 0 0.22087842086224829 -0.32125561139991698 0 0.21098408579488551 -0.29500322456139461 0 0.2297545618817286 -0.30444364432762078 0 0.2248352709428928 -0.27885619063465372 0 0.21098408579488551 -0.29500322456139461 0 0.2380892849463784 -0.29184359748069699 0 0.24408226279292131 -0.27538555051393981 0 0.2248352709428928 -0.27885619063465372 0 0.2380892849463784 -0.29184359748069699 0 0.25225517647982437 -0.29074300662273977 0 0.24408226279292131 -0.27538555051393981 0 0.2380892849463784 -0.29184359748069699 0 0.2297545618817286 -0.30444364432762078 0 0.2485250379685715 -0.31388406409384761 0 0.25225517647982437 -0.29074300662273977 0 0.2380892849463784 -0.29184359748069699 0 0.2485250379685715 -0.31388406409384761 0 0.2297545618817286 -0.30444364432762078 0 0.2380892849463784 -0.29184359748069699 0 0.2485250379685715 -0.31388406409384761 0 0.2485250379685715 -0.31388406409384761 0 0.2395249635091283 -0.33300909932935813 0 0.22292331311821681 -0.32775689810672531 0 0.2485250379685715 -0.31388406409384761 0 0.22292331311821681 -0.32775689810672531 0 0.25640862481954441 -0.33434173066108652 0 0.2485250379685715 -0.31388406409384761 0 0.2395249635091283 -0.33300909932935813 0 0.25640862481954441 -0.33434173066108652 0 0.2395249635091283 -0.33300909932935813 0 0.24232520286868889 -0.34630877690949952 0 0.2395249635091283 -0.33300909932935813 0 0.22744263877062029 -0.34275402687563161 0 0.24232520286868889 -0.34630877690949952 0 0.2395249635091283 -0.33300909932935813 0 0.22744263877062029 -0.34275402687563161 0 0.22292331311821681 -0.32775689810672531 0 0.22744263877062029 -0.34275402687563161 0 0.21872447335115791 -0.34533232563087501 0 0.21462003541063049 -0.33696037002233409 0 0.22744263877062029 -0.34275402687563161 0 0.22292331311821681 -0.32775689810672531 0 0.21462003541063049 -0.33696037002233409 0 0.2297545618817286 -0.30444364432762078 0 0.2485250379685715 -0.31388406409384761 0 0.22087842086224829 -0.32125561139991698 0 0.2485250379685715 -0.31388406409384761 0 0.22292331311821681 -0.32775689810672531 0 0.22087842086224829 -0.32125561139991698 0 0.23944365777930071 -0.3700579890543757 0 0.23365158520298809 -0.36443832111919261 0 0.2322477440849838 -0.37535830567224659 0 0.23944365777930071 -0.3700579890543757 0 0.24854849572627649 -0.36540640846097788 0 0.24884497561725441 -0.37604231901838492 0 0.23944365777930071 -0.3700579890543757 0 0.24854849572627649 -0.36540640846097788 0 0.2398766625374241 -0.36091669991265629 0 0.24854849572627649 -0.36540640846097788 0 0.2398766625374241 -0.36091669991265629 0 0.24834160719301851 -0.35624689525115733 0 0.23944365777930071 -0.3700579890543757 0 0.2398766625374241 -0.36091669991265629 0 0.23365158520298809 -0.36443832111919261 0 0.2398766625374241 -0.36091669991265629 0 0.2299340982757746 -0.35662716332863859 0 0.23365158520298809 -0.36443832111919261 0 0.2398766625374241 -0.36091669991265629 0 0.24232520286868889 -0.34630877690949952 0 0.2299340982757746 -0.35662716332863859 0 0.2398766625374241 -0.36091669991265629 0 0.24834160719301851 -0.35624689525115733 0 0.24232520286868889 -0.34630877690949952 0 0.25577361421002948 -0.34936586525465058 0 0.24834160719301851 -0.35624689525115733 0 0.24232520286868889 -0.34630877690949952 0 0.22744263877062029 -0.34275402687563161 0 0.24232520286868889 -0.34630877690949952 0 0.2299340982757746 -0.35662716332863859 0 0.22744263877062029 -0.34275402687563161 0 0.2299340982757746 -0.35662716332863859 0 0.2183885806796084 -0.35350204166600607 0 0.22744263877062029 -0.34275402687563161 0 0.2183885806796084 -0.35350204166600607 0 0.21872447335115791 -0.34533232563087501 0 0.2299340982757746 -0.35662716332863859 0 0.22077656655698791 -0.36241747094600352 0 0.2183885806796084 -0.35350204166600607 0 0.2299340982757746 -0.35662716332863859 0 0.23365158520298809 -0.36443832111919261 0 0.2262472836212481 -0.36863212693597119 0 0.2299340982757746 -0.35662716332863859 0 0.22077656655698791 -0.36241747094600352 0 0.2262472836212481 -0.36863212693597119 0 0.2262472836212481 -0.36863212693597119 0 0.21742159630496369 -0.3744142517261862 0 0.22439642646764241 -0.38039452328566919 0 0.22077656655698791 -0.36241747094600352 0 0.2262472836212481 -0.36863212693597119 0 0.21742159630496369 -0.3744142517261862 0 0.23365158520298809 -0.36443832111919261 0 0.2262472836212481 -0.36863212693597119 0 0.2322477440849838 -0.37535830567224659 0 0.2262472836212481 -0.36863212693597119 0 0.2322477440849838 -0.37535830567224659 0 0.22439642646764241 -0.38039452328566919 0 0.20579536302122681 -0.37314080263987759 0 0.21250568262194819 -0.36363557130019608 0 0.205233056926624 -0.3647982741317734 0 0.20579536302122681 -0.37314080263987759 0 0.21742159630496369 -0.3744142517261862 0 0.21250568262194819 -0.36363557130019608 0 0.22077656655698791 -0.36241747094600352 0 0.21742159630496369 -0.3744142517261862 0 0.21250568262194819 -0.36363557130019608 0 0.22077656655698791 -0.36241747094600352 0 0.21250568262194819 -0.36363557130019608 0 0.2183885806796084 -0.35350204166600607 0 0.21250568262194819 -0.36363557130019608 0 0.205233056926624 -0.3647982741317734 0 0.2068426593901759 -0.35953205978580988 0 0.205233056926624 -0.3647982741317734 0 0.2068426593901759 -0.35953205978580988 0 0.2019681244314753 -0.35776788868793358 0 0.2019681244314753 -0.35776788868793358 0 0.21462003541063049 -0.33696037002233409 0 0.2122926506822693 -0.35283746744697381 0 0.21872447335115791 -0.34533232563087501 0 0.21462003541063049 -0.33696037002233409 0 0.2019681244314753 -0.35776788868793358 0 0.21462003541063049 -0.33696037002233409 0 0.1973215882678612 -0.34162973211960163 0 0.2122926506822693 -0.35283746744697381 0 0.2019681244314753 -0.35776788868793358 0 0.21462003541063049 -0.33696037002233409 0 0.21250568262194819 -0.36363557130019608 0 0.2068426593901759 -0.35953205978580988 0 0.2122926506822693 -0.35283746744697381 0 0.2068426593901759 -0.35953205978580988 0 0.2122926506822693 -0.35283746744697381 0 0.2019681244314753 -0.35776788868793358 0 0.21250568262194819 -0.36363557130019608 0 0.2122926506822693 -0.35283746744697381 0 0.2183885806796084 -0.35350204166600607 0 0.2122926506822693 -0.35283746744697381 0 0.2183885806796084 -0.35350204166600607 0 0.21872447335115791 -0.34533232563087501 0 0.2019681244314753 -0.35776788868793358 0 0.1973215882678612 -0.34162973211960163 0 0.19573058108122099 -0.35181379078233599 0 0.2019681244314753 -0.35776788868793358 0 0.1973215882678612 -0.34162973211960163 0 0.1973215882678612 -0.34162973211960163 0 0.18725747656507299 -0.34708318308651748 0 0.19573058108122099 -0.35181379078233599 0 0.1973215882678612 -0.34162973211960163 0 0.18725747656507299 -0.34708318308651748 0 0.19319480683266119 -0.35652751062628579 0 0.19573058108122099 -0.35181379078233599 0 0.18725747656507299 -0.34708318308651748 0 0.19319480683266119 -0.35652751062628579 0 0.18601098627647999 -0.36218348642302173 0 0.18725747656507299 -0.34708318308651748 0 0.19914945021016869 -0.35697624898682012 0 0.19573058108122099 -0.35181379078233599 0 0.2019681244314753 -0.35776788868793358 0 0.19319480683266119 -0.35652751062628579 0 0.19914945021016869 -0.35697624898682012 0 0.19782554003036329 -0.3645808438527337 0 0.19319480683266119 -0.35652751062628579 0 0.19914945021016869 -0.35697624898682012 0 0.19573058108122099 -0.35181379078233599 0 0.19782554003036329 -0.3645808438527337 0 0.18576662782764289 -0.38441310801886552 0 0.19782554003036329 -0.3645808438527337 0 0.18601098627647999 -0.36218348642302173 0 0.18576662782764289 -0.38441310801886552 0 0.2019681244314753 -0.35776788868793358 0 0.19782554003036329 -0.3645808438527337 0 0.19914945021016869 -0.35697624898682012 0 0.2019681244314753 -0.35776788868793358 0 0.19782554003036329 -0.3645808438527337 0 0.205233056926624 -0.3647982741317734 0 0.2019681244314753 -0.35776788868793358 0 0.19782554003036329 -0.3645808438527337 0 0.19914945021016869 -0.35697624898682012 0 0.19782554003036329 -0.3645808438527337 0 0.19319480683266119 -0.35652751062628579 0 0.19782554003036329 -0.3645808438527337 0 0.18601098627647999 -0.36218348642302173 0 0.20579536302122681 -0.37314080263987759 0 0.205233056926624 -0.3647982741317734 0 0.19782554003036329 -0.3645808438527337 0 0.198697185824425 -0.31122667715489027 0 0.20878983749409721 -0.31082096605040821 0 0.2046086011868149 -0.31656402389983862 0 0.20878983749409721 -0.31082096605040821 0 0.2046086011868149 -0.31656402389983862 0 0.21072439896081441 -0.31818596656553078 0 0.20862073630009739 -0.32410326491195979 0 0.2046086011868149 -0.31656402389983862 0 0.21072439896081441 -0.31818596656553078 0 0.20878983749409721 -0.31082096605040821 0 0.22087842086224829 -0.32125561139991698 0 0.21072439896081441 -0.31818596656553078 0 0.22087842086224829 -0.32125561139991698 0 0.20862073630009739 -0.32410326491195979 0 0.21072439896081441 -0.31818596656553078 0 0.22292331311821681 -0.32775689810672531 0 0.22087842086224829 -0.32125561139991698 0 0.20862073630009739 -0.32410326491195979 0 0.22292331311821681 -0.32775689810672531 0 0.20862073630009739 -0.32410326491195979 0 0.1973215882678612 -0.34162973211960163 0 0.22292331311821681 -0.32775689810672531 0 0.21462003541063049 -0.33696037002233409 0 0.1973215882678612 -0.34162973211960163 0 0.22292331311821681 -0.32775689810672531 0 0.1973215882678612 -0.34162973211960163 0 0.1973215882678612 -0.34162973211960163 0 0.1898574746499678 -0.31570568246887148 0 0.1973215882678612 -0.34162973211960163 0 0.1898574746499678 -0.31570568246887148 0 0.18217116499213759 -0.33233378195402191 0 0.1973215882678612 -0.34162973211960163 0 0.18217116499213759 -0.33233378195402191 0 0.18725747656507299 -0.34708318308651748 0 0.20862073630009739 -0.32410326491195979 0 0.1973215882678612 -0.34162973211960163 0 0.1946455748328686 -0.31823416409099459 0 0.1973215882678612 -0.34162973211960163 0 0.1946455748328686 -0.31823416409099459 0 0.1898574746499678 -0.31570568246887148 0 0.20862073630009739 -0.32410326491195979 0 0.2046086011868149 -0.31656402389983862 0 0.1946455748328686 -0.31823416409099459 0 0.198697185824425 -0.31122667715489027 0 0.2046086011868149 -0.31656402389983862 0 0.1946455748328686 -0.31823416409099459 0 0.198697185824425 -0.31122667715489027 0 0.1946455748328686 -0.31823416409099459 0 0.1898574746499678 -0.31570568246887148 0 0.1946455748328686 -0.31823416409099459 0 0.1898574746499678 -0.31570568246887148 0 0.1898574746499678 -0.31570568246887148 0 0.17368082561560591 -0.31730438906621172 0 0.18217116499213759 -0.33233378195402191 0 0.17368082561560591 -0.31730438906621172 0 0.18217116499213759 -0.33233378195402191 0 0.17022073835618279 -0.33027513077510701 0 0.18217116499213759 -0.33233378195402191 0 0.1744997261120301 -0.3417614858746385 0 0.18725747656507299 -0.34708318308651748 0 0.18217116499213759 -0.33233378195402191 0 0.1744997261120301 -0.3417614858746385 0 0.17022073835618279 -0.33027513077510701 0 0.17022073835618279 -0.33027513077510701 0 0.16477588933798981 -0.3378373880545642 0 0.15954639376907789 -0.33082826160739992 0 0.1744997261120301 -0.3417614858746385 0 0.17022073835618279 -0.33027513077510701 0 0.16477588933798981 -0.3378373880545642 0 0.1744997261120301 -0.3417614858746385 0 0.16477588933798981 -0.3378373880545642 0 0.16212934814370131 -0.34710552713221682 0 0.16477588933798981 -0.3378373880545642 0 0.16212934814370131 -0.34710552713221682 0 0.1527527043331437 -0.33826368195735612 0 0.16477588933798981 -0.3378373880545642 0 0.15954639376907789 -0.33082826160739992 0 0.1527527043331437 -0.33826368195735612 0 0.15954639376907789 -0.33082826160739992 0 0.16372010451773489 -0.32255966433985089 0 0.15131662198139781 -0.32442275194582559 0 0.15131662198139781 -0.32442275194582559 0 0.16426102859342009 -0.30992667203654989 0 0.16372010451773489 -0.32255966433985089 0 0.15131662198139781 -0.32442275194582559 0 0.16426102859342009 -0.30992667203654989 0 0.17368082561560591 -0.31730438906621172 0 0.16372010451773489 -0.32255966433985089 0 0.16426102859342009 -0.30992667203654989 0 0.17368082561560591 -0.31730438906621172 0 0.17022073835618279 -0.33027513077510701 0 0.16372010451773489 -0.32255966433985089 0 0.17022073835618279 -0.33027513077510701 0 0.15954639376907789 -0.33082826160739992 0 0.16372010451773489 -0.32255966433985089 0 0.1747811706356979 -0.36822016564850152 0 0.18601098627647999 -0.36218348642302173 0 0.18576662782764289 -0.38441310801886552 0 0.1747811706356979 -0.36822016564850152 0 0.18601098627647999 -0.36218348642302173 0 0.17421435378549741 -0.35469879235619661 0 0.18601098627647999 -0.36218348642302173 0 0.17421435378549741 -0.35469879235619661 0 0.18725747656507299 -0.34708318308651748 0 0.1744997261120301 -0.3417614858746385 0 0.17421435378549741 -0.35469879235619661 0 0.18725747656507299 -0.34708318308651748 0 0.1744997261120301 -0.3417614858746385 0 0.17421435378549741 -0.35469879235619661 0 0.16212934814370131 -0.34710552713221682 0 0.16212934814370131 -0.34710552713221682 0 0.16060741498000239 -0.36183890597228402 0 0.15110093000835889 -0.35061786179725501 0 0.17421435378549741 -0.35469879235619661 0 0.16212934814370131 -0.34710552713221682 0 0.16060741498000239 -0.36183890597228402 0 0.1747811706356979 -0.36822016564850152 0 0.16060741498000239 -0.36183890597228402 0 0.1631916679950996 -0.38325295569362372 0 0.1747811706356979 -0.36822016564850152 0 0.17421435378549741 -0.35469879235619661 0 0.16060741498000239 -0.36183890597228402 0 0.16060741498000239 -0.36183890597228402 0 0.14235507647168069 -0.36670870954680179 0 0.15110093000835889 -0.35061786179725501 0 0.16060741498000239 -0.36183890597228402 0 0.14235507647168069 -0.36670870954680179 0 0.1631916679950996 -0.38325295569362372 0 0.14235507647168069 -0.36670870954680179 0 0.15110093000835889 -0.35061786179725501 0 0.13837221536937491 -0.33891883185510091 0 0.16212934814370131 -0.34710552713221682 0 0.15110093000835889 -0.35061786179725501 0 0.1527527043331437 -0.33826368195735612 0 0.14235507647168069 -0.36670870954680179 0 0.13837221536937491 -0.33891883185510091 0 0.13837221536937491 -0.33891883185510091 0 0.1205545949648919 -0.35887228796305831 0 0.12250173402609441 -0.3479549796538271 0 0.13837221536937491 -0.33891883185510091 0 0.1205545949648919 -0.35887228796305831 0 0.14235507647168069 -0.36670870954680179 0 0.13837221536937491 -0.33891883185510091 0 0.1205545949648919 -0.35887228796305831 0 0.14235507647168069 -0.36670870954680179 0 0.13074812791438861 -0.37691635541169582 0 0.1205545949648919 -0.35887228796305831 0 0.14248049653994191 -0.31831416388627731 0 0.15131662198139781 -0.32442275194582559 0 0.14896147241548749 -0.30864647612763563 0 0.15131662198139781 -0.32442275194582559 0 0.14896147241548749 -0.30864647612763563 0 0.16426102859342009 -0.30992667203654989 0 0.14248049653994191 -0.31831416388627731 0 0.15131662198139781 -0.32442275194582559 0 0.13989203232043171 -0.32584018886430832 0 0.14248049653994191 -0.31831416388627731 0 0.1358186422350488 -0.31172695802316952 0 0.14896147241548749 -0.30864647612763563 0 0.15954639376907789 -0.33082826160739992 0 0.15131662198139781 -0.32442275194582559 0 0.1527527043331437 -0.33826368195735612 0 0.15110093000835889 -0.35061786179725501 0 0.1527527043331437 -0.33826368195735612 0 0.13837221536937491 -0.33891883185510091 0 0.15131662198139781 -0.32442275194582559 0 0.13837221536937491 -0.33891883185510091 0 0.13989203232043171 -0.32584018886430832 0 0.15131662198139781 -0.32442275194582559 0 0.13837221536937491 -0.33891883185510091 0 0.15131662198139781 -0.32442275194582559 0 0.1527527043331437 -0.33826368195735612 0 0.13837221536937491 -0.33891883185510091 0 0.137021036098672 -0.32949116021207481 0 0.13837221536937491 -0.33891883185510091 0 0.13989203232043171 -0.32584018886430832 0 0.137021036098672 -0.32949116021207481 0 0.13837221536937491 -0.33891883185510091 0 0.12250173402609441 -0.3479549796538271 0 0.137021036098672 -0.32949116021207481 0 0.13837221536937491 -0.33891883185510091 0 0.137021036098672 -0.32949116021207481 0 0.12485570640720769 -0.33690899376267192 0 0.12250173402609441 -0.3479549796538271 0 0.137021036098672 -0.32949116021207481 0 0.12250173402609441 -0.3479549796538271 0 0.137021036098672 -0.32949116021207481 0 0.13140283115837759 -0.32893722481639293 0 0.13657752922695071 -0.32639665066127482 0 0.13140283115837759 -0.32893722481639293 0 0.12605220128796429 -0.32681737417240919 0 0.12485570640720769 -0.33690899376267192 0 0.137021036098672 -0.32949116021207481 0 0.13140283115837759 -0.32893722481639293 0 0.12485570640720769 -0.33690899376267192 0 0.12605220128796429 -0.32681737417240919 0 0.13185061961267791 -0.32429540743708829 0 0.12880682264275331 -0.31839134306491701 0 0.13185061961267791 -0.32429540743708829 0 0.13641371374734371 -0.32093444447044761 0 0.12880682264275331 -0.31839134306491701 0 0.13140283115837759 -0.32893722481639293 0 0.12605220128796429 -0.32681737417240919 0 0.13185061961267791 -0.32429540743708829 0 0.13140283115837759 -0.32893722481639293 0 0.13185061961267791 -0.32429540743708829 0 0.13657752922695071 -0.32639665066127482 0 0.13185061961267791 -0.32429540743708829 0 0.13657752922695071 -0.32639665066127482 0 0.13641371374734371 -0.32093444447044761 0 0.14248049653994191 -0.31831416388627731 0 0.13641371374734371 -0.32093444447044761 0 0.13989203232043171 -0.32584018886430832 0 0.13657752922695071 -0.32639665066127482 0 0.13641371374734371 -0.32093444447044761 0 0.13989203232043171 -0.32584018886430832 0 0.137021036098672 -0.32949116021207481 0 0.13657752922695071 -0.32639665066127482 0 0.13989203232043171 -0.32584018886430832 0 0.137021036098672 -0.32949116021207481 0 0.13657752922695071 -0.32639665066127482 0 0.137021036098672 -0.32949116021207481 0 0.13989203232043171 -0.32584018886430832 0 0.14248049653994191 -0.31831416388627731 0 0.13641371374734371 -0.32093444447044761 0 0.1358186422350488 -0.31172695802316952 0 0.13641371374734371 -0.32093444447044761 0 0.12880682264275331 -0.31839134306491701 0 0.1358186422350488 -0.31172695802316952 0 0.12880682264275331 -0.31839134306491701 0 0.1358186422350488 -0.31172695802316952 0 0.1228611360240791 -0.30974440104163709 0 0.13112624590944799 -0.29937981238276429 0 0.1358186422350488 -0.31172695802316952 0 0.14896147241548749 -0.30864647612763563 0 0.13112624590944799 -0.29937981238276429 0 0.1358186422350488 -0.31172695802316952 0 0.1228611360240791 -0.30974440104163709 0 0.13112624590944799 -0.29937981238276429 0 0.14896147241548749 -0.30864647612763563 0 0.14510658903927659 -0.29207380604228128 0 0.14896147241548749 -0.30864647612763563 0 0.14510658903927659 -0.29207380604228128 0 0.16748203184462249 -0.30388974425557569 0 0.14510658903927659 -0.29207380604228128 0 0.13670542655428411 -0.27421110755209488 0 0.1482421927275788 -0.27776111170095552 0 0.14510658903927659 -0.29207380604228128 0 0.1482421927275788 -0.27776111170095552 0 0.1675968200343588 -0.28691958875399448 0 0.13112624590944799 -0.29937981238276429 0 0.14510658903927659 -0.29207380604228128 0 0.12273114623393069 -0.28025786782898687 0 0.14510658903927659 -0.29207380604228128 0 0.13670542655428411 -0.27421110755209488 0 0.12273114623393069 -0.28025786782898687 0 0.14510658903927659 -0.29207380604228128 0 0.12273114623393069 -0.28025786782898687 0 0.13670542655428411 -0.27421110755209488 0 0.12752033777596139 -0.25976181002646398 0 0.14494457241053929 -0.26516824111442588 0 0.13670542655428411 -0.27421110755209488 0 0.12752033777596139 -0.25976181002646398 0 0.12273114623393069 -0.28025786782898687 0 0.12752033777596139 -0.25976181002646398 0 0.14630097989667429 -0.25329462579220818 0 0.14494457241053929 -0.26516824111442588 0 0.12752033777596139 -0.25976181002646398 0 0.14630097989667429 -0.25329462579220818 0 0.13780653894568981 -0.24584975280280799 0 0.14494457241053929 -0.26516824111442588 0 0.15530866697063109 -0.25877943248274082 0 0.1600206355675555 -0.27173404355465042 0 0.14630097989667429 -0.25329462579220818 0 0.14494457241053929 -0.26516824111442588 0 0.15530866697063109 -0.25877943248274082 0 0.14630097989667429 -0.25329462579220818 0 0.15530866697063109 -0.25877943248274082 0 0.15423259464829611 -0.2507802058041485 0 0.13670542655428411 -0.27421110755209488 0 0.14494457241053929 -0.26516824111442588 0 0.1482421927275788 -0.27776111170095552 0 0.14494457241053929 -0.26516824111442588 0 0.1482421927275788 -0.27776111170095552 0 0.1600206355675555 -0.27173404355465042 0 0.1600206355675555 -0.27173404355465042 0 0.16533987591903451 -0.25848030478246392 0 0.17688500001321411 -0.27065022192902882 0 0.1482421927275788 -0.27776111170095552 0 0.1600206355675555 -0.27173404355465042 0 0.1675968200343588 -0.28691958875399448 0 0.1600206355675555 -0.27173404355465042 0 0.17688500001321411 -0.27065022192902882 0 0.1675968200343588 -0.28691958875399448 0 0.16533987591903451 -0.25848030478246392 0 0.17688500001321411 -0.27065022192902882 0 0.17039876269483961 -0.24812249165910691 0 0.15530866697063109 -0.25877943248274082 0 0.16048490849461761 -0.25284243025010789 0 0.16533987591903451 -0.25848030478246392 0 0.15530866697063109 -0.25877943248274082 0 0.15423259464829611 -0.2507802058041485 0 0.16048490849461761 -0.25284243025010789 0 0.15530866697063109 -0.25877943248274082 0 0.1600206355675555 -0.27173404355465042 0 0.16533987591903451 -0.25848030478246392 0 0.16533987591903451 -0.25848030478246392 0 0.17039876269483961 -0.24812249165910691 0 0.16894128177334919 -0.24875320881914839 0 0.16048490849461761 -0.25284243025010789 0 0.16533987591903451 -0.25848030478246392 0 0.16894128177334919 -0.24875320881914839 0 0.17688500001321411 -0.27065022192902882 0 0.17039876269483961 -0.24812249165910691 0 0.18448204354290951 -0.25641715725236403 0 0.17688500001321411 -0.27065022192902882 0 0.17039876269483961 -0.24812249165910691 0 0.20054283241948981 -0.26729971332757158 0 0.18448204354290951 -0.25641715725236403 0 0.17688500001321411 -0.27065022192902882 0 0.19087704166009439 -0.28043785276814742 0 0.17688500001321411 -0.27065022192902882 0 0.18337123733158989 -0.29317795219895049 0 0.17688500001321411 -0.27065022192902882 0 0.18337123733158989 -0.29317795219895049 0 0.1675968200343588 -0.28691958875399448 0 0.17688500001321411 -0.27065022192902882 0 0.18337123733158989 -0.29317795219895049 0 0.18337123733158989 -0.29317795219895049 0 0.1752483144964288 -0.2977292914049563 0 0.1675968200343588 -0.28691958875399448 0 0.1898574746499678 -0.31570568246887148 0 0.18337123733158989 -0.29317795219895049 0 0.1898574746499678 -0.31570568246887148 0 0.17368082561560591 -0.31730438906621172 0 0.16748203184462249 -0.30388974425557569 0 0.1898574746499678 -0.31570568246887148 0 0.16748203184462249 -0.30388974425557569 0 0.1898574746499678 -0.31570568246887148 0 0.1752483144964288 -0.2977292914049563 0 0.16748203184462249 -0.30388974425557569 0 0.1898574746499678 -0.31570568246887148 0 0.18337123733158989 -0.29317795219895049 0 0.1752483144964288 -0.2977292914049563 0 0.14896147241548749 -0.30864647612763563 0 0.16748203184462249 -0.30388974425557569 0 0.16426102859342009 -0.30992667203654989 0 0.14510658903927659 -0.29207380604228128 0 0.16748203184462249 -0.30388974425557569 0 0.17368082561560591 -0.31730438906621172 0 0.16748203184462249 -0.30388974425557569 0 0.16426102859342009 -0.30992667203654989 0 0.14510658903927659 -0.29207380604228128 0 0.16748203184462249 -0.30388974425557569 0 0.1675968200343588 -0.28691958875399448 0 0.1752483144964288 -0.2977292914049563 0 0.16748203184462249 -0.30388974425557569 0 0.1675968200343588 -0.28691958875399448 0 0.19805699684201611 -0.48362212877357191 0 0.21044458423651441 -0.5 0 0.18178946856308431 -0.5 0 0.19150203538286911 -0.46963876385959957 0 0.19805699684201611 -0.48362212877357191 0 0.20427520205536881 -0.46561202865708629 0 0.19150203538286911 -0.46963876385959957 0 0.19805699684201611 -0.48362212877357191 0 0.17575694389534419 -0.48335135991882849 0 0.19805699684201611 -0.48362212877357191 0 0.21666511831859911 -0.47379981025376272 0 0.2120763517870059 -0.49417282665826379 0 0.19805699684201611 -0.48362212877357191 0 0.21666511831859911 -0.47379981025376272 0 0.20427520205536881 -0.46561202865708629 0 0.21666511831859911 -0.47379981025376272 0 0.2120763517870059 -0.49417282665826379 0 0.21666511831859911 -0.47379981025376272 0 0.2120763517870059 -0.49417282665826379 0 0.22341837864740821 -0.48904729024432131 0 0.19805699684201611 -0.48362212877357191 0 0.21044458423651441 -0.5 0 0.2120763517870059 -0.49417282665826379 0 0.21044458423651441 -0.5 0 0.2120763517870059 -0.49417282665826379 0 0.22341837864740821 -0.48904729024432131 0 0.22341837864740821 -0.48904729024432131 0 0.2390996999099444 -0.5 0 0.23554252412850779 -0.47948475080059272 0 0.21044458423651441 -0.5 0 0.22341837864740821 -0.48904729024432131 0 0.2390996999099444 -0.5 0 0.25353028064809929 -0.47735051794753891 0 0.2390996999099444 -0.5 0 0.23554252412850779 -0.47948475080059272 0 0.25353028064809929 -0.47735051794753891 0 0.23554252412850779 -0.47948475080059272 0 0.23847191340554971 -0.46166800853936713 0 0.21666511831859911 -0.47379981025376272 0 0.23554252412850779 -0.47948475080059272 0 0.23847191340554971 -0.46166800853936713 0 0.21666511831859911 -0.47379981025376272 0 0.22341837864740821 -0.48904729024432131 0 0.23554252412850779 -0.47948475080059272 0 0.21666511831859911 -0.47379981025376272 0 0.22125388485019229 -0.4534267938492616 0 0.21666511831859911 -0.47379981025376272 0 0.22125388485019229 -0.4534267938492616 0 0.23847191340554971 -0.46166800853936713 0 0.22125388485019229 -0.4534267938492616 0 0.23847191340554971 -0.46166800853936713 0 0.2348166958745086 -0.44440345533176129 0 0.25230213972055199 -0.4623473954534576 0 0.25353028064809929 -0.47735051794753891 0 0.23847191340554971 -0.46166800853936713 0 0.25117529495687341 -0.44583808875036729 0 0.25230213972055199 -0.4623473954534576 0 0.23847191340554971 -0.46166800853936713 0 0.25117529495687341 -0.44583808875036729 0 0.23847191340554971 -0.46166800853936713 0 0.2348166958745086 -0.44440345533176129 0 0.25117529495687341 -0.44583808875036729 0 0.2348166958745086 -0.44440345533176129 0 0.2406838634771726 -0.43263540959969637 0 0.25117529495687341 -0.44583808875036729 0 0.2406838634771726 -0.43263540959969637 0 0.25584682968397537 -0.43558523313127762 0 0.25117529495687341 -0.44583808875036729 0 0.2406838634771726 -0.43263540959969637 0 0.22125388485019229 -0.4534267938492616 0 0.22584265138178569 -0.43305377744476048 0 0.22125388485019229 -0.4534267938492616 0 0.2348166958745086 -0.44440345533176129 0 0.22584265138178569 -0.43305377744476048 0 0.20175456183446741 -0.44955402646442411 0 0.22584265138178569 -0.43305377744476048 0 0.20175456183446741 -0.44955402646442411 0 0.2112664427074353 -0.43080553380557252 0 0.22584265138178569 -0.43305377744476048 0 0.22125388485019229 -0.4534267938492616 0 0.20175456183446741 -0.44955402646442411 0 0.22584265138178569 -0.43305377744476048 0 0.20175456183446741 -0.44955402646442411 0 0.19885429721073111 -0.43236399430697708 0 0.2112664427074353 -0.43080553380557252 0 0.21666511831859911 -0.47379981025376272 0 0.22125388485019229 -0.4534267938492616 0 0.20427520205536881 -0.46561202865708629 0 0.22125388485019229 -0.4534267938492616 0 0.20427520205536881 -0.46561202865708629 0 0.20175456183446741 -0.44955402646442411 0 0.19150203538286911 -0.46963876385959957 0 0.20427520205536881 -0.46561202865708629 0 0.20175456183446741 -0.44955402646442411 0 0.20175456183446741 -0.44955402646442411 0 0.18349400015686571 -0.44690180203030261 0 0.17766647228714899 -0.4660542754840874 0 0.20175456183446741 -0.44955402646442411 0 0.17766647228714899 -0.4660542754840874 0 0.19150203538286911 -0.46963876385959957 0 0.20175456183446741 -0.44955402646442411 0 0.17766647228714899 -0.4660542754840874 0 0.20175456183446741 -0.44955402646442411 0 0.19885429721073111 -0.43236399430697708 0 0.18349400015686571 -0.44690180203030261 0 0.19885429721073111 -0.43236399430697708 0 0.18665278597191229 -0.42875760557495712 0 0.18349400015686571 -0.44690180203030261 0 0.19885429721073111 -0.43236399430697708 0 0.1977452807590302 -0.41930701977129359 0 0.20931837019388011 -0.41987764943619271 0 0.19885429721073111 -0.43236399430697708 0 0.1977452807590302 -0.41930701977129359 0 0.18665278597191229 -0.42875760557495712 0 0.18981157178695221 -0.41061340911961058 0 0.18665278597191229 -0.42875760557495712 0 0.18981157178695221 -0.41061340911961058 0 0.1977452807590302 -0.41930701977129359 0 0.2085885398431378 -0.40163640226596942 0 0.18981157178695221 -0.41061340911961058 0 0.1977452807590302 -0.41930701977129359 0 0.18665278597191229 -0.42875760557495712 0 0.1977452807590302 -0.41930701977129359 0 0.20931837019388011 -0.41987764943619271 0 0.2085885398431378 -0.40163640226596942 0 0.20931837019388011 -0.41987764943619271 0 0.21970186373297609 -0.4070508724565543 0 0.2085885398431378 -0.40163640226596942 0 0.20931837019388011 -0.41987764943619271 0 0.22056233291631211 -0.41917822137550792 0 0.21970186373297609 -0.4070508724565543 0 0.20931837019388011 -0.41987764943619271 0 0.2112664427074353 -0.43080553380557252 0 0.22056233291631211 -0.41917822137550792 0 0.19885429721073111 -0.43236399430697708 0 0.20931837019388011 -0.41987764943619271 0 0.2112664427074353 -0.43080553380557252 0 0.2348166958745086 -0.44440345533176129 0 0.22584265138178569 -0.43305377744476048 0 0.23631952004206111 -0.42714321092417717 0 0.2112664427074353 -0.43080553380557252 0 0.22584265138178569 -0.43305377744476048 0 0.22056233291631211 -0.41917822137550792 0 0.26209421003908029 -0.42465845942581831 0 0.2406838634771726 -0.43263540959969637 0 0.2455295542388847 -0.41956832443986619 0 0.22584265138178569 -0.43305377744476048 0 0.2455295542388847 -0.41956832443986619 0 0.2348166958745086 -0.44440345533176129 0 0.2406838634771726 -0.43263540959969637 0 0.23631952004206111 -0.42714321092417717 0 0.22584265138178569 -0.43305377744476048 0 0.23631952004206111 -0.42714321092417717 0 0.2455295542388847 -0.41956832443986619 0 0.2406838634771726 -0.43263540959969637 0 0.23631952004206111 -0.42714321092417717 0 0.2406838634771726 -0.43263540959969637 0 0.23631952004206111 -0.42714321092417717 0 0.2455295542388847 -0.41956832443986619 0 0.2455295542388847 -0.41956832443986619 0 0.23153841431895739 -0.40776596405172111 0 0.2492721161217317 -0.40414112237106442 0 0.22584265138178569 -0.43305377744476048 0 0.23153841431895739 -0.40776596405172111 0 0.22056233291631211 -0.41917822137550792 0 0.22584265138178569 -0.43305377744476048 0 0.2455295542388847 -0.41956832443986619 0 0.23153841431895739 -0.40776596405172111 0 0.22584265138178569 -0.43305377744476048 0 0.23153841431895739 -0.40776596405172111 0 0.23153841431895739 -0.40776596405172111 0 0.22056233291631211 -0.41917822137550792 0 0.21970186373297609 -0.4070508724565543 0 0.21970186373297609 -0.4070508724565543 0 0.22725872398507219 -0.39703747226465858 0 0.21738530211971641 -0.38954436116454327 0 0.23153841431895739 -0.40776596405172111 0 0.21970186373297609 -0.4070508724565543 0 0.22725872398507219 -0.39703747226465858 0 0.22725872398507219 -0.39703747226465858 0 0.23004840682405339 -0.38633589639193888 0 0.21738530211971641 -0.38954436116454327 0 0.22725872398507219 -0.39703747226465858 0 0.23761963292965771 -0.39449026725853542 0 0.23004840682405339 -0.38633589639193888 0 0.23153841431895739 -0.40776596405172111 0 0.22725872398507219 -0.39703747226465858 0 0.23761963292965771 -0.39449026725853542 0 0.23153841431895739 -0.40776596405172111 0 0.23761963292965771 -0.39449026725853542 0 0.2492721161217317 -0.40414112237106442 0 0.23761963292965771 -0.39449026725853542 0 0.2492721161217317 -0.40414112237106442 0 0.24909063106523199 -0.38936043408226417 0 0.23944365777930071 -0.3700579890543757 0 0.24884497561725441 -0.37604231901838492 0 0.23969910461467031 -0.38229097724633232 0 0.24884497561725441 -0.37604231901838492 0 0.24909063106523199 -0.38936043408226417 0 0.23969910461467031 -0.38229097724633232 0 0.23761963292965771 -0.39449026725853542 0 0.24909063106523199 -0.38936043408226417 0 0.23969910461467031 -0.38229097724633232 0 0.23761963292965771 -0.39449026725853542 0 0.23969910461467031 -0.38229097724633232 0 0.23004840682405339 -0.38633589639193888 0 0.23944365777930071 -0.3700579890543757 0 0.23969910461467031 -0.38229097724633232 0 0.2322477440849838 -0.37535830567224659 0 0.2322477440849838 -0.37535830567224659 0 0.23004840682405339 -0.38633589639193888 0 0.22439642646764241 -0.38039452328566919 0 0.23969910461467031 -0.38229097724633232 0 0.2322477440849838 -0.37535830567224659 0 0.23004840682405339 -0.38633589639193888 0 0.23004840682405339 -0.38633589639193888 0 0.22439642646764241 -0.38039452328566919 0 0.21738530211971641 -0.38954436116454327 0 0.21742159630496369 -0.3744142517261862 0 0.22439642646764241 -0.38039452328566919 0 0.21738530211971641 -0.38954436116454327 0 0.20579536302122681 -0.37314080263987759 0 0.21742159630496369 -0.3744142517261862 0 0.20712537653327309 -0.38521336544923063 0 0.21742159630496369 -0.3744142517261862 0 0.20712537653327309 -0.38521336544923063 0 0.21738530211971641 -0.38954436116454327 0 0.20712537653327309 -0.38521336544923063 0 0.2085885398431378 -0.40163640226596942 0 0.19381855590866109 -0.38759712648617273 0 0.21970186373297609 -0.4070508724565543 0 0.21738530211971641 -0.38954436116454327 0 0.2085885398431378 -0.40163640226596942 0 0.20712537653327309 -0.38521336544923063 0 0.21738530211971641 -0.38954436116454327 0 0.2085885398431378 -0.40163640226596942 0 0.18981157178695221 -0.41061340911961058 0 0.19381855590866109 -0.38759712648617273 0 0.18981157178695221 -0.41061340911961058 0 0.19381855590866109 -0.38759712648617273 0 0.18518987534969181 -0.39764473013934443 0 0.18981157178695221 -0.41061340911961058 0 0.2085885398431378 -0.40163640226596942 0 0.19381855590866109 -0.38759712648617273 0 0.18981157178695221 -0.41061340911961058 0 0.2085885398431378 -0.40163640226596942 0 0.19782554003036329 -0.3645808438527337 0 0.19381855590866109 -0.38759712648617273 0 0.19782554003036329 -0.3645808438527337 0 0.19381855590866109 -0.38759712648617273 0 0.18576662782764289 -0.38441310801886552 0 0.20579536302122681 -0.37314080263987759 0 0.19782554003036329 -0.3645808438527337 0 0.19381855590866109 -0.38759712648617273 0 0.19381855590866109 -0.38759712648617273 0 0.18576662782764289 -0.38441310801886552 0 0.18518987534969181 -0.39764473013934443 0 0.20579536302122681 -0.37314080263987759 0 0.20712537653327309 -0.38521336544923063 0 0.19381855590866109 -0.38759712648617273 0 0.1747811706356979 -0.36822016564850152 0 0.18576662782764289 -0.38441310801886552 0 0.1631916679950996 -0.38325295569362372 0 0.18576662782764289 -0.38441310801886552 0 0.17370771562492229 -0.40424537218499712 0 0.1631916679950996 -0.38325295569362372 0 0.18981157178695221 -0.41061340911961058 0 0.17370771562492229 -0.40424537218499712 0 0.18518987534969181 -0.39764473013934443 0 0.18576662782764289 -0.38441310801886552 0 0.17370771562492229 -0.40424537218499712 0 0.18518987534969181 -0.39764473013934443 0 0.18576662782764289 -0.38441310801886552 0 0.17370771562492229 -0.40424537218499712 0 0.17370771562492229 -0.40424537218499712 0 0.1602190065835101 -0.39855877275046958 0 0.15763870514003081 -0.41223817588475509 0 0.17370771562492229 -0.40424537218499712 0 0.1602190065835101 -0.39855877275046958 0 0.1631916679950996 -0.38325295569362372 0 0.1602190065835101 -0.39855877275046958 0 0.1631916679950996 -0.38325295569362372 0 0.14633793757398761 -0.39449858723850262 0 0.14235507647168069 -0.36670870954680179 0 0.1631916679950996 -0.38325295569362372 0 0.14633793757398761 -0.39449858723850262 0 0.14235507647168069 -0.36670870954680179 0 0.14633793757398761 -0.39449858723850262 0 0.1252552839695579 -0.38883391848445581 0 0.13074812791438861 -0.37691635541169582 0 0.14633793757398761 -0.39449858723850262 0 0.14235507647168069 -0.36670870954680179 0 0.13074812791438861 -0.37691635541169582 0 0.14633793757398761 -0.39449858723850262 0 0.1252552839695579 -0.38883391848445581 0 0.13103624404022221 -0.40422303690221328 0 0.14633793757398761 -0.39449858723850262 0 0.1602190065835101 -0.39855877275046958 0 0.14633793757398761 -0.39449858723850262 0 0.15763870514003081 -0.41223817588475509 0 0.14633793757398761 -0.39449858723850262 0 0.15032079867629439 -0.42228846493020339 0 0.14633793757398761 -0.39449858723850262 0 0.15032079867629439 -0.42228846493020339 0 0.15763870514003081 -0.41223817588475509 0 0.13103624404022221 -0.40422303690221328 0 0.14633793757398761 -0.39449858723850262 0 0.15032079867629439 -0.42228846493020339 0 0.15032079867629439 -0.42228846493020339 0 0.15503124269100771 -0.42547315335827701 0 0.15763870514003081 -0.41223817588475509 0 0.13103624404022221 -0.40422303690221328 0 0.1289831015042302 -0.42028616243494049 0 0.15032079867629439 -0.42228846493020339 0 0.13103624404022221 -0.40422303690221328 0 0.1289831015042302 -0.42028616243494049 0 0.1164459844785509 -0.40899926064631642 0 0.1289831015042302 -0.42028616243494049 0 0.15032079867629439 -0.42228846493020339 0 0.13220902229130629 -0.43815238559664271 0 0.15498568210569219 -0.42726318183142908 0 0.13220902229130629 -0.43815238559664271 0 0.15498568210569219 -0.42726318183142908 0 0.15477920435768819 -0.43537547989393971 0 0.13220902229130629 -0.43815238559664271 0 0.15032079867629439 -0.42228846493020339 0 0.15498568210569219 -0.42726318183142908 0 0.13220902229130629 -0.43815238559664271 0 0.15498568210569219 -0.42726318183142908 0 0.15503124269100771 -0.42547315335827701 0 0.15032079867629439 -0.42228846493020339 0 0.15498568210569219 -0.42726318183142908 0 0.15503124269100771 -0.42547315335827701 0 0.15498568210569219 -0.42726318183142908 0 0.15477920435768819 -0.43537547989393971 0 0.16164880342220719 -0.42407763635113199 0 0.17573018760458001 -0.41734552273537201 0 0.1718786689646026 -0.43423375548071091 0 0.15477920435768819 -0.43537547989393971 0 0.16164880342220719 -0.42407763635113199 0 0.1718786689646026 -0.43423375548071091 0 0.15477920435768819 -0.43537547989393971 0 0.16164880342220719 -0.42407763635113199 0 0.15498568210569219 -0.42726318183142908 0 0.15477920435768819 -0.43537547989393971 0 0.16164880342220719 -0.42407763635113199 0 0.15498568210569219 -0.42726318183142908 0 0.16164880342220719 -0.42407763635113199 0 0.15498568210569219 -0.42726318183142908 0 0.15503124269100771 -0.42547315335827701 0 0.16164880342220719 -0.42407763635113199 0 0.17370771562492229 -0.40424537218499712 0 0.16164880342220719 -0.42407763635113199 0 0.15763870514003081 -0.41223817588475509 0 0.15503124269100771 -0.42547315335827701 0 0.16164880342220719 -0.42407763635113199 0 0.15763870514003081 -0.41223817588475509 0 0.17370771562492229 -0.40424537218499712 0 0.16164880342220719 -0.42407763635113199 0 0.17370771562492229 -0.40424537218499712 0 0.16164880342220719 -0.42407763635113199 0 0.17573018760458001 -0.41734552273537201 0 0.16164880342220719 -0.42407763635113199 0 0.17573018760458001 -0.41734552273537201 0 0.18981157178695221 -0.41061340911961058 0 0.17370771562492229 -0.40424537218499712 0 0.17573018760458001 -0.41734552273537201 0 0.18981157178695221 -0.41061340911961058 0 0.17573018760458001 -0.41734552273537201 0 0.18665278597191229 -0.42875760557495712 0 0.18981157178695221 -0.41061340911961058 0 0.17573018760458001 -0.41734552273537201 0 0.17573018760458001 -0.41734552273537201 0 0.18665278597191229 -0.42875760557495712 0 0.1718786689646026 -0.43423375548071091 0 0.18665278597191229 -0.42875760557495712 0 0.1718786689646026 -0.43423375548071091 0 0.18349400015686571 -0.44690180203030261 0 0.18665278597191229 -0.42875760557495712 0 0.18349400015686571 -0.44690180203030261 0 0.1718786689646026 -0.43423375548071091 0 0.18349400015686571 -0.44690180203030261 0 0.16839942786301301 -0.44830606301757719 0 0.18349400015686571 -0.44690180203030261 0 0.17766647228714899 -0.4660542754840874 0 0.16839942786301301 -0.44830606301757719 0 0.17766647228714899 -0.4660542754840874 0 0.16839942786301301 -0.44830606301757719 0 0.15417879354876021 -0.45896500219884562 0 0.15477920435768819 -0.43537547989393971 0 0.16839942786301301 -0.44830606301757719 0 0.15417879354876021 -0.45896500219884562 0 0.15477920435768819 -0.43537547989393971 0 0.1718786689646026 -0.43423375548071091 0 0.16839942786301301 -0.44830606301757719 0 0.15477920435768819 -0.43537547989393971 0 0.15417879354876021 -0.45896500219884562 0 0.15477920435768819 -0.43537547989393971 0 0.14085486003061889 -0.45827566113684848 0 0.15477920435768819 -0.43537547989393971 0 0.14085486003061889 -0.45827566113684848 0 0.15417879354876021 -0.45896500219884562 0 0.15477920435768819 -0.43537547989393971 0 0.13220902229130629 -0.43815238559664271 0 0.14085486003061889 -0.45827566113684848 0 0.13220902229130629 -0.43815238559664271 0 0.1260710098470107 -0.45295252139791142 0 0.14085486003061889 -0.45827566113684848 0 0.1260710098470107 -0.45295252139791142 0 0.14085486003061889 -0.45827566113684848 0 0.12693051570354841 -0.48117584237975669 0 0.1260710098470107 -0.45295252139791142 0 0.12693051570354841 -0.48117584237975669 0 0.14085486003061889 -0.45827566113684848 0 0.1468633672181735 -0.47100858659246231 0 0.1399556028006454 -0.47560711032160702 0 0.14085486003061889 -0.45827566113684848 0 0.15417879354876021 -0.45896500219884562 0 0.1468633672181735 -0.47100858659246231 0 0.15417879354876021 -0.45896500219884562 0 0.15357838273983099 -0.48255452450375153 0 0.15417879354876021 -0.45896500219884562 0 0.15357838273983099 -0.48255452450375153 0 0.1468633672181735 -0.47100858659246231 0 0.15357838273983099 -0.48255452450375153 0 0.14626335384590011 -0.48059348077266162 0 0.1468633672181735 -0.47100858659246231 0 0.15357838273983099 -0.48255452450375153 0 0.15197479750624651 -0.48365297424283921 0 0.15357838273983099 -0.48255452450375153 0 0.15197479750624651 -0.48365297424283921 0 0.14626335384590011 -0.48059348077266162 0 0.14626335384590011 -0.48059348077266162 0 0.1399556028006454 -0.47560711032160702 0 0.1396960235856646 -0.48447374995924558 0 0.15197479750624651 -0.48365297424283921 0 0.14626335384590011 -0.48059348077266162 0 0.14568488805414589 -0.48574139093959351 0 0.14626335384590011 -0.48059348077266162 0 0.1396960235856646 -0.48447374995924558 0 0.14568488805414589 -0.48574139093959351 0 0.14626335384590011 -0.48059348077266162 0 0.1468633672181735 -0.47100858659246231 0 0.1399556028006454 -0.47560711032160702 0 0.14085486003061889 -0.45827566113684848 0 0.12693051570354841 -0.48117584237975669 0 0.14085486003061889 -0.45827566113684848 0 0.1399556028006454 -0.47560711032160702 0 0.12693051570354841 -0.48117584237975669 0 0.1399556028006454 -0.47560711032160702 0 0.12693051570354841 -0.48117584237975669 0 0.1396960235856646 -0.48447374995924558 0 0.12693051570354841 -0.48117584237975669 0 0.1275037818237672 -0.49999999999999961 0 0.12693051570354841 -0.48117584237975669 0 0.1275037818237672 -0.49999999999999961 0 0.13482742674097081 -0.48949980727313341 0 0.1275037818237672 -0.49999999999999961 0 0.13482742674097081 -0.48949980727313341 0 0.1451793858509037 -0.49234963675353188 0 0.13482742674097081 -0.48949980727313341 0 0.1396960235856646 -0.48447374995924558 0 0.1451793858509037 -0.49234963675353188 0 0.12693051570354841 -0.48117584237975669 0 0.13482742674097081 -0.48949980727313341 0 0.1396960235856646 -0.48447374995924558 0 0.15197479750624651 -0.48365297424283921 0 0.1451793858509037 -0.49234963675353188 0 0.1531343528896543 -0.49999999999999672 0 0.15357838273983099 -0.48255452450375153 0 0.1531343528896543 -0.49999999999999672 0 0.15357838273983099 -0.48255452450375153 0 0.15197479750624651 -0.48365297424283921 0 0.1531343528896543 -0.49999999999999672 0 0.1275037818237672 -0.49999999999999961 0 0.1451793858509037 -0.49234963675353188 0 0.1531343528896543 -0.49999999999999672 0 0.15197479750624651 -0.48365297424283921 0 0.1451793858509037 -0.49234963675353188 0 0.14568488805414589 -0.48574139093959351 0 0.1396960235856646 -0.48447374995924558 0 0.1451793858509037 -0.49234963675353188 0 0.14568488805414589 -0.48574139093959351 0 0.1531343528896543 -0.49999999999999672 0 0.17575694389534419 -0.48335135991882849 0 0.18178946856308431 -0.5 0 0.15357838273983099 -0.48255452450375153 0 0.1531343528896543 -0.49999999999999672 0 0.17575694389534419 -0.48335135991882849 0 0.17766647228714899 -0.4660542754840874 0 0.15417879354876021 -0.45896500219884562 0 0.15357838273983099 -0.48255452450375153 0 0.17766647228714899 -0.4660542754840874 0 0.15357838273983099 -0.48255452450375153 0 0.17575694389534419 -0.48335135991882849 0 0.17766647228714899 -0.4660542754840874 0 0.15357838273983099 -0.48255452450375153 0 0.19150203538286911 -0.46963876385959957 0 0.17766647228714899 -0.4660542754840874 0 0.17575694389534419 -0.48335135991882849 0 0.19805699684201611 -0.48362212877357191 0 0.17575694389534419 -0.48335135991882849 0 0.18178946856308431 -0.5 0 0.07390478750403906 -0.48802897354695818 0 0.0873244336803497 -0.5 0 0.059164289555673988 -0.5 0 0.07390478750403906 -0.48802897354695818 0 0.057023029560160823 -0.48793772675262159 0 0.059164289555673988 -0.5 0 0.07390478750403906 -0.48802897354695818 0 0.06387904284814741 -0.47081999689228149 0 0.08665570266253371 -0.45993079312706858 0 0.07390478750403906 -0.48802897354695818 0 0.06387904284814741 -0.47081999689228149 0 0.057023029560160823 -0.48793772675262159 0 0.07390478750403906 -0.48802897354695818 0 0.1006422239037784 -0.48279167972169668 0 0.08665570266253371 -0.45993079312706858 0 0.07390478750403906 -0.48802897354695818 0 0.0873244336803497 -0.5 0 0.1006422239037784 -0.48279167972169668 0 0.0873244336803497 -0.5 0 0.1154845778050254 -0.499999999999999 0 0.1006422239037784 -0.48279167972169668 0 0.12693051570354841 -0.48117584237975669 0 0.1154845778050254 -0.499999999999999 0 0.1006422239037784 -0.48279167972169668 0 0.12693051570354841 -0.48117584237975669 0 0.1154845778050254 -0.499999999999999 0 0.12693051570354841 -0.48117584237975669 0 0.1275037818237672 -0.49999999999999961 0 0.1154845778050254 -0.499999999999999 0 0.12693051570354841 -0.48117584237975669 0 0.1006422239037784 -0.48279167972169668 0 0.10994636291875839 -0.46517848519765792 0 0.1006422239037784 -0.48279167972169668 0 0.10994636291875839 -0.46517848519765792 0 0.08665570266253371 -0.45993079312706858 0 0.10943236247691999 -0.44904158936185568 0 0.08665570266253371 -0.45993079312706858 0 0.10994636291875839 -0.46517848519765792 0 0.10943236247691999 -0.44904158936185568 0 0.08665570266253371 -0.45993079312706858 0 0.1260710098470107 -0.45295252139791142 0 0.12693051570354841 -0.48117584237975669 0 0.10994636291875839 -0.46517848519765792 0 0.1260710098470107 -0.45295252139791142 0 0.10994636291875839 -0.46517848519765792 0 0.10943236247691999 -0.44904158936185568 0 0.13220902229130629 -0.43815238559664271 0 0.10943236247691999 -0.44904158936185568 0 0.13220902229130629 -0.43815238559664271 0 0.1260710098470107 -0.45295252139791142 0 0.10943236247691999 -0.44904158936185568 0 0.13220902229130629 -0.43815238559664271 0 0.10943236247691999 -0.44904158936185568 0 0.1128453972816206 -0.4288538200396998 0 0.10943236247691999 -0.44904158936185568 0 0.089026629946536026 -0.44061302335509089 0 0.1128453972816206 -0.4288538200396998 0 0.10943236247691999 -0.44904158936185568 0 0.089026629946536026 -0.44061302335509089 0 0.08665570266253371 -0.45993079312706858 0 0.089026629946536026 -0.44061302335509089 0 0.08665570266253371 -0.45993079312706858 0 0.072062038177769183 -0.45456784827839769 0 0.06387904284814741 -0.47081999689228149 0 0.08665570266253371 -0.45993079312706858 0 0.06387904284814741 -0.47081999689228149 0 0.072062038177769183 -0.45456784827839769 0 0.061666705505012277 -0.45750532403242511 0 0.06387904284814741 -0.47081999689228149 0 0.08665570266253371 -0.45993079312706858 0 0.072062038177769183 -0.45456784827839769 0 0.072062038177769183 -0.45456784827839769 0 0.059974960671737819 -0.44755425647113978 0 0.061666705505012277 -0.45750532403242511 0 0.089026629946536026 -0.44061302335509089 0 0.072062038177769183 -0.45456784827839769 0 0.071517002237156846 -0.43930650869214599 0 0.072062038177769183 -0.45456784827839769 0 0.071517002237156846 -0.43930650869214599 0 0.059974960671737819 -0.44755425647113978 0 0.071517002237156846 -0.43930650869214599 0 0.061967213283657119 -0.43534654655071281 0 0.059974960671737819 -0.44755425647113978 0 0.069724238685054896 -0.43032192441900591 0 0.067101733751441378 -0.41873265628692918 0 0.061967213283657119 -0.43534654655071281 0 0.069724238685054896 -0.43032192441900591 0 0.067101733751441378 -0.41873265628692918 0 0.078311005467964254 -0.4279019861462352 0 0.071517002237156846 -0.43930650869214599 0 0.069724238685054896 -0.43032192441900591 0 0.078311005467964254 -0.4279019861462352 0 0.071517002237156846 -0.43930650869214599 0 0.069724238685054896 -0.43032192441900591 0 0.061967213283657119 -0.43534654655071281 0 0.067101733751441378 -0.41873265628692918 0 0.082186797473875584 -0.41427107007851632 0 0.084919354155924887 -0.39877920017897228 0 0.067101733751441378 -0.41873265628692918 0 0.078943827808363509 -0.40334643797908559 0 0.084919354155924887 -0.39877920017897228 0 0.067101733751441378 -0.41873265628692918 0 0.084919354155924887 -0.39877920017897228 0 0.067101733751441378 -0.41873265628692918 0 0.069573445466074635 -0.40838474577747341 0 0.058961304938323508 -0.40914044686337009 0 0.067101733751441378 -0.41873265628692918 0 0.069573445466074635 -0.40838474577747341 0 0.078943827808363509 -0.40334643797908559 0 0.067101733751441378 -0.41873265628692918 0 0.082186797473875584 -0.41427107007851632 0 0.078311005467964254 -0.4279019861462352 0 0.082186797473875584 -0.41427107007851632 0 0.089050703285118937 -0.40604931846695119 0 0.084919354155924887 -0.39877920017897228 0 0.082186797473875584 -0.41427107007851632 0 0.09452747501463904 -0.41033430661162967 0 0.089050703285118937 -0.40604931846695119 0 0.082186797473875584 -0.41427107007851632 0 0.093951598242391299 -0.42386613262280431 0 0.09452747501463904 -0.41033430661162967 0 0.089026629946536026 -0.44061302335509089 0 0.071517002237156846 -0.43930650869214599 0 0.078311005467964254 -0.4279019861462352 0 0.082186797473875584 -0.41427107007851632 0 0.078311005467964254 -0.4279019861462352 0 0.093951598242391299 -0.42386613262280431 0 0.089026629946536026 -0.44061302335509089 0 0.078311005467964254 -0.4279019861462352 0 0.093951598242391299 -0.42386613262280431 0 0.089026629946536026 -0.44061302335509089 0 0.093951598242391299 -0.42386613262280431 0 0.1128453972816206 -0.4288538200396998 0 0.093951598242391299 -0.42386613262280431 0 0.1128453972816206 -0.4288538200396998 0 0.1055521074704445 -0.41740156700738812 0 0.1289831015042302 -0.42028616243494049 0 0.13220902229130629 -0.43815238559664271 0 0.1128453972816206 -0.4288538200396998 0 0.1128453972816206 -0.4288538200396998 0 0.1164459844785509 -0.40899926064631642 0 0.1055521074704445 -0.41740156700738812 0 0.1289831015042302 -0.42028616243494049 0 0.1128453972816206 -0.4288538200396998 0 0.1164459844785509 -0.40899926064631642 0 0.1055521074704445 -0.41740156700738812 0 0.09452747501463904 -0.41033430661162967 0 0.1047162595067124 -0.39998479682176968 0 0.1164459844785509 -0.40899926064631642 0 0.1055521074704445 -0.41740156700738812 0 0.1047162595067124 -0.39998479682176968 0 0.093951598242391299 -0.42386613262280431 0 0.1055521074704445 -0.41740156700738812 0 0.09452747501463904 -0.41033430661162967 0 0.09452747501463904 -0.41033430661162967 0 0.094569186496036239 -0.40081269699868649 0 0.1047162595067124 -0.39998479682176968 0 0.094569186496036239 -0.40081269699868649 0 0.099610484619845244 -0.39336232948942479 0 0.1047162595067124 -0.39998479682176968 0 0.099610484619845244 -0.39336232948942479 0 0.1047162595067124 -0.39998479682176968 0 0.1111106483801443 -0.38840920937667989 0 0.1164459844785509 -0.40899926064631642 0 0.1047162595067124 -0.39998479682176968 0 0.11771288407503749 -0.39809004444628698 0 0.1047162595067124 -0.39998479682176968 0 0.11771288407503749 -0.39809004444628698 0 0.1111106483801443 -0.38840920937667989 0 0.1252552839695579 -0.38883391848445581 0 0.13103624404022221 -0.40422303690221328 0 0.11771288407503749 -0.39809004444628698 0 0.1252552839695579 -0.38883391848445581 0 0.11771288407503749 -0.39809004444628698 0 0.1111106483801443 -0.38840920937667989 0 0.13103624404022221 -0.40422303690221328 0 0.1164459844785509 -0.40899926064631642 0 0.11771288407503749 -0.39809004444628698 0 0.1252552839695579 -0.38883391848445581 0 0.13074812791438861 -0.37691635541169582 0 0.1181850630163722 -0.37801311877864191 0 0.1252552839695579 -0.38883391848445581 0 0.1181850630163722 -0.37801311877864191 0 0.1111106483801443 -0.38840920937667989 0 0.1181850630163722 -0.37801311877864191 0 0.1111106483801443 -0.38840920937667989 0 0.1027369745604084 -0.37882574407101532 0 0.1027369745604084 -0.37882574407101532 0 0.093463129880940451 -0.3848826185373328 0 0.10798243195351739 -0.36641879909558001 0 0.099610484619845244 -0.39336232948942479 0 0.1027369745604084 -0.37882574407101532 0 0.084919354155924887 -0.39877920017897228 0 0.093463129880940451 -0.3848826185373328 0 0.10798243195351739 -0.36641879909558001 0 0.1027369745604084 -0.37882574407101532 0 0.084919354155924887 -0.39877920017897228 0 0.099610484619845244 -0.39336232948942479 0 0.1111106483801443 -0.38840920937667989 0 0.1027369745604084 -0.37882574407101532 0 0.083380758220188048 -0.37618037829979523 0 0.093463129880940451 -0.3848826185373328 0 0.092605800843708994 -0.36836744400317561 0 0.083380758220188048 -0.37618037829979523 0 0.081260656971457276 -0.38659890048689061 0 0.093463129880940451 -0.3848826185373328 0 0.1027369745604084 -0.37882574407101532 0 0.093463129880940451 -0.3848826185373328 0 0.084919354155924887 -0.39877920017897228 0 0.081260656971457276 -0.38659890048689061 0 0.093463129880940451 -0.3848826185373328 0 0.078943827808363509 -0.40334643797908559 0 0.093463129880940451 -0.3848826185373328 0 0.078943827808363509 -0.40334643797908559 0 0.084919354155924887 -0.39877920017897228 0 0.094569186496036239 -0.40081269699868649 0 0.099610484619845244 -0.39336232948942479 0 0.084919354155924887 -0.39877920017897228 0 0.093463129880940451 -0.3848826185373328 0 0.078943827808363509 -0.40334643797908559 0 0.09452747501463904 -0.41033430661162967 0 0.094569186496036239 -0.40081269699868649 0 0.089050703285118937 -0.40604931846695119 0 0.094569186496036239 -0.40081269699868649 0 0.089050703285118937 -0.40604931846695119 0 0.084919354155924887 -0.39877920017897228 0 0.069254911976337125 -0.38198616713134859 0 0.058961304938323508 -0.40914044686337009 0 0.081260656971457276 -0.38659890048689061 0 0.078943827808363509 -0.40334643797908559 0 0.069254911976337125 -0.38198616713134859 0 0.069573445466074635 -0.40838474577747341 0 0.078943827808363509 -0.40334643797908559 0 0.069254911976337125 -0.38198616713134859 0 0.069573445466074635 -0.40838474577747341 0 0.069254911976337125 -0.38198616713134859 0 0.058961304938323508 -0.40914044686337009 0 0.083380758220188048 -0.37618037829979523 0 0.081260656971457276 -0.38659890048689061 0 0.069254911976337125 -0.38198616713134859 0 0.069254911976337125 -0.38198616713134859 0 0.052817510961897352 -0.38890292274703098 0 0.051593261684324918 -0.36827324196572819 0 0.052817510961897352 -0.38890292274703098 0 0.040245104814165211 -0.38373928364939192 0 0.051593261684324918 -0.36827324196572819 0 0.069254911976337125 -0.38198616713134859 0 0.052817510961897352 -0.38890292274703098 0 0.058961304938323508 -0.40914044686337009 0 0.052817510961897352 -0.38890292274703098 0 0.044032971396336031 -0.40137547412531599 0 0.058961304938323508 -0.40914044686337009 0 0.052817510961897352 -0.38890292274703098 0 0.044032971396336031 -0.40137547412531599 0 0.040245104814165211 -0.38373928364939192 0 0.044032971396336031 -0.40137547412531599 0 0.040245104814165211 -0.38373928364939192 0 0.02284401828611652 -0.39341067868703927 0 0.044032971396336031 -0.40137547412531599 0 0.02284401828611652 -0.39341067868703927 0 0.034652847362305603 -0.41457183073148302 0 0.0071573240810073246 -0.3785539547048164 0 0.02284401828611652 -0.39341067868703927 0 0.029364003315145219 -0.37131652208711541 0 0.040245104814165211 -0.38373928364939192 0 0.02284401828611652 -0.39341067868703927 0 0.029364003315145219 -0.37131652208711541 0 -0.0062829033893789252 -0.39530308145853871 0 0.0071573240810073246 -0.3785539547048164 0 0.02284401828611652 -0.39341067868703927 0 -0.0062829033893789252 -0.39530308145853871 0 0.02284401828611652 -0.39341067868703927 0 0.01073878042323523 -0.40901460405261397 0 0.02284401828611652 -0.39341067868703927 0 0.01073878042323523 -0.40901460405261397 0 0.034652847362305603 -0.41457183073148302 0 0.01073878042323523 -0.40901460405261397 0 0.021102636682855981 -0.43382708627772848 0 0.01073878042323523 -0.40901460405261397 0 0.021102636682855981 -0.43382708627772848 0 0.034652847362305603 -0.41457183073148302 0 -0.001223291168959903 -0.42551787017524489 0 -0.0017335022559463321 -0.44294690443588852 0 0.021102636682855981 -0.43382708627772848 0 -0.001223291168959903 -0.42551787017524489 0 0.01073878042323523 -0.40901460405261397 0 0.021102636682855981 -0.43382708627772848 0 0.021102636682855981 -0.43382708627772848 0 0.03583120082861433 -0.42902639645664231 0 0.034652847362305603 -0.41457183073148302 0 0.021102636682855981 -0.43382708627772848 0 0.03583120082861433 -0.42902639645664231 0 0.034329710995488531 -0.44126569515551128 0 0.041273780530704449 -0.43360378419581103 0 0.03583120082861433 -0.42902639645664231 0 0.034329710995488531 -0.44126569515551128 0 0.041273780530704449 -0.43360378419581103 0 0.045838677350944053 -0.4220666262494524 0 0.04866769790030992 -0.43629472659539142 0 0.041273780530704449 -0.43360378419581103 0 0.04866769790030992 -0.43629472659539142 0 0.041701615578165437 -0.43936547652205749 0 0.041273780530704449 -0.43360378419581103 0 0.045838677350944053 -0.4220666262494524 0 0.03583120082861433 -0.42902639645664231 0 0.045838677350944053 -0.4220666262494524 0 0.03583120082861433 -0.42902639645664231 0 0.034652847362305603 -0.41457183073148302 0 0.044032971396336031 -0.40137547412531599 0 0.034652847362305603 -0.41457183073148302 0 0.045871450261977288 -0.41178859449240529 0 0.045838677350944053 -0.4220666262494524 0 0.034652847362305603 -0.41457183073148302 0 0.045871450261977288 -0.41178859449240529 0 0.067101733751441378 -0.41873265628692918 0 0.058961304938323508 -0.40914044686337009 0 0.04866769790030992 -0.43629472659539142 0 0.045838677350944053 -0.4220666262494524 0 0.045871450261977288 -0.41178859449240529 0 0.058961304938323508 -0.40914044686337009 0 0.044032971396336031 -0.40137547412531599 0 0.045871450261977288 -0.41178859449240529 0 0.058961304938323508 -0.40914044686337009 0 0.067101733751441378 -0.41873265628692918 0 0.04866769790030992 -0.43629472659539142 0 0.049284113346957828 -0.4386861123948862 0 0.045838677350944053 -0.4220666262494524 0 0.058961304938323508 -0.40914044686337009 0 0.04866769790030992 -0.43629472659539142 0 0.067101733751441378 -0.41873265628692918 0 0.049284113346957828 -0.4386861123948862 0 0.058961304938323508 -0.40914044686337009 0 0.04866769790030992 -0.43629472659539142 0 0.067101733751441378 -0.41873265628692918 0 0.061967213283657119 -0.43534654655071281 0 0.049284113346957828 -0.4386861123948862 0 0.050504025888358048 -0.44809362748399961 0 0.050750780322394717 -0.45707919448788109 0 0.043956336848257421 -0.4521664314246559 0 0.050504025888358048 -0.44809362748399961 0 0.059974960671737819 -0.44755425647113978 0 0.050750780322394717 -0.45707919448788109 0 0.050504025888358048 -0.44809362748399961 0 0.053499242975987987 -0.4435782759371083 0 0.059974960671737819 -0.44755425647113978 0 0.050504025888358048 -0.44809362748399961 0 0.049284113346957828 -0.4386861123948862 0 0.043956336848257421 -0.4521664314246559 0 0.050504025888358048 -0.44809362748399961 0 0.049284113346957828 -0.4386861123948862 0 0.053499242975987987 -0.4435782759371083 0 0.049284113346957828 -0.4386861123948862 0 0.053499242975987987 -0.4435782759371083 0 0.056621375028472448 -0.4407189563998371 0 0.061967213283657119 -0.43534654655071281 0 0.049284113346957828 -0.4386861123948862 0 0.056621375028472448 -0.4407189563998371 0 0.061967213283657119 -0.43534654655071281 0 0.056621375028472448 -0.4407189563998371 0 0.059974960671737819 -0.44755425647113978 0 0.053499242975987987 -0.4435782759371083 0 0.056621375028472448 -0.4407189563998371 0 0.059974960671737819 -0.44755425647113978 0 0.059974960671737819 -0.44755425647113978 0 0.061666705505012277 -0.45750532403242511 0 0.050750780322394717 -0.45707919448788109 0 0.06387904284814741 -0.47081999689228149 0 0.050750780322394717 -0.45707919448788109 0 0.042204954701851753 -0.46406721696000519 0 0.06387904284814741 -0.47081999689228149 0 0.061666705505012277 -0.45750532403242511 0 0.050750780322394717 -0.45707919448788109 0 0.042204954701851753 -0.46406721696000519 0 0.031466492942474888 -0.45863956850284382 0 0.041102383033761111 -0.48170920065749429 0 0.050750780322394717 -0.45707919448788109 0 0.03935002154527184 -0.45820772443959351 0 0.043956336848257421 -0.4521664314246559 0 0.031466492942474888 -0.45863956850284382 0 0.027075969990078871 -0.46355639269332571 0 0.041102383033761111 -0.48170920065749429 0 0.050750780322394717 -0.45707919448788109 0 0.03935002154527184 -0.45820772443959351 0 0.042204954701851753 -0.46406721696000519 0 0.03935002154527184 -0.45820772443959351 0 0.042204954701851753 -0.46406721696000519 0 0.031466492942474888 -0.45863956850284382 0 0.03935002154527184 -0.45820772443959351 0 0.031466492942474888 -0.45863956850284382 0 0.043956336848257421 -0.4521664314246559 0 0.049284113346957828 -0.4386861123948862 0 0.031466492942474888 -0.45863956850284382 0 0.031466492942474888 -0.45863956850284382 0 0.041701615578165437 -0.43936547652205749 0 0.034329710995488531 -0.44126569515551128 0 0.049284113346957828 -0.4386861123948862 0 0.031466492942474888 -0.45863956850284382 0 0.041701615578165437 -0.43936547652205749 0 0.049284113346957828 -0.4386861123948862 0 0.031466492942474888 -0.45863956850284382 0 0.043956336848257421 -0.4521664314246559 0 0.04866769790030992 -0.43629472659539142 0 0.049284113346957828 -0.4386861123948862 0 0.041701615578165437 -0.43936547652205749 0 0.041273780530704449 -0.43360378419581103 0 0.041701615578165437 -0.43936547652205749 0 0.034329710995488531 -0.44126569515551128 0 0.021102636682855981 -0.43382708627772848 0 0.031466492942474888 -0.45863956850284382 0 0.021102636682855981 -0.43382708627772848 0 0.031466492942474888 -0.45863956850284382 0 0.015791870737939601 -0.45277591123750621 0 0.021102636682855981 -0.43382708627772848 0 0.031466492942474888 -0.45863956850284382 0 0.034329710995488531 -0.44126569515551128 0 -0.0017335022559463321 -0.44294690443588852 0 -0.00048262364615160141 -0.46154445275086259 0 0.015791870737939601 -0.45277591123750621 0 -0.0017335022559463321 -0.44294690443588852 0 0.021102636682855981 -0.43382708627772848 0 0.015791870737939601 -0.45277591123750621 0 -0.00048262364615160141 -0.46154445275086259 0 0.015791870737939601 -0.45277591123750621 0 0.015068504845151751 -0.4642732824187884 0 -0.00048262364615160141 -0.46154445275086259 0 0.015068504845151751 -0.4642732824187884 0 0.01107617217244561 -0.47469162294083372 0 0.015068504845151751 -0.4642732824187884 0 0.027075969990078871 -0.46355639269332571 0 0.024726773507342561 -0.47724329177756353 0 0.031466492942474888 -0.45863956850284382 0 0.015791870737939601 -0.45277591123750621 0 0.027075969990078871 -0.46355639269332571 0 0.015791870737939601 -0.45277591123750621 0 0.015068504845151751 -0.4642732824187884 0 0.027075969990078871 -0.46355639269332571 0 0.031466492942474888 -0.45863956850284382 0 0.027075969990078871 -0.46355639269332571 0 0.024726773507342561 -0.47724329177756353 0 0.02197319217004166 -0.49085460032874562 0 0.041102383033761111 -0.48170920065749429 0 0.027075969990078871 -0.46355639269332571 0 0.024726773507342561 -0.47724329177756353 0 0.041102383033761111 -0.48170920065749429 0 0.024726773507342561 -0.47724329177756353 0 0.01107617217244561 -0.47469162294083372 0 0.02197319217004166 -0.49085460032874562 0 0.015068504845151751 -0.4642732824187884 0 0.024726773507342561 -0.47724329177756353 0 0.01107617217244561 -0.47469162294083372 0 -0.0047679081857238109 -0.47930991420262192 0 0.01107617217244561 -0.47469162294083372 0 0.0053629893529604936 -0.48717195375217709 0 0.01107617217244561 -0.47469162294083372 0 0.0053629893529604936 -0.48717195375217709 0 0.02197319217004166 -0.49085460032874562 0 -0.00048262364615160141 -0.46154445275086259 0 -0.0047679081857238109 -0.47930991420262192 0 0.01107617217244561 -0.47469162294083372 0 0.0053629893529604936 -0.48717195375217709 0 0.0028440013063228981 -0.49999999999999822 0 0.02197319217004166 -0.49085460032874562 0 0.0028440013063228981 -0.49999999999999822 0 0.02197319217004166 -0.49085460032874562 0 0.0028440013063228981 -0.49999999999999822 0 0.02197319217004166 -0.49085460032874562 0 0.031004145430998501 -0.5 0 0.02197319217004166 -0.49085460032874562 0 0.031004145430998501 -0.5 0 0.036293313991822902 -0.49242280969867441 0 0.02197319217004166 -0.49085460032874562 0 0.041102383033761111 -0.48170920065749429 0 0.031004145430998501 -0.5 0 0.059164289555673988 -0.5 0 0.047725070745209763 -0.49756481627067711 0 0.02197319217004166 -0.49085460032874562 0 0.036293313991822902 -0.49242280969867441 0 0.041102383033761111 -0.48170920065749429 0 0.036293313991822902 -0.49242280969867441 0 0.041102383033761111 -0.48170920065749429 0 0.047725070745209763 -0.49756481627067711 0 0.031004145430998501 -0.5 0 0.036293313991822902 -0.49242280969867441 0 0.047725070745209763 -0.49756481627067711 0 0.041102383033761111 -0.48170920065749429 0 0.047725070745209763 -0.49756481627067711 0 0.031466492942474888 -0.45863956850284382 0 0.041102383033761111 -0.48170920065749429 0 0.06387904284814741 -0.47081999689228149 0 0.042204954701851753 -0.46406721696000519 0 0.041102383033761111 -0.48170920065749429 0 0.06387904284814741 -0.47081999689228149 0 0.041102383033761111 -0.48170920065749429 0 0.057023029560160823 -0.48793772675262159 0 0.06387904284814741 -0.47081999689228149 0 0.041102383033761111 -0.48170920065749429 0 0.041102383033761111 -0.48170920065749429 0 0.057023029560160823 -0.48793772675262159 0 0.047725070745209763 -0.49756481627067711 0 0.057023029560160823 -0.48793772675262159 0 0.059164289555673988 -0.5 0 0.047725070745209763 -0.49756481627067711 0 0.093569581027979604 -0.2851751628514505 0 0.077037169620972873 -0.30717304683073587 0 0.076364915303236969 -0.28279742630705779 0 0.093569581027979604 -0.2851751628514505 0 0.077037169620972873 -0.30717304683073587 0 0.097012244729710262 -0.30213164488441241 0 0.077037169620972873 -0.30717304683073587 0 0.097012244729710262 -0.30213164488441241 0 0.089842126052364385 -0.32767760766730569 0 0.077037169620972873 -0.30717304683073587 0 0.097012244729710262 -0.30213164488441241 0 0.077037169620972873 -0.30717304683073587 0 0.057062094512235539 -0.31221444877705951 0 0.077037169620972873 -0.30717304683073587 0 0.063962269155073526 -0.29746097868483767 0 0.057062094512235539 -0.31221444877705951 0 0.077037169620972873 -0.30717304683073587 0 0.063962269155073526 -0.29746097868483767 0 0.076364915303236969 -0.28279742630705779 0 0.063962269155073526 -0.29746097868483767 0 0.076364915303236969 -0.28279742630705779 0 0.063978833292972659 -0.27953136369815268 0 0.063978833292972659 -0.27953136369815268 0 0.071759951248744291 -0.26862680450986848 0 0.055505886997743607 -0.26916911799809973 0 0.071759951248744291 -0.26862680450986848 0 0.068975589279495805 -0.26213604699578957 0 0.055505886997743607 -0.26916911799809973 0 0.076364915303236969 -0.28279742630705779 0 0.071759951248744291 -0.26862680450986848 0 0.085687062191660862 -0.26207038517706949 0 0.076364915303236969 -0.28279742630705779 0 0.063978833292972659 -0.27953136369815268 0 0.071759951248744291 -0.26862680450986848 0 0.06935354968618497 -0.25010479107439831 0 0.070747261212473184 -0.25322756598660068 0 0.055505886997743607 -0.26916911799809973 0 0.068975589279495805 -0.26213604699578957 0 0.070747261212473184 -0.25322756598660068 0 0.055505886997743607 -0.26916911799809973 0 0.06935354968618497 -0.25010479107439831 0 0.070747261212473184 -0.25322756598660068 0 0.071759951248744291 -0.26862680450986848 0 0.068975589279495805 -0.26213604699578957 0 0.077889257659022118 -0.25752069948858941 0 0.068975589279495805 -0.26213604699578957 0 0.077889257659022118 -0.25752069948858941 0 0.070747261212473184 -0.25322756598660068 0 0.077889257659022118 -0.25752069948858941 0 0.075141354202361899 -0.25034161192270421 0 0.070747261212473184 -0.25322756598660068 0 0.077889257659022118 -0.25752069948858941 0 0.075141354202361899 -0.25034161192270421 0 0.080979785658451264 -0.2509150266257687 0 0.06935354968618497 -0.25010479107439831 0 0.075141354202361899 -0.25034161192270421 0 0.070747261212473184 -0.25322756598660068 0 0.080979785658451264 -0.2509150266257687 0 0.085687062191660862 -0.26207038517706949 0 0.089759607835018448 -0.24550930487237099 0 0.085687062191660862 -0.26207038517706949 0 0.089759607835018448 -0.24550930487237099 0 0.10502222179617909 -0.24976688139034459 0 0.077889257659022118 -0.25752069948858941 0 0.080979785658451264 -0.2509150266257687 0 0.085687062191660862 -0.26207038517706949 0 0.071759951248744291 -0.26862680450986848 0 0.077889257659022118 -0.25752069948858941 0 0.085687062191660862 -0.26207038517706949 0 0.093569581027979604 -0.2851751628514505 0 0.076364915303236969 -0.28279742630705779 0 0.085687062191660862 -0.26207038517706949 0 0.093569581027979604 -0.2851751628514505 0 0.085687062191660862 -0.26207038517706949 0 0.10035570342858489 -0.26844192961569252 0 0.085687062191660862 -0.26207038517706949 0 0.10035570342858489 -0.26844192961569252 0 0.10502222179617909 -0.24976688139034459 0 0.12752033777596139 -0.25976181002646398 0 0.10035570342858489 -0.26844192961569252 0 0.10502222179617909 -0.24976688139034459 0 0.12752033777596139 -0.25976181002646398 0 0.10502222179617909 -0.24976688139034459 0 0.12647501325493751 -0.24071415537261021 0 0.10035570342858489 -0.26844192961569252 0 0.12273114623393069 -0.28025786782898687 0 0.10035570342858489 -0.26844192961569252 0 0.12273114623393069 -0.28025786782898687 0 0.1112784895088656 -0.29382936523287623 0 0.12752033777596139 -0.25976181002646398 0 0.10035570342858489 -0.26844192961569252 0 0.12273114623393069 -0.28025786782898687 0 0.13112624590944799 -0.29937981238276429 0 0.12273114623393069 -0.28025786782898687 0 0.1112784895088656 -0.29382936523287623 0 0.093569581027979604 -0.2851751628514505 0 0.1112784895088656 -0.29382936523287623 0 0.097012244729710262 -0.30213164488441241 0 0.093569581027979604 -0.2851751628514505 0 0.10035570342858489 -0.26844192961569252 0 0.1112784895088656 -0.29382936523287623 0 0.1112784895088656 -0.29382936523287623 0 0.097012244729710262 -0.30213164488441241 0 0.10799172367879591 -0.31557794142475781 0 0.13112624590944799 -0.29937981238276429 0 0.1112784895088656 -0.29382936523287623 0 0.1228611360240791 -0.30974440104163709 0 0.1112784895088656 -0.29382936523287623 0 0.1228611360240791 -0.30974440104163709 0 0.10799172367879591 -0.31557794142475781 0 0.12880682264275331 -0.31839134306491701 0 0.1228611360240791 -0.30974440104163709 0 0.1186457880246987 -0.32126759456228071 0 0.1228611360240791 -0.30974440104163709 0 0.1186457880246987 -0.32126759456228071 0 0.10799172367879591 -0.31557794142475781 0 0.1186457880246987 -0.32126759456228071 0 0.1181810544054899 -0.33145266332219658 0 0.10806064130263859 -0.32982083763244507 0 0.1186457880246987 -0.32126759456228071 0 0.10806064130263859 -0.32982083763244507 0 0.10799172367879591 -0.31557794142475781 0 0.12605220128796429 -0.32681737417240919 0 0.12880682264275331 -0.31839134306491701 0 0.1186457880246987 -0.32126759456228071 0 0.12605220128796429 -0.32681737417240919 0 0.1186457880246987 -0.32126759456228071 0 0.1181810544054899 -0.33145266332219658 0 0.12605220128796429 -0.32681737417240919 0 0.1181810544054899 -0.33145266332219658 0 0.12485570640720769 -0.33690899376267192 0 0.12485570640720769 -0.33690899376267192 0 0.11375957562954769 -0.34064200912734027 0 0.12250173402609441 -0.3479549796538271 0 0.1181810544054899 -0.33145266332219658 0 0.12485570640720769 -0.33690899376267192 0 0.11375957562954769 -0.34064200912734027 0 0.1181810544054899 -0.33145266332219658 0 0.11375957562954769 -0.34064200912734027 0 0.10806064130263859 -0.32982083763244507 0 0.10806064130263859 -0.32982083763244507 0 0.099976434688905158 -0.34405679022607238 0 0.089842126052364385 -0.32767760766730569 0 0.11375957562954769 -0.34064200912734027 0 0.10806064130263859 -0.32982083763244507 0 0.099976434688905158 -0.34405679022607238 0 0.097012244729710262 -0.30213164488441241 0 0.10799172367879591 -0.31557794142475781 0 0.089842126052364385 -0.32767760766730569 0 0.10806064130263859 -0.32982083763244507 0 0.10799172367879591 -0.31557794142475781 0 0.089842126052364385 -0.32767760766730569 0 0.13074812791438861 -0.37691635541169582 0 0.1181850630163722 -0.37801311877864191 0 0.1205545949648919 -0.35887228796305831 0 0.1181850630163722 -0.37801311877864191 0 0.1027369745604084 -0.37882574407101532 0 0.1205545949648919 -0.35887228796305831 0 0.1027369745604084 -0.37882574407101532 0 0.1205545949648919 -0.35887228796305831 0 0.1027369745604084 -0.37882574407101532 0 0.1205545949648919 -0.35887228796305831 0 0.10798243195351739 -0.36641879909558001 0 0.12250173402609441 -0.3479549796538271 0 0.10798243195351739 -0.36641879909558001 0 0.1205545949648919 -0.35887228796305831 0 0.12250173402609441 -0.3479549796538271 0 0.10798243195351739 -0.36641879909558001 0 0.12250173402609441 -0.3479549796538271 0 0.1088478766186238 -0.35136613784838688 0 0.10798243195351739 -0.36641879909558001 0 0.11375957562954769 -0.34064200912734027 0 0.12250173402609441 -0.3479549796538271 0 0.1088478766186238 -0.35136613784838688 0 0.1088478766186238 -0.35136613784838688 0 0.099976434688905158 -0.34405679022607238 0 0.10001920679505449 -0.3577581111391146 0 0.11375957562954769 -0.34064200912734027 0 0.1088478766186238 -0.35136613784838688 0 0.099976434688905158 -0.34405679022607238 0 0.1088478766186238 -0.35136613784838688 0 0.10001920679505449 -0.3577581111391146 0 0.10798243195351739 -0.36641879909558001 0 0.093463129880940451 -0.3848826185373328 0 0.10798243195351739 -0.36641879909558001 0 0.092605800843708994 -0.36836744400317561 0 0.10001920679505449 -0.3577581111391146 0 0.10798243195351739 -0.36641879909558001 0 0.092605800843708994 -0.36836744400317561 0 0.10001920679505449 -0.3577581111391146 0 0.092605800843708994 -0.36836744400317561 0 0.079548519014350755 -0.35483188739932719 0 0.083380758220188048 -0.37618037829979523 0 0.092605800843708994 -0.36836744400317561 0 0.079548519014350755 -0.35483188739932719 0 0.099976434688905158 -0.34405679022607238 0 0.10001920679505449 -0.3577581111391146 0 0.079548519014350755 -0.35483188739932719 0 0.083380758220188048 -0.37618037829979523 0 0.069254911976337125 -0.38198616713134859 0 0.079548519014350755 -0.35483188739932719 0 0.069254911976337125 -0.38198616713134859 0 0.079548519014350755 -0.35483188739932719 0 0.051593261684324918 -0.36827324196572819 0 0.069254911976337125 -0.38198616713134859 0 0.079548519014350755 -0.35483188739932719 0 0.077037169620972873 -0.30717304683073587 0 0.089842126052364385 -0.32767760766730569 0 0.06871262473031596 -0.32768483260590531 0 0.079548519014350755 -0.35483188739932719 0 0.089842126052364385 -0.32767760766730569 0 0.099976434688905158 -0.34405679022607238 0 0.079548519014350755 -0.35483188739932719 0 0.089842126052364385 -0.32767760766730569 0 0.079548519014350755 -0.35483188739932719 0 0.089842126052364385 -0.32767760766730569 0 0.06871262473031596 -0.32768483260590531 0 0.079548519014350755 -0.35483188739932719 0 0.06871262473031596 -0.32768483260590531 0 0.052321177522103378 -0.34188396430452211 0 0.077037169620972873 -0.30717304683073587 0 0.06871262473031596 -0.32768483260590531 0 0.057062094512235539 -0.31221444877705951 0 0.048730407066459681 -0.32638612834878289 0 0.037087019403498227 -0.31725585072338269 0 0.057062094512235539 -0.31221444877705951 0 0.037087019403498227 -0.31725585072338269 0 0.057062094512235539 -0.31221444877705951 0 0.06871262473031596 -0.32768483260590531 0 0.048730407066459681 -0.32638612834878289 0 0.057062094512235539 -0.31221444877705951 0 0.06871262473031596 -0.32768483260590531 0 0.048730407066459681 -0.32638612834878289 0 0.052321177522103378 -0.34188396430452211 0 0.048730407066459681 -0.32638612834878289 0 0.052321177522103378 -0.34188396430452211 0 0.027110454296001198 -0.33768855205052728 0 0.048730407066459681 -0.32638612834878289 0 0.037087019403498227 -0.31725585072338269 0 0.027110454296001198 -0.33768855205052728 0 0.037087019403498227 -0.31725585072338269 0 0.027110454296001198 -0.33768855205052728 0 0.079548519014350755 -0.35483188739932719 0 0.052321177522103378 -0.34188396430452211 0 0.051593261684324918 -0.36827324196572819 0 0.052321177522103378 -0.34188396430452211 0 0.051593261684324918 -0.36827324196572819 0 0.035381314255444107 -0.35489808650021171 0 0.052321177522103378 -0.34188396430452211 0 0.035381314255444107 -0.35489808650021171 0 0.027110454296001198 -0.33768855205052728 0 0.051593261684324918 -0.36827324196572819 0 0.035381314255444107 -0.35489808650021171 0 0.029364003315145219 -0.37131652208711541 0 0.040245104814165211 -0.38373928364939192 0 0.051593261684324918 -0.36827324196572819 0 0.029364003315145219 -0.37131652208711541 0 0.035381314255444107 -0.35489808650021171 0 0.029364003315145219 -0.37131652208711541 0 0.017133889188504271 -0.35812125337767181 0 0.0071573240810073246 -0.3785539547048164 0 0.029364003315145219 -0.37131652208711541 0 0.017133889188504271 -0.35812125337767181 0 0.017133889188504271 -0.35812125337767181 0 0.027110454296001198 -0.33768855205052728 0 0.0039484790034304256 -0.34229917506297192 0 0.017133889188504271 -0.35812125337767181 0 0.027110454296001198 -0.33768855205052728 0 0.035381314255444107 -0.35489808650021171 0 0.017133889188504271 -0.35812125337767181 0 0.027110454296001198 -0.33768855205052728 0 -0.002490395708879795 -0.36117497802836229 0 0.017133889188504271 -0.35812125337767181 0 0.0039484790034304256 -0.34229917506297192 0 0.0071573240810073246 -0.3785539547048164 0 0.017133889188504271 -0.35812125337767181 0 -0.002490395708879795 -0.36117497802836229 0 0.0071573240810073246 -0.3785539547048164 0 0.017133889188504271 -0.35812125337767181 0 0.037087019403498227 -0.31725585072338269 0 0.01235625904661445 -0.32349751453283321 0 0.037087019403498227 -0.31725585072338269 0 0.027110454296001198 -0.33768855205052728 0 0.01235625904661445 -0.32349751453283321 0 0.037087019403498227 -0.31725585072338269 0 0.01235625904661445 -0.32349751453283321 0 0.01692496503682319 -0.30204186996350008 0 -0.012374501310269291 -0.32973917834228328 0 0.0039484790034304256 -0.34229917506297192 0 0.01235625904661445 -0.32349751453283321 0 0.027110454296001198 -0.33768855205052728 0 0.0039484790034304256 -0.34229917506297192 0 0.01235625904661445 -0.32349751453283321 0 -0.00099669197394388351 -0.3087205103267594 0 0.01235625904661445 -0.32349751453283321 0 0.01692496503682319 -0.30204186996350008 0 -0.00099669197394388351 -0.3087205103267594 0 0.00095968447781457202 -0.28794634655103107 0 0.01692496503682319 -0.30204186996350008 0 0.00095968447781457202 -0.28794634655103107 0 0.01692496503682319 -0.30204186996350008 0 0.024042013305983111 -0.28121605078612488 0 0.01692496503682319 -0.30204186996350008 0 0.032881856915011887 -0.29808343358469502 0 0.024042013305983111 -0.28121605078612488 0 0.037087019403498227 -0.31725585072338269 0 0.01692496503682319 -0.30204186996350008 0 0.032881856915011887 -0.29808343358469502 0 0.037087019403498227 -0.31725585072338269 0 0.044697062519452047 -0.30166995152866571 0 0.057062094512235539 -0.31221444877705951 0 0.037087019403498227 -0.31725585072338269 0 0.044697062519452047 -0.30166995152866571 0 0.032881856915011887 -0.29808343358469502 0 0.037087019403498227 -0.31725585072338269 0 0.044697062519452047 -0.30166995152866571 0 0.032881856915011887 -0.29808343358469502 0 0.041658224309302903 -0.28823344492180158 0 0.024042013305983111 -0.28121605078612488 0 0.044697062519452047 -0.30166995152866571 0 0.041658224309302903 -0.28823344492180158 0 0.052307105635405977 -0.28608405233394862 0 0.044697062519452047 -0.30166995152866571 0 0.032881856915011887 -0.29808343358469502 0 0.041658224309302903 -0.28823344492180158 0 0.044697062519452047 -0.30166995152866571 0 0.052307105635405977 -0.28608405233394862 0 0.063962269155073526 -0.29746097868483767 0 0.063978833292972659 -0.27953136369815268 0 0.052307105635405977 -0.28608405233394862 0 0.044697062519452047 -0.30166995152866571 0 0.052307105635405977 -0.28608405233394862 0 0.054507132955541771 -0.29935735783112782 0 0.063962269155073526 -0.29746097868483767 0 0.052307105635405977 -0.28608405233394862 0 0.054507132955541771 -0.29935735783112782 0 0.063962269155073526 -0.29746097868483767 0 0.057062094512235539 -0.31221444877705951 0 0.054507132955541771 -0.29935735783112782 0 0.044697062519452047 -0.30166995152866571 0 0.057062094512235539 -0.31221444877705951 0 0.054507132955541771 -0.29935735783112782 0 0.06935354968618497 -0.25010479107439831 0 0.055505886997743607 -0.26916911799809973 0 0.06935354968618497 -0.25010479107439831 0 0.055505886997743607 -0.26916911799809973 0 0.056300946588371793 -0.2482343324371877 0 0.055505886997743607 -0.26916911799809973 0 0.04504688969510235 -0.25182052131303673 0 0.056300946588371793 -0.2482343324371877 0 0.041658224309302903 -0.28823344492180158 0 0.055505886997743607 -0.26916911799809973 0 0.063978833292972659 -0.27953136369815268 0 0.052307105635405977 -0.28608405233394862 0 0.055505886997743607 -0.26916911799809973 0 0.041658224309302903 -0.28823344492180158 0 0.052307105635405977 -0.28608405233394862 0 0.055505886997743607 -0.26916911799809973 0 0.041658224309302903 -0.28823344492180158 0 0.055505886997743607 -0.26916911799809973 0 0.03902902229524019 -0.27176229095027482 0 0.041658224309302903 -0.28823344492180158 0 0.03902902229524019 -0.27176229095027482 0 0.024042013305983111 -0.28121605078612488 0 0.055505886997743607 -0.26916911799809973 0 0.03902902229524019 -0.27176229095027482 0 0.04504688969510235 -0.25182052131303673 0 0.03902902229524019 -0.27176229095027482 0 0.04504688969510235 -0.25182052131303673 0 0.030122703941951479 -0.25765948591814131 0 0.030122703941951479 -0.25765948591814131 0 0.024042013305983111 -0.28121605078612488 0 0.0048410001038069238 -0.26607636639245469 0 0.03902902229524019 -0.27176229095027482 0 0.030122703941951479 -0.25765948591814131 0 0.024042013305983111 -0.28121605078612488 0 0.00095968447781457202 -0.28794634655103107 0 0.024042013305983111 -0.28121605078612488 0 0.0048410001038069238 -0.26607636639245469 0 0.030122703941951479 -0.25765948591814131 0 0.0048410001038069238 -0.26607636639245469 0 0.0096229953273914148 -0.2417426688876598 0 -0.010876713287168681 -0.22582585185717829 0 0.0096229953273914148 -0.2417426688876598 0 0.0095263734719681324 -0.22522742924394201 0 -0.010876713287168681 -0.22582585185717829 0 0.0095263734719681324 -0.22522742924394201 0 0.0051179138250316966 -0.20931114953373001 0 0.0095263734719681324 -0.22522742924394201 0 0.0301478975463246 -0.23654835524241619 0 0.024080308087842891 -0.2174206716923579 0 0.030122703941951479 -0.25765948591814131 0 0.0096229953273914148 -0.2417426688876598 0 0.0096229953273914148 -0.2417426688876598 0 0.0095263734719681324 -0.22522742924394201 0 0.0301478975463246 -0.23654835524241619 0 0.030122703941951479 -0.25765948591814131 0 0.0096229953273914148 -0.2417426688876598 0 0.0301478975463246 -0.23654835524241619 0 -5.7340653001114007e-05 -0.18571861917824961 0 0.0051179138250316966 -0.20931114953373001 0 0.01777728751628008 -0.1900686374663843 0 0.0095263734719681324 -0.22522742924394201 0 0.0051179138250316966 -0.20931114953373001 0 0.024080308087842891 -0.2174206716923579 0 0.0051179138250316966 -0.20931114953373001 0 0.024080308087842891 -0.2174206716923579 0 0.0051179138250316966 -0.20931114953373001 0 0.024080308087842891 -0.2174206716923579 0 0.01777728751628008 -0.1900686374663843 0 0.024080308087842891 -0.2174206716923579 0 0.01777728751628008 -0.1900686374663843 0 0.03454607069867123 -0.2026358671680217 0 0.01777728751628008 -0.1900686374663843 0 0.03454607069867123 -0.2026358671680217 0 0.040538679554516413 -0.18554167894658541 0 0.051271888083991177 -0.20959069747809941 0 0.040538679554516413 -0.18554167894658541 0 0.03454607069867123 -0.2026358671680217 0 0.051271888083991177 -0.20959069747809941 0 0.040538679554516413 -0.18554167894658541 0 0.03454607069867123 -0.2026358671680217 0 0.051271888083991177 -0.20959069747809941 0 0.04304270235065414 -0.22553019385098591 0 0.024080308087842891 -0.2174206716923579 0 0.03454607069867123 -0.2026358671680217 0 0.04304270235065414 -0.22553019385098591 0 0.051271888083991177 -0.20959069747809941 0 0.053869315491951328 -0.18733226605960071 0 0.040538679554516413 -0.18554167894658541 0 0.051271888083991177 -0.20959069747809941 0 0.065168013447249748 -0.1939207521623896 0 0.053869315491951328 -0.18733226605960071 0 0.04504688969510235 -0.25182052131303673 0 0.0301478975463246 -0.23654835524241619 0 0.048427695974577092 -0.23782379537235029 0 0.04504688969510235 -0.25182052131303673 0 0.030122703941951479 -0.25765948591814131 0 0.0301478975463246 -0.23654835524241619 0 0.0301478975463246 -0.23654835524241619 0 0.04304270235065414 -0.22553019385098591 0 0.048427695974577092 -0.23782379537235029 0 0.0301478975463246 -0.23654835524241619 0 0.024080308087842891 -0.2174206716923579 0 0.04304270235065414 -0.22553019385098591 0 0.024080308087842891 -0.2174206716923579 0 0.04304270235065414 -0.22553019385098591 0 0.04304270235065414 -0.22553019385098591 0 0.062005096613465503 -0.23363971600961361 0 0.048427695974577092 -0.23782379537235029 0 0.051271888083991177 -0.20959069747809941 0 0.04304270235065414 -0.22553019385098591 0 0.062005096613465503 -0.23363971600961361 0 0.051271888083991177 -0.20959069747809941 0 0.062005096613465503 -0.23363971600961361 0 0.069792463658948464 -0.21911263296938491 0 0.051271888083991177 -0.20959069747809941 0 0.062005096613465503 -0.23363971600961361 0 0.04304270235065414 -0.22553019385098591 0 0.062005096613465503 -0.23363971600961361 0 0.062005096613465503 -0.23363971600961361 0 0.048427695974577092 -0.23782379537235029 0 0.056300946588371793 -0.2482343324371877 0 0.04504688969510235 -0.25182052131303673 0 0.048427695974577092 -0.23782379537235029 0 0.056300946588371793 -0.2482343324371877 0 0.06935354968618497 -0.25010479107439831 0 0.062005096613465503 -0.23363971600961361 0 0.056300946588371793 -0.2482343324371877 0 0.06935354968618497 -0.25010479107439831 0 0.062005096613465503 -0.23363971600961361 0 0.076736916795678539 -0.239939976438165 0 0.06935354968618497 -0.25010479107439831 0 0.062005096613465503 -0.23363971600961361 0 0.062005096613465503 -0.23363971600961361 0 0.076736916795678539 -0.239939976438165 0 0.075141354202361899 -0.25034161192270421 0 0.080979785658451264 -0.2509150266257687 0 0.076736916795678539 -0.239939976438165 0 0.06935354968618497 -0.25010479107439831 0 0.076736916795678539 -0.239939976438165 0 0.06935354968618497 -0.25010479107439831 0 0.075141354202361899 -0.25034161192270421 0 0.076736916795678539 -0.239939976438165 0 0.076736916795678539 -0.239939976438165 0 0.089759607835018448 -0.24550930487237099 0 0.076736916795678539 -0.239939976438165 0 0.089759607835018448 -0.24550930487237099 0 0.095091034915211953 -0.23645963091930611 0 0.080979785658451264 -0.2509150266257687 0 0.076736916795678539 -0.239939976438165 0 0.089759607835018448 -0.24550930487237099 0 0.076736916795678539 -0.239939976438165 0 0.089605712678267765 -0.22222327309696591 0 0.095091034915211953 -0.23645963091930611 0 0.076736916795678539 -0.239939976438165 0 0.089605712678267765 -0.22222327309696591 0 0.075705256980276511 -0.2265996423390424 0 0.076736916795678539 -0.239939976438165 0 0.089605712678267765 -0.22222327309696591 0 0.089605712678267765 -0.22222327309696591 0 0.075705256980276511 -0.2265996423390424 0 0.080386095155022499 -0.2180826131810821 0 0.075705256980276511 -0.2265996423390424 0 0.069792463658948464 -0.21911263296938491 0 0.080386095155022499 -0.2180826131810821 0 0.062005096613465503 -0.23363971600961361 0 0.076736916795678539 -0.239939976438165 0 0.075705256980276511 -0.2265996423390424 0 0.062005096613465503 -0.23363971600961361 0 0.075705256980276511 -0.2265996423390424 0 0.069792463658948464 -0.21911263296938491 0 0.051271888083991177 -0.20959069747809941 0 0.069792463658948464 -0.21911263296938491 0 0.076064209211064424 -0.20578195846933689 0 0.069792463658948464 -0.21911263296938491 0 0.076064209211064424 -0.20578195846933689 0 0.080386095155022499 -0.2180826131810821 0 0.076064209211064424 -0.20578195846933689 0 0.065168013447249748 -0.1939207521623896 0 0.081290955049897265 -0.18971522482454189 0 0.051271888083991177 -0.20959069747809941 0 0.076064209211064424 -0.20578195846933689 0 0.065168013447249748 -0.1939207521623896 0 0.081290955049897265 -0.18971522482454189 0 0.09923821070045058 -0.2022468356687139 0 0.081290955049897265 -0.18971522482454189 0 0.086433020888780937 -0.20301307251770451 0 0.09923821070045058 -0.2022468356687139 0 0.081290955049897265 -0.18971522482454189 0 0.09923821070045058 -0.2022468356687139 0 0.098934405536257292 -0.1829482209817499 0 0.076064209211064424 -0.20578195846933689 0 0.081290955049897265 -0.18971522482454189 0 0.086433020888780937 -0.20301307251770451 0 0.089605712678267765 -0.22222327309696591 0 0.089138708593712132 -0.21430827110822459 0 0.1024745085608578 -0.20450656975576731 0 0.076064209211064424 -0.20578195846933689 0 0.080386095155022499 -0.2180826131810821 0 0.089138708593712132 -0.21430827110822459 0 0.076064209211064424 -0.20578195846933689 0 0.086433020888780937 -0.20301307251770451 0 0.089138708593712132 -0.21430827110822459 0 0.086433020888780937 -0.20301307251770451 0 0.089138708593712132 -0.21430827110822459 0 0.09923821070045058 -0.2022468356687139 0 0.089605712678267765 -0.22222327309696591 0 0.080386095155022499 -0.2180826131810821 0 0.089138708593712132 -0.21430827110822459 0 0.089605712678267765 -0.22222327309696591 0 0.1024745085608578 -0.20450656975576731 0 0.089605712678267765 -0.22222327309696591 0 0.1024745085608578 -0.20450656975576731 0 0.1044798504217531 -0.2161774952244617 0 0.089138708593712132 -0.21430827110822459 0 0.1024745085608578 -0.20450656975576731 0 0.09923821070045058 -0.2022468356687139 0 0.089138708593712132 -0.21430827110822459 0 0.09923821070045058 -0.2022468356687139 0 0.1024745085608578 -0.20450656975576731 0 0.09923821070045058 -0.2022468356687139 0 0.1024745085608578 -0.20450656975576731 0 0.1077039781262656 -0.2081580292764309 0 0.1044798504217531 -0.2161774952244617 0 0.1024745085608578 -0.20450656975576731 0 0.1077039781262656 -0.2081580292764309 0 0.1153419320006286 -0.20237281755321981 0 0.1024745085608578 -0.20450656975576731 0 0.1077039781262656 -0.2081580292764309 0 0.1077039781262656 -0.2081580292764309 0 0.1044798504217531 -0.2161774952244617 0 0.1146851416243108 -0.21328604395880199 0 0.09923821070045058 -0.2022468356687139 0 0.11764030132843969 -0.18026994752950279 0 0.1024745085608578 -0.20450656975576731 0 0.09923821070045058 -0.2022468356687139 0 0.11764030132843969 -0.18026994752950279 0 0.09923821070045058 -0.2022468356687139 0 0.11764030132843969 -0.18026994752950279 0 0.098934405536257292 -0.1829482209817499 0 0.1153419320006286 -0.20237281755321981 0 0.1192584502586433 -0.18139981457302959 0 0.12518869747691971 -0.1970947524398107 0 0.1024745085608578 -0.20450656975576731 0 0.1192584502586433 -0.18139981457302959 0 0.11764030132843969 -0.18026994752950279 0 0.1024745085608578 -0.20450656975576731 0 0.1192584502586433 -0.18139981457302959 0 0.1024745085608578 -0.20450656975576731 0 0.1153419320006286 -0.20237281755321981 0 0.1192584502586433 -0.18139981457302959 0 0.1153419320006286 -0.20237281755321981 0 0.1246801754173678 -0.20908561605720799 0 0.12518869747691971 -0.1970947524398107 0 0.1044798504217531 -0.2161774952244617 0 0.1146851416243108 -0.21328604395880199 0 0.1113524548978769 -0.22355102766004109 0 0.1077039781262656 -0.2081580292764309 0 0.1153419320006286 -0.20237281755321981 0 0.1146851416243108 -0.21328604395880199 0 0.1153419320006286 -0.20237281755321981 0 0.1146851416243108 -0.21328604395880199 0 0.1246801754173678 -0.20908561605720799 0 0.1146851416243108 -0.21328604395880199 0 0.1246801754173678 -0.20908561605720799 0 0.1242406923374533 -0.22077828949577141 0 0.1242406923374533 -0.22077828949577141 0 0.1176448253277322 -0.22987447598736729 0 0.12647501325493751 -0.24071415537261021 0 0.1242406923374533 -0.22077828949577141 0 0.1113524548978769 -0.22355102766004109 0 0.1176448253277322 -0.22987447598736729 0 0.1146851416243108 -0.21328604395880199 0 0.1242406923374533 -0.22077828949577141 0 0.1113524548978769 -0.22355102766004109 0 0.1113524548978769 -0.22355102766004109 0 0.1176448253277322 -0.22987447598736729 0 0.10816875371488061 -0.2347731164762859 0 0.10816875371488061 -0.2347731164762859 0 0.10502222179617909 -0.24976688139034459 0 0.12647501325493751 -0.24071415537261021 0 0.1176448253277322 -0.22987447598736729 0 0.10816875371488061 -0.2347731164762859 0 0.12647501325493751 -0.24071415537261021 0 0.10816875371488061 -0.2347731164762859 0 0.10502222179617909 -0.24976688139034459 0 0.095091034915211953 -0.23645963091930611 0 0.089759607835018448 -0.24550930487237099 0 0.10502222179617909 -0.24976688139034459 0 0.095091034915211953 -0.23645963091930611 0 0.10816875371488061 -0.2347731164762859 0 0.095091034915211953 -0.23645963091930611 0 0.1012529966712483 -0.22654523324170539 0 0.089605712678267765 -0.22222327309696591 0 0.095091034915211953 -0.23645963091930611 0 0.1012529966712483 -0.22654523324170539 0 0.089605712678267765 -0.22222327309696591 0 0.1044798504217531 -0.2161774952244617 0 0.1012529966712483 -0.22654523324170539 0 0.1044798504217531 -0.2161774952244617 0 0.1113524548978769 -0.22355102766004109 0 0.1012529966712483 -0.22654523324170539 0 0.1113524548978769 -0.22355102766004109 0 0.10816875371488061 -0.2347731164762859 0 0.1012529966712483 -0.22654523324170539 0 0.1066066963767399 -0.1560013930198097 0 0.088955415333706836 -0.15261765417286999 0 0.092168358092496572 -0.13644063557570391 0 0.1066066963767399 -0.1560013930198097 0 0.1084127028583548 -0.12533687496356241 0 0.092168358092496572 -0.13644063557570391 0 0.1084127028583548 -0.12533687496356241 0 0.092168358092496572 -0.13644063557570391 0 0.088621741028487425 -0.1170862111718346 0 0.1084127028583548 -0.12533687496356241 0 0.1211969328539569 -0.14532151129590021 0 0.1282036646882222 -0.1335875387552902 0 0.1084127028583548 -0.12533687496356241 0 0.1301035997378964 -0.1214645167163456 0 0.1282036646882222 -0.1335875387552902 0 0.1084127028583548 -0.12533687496356241 0 0.1282036646882222 -0.1335875387552902 0 0.1066066963767399 -0.1560013930198097 0 0.1211969328539569 -0.14532151129590021 0 0.13604239195642881 -0.1582930593902917 0 0.1066066963767399 -0.1560013930198097 0 0.1084127028583548 -0.12533687496356241 0 0.1211969328539569 -0.14532151129590021 0 0.1066066963767399 -0.1560013930198097 0 0.11764030132843969 -0.18026994752950279 0 0.13604239195642881 -0.1582930593902917 0 0.1192584502586433 -0.18139981457302959 0 0.11764030132843969 -0.18026994752950279 0 0.13604239195642881 -0.1582930593902917 0 0.1066066963767399 -0.1560013930198097 0 0.11764030132843969 -0.18026994752950279 0 0.098934405536257292 -0.1829482209817499 0 0.1066066963767399 -0.1560013930198097 0 0.086233222385870389 -0.16920365126638909 0 0.088955415333706836 -0.15261765417286999 0 0.1066066963767399 -0.1560013930198097 0 0.098934405536257292 -0.1829482209817499 0 0.086233222385870389 -0.16920365126638909 0 0.086233222385870389 -0.16920365126638909 0 0.07195232853571587 -0.16192824045993989 0 0.088955415333706836 -0.15261765417286999 0 0.081290955049897265 -0.18971522482454189 0 0.098934405536257292 -0.1829482209817499 0 0.086233222385870389 -0.16920365126638909 0 0.081290955049897265 -0.18971522482454189 0 0.086233222385870389 -0.16920365126638909 0 0.063343699399344505 -0.177183613980369 0 0.081290955049897265 -0.18971522482454189 0 0.063343699399344505 -0.177183613980369 0 0.065168013447249748 -0.1939207521623896 0 0.081290955049897265 -0.18971522482454189 0 0.063343699399344505 -0.177183613980369 0 0.063343699399344505 -0.177183613980369 0 0.07195232853571587 -0.16192824045993989 0 0.058202312305617662 -0.15259452637310769 0 0.086233222385870389 -0.16920365126638909 0 0.063343699399344505 -0.177183613980369 0 0.07195232853571587 -0.16192824045993989 0 0.07195232853571587 -0.16192824045993989 0 0.075647201257177665 -0.14712818035580241 0 0.058202312305617662 -0.15259452637310769 0 0.075647201257177665 -0.14712818035580241 0 0.058202312305617662 -0.15259452637310769 0 0.075647201257177665 -0.14712818035580241 0 0.064089502321738628 -0.14081313376006399 0 0.058202312305617662 -0.15259452637310769 0 0.07195232853571587 -0.16192824045993989 0 0.075647201257177665 -0.14712818035580241 0 0.088955415333706836 -0.15261765417286999 0 0.075647201257177665 -0.14712818035580241 0 0.088955415333706836 -0.15261765417286999 0 0.092168358092496572 -0.13644063557570391 0 0.075647201257177665 -0.14712818035580241 0 0.092168358092496572 -0.13644063557570391 0 0.075175055075759833 -0.13079505837176039 0 0.092168358092496572 -0.13644063557570391 0 0.075175055075759833 -0.13079505837176039 0 0.088621741028487425 -0.1170862111718346 0 0.075647201257177665 -0.14712818035580241 0 0.064089502321738628 -0.14081313376006399 0 0.075175055075759833 -0.13079505837176039 0 0.064089502321738628 -0.14081313376006399 0 0.075175055075759833 -0.13079505837176039 0 0.060151367922528343 -0.1282452653790557 0 0.064089502321738628 -0.14081313376006399 0 0.060151367922528343 -0.1282452653790557 0 0.045187077728504027 -0.14162800924632171 0 0.060151367922528343 -0.1282452653790557 0 0.045187077728504027 -0.14162800924632171 0 0.045706544736458937 -0.1264574996773114 0 0.058202312305617662 -0.15259452637310769 0 0.040757423354057389 -0.15806087239041211 0 0.064089502321738628 -0.14081313376006399 0 0.058202312305617662 -0.15259452637310769 0 0.045187077728504027 -0.14162800924632171 0 0.058202312305617662 -0.15259452637310769 0 0.045187077728504027 -0.14162800924632171 0 0.040757423354057389 -0.15806087239041211 0 0.040757423354057389 -0.15806087239041211 0 0.028223335228012469 -0.14025241142486289 0 0.040757423354057389 -0.15806087239041211 0 0.037443896849375297 -0.1590991640334469 0 0.028223335228012469 -0.14025241142486289 0 0.045187077728504027 -0.14162800924632171 0 0.040757423354057389 -0.15806087239041211 0 0.028223335228012469 -0.14025241142486289 0 0.045187077728504027 -0.14162800924632171 0 0.033400244218237923 -0.12706864591646369 0 0.028223335228012469 -0.14025241142486289 0 0.045187077728504027 -0.14162800924632171 0 0.033400244218237923 -0.12706864591646369 0 0.045706544736458937 -0.1264574996773114 0 0.065168013447249748 -0.1939207521623896 0 0.063343699399344505 -0.177183613980369 0 0.053869315491951328 -0.18733226605960071 0 0.063343699399344505 -0.177183613980369 0 0.053869315491951328 -0.18733226605960071 0 0.049602028147084122 -0.17062730703075341 0 0.053869315491951328 -0.18733226605960071 0 0.049602028147084122 -0.17062730703075341 0 0.040538679554516413 -0.18554167894658541 0 0.063343699399344505 -0.177183613980369 0 0.058202312305617662 -0.15259452637310769 0 0.045396443748791933 -0.16465200313619591 0 0.058202312305617662 -0.15259452637310769 0 0.040757423354057389 -0.15806087239041211 0 0.045396443748791933 -0.16465200313619591 0 0.063343699399344505 -0.177183613980369 0 0.045396443748791933 -0.16465200313619591 0 0.063343699399344505 -0.177183613980369 0 0.049602028147084122 -0.17062730703075341 0 0.045396443748791933 -0.16465200313619591 0 0.049602028147084122 -0.17062730703075341 0 0.045396443748791933 -0.16465200313619591 0 0.045396443748791933 -0.16465200313619591 0 0.040538679554516413 -0.18554167894658541 0 0.029805471025041792 -0.16149266041507129 0 0.040757423354057389 -0.15806087239041211 0 0.037443896849375297 -0.1590991640334469 0 0.045396443748791933 -0.16465200313619591 0 0.037443896849375297 -0.1590991640334469 0 0.045396443748791933 -0.16465200313619591 0 0.040757423354057389 -0.15806087239041211 0 0.045396443748791933 -0.16465200313619591 0 0.040757423354057389 -0.15806087239041211 0 0.037443896849375297 -0.1590991640334469 0 0.037443896849375297 -0.1590991640334469 0 0.045396443748791933 -0.16465200313619591 0 0.029805471025041792 -0.16149266041507129 0 0.037443896849375297 -0.1590991640334469 0 0.029805471025041792 -0.16149266041507129 0 0.02886196179484548 -0.15937861679993701 0 0.037443896849375297 -0.1590991640334469 0 0.029805471025041792 -0.16149266041507129 0 0.049602028147084122 -0.17062730703075341 0 0.045396443748791933 -0.16465200313619591 0 0.040538679554516413 -0.18554167894658541 0 0.040538679554516413 -0.18554167894658541 0 0.029805471025041792 -0.16149266041507129 0 0.040538679554516413 -0.18554167894658541 0 0.02355294882915001 -0.17650668866170871 0 0.029805471025041792 -0.16149266041507129 0 0.01777728751628008 -0.1900686374663843 0 0.040538679554516413 -0.18554167894658541 0 0.02355294882915001 -0.17650668866170871 0 0.01777728751628008 -0.1900686374663843 0 0.02355294882915001 -0.17650668866170871 0 0.0060903572207618986 -0.1689237778187937 0 0.029805471025041792 -0.16149266041507129 0 0.0060903572207618986 -0.1689237778187937 0 0.029805471025041792 -0.16149266041507129 0 0.02886196179484548 -0.15937861679993701 0 0.0060903572207618986 -0.1689237778187937 0 0.02355294882915001 -0.17650668866170871 0 0.029805471025041792 -0.16149266041507129 0 0.0060903572207618986 -0.1689237778187937 0 0.029805471025041792 -0.16149266041507129 0 0.02886196179484548 -0.15937861679993701 0 0.02886196179484548 -0.15937861679993701 0 0.0060903572207618986 -0.1689237778187937 0 0.0079424845942499232 -0.15244881847954789 0 -0.010502669693092969 -0.15277666781688409 0 0.0060903572207618986 -0.1689237778187937 0 0.0079424845942499232 -0.15244881847954789 0 -5.7340653001114007e-05 -0.18571861917824961 0 0.01777728751628008 -0.1900686374663843 0 0.0060903572207618986 -0.1689237778187937 0 0.033400244218237923 -0.12706864591646369 0 0.028223335228012469 -0.14025241142486289 0 0.01568924710196519 -0.12244395045931521 0 0.028223335228012469 -0.14025241142486289 0 0.01568924710196519 -0.12244395045931521 0 0.028223335228012469 -0.14025241142486289 0 0.014693798201897101 -0.14015148119107709 0 0.01568924710196519 -0.12244395045931521 0 0.02886196179484548 -0.15937861679993701 0 0.021205889663268331 -0.14776103017591749 0 0.0079424845942499232 -0.15244881847954789 0 0.037443896849375297 -0.1590991640334469 0 0.02886196179484548 -0.15937861679993701 0 0.021205889663268331 -0.14776103017591749 0 0.037443896849375297 -0.1590991640334469 0 0.028223335228012469 -0.14025241142486289 0 0.021205889663268331 -0.14776103017591749 0 0.037443896849375297 -0.1590991640334469 0 0.021205889663268331 -0.14776103017591749 0 0.028223335228012469 -0.14025241142486289 0 0.021205889663268331 -0.14776103017591749 0 0.014693798201897101 -0.14015148119107709 0 0.021205889663268331 -0.14776103017591749 0 0.0079424845942499232 -0.15244881847954789 0 0.014693798201897101 -0.14015148119107709 0 0.0079424845942499232 -0.15244881847954789 0 0.001792487512032919 -0.13702172144501751 0 0.014693798201897101 -0.14015148119107709 0 0.001792487512032919 -0.13702172144501751 0 0.014693798201897101 -0.14015148119107709 0 0.01568924710196519 -0.12244395045931521 0 -0.0047205678392477426 -0.12093393385180171 0 0.001792487512032919 -0.13702172144501751 0 0.01568924710196519 -0.12244395045931521 0 0.01568924710196519 -0.12244395045931521 0 0.020574227538559281 -0.1030577688924096 0 0.0031551589759171821 -0.10463548949376809 0 0.01568924710196519 -0.12244395045931521 0 0.0031551589759171821 -0.10463548949376809 0 -0.0047205678392477426 -0.12093393385180171 0 0.01568924710196519 -0.12244395045931521 0 0.0031551589759171821 -0.10463548949376809 0 0.033400244218237923 -0.12706864591646369 0 0.01568924710196519 -0.12244395045931521 0 0.027207047282475309 -0.11447754899526059 0 0.01568924710196519 -0.12244395045931521 0 0.027207047282475309 -0.11447754899526059 0 0.020574227538559281 -0.1030577688924096 0 0.027207047282475309 -0.11447754899526059 0 0.020574227538559281 -0.1030577688924096 0 0.037993296101201238 -0.1014800482910496 0 0.020574227538559281 -0.1030577688924096 0 0.026494844306596581 -0.088986475253023695 0 0.037993296101201238 -0.1014800482910496 0 0.020574227538559281 -0.1030577688924096 0 0.037993296101201238 -0.1014800482910496 0 0.020574227538559281 -0.1030577688924096 0 0.0075821068109006521 -0.096728999931004589 0 0.01401967087468102 -0.08885357624306453 0 0.020574227538559281 -0.1030577688924096 0 0.0031551589759171821 -0.10463548949376809 0 0.020574227538559281 -0.1030577688924096 0 0.0031551589759171821 -0.10463548949376809 0 0.0075821068109006521 -0.096728999931004589 0 -0.00087162142712868609 -0.098914230723018651 0 0.0031551589759171821 -0.10463548949376809 0 -0.00087162142712868609 -0.098914230723018651 0 0.0031551589759171821 -0.10463548949376809 0 0.0075821068109006521 -0.096728999931004589 0 -0.00087162142712868609 -0.098914230723018651 0 0.0075821068109006521 -0.096728999931004589 0 0.001033098092474416 -0.088183934302761627 0 -0.0084861465490325798 -0.079153840751582771 0 0.001033098092474416 -0.088183934302761627 0 0.0075159774620815563 -0.076024487720319611 0 0.0075821068109006521 -0.096728999931004589 0 0.001033098092474416 -0.088183934302761627 0 0.01401967087468102 -0.08885357624306453 0 0.001033098092474416 -0.088183934302761627 0 0.01401967087468102 -0.08885357624306453 0 0.0075159774620815563 -0.076024487720319611 0 0.01401967087468102 -0.08885357624306453 0 0.0075159774620815563 -0.076024487720319611 0 0.021413065670189059 -0.078645907617468702 0 0.0075159774620815563 -0.076024487720319611 0 0.02179567729469413 -0.067813135933952398 0 0.0096219929077403735 -0.059432917446110303 0 -0.0024740827135137089 -0.066048241574000729 0 0.0075159774620815563 -0.076024487720319611 0 0.0096219929077403735 -0.059432917446110303 0 0.02179567729469413 -0.067813135933952398 0 0.021413065670189059 -0.078645907617468702 0 0.037239158412891979 -0.071551862936983263 0 0.02179567729469413 -0.067813135933952398 0 0.037239158412891979 -0.071551862936983263 0 0.02310435080532533 -0.051769483945397099 0 0.0075159774620815563 -0.076024487720319611 0 0.02179567729469413 -0.067813135933952398 0 0.021413065670189059 -0.078645907617468702 0 0.021413065670189059 -0.078645907617468702 0 0.026494844306596581 -0.088986475253023695 0 0.037239158412891979 -0.071551862936983263 0 0.020574227538559281 -0.1030577688924096 0 0.01401967087468102 -0.08885357624306453 0 0.026494844306596581 -0.088986475253023695 0 0.01401967087468102 -0.08885357624306453 0 0.021413065670189059 -0.078645907617468702 0 0.026494844306596581 -0.088986475253023695 0 0.026494844306596581 -0.088986475253023695 0 0.037239158412891979 -0.071551862936983263 0 0.037993296101201238 -0.1014800482910496 0 0.037239158412891979 -0.071551862936983263 0 0.050758177267417152 -0.086184801563630647 0 0.037993296101201238 -0.1014800482910496 0 0.037239158412891979 -0.071551862936983263 0 0.037993296101201238 -0.1014800482910496 0 0.037239158412891979 -0.071551862936983263 0 0.050758177267417152 -0.086184801563630647 0 0.053348100153022202 -0.05769023986447297 0 0.050758177267417152 -0.086184801563630647 0 0.053348100153022202 -0.05769023986447297 0 0.070151567486094177 -0.077365277539874461 0 0.050758177267417152 -0.086184801563630647 0 0.066063492354589207 -0.098937608851542541 0 0.070151567486094177 -0.077365277539874461 0 0.053249874209702418 -0.1148241659722358 0 0.037993296101201238 -0.1014800482910496 0 0.066063492354589207 -0.098937608851542541 0 0.050758177267417152 -0.086184801563630647 0 0.037993296101201238 -0.1014800482910496 0 0.066063492354589207 -0.098937608851542541 0 0.037993296101201238 -0.1014800482910496 0 0.066063492354589207 -0.098937608851542541 0 0.060151367922528343 -0.1282452653790557 0 0.053249874209702418 -0.1148241659722358 0 0.072899203199840695 -0.1143805798597439 0 0.060151367922528343 -0.1282452653790557 0 0.045706544736458937 -0.1264574996773114 0 0.053249874209702418 -0.1148241659722358 0 0.027207047282475309 -0.11447754899526059 0 0.038388213232011602 -0.1171524556957107 0 0.037993296101201238 -0.1014800482910496 0 0.053249874209702418 -0.1148241659722358 0 0.038388213232011602 -0.1171524556957107 0 0.037993296101201238 -0.1014800482910496 0 0.033400244218237923 -0.12706864591646369 0 0.045706544736458937 -0.1264574996773114 0 0.038388213232011602 -0.1171524556957107 0 0.045706544736458937 -0.1264574996773114 0 0.053249874209702418 -0.1148241659722358 0 0.038388213232011602 -0.1171524556957107 0 0.033400244218237923 -0.12706864591646369 0 0.027207047282475309 -0.11447754899526059 0 0.038388213232011602 -0.1171524556957107 0 0.038388213232011602 -0.1171524556957107 0 0.037993296101201238 -0.1014800482910496 0 0.0114216298260333 0.016579660846854079 0 0.029042560596205781 -0.0039160125723961998 0 0.016445881501026369 -0.012814459394094471 0 0.029042560596205781 -0.0039160125723961998 0 0.025350149754928639 -0.0111069545102536 0 0.029042560596205781 -0.0039160125723961998 0 0.025350149754928639 -0.0111069545102536 0 0.033827302294350978 -0.0094813544104601511 0 0.029042560596205781 -0.0039160125723961998 0 0.025350149754928639 -0.0111069545102536 0 0.016445881501026369 -0.012814459394094471 0 0.025350149754928639 -0.0111069545102536 0 0.033827302294350978 -0.0094813544104601511 0 0.025350149754928639 -0.0111069545102536 0 0.016445881501026369 -0.012814459394094471 0 0.0114216298260333 0.016579660846854079 0 0.016445881501026369 -0.012814459394094471 0 0.01479436547087698 -0.013131158263312249 0 -0.0016637341516267971 -0.002949234294761292 0 0.0060726463263767599 -0.01438707961740017 0 0.01479436547087698 -0.013131158263312249 0 -0.004047477331530447 -0.016636231309710429 0 -0.0016637341516267971 -0.002949234294761292 0 0.0060726463263767599 -0.01438707961740017 0 0.0060726463263767599 -0.01438707961740017 0 0.01479436547087698 -0.013131158263312249 0 0.0097017567742483379 -0.01725998586504748 0 0.016445881501026369 -0.012814459394094471 0 0.01479436547087698 -0.013131158263312249 0 0.01282804353660257 -0.019175391367995571 0 0.016445881501026369 -0.012814459394094471 0 0.01479436547087698 -0.013131158263312249 0 0.01479436547087698 -0.013131158263312249 0 0.01282804353660257 -0.019175391367995571 0 0.0097017567742483379 -0.01725998586504748 0 0.01282804353660257 -0.019175391367995571 0 0.010843873638232551 -0.026333911582579281 0 0.01845070457236167 -0.024543571355957309 0 0.01282804353660257 -0.019175391367995571 0 0.0051119717631370387 -0.022346314211481949 0 0.010843873638232551 -0.026333911582579281 0 0.01282804353660257 -0.019175391367995571 0 0.0097017567742483379 -0.01725998586504748 0 0.0051119717631370387 -0.022346314211481949 0 0.0060726463263767599 -0.01438707961740017 0 0.0097017567742483379 -0.01725998586504748 0 0.0051119717631370387 -0.022346314211481949 0 -0.004047477331530447 -0.016636231309710429 0 0.0060726463263767599 -0.01438707961740017 0 0.0051119717631370387 -0.022346314211481949 0 0.0051119717631370387 -0.022346314211481949 0 0.010843873638232551 -0.026333911582579281 0 0.0034873442352273418 -0.033819840985324548 0 -0.004476297631638846 -0.026131926890842441 0 0.0051119717631370387 -0.022346314211481949 0 0.0034873442352273418 -0.033819840985324548 0 0.010843873638232551 -0.026333911582579281 0 0.01494625371548455 -0.031368462658458073 0 0.0034873442352273418 -0.033819840985324548 0 0.010843873638232551 -0.026333911582579281 0 0.01845070457236167 -0.024543571355957309 0 0.01494625371548455 -0.031368462658458073 0 0.01845070457236167 -0.024543571355957309 0 0.01494625371548455 -0.031368462658458073 0 0.016445881501026369 -0.012814459394094471 0 0.01282804353660257 -0.019175391367995571 0 0.01845070457236167 -0.024543571355957309 0 0.016445881501026369 -0.012814459394094471 0 0.01845070457236167 -0.024543571355957309 0 0.025350149754928639 -0.0111069545102536 0 0.01845070457236167 -0.024543571355957309 0 0.025350149754928639 -0.0111069545102536 0 0.016445881501026369 -0.012814459394094471 0 0.01845070457236167 -0.024543571355957309 0 0.025350149754928639 -0.0111069545102536 0 0.028526358833144558 -0.024590758272436439 0 0.035730883036275557 -0.01169549222885081 0 0.025350149754928639 -0.0111069545102536 0 0.01845070457236167 -0.024543571355957309 0 0.028526358833144558 -0.024590758272436439 0 0.01845070457236167 -0.024543571355957309 0 0.028526358833144558 -0.024590758272436439 0 0.02664160873385274 -0.035631872789177087 0 0.028526358833144558 -0.024590758272436439 0 0.02664160873385274 -0.035631872789177087 0 0.036485020724582803 -0.041623677582916928 0 0.02664160873385274 -0.035631872789177087 0 0.02310435080532533 -0.051769483945397099 0 0.036485020724582803 -0.041623677582916928 0 0.01845070457236167 -0.024543571355957309 0 0.02664160873385274 -0.035631872789177087 0 0.02310435080532533 -0.051769483945397099 0 0.01845070457236167 -0.024543571355957309 0 0.01494625371548455 -0.031368462658458073 0 0.02310435080532533 -0.051769483945397099 0 0.01845070457236167 -0.024543571355957309 0 0.02310435080532533 -0.051769483945397099 0 0.01494625371548455 -0.031368462658458073 0 0.01001501121106468 -0.04525298503009037 0 0.02310435080532533 -0.051769483945397099 0 -0.0016381569070474391 -0.049966506661174373 0 0.0034873442352273418 -0.033819840985324548 0 0.01001501121106468 -0.04525298503009037 0 0.01494625371548455 -0.031368462658458073 0 0.0034873442352273418 -0.033819840985324548 0 0.01001501121106468 -0.04525298503009037 0 -0.0016381569070474391 -0.049966506661174373 0 -0.0024740827135137089 -0.066048241574000729 0 0.0096219929077403735 -0.059432917446110303 0 0.01001501121106468 -0.04525298503009037 0 0.0096219929077403735 -0.059432917446110303 0 0.02310435080532533 -0.051769483945397099 0 -0.0016381569070474391 -0.049966506661174373 0 0.01001501121106468 -0.04525298503009037 0 0.0096219929077403735 -0.059432917446110303 0 0.02179567729469413 -0.067813135933952398 0 0.0096219929077403735 -0.059432917446110303 0 0.02310435080532533 -0.051769483945397099 0 0.037239158412891979 -0.071551862936983263 0 0.036485020724582803 -0.041623677582916928 0 0.037239158412891979 -0.071551862936983263 0 0.02310435080532533 -0.051769483945397099 0 0.036485020724582803 -0.041623677582916928 0 0.037239158412891979 -0.071551862936983263 0 0.053348100153022202 -0.05769023986447297 0 0.036485020724582803 -0.041623677582916928 0 0.053348100153022202 -0.05769023986447297 0 0.054605426376601193 -0.033649297126348413 0 0.073479969716924942 -0.055603102023847648 0 0.053348100153022202 -0.05769023986447297 0 0.054605426376601193 -0.033649297126348413 0 0.036485020724582803 -0.041623677582916928 0 0.054605426376601193 -0.033649297126348413 0 0.036485020724582803 -0.041623677582916928 0 0.035730883036275557 -0.01169549222885081 0 0.028526358833144558 -0.024590758272436439 0 0.036485020724582803 -0.041623677582916928 0 0.035730883036275557 -0.01169549222885081 0 0.036485020724582803 -0.041623677582916928 0 0.035730883036275557 -0.01169549222885081 0 0.054605426376601193 -0.033649297126348413 0 0.035730883036275557 -0.01169549222885081 0 0.054605426376601193 -0.033649297126348413 0 0.051738188413168899 -0.016921359104358231 0 0.077152140842315739 -0.021306646670069519 0 0.054605426376601193 -0.033649297126348413 0 0.051738188413168899 -0.016921359104358231 0 0.035730883036275557 -0.01169549222885081 0 0.060051642762946361 -0.0044525089007890492 0 0.035666204931526668 -0.0091287218140131271 0 0.051738188413168899 -0.016921359104358231 0 0.060051642762946361 -0.0044525089007890492 0 0.035666204931526668 -0.0091287218140131271 0 0.049526999433650652 0.0076288011374604676 0 0.060051642762946361 -0.0044525089007890492 0 0.035666204931526668 -0.0091287218140131271 0 0.051738188413168899 -0.016921359104358231 0 0.035730883036275557 -0.01169549222885081 0 0.035666204931526668 -0.0091287218140131271 0 0.035231158369571837 0.0081362343681430777 0 0.029042560596205781 -0.0039160125723961998 0 0.035666204931526668 -0.0091287218140131271 0 0.035231158369571837 0.0081362343681430777 0 0.035666204931526668 -0.0091287218140131271 0 0.025350149754928639 -0.0111069545102536 0 0.035730883036275557 -0.01169549222885081 0 0.033827302294350978 -0.0094813544104601511 0 0.035730883036275557 -0.01169549222885081 0 0.035666204931526668 -0.0091287218140131271 0 0.035666204931526668 -0.0091287218140131271 0 0.033827302294350978 -0.0094813544104601511 0 0.035730883036275557 -0.01169549222885081 0 0.033827302294350978 -0.0094813544104601511 0 0.035730883036275557 -0.01169549222885081 0 0.035666204931526668 -0.0091287218140131271 0 0.033827302294350978 -0.0094813544104601511 0 0.029042560596205781 -0.0039160125723961998 0 0.033827302294350978 -0.0094813544104601511 0 0.029042560596205781 -0.0039160125723961998 0 0.035666204931526668 -0.0091287218140131271 0 0.033827302294350978 -0.0094813544104601511 0 0.084437080594366276 0.00022370401243423409 0 0.077152140842315739 -0.021306646670069519 0 0.1037890227047604 -0.015775835526728552 0 0.084437080594366276 0.00022370401243423409 0 0.060051642762946361 -0.0044525089007890492 0 0.077152140842315739 -0.021306646670069519 0 0.084437080594366276 0.00022370401243423409 0 0.060051642762946361 -0.0044525089007890492 0 0.051738188413168899 -0.016921359104358231 0 0.060051642762946361 -0.0044525089007890492 0 0.077152140842315739 -0.021306646670069519 0 0.077152140842315739 -0.021306646670069519 0 0.081641697296998619 -0.040873138551797673 0 0.1020297719672123 -0.036029759873211872 0 0.054605426376601193 -0.033649297126348413 0 0.073479969716924942 -0.055603102023847648 0 0.054605426376601193 -0.033649297126348413 0 0.081641697296998619 -0.040873138551797673 0 0.073479969716924942 -0.055603102023847648 0 0.054605426376601193 -0.033649297126348413 0 0.077152140842315739 -0.021306646670069519 0 0.081641697296998619 -0.040873138551797673 0 0.081641697296998619 -0.040873138551797673 0 0.073479969716924942 -0.055603102023847648 0 0.10094117758193891 -0.057776887065510839 0 0.10094117758193891 -0.057776887065510839 0 0.11988213130785411 -0.046752510799267302 0 0.12499095335543089 -0.066839839868332723 0 0.11988213130785411 -0.046752510799267302 0 0.12003819415947931 -0.028092548612440749 0 0.13464634783310259 -0.036502810727865848 0 0.11988213130785411 -0.046752510799267302 0 0.1020297719672123 -0.036029759873211872 0 0.12003819415947931 -0.028092548612440749 0 0.081641697296998619 -0.040873138551797673 0 0.10094117758193891 -0.057776887065510839 0 0.1020297719672123 -0.036029759873211872 0 0.10094117758193891 -0.057776887065510839 0 0.11988213130785411 -0.046752510799267302 0 0.1020297719672123 -0.036029759873211872 0 0.077152140842315739 -0.021306646670069519 0 0.1020297719672123 -0.036029759873211872 0 0.1037890227047604 -0.015775835526728552 0 0.1020297719672123 -0.036029759873211872 0 0.1037890227047604 -0.015775835526728552 0 0.12003819415947931 -0.028092548612440749 0 0.1037890227047604 -0.015775835526728552 0 0.12003819415947931 -0.028092548612440749 0 0.12486439925096959 -0.01283452254075974 0 0.1088225184257862 0.0048999169256575097 0 0.12486439925096959 -0.01283452254075974 0 0.1251470615708736 -0.00050432347332847721 0 0.1088225184257862 0.0048999169256575097 0 0.1037890227047604 -0.015775835526728552 0 0.12486439925096959 -0.01283452254075974 0 0.084437080594366276 0.00022370401243423409 0 0.1088225184257862 0.0048999169256575097 0 0.1037890227047604 -0.015775835526728552 0 0.066063492354589207 -0.098937608851542541 0 0.080675815376477264 -0.08756374068119957 0 0.094133688607976995 -0.096395169412034382 0 0.088621741028487425 -0.1170862111718346 0 0.072899203199840695 -0.1143805798597439 0 0.094133688607976995 -0.096395169412034382 0 0.066063492354589207 -0.098937608851542541 0 0.094133688607976995 -0.096395169412034382 0 0.075175055075759833 -0.13079505837176039 0 0.088621741028487425 -0.1170862111718346 0 0.072899203199840695 -0.1143805798597439 0 0.075175055075759833 -0.13079505837176039 0 0.060151367922528343 -0.1282452653790557 0 0.072899203199840695 -0.1143805798597439 0 0.053249874209702418 -0.1148241659722358 0 0.072899203199840695 -0.1143805798597439 0 0.066063492354589207 -0.098937608851542541 0 0.072899203199840695 -0.1143805798597439 0 0.066063492354589207 -0.098937608851542541 0 0.094133688607976995 -0.096395169412034382 0 0.066063492354589207 -0.098937608851542541 0 0.070151567486094177 -0.077365277539874461 0 0.080675815376477264 -0.08756374068119957 0 0.053348100153022202 -0.05769023986447297 0 0.073479969716924942 -0.055603102023847648 0 0.070151567486094177 -0.077365277539874461 0 0.073479969716924942 -0.055603102023847648 0 0.10094117758193891 -0.057776887065510839 0 0.092354513057248691 -0.077556906921346896 0 0.073479969716924942 -0.055603102023847648 0 0.070151567486094177 -0.077365277539874461 0 0.092354513057248691 -0.077556906921346896 0 0.073479969716924942 -0.055603102023847648 0 0.092354513057248691 -0.077556906921346896 0 0.070151567486094177 -0.077365277539874461 0 0.092354513057248691 -0.077556906921346896 0 0.080675815376477264 -0.08756374068119957 0 0.092354513057248691 -0.077556906921346896 0 0.080675815376477264 -0.08756374068119957 0 0.094133688607976995 -0.096395169412034382 0 0.092354513057248691 -0.077556906921346896 0 0.1112290563975725 -0.099510711818846256 0 0.094133688607976995 -0.096395169412034382 0 0.092354513057248691 -0.077556906921346896 0 0.1118238332714178 -0.079617980384474457 0 0.1112290563975725 -0.099510711818846256 0 0.092354513057248691 -0.077556906921346896 0 0.1112290563975725 -0.099510711818846256 0 0.10094117758193891 -0.057776887065510839 0 0.092354513057248691 -0.077556906921346896 0 0.1118238332714178 -0.079617980384474457 0 0.10094117758193891 -0.057776887065510839 0 0.12499095335543089 -0.066839839868332723 0 0.1118238332714178 -0.079617980384474457 0 0.1118238332714178 -0.079617980384474457 0 0.1112290563975725 -0.099510711818846256 0 0.13381379307686889 -0.090249255438407727 0 0.12499095335543089 -0.066839839868332723 0 0.1118238332714178 -0.079617980384474457 0 0.13381379307686889 -0.090249255438407727 0 0.1112290563975725 -0.099510711818846256 0 0.1301035997378964 -0.1214645167163456 0 0.1288500436343773 -0.10548739684873019 0 0.1112290563975725 -0.099510711818846256 0 0.1288500436343773 -0.10548739684873019 0 0.13381379307686889 -0.090249255438407727 0 0.1112290563975725 -0.099510711818846256 0 0.094133688607976995 -0.096395169412034382 0 0.10059929722309791 -0.10958224184156939 0 0.088621741028487425 -0.1170862111718346 0 0.094133688607976995 -0.096395169412034382 0 0.10059929722309791 -0.10958224184156939 0 0.1084127028583548 -0.12533687496356241 0 0.1112290563975725 -0.099510711818846256 0 0.10059929722309791 -0.10958224184156939 0 0.1084127028583548 -0.12533687496356241 0 0.088621741028487425 -0.1170862111718346 0 0.1084127028583548 -0.12533687496356241 0 0.088621741028487425 -0.1170862111718346 0 0.10059929722309791 -0.10958224184156939 0 0.1112290563975725 -0.099510711818846256 0 0.1301035997378964 -0.1214645167163456 0 0.1084127028583548 -0.12533687496356241 0 0.1112290563975725 -0.099510711818846256 0 0.1301035997378964 -0.1214645167163456 0 0.1301035997378964 -0.1214645167163456 0 0.14263663279830691 -0.1136586710084828 0 0.1407277358159143 -0.1293399356073851 0 0.1301035997378964 -0.1214645167163456 0 0.14263663279830691 -0.1136586710084828 0 0.1288500436343773 -0.10548739684873019 0 0.14263663279830691 -0.1136586710084828 0 0.15309341538007859 -0.1216113587722765 0 0.1514594725197467 -0.13706808657855721 0 0.14263663279830691 -0.1136586710084828 0 0.15309341538007859 -0.1216113587722765 0 0.1578257956947117 -0.11103043594490621 0 0.14263663279830691 -0.1136586710084828 0 0.1551771513008024 -0.095846369372108192 0 0.1578257956947117 -0.11103043594490621 0 0.14263663279830691 -0.1136586710084828 0 0.1551771513008024 -0.095846369372108192 0 0.13381379307686889 -0.090249255438407727 0 0.14263663279830691 -0.1136586710084828 0 0.13381379307686889 -0.090249255438407727 0 0.14263663279830691 -0.1136586710084828 0 0.1288500436343773 -0.10548739684873019 0 0.13381379307686889 -0.090249255438407727 0 0.12499095335543089 -0.066839839868332723 0 0.13381379307686889 -0.090249255438407727 0 0.12499095335543089 -0.066839839868332723 0 0.13381379307686889 -0.090249255438407727 0 0.14812817778713591 -0.070604667468968083 0 0.12499095335543089 -0.066839839868332723 0 0.14812817778713591 -0.070604667468968083 0 0.1375352778143748 -0.05181557762484823 0 0.1551771513008024 -0.095846369372108192 0 0.14812817778713591 -0.070604667468968083 0 0.16484668869905339 -0.074464717785360166 0 0.1551771513008024 -0.095846369372108192 0 0.13381379307686889 -0.090249255438407727 0 0.14812817778713591 -0.070604667468968083 0 0.1551771513008024 -0.095846369372108192 0 0.16484668869905339 -0.074464717785360166 0 0.1746556769601752 -0.086092922184893741 0 0.14812817778713591 -0.070604667468968083 0 0.16484668869905339 -0.074464717785360166 0 0.168596718018234 -0.059721289813228287 0 0.16484668869905339 -0.074464717785360166 0 0.18362916583890251 -0.076444553597864354 0 0.168596718018234 -0.059721289813228287 0 0.18362916583890251 -0.076444553597864354 0 0.168596718018234 -0.059721289813228287 0 0.18908505994837119 -0.061752980542288803 0 0.18362916583890251 -0.076444553597864354 0 0.1746556769601752 -0.086092922184893741 0 0.18405901026331109 -0.09306632939108625 0 0.16484668869905339 -0.074464717785360166 0 0.18362916583890251 -0.076444553597864354 0 0.1746556769601752 -0.086092922184893741 0 0.1746556769601752 -0.086092922184893741 0 0.18405901026331109 -0.09306632939108625 0 0.17026871614332489 -0.1007276868906412 0 0.18405901026331109 -0.09306632939108625 0 0.18045061414559679 -0.10602166791509381 0 0.19311208281143491 -0.10542613841370049 0 0.18405901026331109 -0.09306632939108625 0 0.18045061414559679 -0.10602166791509381 0 0.17026871614332489 -0.1007276868906412 0 0.18045061414559679 -0.10602166791509381 0 0.1694440484953523 -0.11230839653575871 0 0.17026871614332489 -0.1007276868906412 0 0.18045061414559679 -0.10602166791509381 0 0.1839501003838396 -0.11820448533272671 0 0.19311208281143491 -0.10542613841370049 0 0.1839501003838396 -0.11820448533272671 0 0.19311208281143491 -0.10542613841370049 0 0.18488142327789919 -0.12624687198487691 0 0.1839501003838396 -0.11820448533272671 0 0.18488142327789919 -0.12624687198487691 0 0.1839501003838396 -0.11820448533272671 0 0.17412126317076421 -0.12227380262522029 0 0.18488142327789919 -0.12624687198487691 0 0.1839501003838396 -0.11820448533272671 0 0.17412126317076421 -0.12227380262522029 0 0.1694440484953523 -0.11230839653575871 0 0.18045061414559679 -0.10602166791509381 0 0.1839501003838396 -0.11820448533272671 0 0.1694440484953523 -0.11230839653575871 0 0.17412126317076421 -0.12227380262522029 0 0.1694440484953523 -0.11230839653575871 0 0.16045176050755089 -0.124688241557159 0 0.1694440484953523 -0.11230839653575871 0 0.16045176050755089 -0.124688241557159 0 0.15309341538007859 -0.1216113587722765 0 0.16045176050755089 -0.124688241557159 0 0.1578257956947117 -0.11103043594490621 0 0.1694440484953523 -0.11230839653575871 0 0.16045176050755089 -0.124688241557159 0 0.1578257956947117 -0.11103043594490621 0 0.1551771513008024 -0.095846369372108192 0 0.1746556769601752 -0.086092922184893741 0 0.17026871614332489 -0.1007276868906412 0 0.1551771513008024 -0.095846369372108192 0 0.1578257956947117 -0.11103043594490621 0 0.17026871614332489 -0.1007276868906412 0 0.1694440484953523 -0.11230839653575871 0 0.1578257956947117 -0.11103043594490621 0 0.17026871614332489 -0.1007276868906412 0 0.1397517678826096 0.010830987620639641 0 0.15552397108787841 -0.010267160165718081 0 0.14877752971119221 -0.0127142096578973 0 0.13320795625720591 0.0095761298388824297 0 0.14877752971119221 -0.0127142096578973 0 0.14877752971119221 -0.0127142096578973 0 0.1363824548019949 -0.012975518455053099 0 0.13686213803713171 -0.020957933759979439 0 0.13320795625720591 0.0095761298388824297 0 0.14877752971119221 -0.0127142096578973 0 0.1350257522086861 -0.0053954078615759448 0 0.12486439925096959 -0.01283452254075974 0 0.1350257522086861 -0.0053954078615759448 0 0.1251470615708736 -0.00050432347332847721 0 0.12486439925096959 -0.01283452254075974 0 0.1363824548019949 -0.012975518455053099 0 0.13686213803713171 -0.020957933759979439 0 0.12486439925096959 -0.01283452254075974 0 0.1350257522086861 -0.0053954078615759448 0 0.1363824548019949 -0.012975518455053099 0 0.14877752971119221 -0.0127142096578973 0 0.1350257522086861 -0.0053954078615759448 0 0.1363824548019949 -0.012975518455053099 0 0.12003819415947931 -0.028092548612440749 0 0.12486439925096959 -0.01283452254075974 0 0.13686213803713171 -0.020957933759979439 0 0.12003819415947931 -0.028092548612440749 0 0.13686213803713171 -0.020957933759979439 0 0.13464634783310259 -0.036502810727865848 0 0.13686213803713171 -0.020957933759979439 0 0.14864565010719699 -0.029389089618587619 0 0.13464634783310259 -0.036502810727865848 0 0.15552397108787841 -0.010267160165718081 0 0.14877752971119221 -0.0127142096578973 0 0.16434710316517531 -0.035004549154679369 0 0.14877752971119221 -0.0127142096578973 0 0.14864565010719699 -0.029389089618587619 0 0.16434710316517531 -0.035004549154679369 0 0.14877752971119221 -0.0127142096578973 0 0.13686213803713171 -0.020957933759979439 0 0.14864565010719699 -0.029389089618587619 0 0.14864565010719699 -0.029389089618587619 0 0.15482182200725639 -0.040069741346466792 0 0.16434710316517531 -0.035004549154679369 0 0.14864565010719699 -0.029389089618587619 0 0.15482182200725639 -0.040069741346466792 0 0.14542165912253999 -0.040903787389997379 0 0.15482182200725639 -0.040069741346466792 0 0.14542165912253999 -0.040903787389997379 0 0.1528255971096015 -0.051837981357097752 0 0.14864565010719699 -0.029389089618587619 0 0.14542165912253999 -0.040903787389997379 0 0.13464634783310259 -0.036502810727865848 0 0.11988213130785411 -0.046752510799267302 0 0.13464634783310259 -0.036502810727865848 0 0.1375352778143748 -0.05181557762484823 0 0.14542165912253999 -0.040903787389997379 0 0.13464634783310259 -0.036502810727865848 0 0.1375352778143748 -0.05181557762484823 0 0.11988213130785411 -0.046752510799267302 0 0.12499095335543089 -0.066839839868332723 0 0.1375352778143748 -0.05181557762484823 0 0.14812817778713591 -0.070604667468968083 0 0.1375352778143748 -0.05181557762484823 0 0.1528255971096015 -0.051837981357097752 0 0.14542165912253999 -0.040903787389997379 0 0.1375352778143748 -0.05181557762484823 0 0.1528255971096015 -0.051837981357097752 0 0.1528255971096015 -0.051837981357097752 0 0.168596718018234 -0.059721289813228287 0 0.16355230016118469 -0.045761431074411517 0 0.14812817778713591 -0.070604667468968083 0 0.1528255971096015 -0.051837981357097752 0 0.168596718018234 -0.059721289813228287 0 0.168596718018234 -0.059721289813228287 0 0.17452185020279501 -0.045978871991199807 0 0.16355230016118469 -0.045761431074411517 0 0.168596718018234 -0.059721289813228287 0 0.1873361225874732 -0.048757973752836498 0 0.17452185020279501 -0.045978871991199807 0 0.168596718018234 -0.059721289813228287 0 0.1873361225874732 -0.048757973752836498 0 0.18908505994837119 -0.061752980542288803 0 0.168596718018234 -0.059721289813228287 0 0.18908505994837119 -0.061752980542288803 0 0.18212618816592591 -0.038628178802628331 0 0.17129617429315161 -0.031365307952072582 0 0.19249483294514419 -0.029045206942180778 0 0.17452185020279501 -0.045978871991199807 0 0.18212618816592591 -0.038628178802628331 0 0.17116872319764651 -0.03934766779499832 0 0.1873361225874732 -0.048757973752836498 0 0.17452185020279501 -0.045978871991199807 0 0.18212618816592591 -0.038628178802628331 0 0.18212618816592591 -0.038628178802628331 0 0.17129617429315161 -0.031365307952072582 0 0.17116872319764651 -0.03934766779499832 0 0.17129617429315161 -0.031365307952072582 0 0.16434710316517531 -0.035004549154679369 0 0.17116872319764651 -0.03934766779499832 0 0.16434710316517531 -0.035004549154679369 0 0.17116872319764651 -0.03934766779499832 0 0.16355230016118469 -0.045761431074411517 0 0.17452185020279501 -0.045978871991199807 0 0.17116872319764651 -0.03934766779499832 0 0.16355230016118469 -0.045761431074411517 0 0.15482182200725639 -0.040069741346466792 0 0.16434710316517531 -0.035004549154679369 0 0.16355230016118469 -0.045761431074411517 0 0.15482182200725639 -0.040069741346466792 0 0.1528255971096015 -0.051837981357097752 0 0.16355230016118469 -0.045761431074411517 0 0.15552397108787841 -0.010267160165718081 0 0.17129617429315161 -0.031365307952072582 0 0.15552397108787841 -0.010267160165718081 0 0.17129617429315161 -0.031365307952072582 0 0.16833748644182361 -0.01596802623162092 0 0.15552397108787841 -0.010267160165718081 0 0.17129617429315161 -0.031365307952072582 0 0.16434710316517531 -0.035004549154679369 0 0.14877752971119221 -0.0127142096578973 0 0.16434710316517531 -0.035004549154679369 0 0.17129617429315161 -0.031365307952072582 0 0.16833748644182361 -0.01596802623162092 0 0.19249483294514419 -0.029045206942180778 0 0.16833748644182361 -0.01596802623162092 0 0.19249483294514419 -0.029045206942180778 0 0.16833748644182361 -0.01596802623162092 0 0.18332357284743481 -0.010167604778728591 0 0.19249483294514419 -0.029045206942180778 0 0.16833748644182361 -0.01596802623162092 0 0.18332357284743481 -0.010167604778728591 0 0.16864449832550751 -0.0016996597302522179 0 0.1882807964057244 0.0074352784142036506 0 0.18332357284743481 -0.010167604778728591 0 0.16864449832550751 -0.0016996597302522179 0 0.15552397108787841 -0.010267160165718081 0 0.16833748644182361 -0.01596802623162092 0 0.16864449832550751 -0.0016996597302522179 0 0.15703832168715839 0.0035974368737494611 0 0.15552397108787841 -0.010267160165718081 0 0.16864449832550751 -0.0016996597302522179 0 0.21232854335881091 -0.00065502294191741852 0 0.2150235866455453 -0.0048891783810504699 0 0.20986458600383279 -0.010806169372371241 0 0.21232854335881091 -0.00065502294191741852 0 0.2150235866455453 -0.0048891783810504699 0 0.2150235866455453 -0.0048891783810504699 0 0.20986458600383279 -0.010806169372371241 0 0.2157847965569526 -0.016561380961865619 0 0.20986458600383279 -0.010806169372371241 0 0.19886025011897451 -0.011560409403792689 0 0.20565013036354879 -0.019625923632939531 0 0.21232854335881091 -0.00065502294191741852 0 0.20986458600383279 -0.010806169372371241 0 0.19886025011897451 -0.011560409403792689 0 0.1882807964057244 0.0074352784142036506 0 0.18332357284743481 -0.010167604778728591 0 0.19886025011897451 -0.011560409403792689 0 0.1882807964057244 0.0074352784142036506 0 0.21232854335881091 -0.00065502294191741852 0 0.19886025011897451 -0.011560409403792689 0 0.19886025011897451 -0.011560409403792689 0 0.19249483294514419 -0.029045206942180778 0 0.20565013036354879 -0.019625923632939531 0 0.18332357284743481 -0.010167604778728591 0 0.19886025011897451 -0.011560409403792689 0 0.19249483294514419 -0.029045206942180778 0 0.19249483294514419 -0.029045206942180778 0 0.20789494024217511 -0.0286785884039094 0 0.20565013036354879 -0.019625923632939531 0 0.20789494024217511 -0.0286785884039094 0 0.2157847965569526 -0.016561380961865619 0 0.21665217944846571 -0.042122387652738798 0 0.2157847965569526 -0.016561380961865619 0 0.21665217944846571 -0.042122387652738798 0 0.2157847965569526 -0.016561380961865619 0 0.21665217944846571 -0.042122387652738798 0 0.2233264960140893 -0.031518794107058608 0 0.20789494024217511 -0.0286785884039094 0 0.20565013036354879 -0.019625923632939531 0 0.2157847965569526 -0.016561380961865619 0 0.20986458600383279 -0.010806169372371241 0 0.20565013036354879 -0.019625923632939531 0 0.2157847965569526 -0.016561380961865619 0 0.19249483294514419 -0.029045206942180778 0 0.21665217944846571 -0.042122387652738798 0 0.20434071259089939 -0.043308728310539883 0 0.19249483294514419 -0.029045206942180778 0 0.20789494024217511 -0.0286785884039094 0 0.21665217944846571 -0.042122387652738798 0 0.19249483294514419 -0.029045206942180778 0 0.21665217944846571 -0.042122387652738798 0 0.21665217944846571 -0.042122387652738798 0 0.20434071259089939 -0.043308728310539883 0 0.2150059700704513 -0.050042144992517933 0 0.19249483294514419 -0.029045206942180778 0 0.20434071259089939 -0.043308728310539883 0 0.1950743530843112 -0.042533901043980707 0 0.18212618816592591 -0.038628178802628331 0 0.19249483294514419 -0.029045206942180778 0 0.1950743530843112 -0.042533901043980707 0 0.1873361225874732 -0.048757973752836498 0 0.18212618816592591 -0.038628178802628331 0 0.1950743530843112 -0.042533901043980707 0 0.20434071259089939 -0.043308728310539883 0 0.1950743530843112 -0.042533901043980707 0 0.20247622740612431 -0.052800000921281162 0 0.20247622740612431 -0.052800000921281162 0 0.18908505994837119 -0.061752980542288803 0 0.20957340187850859 -0.063784671271348792 0 0.1873361225874732 -0.048757973752836498 0 0.1950743530843112 -0.042533901043980707 0 0.20247622740612431 -0.052800000921281162 0 0.1873361225874732 -0.048757973752836498 0 0.20247622740612431 -0.052800000921281162 0 0.18908505994837119 -0.061752980542288803 0 0.21665217944846571 -0.042122387652738798 0 0.22146978234022299 -0.056991370745811579 0 0.21741364606609589 -0.064562135425540776 0 0.21665217944846571 -0.042122387652738798 0 0.2150059700704513 -0.050042144992517933 0 0.21741364606609589 -0.064562135425540776 0 0.21665217944846571 -0.042122387652738798 0 0.21741364606609589 -0.064562135425540776 0 0.20247622740612431 -0.052800000921281162 0 0.2150059700704513 -0.050042144992517933 0 0.20957340187850859 -0.063784671271348792 0 0.20434071259089939 -0.043308728310539883 0 0.20247622740612431 -0.052800000921281162 0 0.2150059700704513 -0.050042144992517933 0 0.2150059700704513 -0.050042144992517933 0 0.20957340187850859 -0.063784671271348792 0 0.2150059700704513 -0.050042144992517933 0 0.20957340187850859 -0.063784671271348792 0 0.21741364606609589 -0.064562135425540776 0 0.21665217944846571 -0.042122387652738798 0 0.23616783631037419 -0.052686866306610403 0 0.21665217944846571 -0.042122387652738798 0 0.22499240316574021 -0.053953686441119607 0 0.23616783631037419 -0.052686866306610403 0 0.22146978234022299 -0.056991370745811579 0 0.22499240316574021 -0.053953686441119607 0 0.229733660613957 -0.059515677672598223 0 0.22146978234022299 -0.056991370745811579 0 0.229733660613957 -0.059515677672598223 0 0.21741364606609589 -0.064562135425540776 0 0.21665217944846571 -0.042122387652738798 0 0.22146978234022299 -0.056991370745811579 0 0.22499240316574021 -0.053953686441119607 0 0.229733660613957 -0.059515677672598223 0 0.2369261717793954 -0.059846633008410192 0 0.23616783631037419 -0.052686866306610403 0 0.22499240316574021 -0.053953686441119607 0 0.229733660613957 -0.059515677672598223 0 0.23616783631037419 -0.052686866306610403 0 0.25285255830909897 -0.041201041574646727 0 0.24290784975610091 -0.05770071003422466 0 0.24752958393788471 -0.066322914211265252 0 0.229733660613957 -0.059515677672598223 0 0.2369261717793954 -0.059846633008410192 0 0.2421906552545611 -0.067019104370792421 0 0.25285255830909897 -0.041201041574646727 0 0.24290784975610091 -0.05770071003422466 0 0.23616783631037419 -0.052686866306610403 0 0.2369261717793954 -0.059846633008410192 0 0.24290784975610091 -0.05770071003422466 0 0.2421906552545611 -0.067019104370792421 0 0.2369261717793954 -0.059846633008410192 0 0.24290784975610091 -0.05770071003422466 0 0.23616783631037419 -0.052686866306610403 0 0.23616783631037419 -0.052686866306610403 0 0.24040325828117259 -0.037452541757126603 0 0.2299952922027563 -0.038778602783819949 0 0.25285255830909897 -0.041201041574646727 0 0.23616783631037419 -0.052686866306610403 0 0.24040325828117259 -0.037452541757126603 0 0.25285255830909897 -0.041201041574646727 0 0.24040325828117259 -0.037452541757126603 0 0.2462810632475016 -0.0267022375416851 0 0.24040325828117259 -0.037452541757126603 0 0.2299952922027563 -0.038778602783819949 0 0.23333459047066449 -0.028418249355616279 0 0.21665217944846571 -0.042122387652738798 0 0.23616783631037419 -0.052686866306610403 0 0.2299952922027563 -0.038778602783819949 0 0.2299952922027563 -0.038778602783819949 0 0.2233264960140893 -0.031518794107058608 0 0.23333459047066449 -0.028418249355616279 0 0.21665217944846571 -0.042122387652738798 0 0.2299952922027563 -0.038778602783819949 0 0.2233264960140893 -0.031518794107058608 0 0.22494405490816799 -0.022386234292976429 0 0.23333459047066449 -0.028418249355616279 0 0.23525203801956171 -0.0083670959399735415 0 0.2157847965569526 -0.016561380961865619 0 0.22494405490816799 -0.022386234292976429 0 0.23525203801956171 -0.0083670959399735415 0 0.2157847965569526 -0.016561380961865619 0 0.2233264960140893 -0.031518794107058608 0 0.22494405490816799 -0.022386234292976429 0 0.2233264960140893 -0.031518794107058608 0 0.22494405490816799 -0.022386234292976429 0 0.23333459047066449 -0.028418249355616279 0 0.25817553268031312 -0.01607916893802816 0 0.2462810632475016 -0.0267022375416851 0 0.23525203801956171 -0.0083670959399735415 0 0.23333459047066449 -0.028418249355616279 0 0.2462810632475016 -0.0267022375416851 0 0.23525203801956171 -0.0083670959399735415 0 0.24040325828117259 -0.037452541757126603 0 0.23333459047066449 -0.028418249355616279 0 0.2462810632475016 -0.0267022375416851 0 0.25817553268031312 -0.01607916893802816 0 0.23525203801956171 -0.0083670959399735415 0 0.2150235866455453 -0.0048891783810504699 0 0.2157847965569526 -0.016561380961865619 0 0.23525203801956171 -0.0083670959399735415 0 0.21232854335881091 -0.00065502294191741852 0 0.23525203801956171 -0.0083670959399735415 0 0.21232854335881091 -0.00065502294191741852 0 0.2150235866455453 -0.0048891783810504699 0 0.23525203801956171 -0.0083670959399735415 0 0.2068908377677913 -0.1036088531852091 0 0.2184782463390566 -0.095934963926718658 0 0.2158162647056627 -0.1142621797889386 0 0.2068908377677913 -0.1036088531852091 0 0.2184782463390566 -0.095934963926718658 0 0.20134274234497079 -0.084605404842524323 0 0.2068908377677913 -0.1036088531852091 0 0.2158162647056627 -0.1142621797889386 0 0.2021050337538646 -0.1194886669798487 0 0.2158162647056627 -0.1142621797889386 0 0.2021050337538646 -0.1194886669798487 0 0.21254522213992541 -0.13197551267416369 0 0.19311208281143491 -0.10542613841370049 0 0.18488142327789919 -0.12624687198487691 0 0.2021050337538646 -0.1194886669798487 0 0.19311208281143491 -0.10542613841370049 0 0.18488142327789919 -0.12624687198487691 0 0.2068908377677913 -0.1036088531852091 0 0.2021050337538646 -0.1194886669798487 0 0.19311208281143491 -0.10542613841370049 0 0.18405901026331109 -0.09306632939108625 0 0.19311208281143491 -0.10542613841370049 0 0.20134274234497079 -0.084605404842524323 0 0.2068908377677913 -0.1036088531852091 0 0.19311208281143491 -0.10542613841370049 0 0.20134274234497079 -0.084605404842524323 0 0.19311208281143491 -0.10542613841370049 0 0.20134274234497079 -0.084605404842524323 0 0.18362916583890251 -0.076444553597864354 0 0.18405901026331109 -0.09306632939108625 0 0.20134274234497079 -0.084605404842524323 0 0.20134274234497079 -0.084605404842524323 0 0.19647404103838609 -0.071955208142372343 0 0.20957340187850859 -0.063784671271348792 0 0.18908505994837119 -0.061752980542288803 0 0.20957340187850859 -0.063784671271348792 0 0.18908505994837119 -0.061752980542288803 0 0.19647404103838609 -0.071955208142372343 0 0.20957340187850859 -0.063784671271348792 0 0.18362916583890251 -0.076444553597864354 0 0.20134274234497079 -0.084605404842524323 0 0.19647404103838609 -0.071955208142372343 0 0.18362916583890251 -0.076444553597864354 0 0.18908505994837119 -0.061752980542288803 0 0.19647404103838609 -0.071955208142372343 0 0.20134274234497079 -0.084605404842524323 0 0.20957340187850859 -0.063784671271348792 0 0.20134274234497079 -0.084605404842524323 0 0.20957340187850859 -0.063784671271348792 0 0.21266032760673509 -0.07257567234957768 0 0.21266032760673509 -0.07257567234957768 0 0.21741364606609589 -0.064562135425540776 0 0.21794594620257479 -0.080248549676129793 0 0.21741364606609589 -0.064562135425540776 0 0.21794594620257479 -0.080248549676129793 0 0.20957340187850859 -0.063784671271348792 0 0.21741364606609589 -0.064562135425540776 0 0.20957340187850859 -0.063784671271348792 0 0.21266032760673509 -0.07257567234957768 0 0.21741364606609589 -0.064562135425540776 0 0.2184782463390566 -0.095934963926718658 0 0.21794594620257479 -0.080248549676129793 0 0.2184782463390566 -0.095934963926718658 0 0.20134274234497079 -0.084605404842524323 0 0.21794594620257479 -0.080248549676129793 0 0.20134274234497079 -0.084605404842524323 0 0.21266032760673509 -0.07257567234957768 0 0.21794594620257479 -0.080248549676129793 0 0.2184782463390566 -0.095934963926718658 0 0.21794594620257479 -0.080248549676129793 0 0.23680260875837561 -0.084709294036524274 0 0.21794594620257479 -0.080248549676129793 0 0.23005316493024111 -0.073312919172136767 0 0.23680260875837561 -0.084709294036524274 0 0.229733660613957 -0.059515677672598223 0 0.21741364606609589 -0.064562135425540776 0 0.2421906552545611 -0.067019104370792421 0 0.21741364606609589 -0.064562135425540776 0 0.23005316493024111 -0.073312919172136767 0 0.2421906552545611 -0.067019104370792421 0 0.21741364606609589 -0.064562135425540776 0 0.2421906552545611 -0.067019104370792421 0 0.21741364606609589 -0.064562135425540776 0 0.21794594620257479 -0.080248549676129793 0 0.23005316493024111 -0.073312919172136767 0 0.23005316493024111 -0.073312919172136767 0 0.2381519615519741 -0.074760837536637856 0 0.2421906552545611 -0.067019104370792421 0 0.23005316493024111 -0.073312919172136767 0 0.2381519615519741 -0.074760837536637856 0 0.23680260875837561 -0.084709294036524274 0 0.2381519615519741 -0.074760837536637856 0 0.2451177390725571 -0.07563172919237493 0 0.2421906552545611 -0.067019104370792421 0 0.25149583211142079 -0.073284726092292446 0 0.2451177390725571 -0.07563172919237493 0 0.2421906552545611 -0.067019104370792421 0 0.252679373456828 -0.080748026421374769 0 0.25149583211142079 -0.073284726092292446 0 0.2451177390725571 -0.07563172919237493 0 0.24290784975610091 -0.05770071003422466 0 0.24752958393788471 -0.066322914211265252 0 0.2421906552545611 -0.067019104370792421 0 0.2555976831826946 -0.097776824926890368 0 0.252679373456828 -0.080748026421374769 0 0.23680260875837561 -0.084709294036524274 0 0.252679373456828 -0.080748026421374769 0 0.2451177390725571 -0.07563172919237493 0 0.23680260875837561 -0.084709294036524274 0 0.2381519615519741 -0.074760837536637856 0 0.2451177390725571 -0.07563172919237493 0 0.23680260875837561 -0.084709294036524274 0 0.2555976831826946 -0.097776824926890368 0 0.23680260875837561 -0.084709294036524274 0 0.23345556581474861 -0.107916322923488 0 0.2184782463390566 -0.095934963926718658 0 0.23680260875837561 -0.084709294036524274 0 0.23345556581474861 -0.107916322923488 0 0.2184782463390566 -0.095934963926718658 0 0.2158162647056627 -0.1142621797889386 0 0.23345556581474861 -0.107916322923488 0 0.2158162647056627 -0.1142621797889386 0 0.23345556581474861 -0.107916322923488 0 0.22801738394902449 -0.12931076613438211 0 0.23345556581474861 -0.107916322923488 0 0.24519980570365221 -0.12581360546915299 0 0.22801738394902449 -0.12931076613438211 0 0.2555976831826946 -0.097776824926890368 0 0.23345556581474861 -0.107916322923488 0 0.24519980570365221 -0.12581360546915299 0 0.24519980570365221 -0.12581360546915299 0 0.23480192822461099 -0.1538503860114161 0 0.24519980570365221 -0.12581360546915299 0 0.23480192822461099 -0.1538503860114161 0 0.22801738394902449 -0.12931076613438211 0 0.25466928141146888 -0.14527200608688259 0 0.24519980570365221 -0.12581360546915299 0 0.23480192822461099 -0.1538503860114161 0 0.25466928141146888 -0.14527200608688259 0 0.24719800764502139 -0.15526407084396271 0 0.23480192822461099 -0.1538503860114161 0 0.23480192822461099 -0.1538503860114161 0 0.22212692425896791 -0.1442586509438912 0 0.22801738394902449 -0.12931076613438211 0 0.23480192822461099 -0.1538503860114161 0 0.22212692425896791 -0.1442586509438912 0 0.22140433964611009 -0.15942157446682631 0 0.2158162647056627 -0.1142621797889386 0 0.22801738394902449 -0.12931076613438211 0 0.21254522213992541 -0.13197551267416369 0 0.22212692425896791 -0.1442586509438912 0 0.22801738394902449 -0.12931076613438211 0 0.21254522213992541 -0.13197551267416369 0 0.2021050337538646 -0.1194886669798487 0 0.21254522213992541 -0.13197551267416369 0 0.199384371820474 -0.1354124458322033 0 0.21254522213992541 -0.13197551267416369 0 0.20946913836945 -0.14221109048455319 0 0.199384371820474 -0.1354124458322033 0 0.22212692425896791 -0.1442586509438912 0 0.21254522213992541 -0.13197551267416369 0 0.20946913836945 -0.14221109048455319 0 0.22212692425896791 -0.1442586509438912 0 0.21242454082845941 -0.15139496578475639 0 0.20946913836945 -0.14221109048455319 0 0.22212692425896791 -0.1442586509438912 0 0.21242454082845941 -0.15139496578475639 0 0.22140433964611009 -0.15942157446682631 0 0.21242454082845941 -0.15139496578475639 0 0.20086463279942349 -0.14801387718775161 0 0.2053015306231786 -0.16147511706753581 0 0.20946913836945 -0.14221109048455319 0 0.20086463279942349 -0.14801387718775161 0 0.199384371820474 -0.1354124458322033 0 0.21242454082845941 -0.15139496578475639 0 0.20946913836945 -0.14221109048455319 0 0.20086463279942349 -0.14801387718775161 0 0.18919872160024701 -0.16352865966824401 0 0.1870400724390732 -0.14488776582656041 0 0.20086463279942349 -0.14801387718775161 0 0.199384371820474 -0.1354124458322033 0 0.1870400724390732 -0.14488776582656041 0 0.20086463279942349 -0.14801387718775161 0 0.18919872160024701 -0.16352865966824401 0 0.1870400724390732 -0.14488776582656041 0 0.2021050337538646 -0.1194886669798487 0 0.199384371820474 -0.1354124458322033 0 0.18488142327789919 -0.12624687198487691 0 0.199384371820474 -0.1354124458322033 0 0.18488142327789919 -0.12624687198487691 0 0.1870400724390732 -0.14488776582656041 0 0.19127061824665029 -0.18142040703099899 0 0.18919872160024701 -0.16352865966824401 0 0.19127061824665029 -0.18142040703099899 0 0.20153326013240361 -0.1732023233829928 0 0.20768137691429989 -0.1863235371576068 0 0.19127061824665029 -0.18142040703099899 0 0.20153326013240361 -0.1732023233829928 0 0.18919872160024701 -0.16352865966824401 0 0.20086463279942349 -0.14801387718775161 0 0.18919872160024701 -0.16352865966824401 0 0.2053015306231786 -0.16147511706753581 0 0.20153326013240361 -0.1732023233829928 0 0.18919872160024701 -0.16352865966824401 0 0.2053015306231786 -0.16147511706753581 0 0.18919872160024701 -0.16352865966824401 0 0.2053015306231786 -0.16147511706753581 0 0.20153326013240361 -0.1732023233829928 0 0.2053015306231786 -0.16147511706753581 0 0.21311328761178161 -0.17150580666157239 0 0.2053015306231786 -0.16147511706753581 0 0.22140433964611009 -0.15942157446682631 0 0.2053015306231786 -0.16147511706753581 0 0.21311328761178161 -0.17150580666157239 0 0.22140433964611009 -0.15942157446682631 0 0.21242454082845941 -0.15139496578475639 0 0.2053015306231786 -0.16147511706753581 0 0.22140433964611009 -0.15942157446682631 0 0.21311328761178161 -0.17150580666157239 0 0.20768137691429989 -0.1863235371576068 0 0.22597692023837671 -0.1776460897684978 0 0.20153326013240361 -0.1732023233829928 0 0.21311328761178161 -0.17150580666157239 0 0.20768137691429989 -0.1863235371576068 0 0.22597692023837671 -0.1776460897684978 0 0.24021017282722021 -0.1817014238397707 0 0.2310967341209624 -0.19307915044939869 0 0.21311328761178161 -0.17150580666157239 0 0.22597692023837671 -0.1776460897684978 0 0.22140433964611009 -0.15942157446682631 0 0.23480192822461099 -0.1538503860114161 0 0.22597692023837671 -0.1776460897684978 0 0.23480192822461099 -0.1538503860114161 0 0.22597692023837671 -0.1776460897684978 0 0.23814472236803061 -0.17009193279570961 0 0.23480192822461099 -0.1538503860114161 0 0.22597692023837671 -0.1776460897684978 0 0.22140433964611009 -0.15942157446682631 0 0.25205962740029131 -0.16675432511260549 0 0.23480192822461099 -0.1538503860114161 0 0.25205962740029131 -0.16675432511260549 0 0.24719800764502139 -0.15526407084396271 0 0.23480192822461099 -0.1538503860114161 0 0.25205962740029131 -0.16675432511260549 0 0.23480192822461099 -0.1538503860114161 0 0.23814472236803061 -0.17009193279570961 0 0.22597692023837671 -0.1776460897684978 0 0.23814472236803061 -0.17009193279570961 0 0.24021017282722021 -0.1817014238397707 0 0.25205962740029131 -0.16675432511260549 0 0.23814472236803061 -0.17009193279570961 0 0.24021017282722021 -0.1817014238397707 0 0.25200319217637229 -0.18136374100611921 0 0.25205962740029131 -0.16675432511260549 0 0.24021017282722021 -0.1817014238397707 0 0.25200319217637229 -0.18136374100611921 0 0.24021017282722021 -0.1817014238397707 0 0.24689540112038311 -0.19692544440775719 0 0.24021017282722021 -0.1817014238397707 0 0.24689540112038311 -0.19692544440775719 0 0.2310967341209624 -0.19307915044939869 0 0.24689540112038311 -0.19692544440775719 0 0.24018281513586209 -0.217923812058709 0 0.224473475664795 -0.2141926246017197 0 0.24689540112038311 -0.19692544440775719 0 0.224473475664795 -0.2141926246017197 0 0.25596260931772219 -0.21701241972076021 0 0.24689540112038311 -0.19692544440775719 0 0.24018281513586209 -0.217923812058709 0 0.24689540112038311 -0.19692544440775719 0 0.224473475664795 -0.2141926246017197 0 0.2310967341209624 -0.19307915044939869 0 0.22597692023837671 -0.1776460897684978 0 0.21715191225214359 -0.20144179352558009 0 0.224473475664795 -0.2141926246017197 0 0.2310967341209624 -0.19307915044939869 0 0.21715191225214359 -0.20144179352558009 0 0.22597692023837671 -0.1776460897684978 0 0.2310967341209624 -0.19307915044939869 0 0.21715191225214359 -0.20144179352558009 0 0.25266264924048881 -0.23607345122712481 0 0.24106351552099611 -0.25430938085000399 0 0.23406929700326451 -0.2363167846568156 0 0.25266264924048881 -0.23607345122712481 0 0.24412969886453681 -0.22894283192195949 0 0.23406929700326451 -0.2363167846568156 0 0.25596260931772219 -0.21701241972076021 0 0.24018281513586209 -0.217923812058709 0 0.24412969886453681 -0.22894283192195949 0 0.24018281513586209 -0.217923812058709 0 0.24412969886453681 -0.22894283192195949 0 0.23406929700326451 -0.2363167846568156 0 0.24018281513586209 -0.217923812058709 0 0.23406929700326451 -0.2363167846568156 0 0.21514219708997739 -0.2287600070762269 0 0.24018281513586209 -0.217923812058709 0 0.21514219708997739 -0.2287600070762269 0 0.24018281513586209 -0.217923812058709 0 0.224473475664795 -0.2141926246017197 0 0.21514219708997739 -0.2287600070762269 0 0.24106351552099611 -0.25430938085000399 0 0.21794513624863049 -0.25021170180138103 0 0.23406929700326451 -0.2363167846568156 0 0.21794513624863049 -0.25021170180138103 0 0.23406929700326451 -0.2363167846568156 0 0.21514219708997739 -0.2287600070762269 0 0.21794513624863049 -0.25021170180138103 0 0.2056729391587073 -0.24359465449947981 0 0.21514219708997739 -0.2287600070762269 0 0.2056729391587073 -0.24359465449947981 0 0.21514219708997739 -0.2287600070762269 0 0.19010157904409439 -0.23959620209374871 0 0.224473475664795 -0.2141926246017197 0 0.20205155020920679 -0.23145980479568221 0 0.224473475664795 -0.2141926246017197 0 0.20205155020920679 -0.23145980479568221 0 0.2075629926308524 -0.21542522519134891 0 0.224473475664795 -0.2141926246017197 0 0.21514219708997739 -0.2287600070762269 0 0.20205155020920679 -0.23145980479568221 0 0.20205155020920679 -0.23145980479568221 0 0.19010157904409439 -0.23959620209374871 0 0.19650123040038869 -0.21742231465022091 0 0.21514219708997739 -0.2287600070762269 0 0.19010157904409439 -0.23959620209374871 0 0.20205155020920679 -0.23145980479568221 0 0.2075629926308524 -0.21542522519134891 0 0.19650123040038869 -0.21742231465022091 0 0.21514219708997739 -0.2287600070762269 0 0.20205155020920679 -0.23145980479568221 0 0.19010157904409439 -0.23959620209374871 0 0.19010157904409439 -0.23959620209374871 0 0.19650123040038869 -0.21742231465022091 0 0.180969597741578 -0.21536654905252539 0 0.20768137691429989 -0.1863235371576068 0 0.21715191225214359 -0.20144179352558009 0 0.20497914788354701 -0.20337395237426631 0 0.20768137691429989 -0.1863235371576068 0 0.22597692023837671 -0.1776460897684978 0 0.21715191225214359 -0.20144179352558009 0 0.224473475664795 -0.2141926246017197 0 0.21715191225214359 -0.20144179352558009 0 0.2075629926308524 -0.21542522519134891 0 0.21715191225214359 -0.20144179352558009 0 0.2075629926308524 -0.21542522519134891 0 0.20497914788354701 -0.20337395237426631 0 0.19650123040038869 -0.21742231465022091 0 0.19334251489305351 -0.1993121543937541 0 0.180969597741578 -0.21536654905252539 0 0.20497914788354701 -0.20337395237426631 0 0.19650123040038869 -0.21742231465022091 0 0.19334251489305351 -0.1993121543937541 0 0.2075629926308524 -0.21542522519134891 0 0.20497914788354701 -0.20337395237426631 0 0.19650123040038869 -0.21742231465022091 0 0.19127061824665029 -0.18142040703099899 0 0.19334251489305351 -0.1993121543937541 0 0.19127061824665029 -0.18142040703099899 0 0.20768137691429989 -0.1863235371576068 0 0.19334251489305351 -0.1993121543937541 0 0.20768137691429989 -0.1863235371576068 0 0.20497914788354701 -0.20337395237426631 0 0.19334251489305351 -0.1993121543937541 0 0.19127061824665029 -0.18142040703099899 0 0.19334251489305351 -0.1993121543937541 0 0.17183761643906151 -0.19113689601130221 0 0.19334251489305351 -0.1993121543937541 0 0.180969597741578 -0.21536654905252539 0 0.17183761643906151 -0.19113689601130221 0 0.180969597741578 -0.21536654905252539 0 0.16398201132905971 -0.207933866008779 0 0.17183761643906151 -0.19113689601130221 0 0.180969597741578 -0.21536654905252539 0 0.17183761643906151 -0.19113689601130221 0 0.16398201132905971 -0.207933866008779 0 0.16334458063820481 -0.22362219929445001 0 0.15112182591065601 -0.21225926869323161 0 0.180969597741578 -0.21536654905252539 0 0.16398201132905971 -0.207933866008779 0 0.16334458063820481 -0.22362219929445001 0 0.17183761643906151 -0.19113689601130221 0 0.1526364359157984 -0.1972844169923858 0 0.15095570439822051 -0.18032338121576341 0 0.16398201132905971 -0.207933866008779 0 0.17183761643906151 -0.19113689601130221 0 0.1526364359157984 -0.1972844169923858 0 0.19010157904409439 -0.23959620209374871 0 0.1756945367946631 -0.23333204530612339 0 0.17039876269483961 -0.24812249165910691 0 0.19010157904409439 -0.23959620209374871 0 0.17039876269483961 -0.24812249165910691 0 0.18448204354290951 -0.25641715725236403 0 0.19010157904409439 -0.23959620209374871 0 0.17039876269483961 -0.24812249165910691 0 0.19010157904409439 -0.23959620209374871 0 0.180969597741578 -0.21536654905252539 0 0.1756945367946631 -0.23333204530612339 0 0.180969597741578 -0.21536654905252539 0 0.1756945367946631 -0.23333204530612339 0 0.16334458063820481 -0.22362219929445001 0 0.19010157904409439 -0.23959620209374871 0 0.180969597741578 -0.21536654905252539 0 0.16334458063820481 -0.22362219929445001 0 0.17039876269483961 -0.24812249165910691 0 0.1756945367946631 -0.23333204530612339 0 0.16334458063820481 -0.22362219929445001 0 0.17039876269483961 -0.24812249165910691 0 0.16334458063820481 -0.22362219929445001 0 0.17039876269483961 -0.24812249165910691 0 0.15615835699215369 -0.2334429439452832 0 0.16048490849461761 -0.25284243025010789 0 0.16003575748426621 -0.2456768469946661 0 0.16894128177334919 -0.24875320881914839 0 0.16003575748426621 -0.2456768469946661 0 0.17039876269483961 -0.24812249165910691 0 0.15615835699215369 -0.2334429439452832 0 0.15423259464829611 -0.2507802058041485 0 0.16048490849461761 -0.25284243025010789 0 0.16003575748426621 -0.2456768469946661 0 0.16003575748426621 -0.2456768469946661 0 0.17039876269483961 -0.24812249165910691 0 0.16894128177334919 -0.24875320881914839 0 0.17039876269483961 -0.24812249165910691 0 0.16894128177334919 -0.24875320881914839 0 0.1490326603952912 -0.24330769350101941 0 0.15615835699215369 -0.2334429439452832 0 0.1397037034055848 -0.23217047932173829 0 0.14630097989667429 -0.25329462579220818 0 0.1490326603952912 -0.24330769350101941 0 0.13780653894568981 -0.24584975280280799 0 0.15423259464829611 -0.2507802058041485 0 0.16003575748426621 -0.2456768469946661 0 0.1490326603952912 -0.24330769350101941 0 0.14630097989667429 -0.25329462579220818 0 0.15423259464829611 -0.2507802058041485 0 0.1490326603952912 -0.24330769350101941 0 0.16003575748426621 -0.2456768469946661 0 0.1490326603952912 -0.24330769350101941 0 0.15615835699215369 -0.2334429439452832 0 0.1490326603952912 -0.24330769350101941 0 0.1397037034055848 -0.23217047932173829 0 0.13780653894568981 -0.24584975280280799 0 0.16334458063820481 -0.22362219929445001 0 0.14769728601676929 -0.2243330190654807 0 0.15112182591065601 -0.21225926869323161 0 0.15615835699215369 -0.2334429439452832 0 0.14769728601676929 -0.2243330190654807 0 0.1397037034055848 -0.23217047932173829 0 0.16334458063820481 -0.22362219929445001 0 0.15615835699215369 -0.2334429439452832 0 0.14769728601676929 -0.2243330190654807 0 0.14769728601676929 -0.2243330190654807 0 0.1397037034055848 -0.23217047932173829 0 0.13729246343905629 -0.21699935438594731 0 0.1242406923374533 -0.22077828949577141 0 0.1397037034055848 -0.23217047932173829 0 0.12647501325493751 -0.24071415537261021 0 0.1242406923374533 -0.22077828949577141 0 0.1397037034055848 -0.23217047932173829 0 0.13729246343905629 -0.21699935438594731 0 0.12752033777596139 -0.25976181002646398 0 0.12647501325493751 -0.24071415537261021 0 0.13780653894568981 -0.24584975280280799 0 0.1397037034055848 -0.23217047932173829 0 0.12647501325493751 -0.24071415537261021 0 0.13780653894568981 -0.24584975280280799 0 0.1526364359157984 -0.1972844169923858 0 0.1363110975465068 -0.20336945368225401 0 0.13636381901286751 -0.187625238857522 0 0.1526364359157984 -0.1972844169923858 0 0.13636381901286751 -0.187625238857522 0 0.15095570439822051 -0.18032338121576341 0 0.1526364359157984 -0.1972844169923858 0 0.15112182591065601 -0.21225926869323161 0 0.1363110975465068 -0.20336945368225401 0 0.16398201132905971 -0.207933866008779 0 0.1526364359157984 -0.1972844169923858 0 0.15112182591065601 -0.21225926869323161 0 0.14769728601676929 -0.2243330190654807 0 0.15112182591065601 -0.21225926869323161 0 0.13729246343905629 -0.21699935438594731 0 0.15112182591065601 -0.21225926869323161 0 0.1363110975465068 -0.20336945368225401 0 0.13729246343905629 -0.21699935438594731 0 0.1246801754173678 -0.20908561605720799 0 0.1242406923374533 -0.22077828949577141 0 0.13729246343905629 -0.21699935438594731 0 0.1246801754173678 -0.20908561605720799 0 0.1363110975465068 -0.20336945368225401 0 0.13729246343905629 -0.21699935438594731 0 0.1246801754173678 -0.20908561605720799 0 0.1363110975465068 -0.20336945368225401 0 0.12518869747691971 -0.1970947524398107 0 0.1192584502586433 -0.18139981457302959 0 0.12518869747691971 -0.1970947524398107 0 0.13636381901286751 -0.187625238857522 0 0.1363110975465068 -0.20336945368225401 0 0.12518869747691971 -0.1970947524398107 0 0.13636381901286751 -0.187625238857522 0 0.1192584502586433 -0.18139981457302959 0 0.13636381901286751 -0.187625238857522 0 0.13537255934775649 -0.17039294757359019 0 0.13636381901286751 -0.187625238857522 0 0.15095570439822051 -0.18032338121576341 0 0.13537255934775649 -0.17039294757359019 0 0.15095570439822051 -0.18032338121576341 0 0.13537255934775649 -0.17039294757359019 0 0.1627056351365449 -0.166907242970079 0 0.13537255934775649 -0.17039294757359019 0 0.13604239195642881 -0.1582930593902917 0 0.1627056351365449 -0.166907242970079 0 0.13604239195642881 -0.1582930593902917 0 0.1438514279526299 -0.1489670369272483 0 0.1627056351365449 -0.166907242970079 0 0.13537255934775649 -0.17039294757359019 0 0.1627056351365449 -0.166907242970079 0 0.1192584502586433 -0.18139981457302959 0 0.13604239195642881 -0.1582930593902917 0 0.11764030132843969 -0.18026994752950279 0 0.13604239195642881 -0.1582930593902917 0 0.1192584502586433 -0.18139981457302959 0 0.13537255934775649 -0.17039294757359019 0 0.13604239195642881 -0.1582930593902917 0 0.13604239195642881 -0.1582930593902917 0 0.1350573414063283 -0.14500928125192211 0 0.1479946265180897 -0.14183820254701759 0 0.1211969328539569 -0.14532151129590021 0 0.13604239195642881 -0.1582930593902917 0 0.1350573414063283 -0.14500928125192211 0 0.1211969328539569 -0.14532151129590021 0 0.1350573414063283 -0.14500928125192211 0 0.1282036646882222 -0.1335875387552902 0 0.13604239195642881 -0.1582930593902917 0 0.1438514279526299 -0.1489670369272483 0 0.1350573414063283 -0.14500928125192211 0 0.1282036646882222 -0.1335875387552902 0 0.1479946265180897 -0.14183820254701759 0 0.1282036646882222 -0.1335875387552902 0 0.1407277358159143 -0.1293399356073851 0 0.14438680003984489 -0.13557417344808981 0 0.1282036646882222 -0.1335875387552902 0 0.14438680003984489 -0.13557417344808981 0 0.1479946265180897 -0.14183820254701759 0 0.1282036646882222 -0.1335875387552902 0 0.1479946265180897 -0.14183820254701759 0 0.1301035997378964 -0.1214645167163456 0 0.1282036646882222 -0.1335875387552902 0 0.1407277358159143 -0.1293399356073851 0 0.14263663279830691 -0.1136586710084828 0 0.1514594725197467 -0.13706808657855721 0 0.14263663279830691 -0.1136586710084828 0 0.1407277358159143 -0.1293399356073851 0 0.1514594725197467 -0.13706808657855721 0 0.1407277358159143 -0.1293399356073851 0 0.14438680003984489 -0.13557417344808981 0 0.1514594725197467 -0.13706808657855721 0 0.14438680003984489 -0.13557417344808981 0 0.1514594725197467 -0.13706808657855721 0 0.1479946265180897 -0.14183820254701759 0 0.1514594725197467 -0.13706808657855721 0 0.1479946265180897 -0.14183820254701759 0 0.15309341538007859 -0.1216113587722765 0 0.16045176050755089 -0.124688241557159 0 0.1514594725197467 -0.13706808657855721 0 0.16045176050755089 -0.124688241557159 0 0.1514594725197467 -0.13706808657855721 0 0.13604239195642881 -0.1582930593902917 0 0.1479946265180897 -0.14183820254701759 0 0.13604239195642881 -0.1582930593902917 0 0.1438514279526299 -0.1489670369272483 0 0.1479946265180897 -0.14183820254701759 0 0.1438514279526299 -0.1489670369272483 0 0.15423832325321971 -0.14444114034367 0 0.1627056351365449 -0.166907242970079 0 0.1438514279526299 -0.1489670369272483 0 0.1479946265180897 -0.14183820254701759 0 0.15423832325321971 -0.14444114034367 0 0.1479946265180897 -0.14183820254701759 0 0.15423832325321971 -0.14444114034367 0 0.1514594725197467 -0.13706808657855721 0 0.1479946265180897 -0.14183820254701759 0 0.15423832325321971 -0.14444114034367 0 0.1514594725197467 -0.13706808657855721 0 0.15423832325321971 -0.14444114034367 0 0.16160077834930239 -0.14751047786256741 0 0.16927222025973429 -0.15104669259872799 0 0.1627056351365449 -0.166907242970079 0 0.15423832325321971 -0.14444114034367 0 0.16160077834930239 -0.14751047786256741 0 0.1627056351365449 -0.166907242970079 0 0.15423832325321971 -0.14444114034367 0 0.1627056351365449 -0.166907242970079 0 0.15423832325321971 -0.14444114034367 0 0.16160077834930239 -0.14751047786256741 0 0.15423832325321971 -0.14444114034367 0 0.16160077834930239 -0.14751047786256741 0 0.16325407501129119 -0.13767222650035621 0 0.16160077834930239 -0.14751047786256741 0 0.16927862428802859 -0.14284503474311949 0 0.16927222025973429 -0.15104669259872799 0 0.16160077834930239 -0.14751047786256741 0 0.16927862428802859 -0.14284503474311949 0 0.16325407501129119 -0.13767222650035621 0 0.1514594725197467 -0.13706808657855721 0 0.15423832325321971 -0.14444114034367 0 0.16325407501129119 -0.13767222650035621 0 0.16045176050755089 -0.124688241557159 0 0.1514594725197467 -0.13706808657855721 0 0.16325407501129119 -0.13767222650035621 0 0.16927862428802859 -0.14284503474311949 0 0.16325407501129119 -0.13767222650035621 0 0.17363239728744839 -0.13632850440864019 0 0.16325407501129119 -0.13767222650035621 0 0.1718789831891788 -0.1299210177155804 0 0.17363239728744839 -0.13632850440864019 0 0.17412126317076421 -0.12227380262522029 0 0.16045176050755089 -0.124688241557159 0 0.1718789831891788 -0.1299210177155804 0 0.16045176050755089 -0.124688241557159 0 0.16325407501129119 -0.13767222650035621 0 0.1718789831891788 -0.1299210177155804 0 0.18488142327789919 -0.12624687198487691 0 0.17839311743877059 -0.14266005086250669 0 0.1870400724390732 -0.14488776582656041 0 0.18488142327789919 -0.12624687198487691 0 0.1870400724390732 -0.14488776582656041 0 0.18488142327789919 -0.12624687198487691 0 0.17839311743877059 -0.14266005086250669 0 0.17363239728744839 -0.13632850440864019 0 0.18488142327789919 -0.12624687198487691 0 0.17839311743877059 -0.14266005086250669 0 0.1718789831891788 -0.1299210177155804 0 0.17363239728744839 -0.13632850440864019 0 0.18488142327789919 -0.12624687198487691 0 0.17412126317076421 -0.12227380262522029 0 0.1718789831891788 -0.1299210177155804 0 0.18488142327789919 -0.12624687198487691 0 0.16927862428802859 -0.14284503474311949 0 0.17363239728744839 -0.13632850440864019 0 0.17839311743877059 -0.14266005086250669 0 0.18919872160024701 -0.16352865966824401 0 0.1870400724390732 -0.14488776582656041 0 0.1803587132998164 -0.152926109931528 0 0.17839311743877059 -0.14266005086250669 0 0.1803587132998164 -0.152926109931528 0 0.1719048115996423 -0.15907322974013671 0 0.17839311743877059 -0.14266005086250669 0 0.1719048115996423 -0.15907322974013671 0 0.16927222025973429 -0.15104669259872799 0 0.17839311743877059 -0.14266005086250669 0 0.1719048115996423 -0.15907322974013671 0 0.16927862428802859 -0.14284503474311949 0 0.16927222025973429 -0.15104669259872799 0 0.17839311743877059 -0.14266005086250669 0 0.17839311743877059 -0.14266005086250669 0 0.1870400724390732 -0.14488776582656041 0 0.1803587132998164 -0.152926109931528 0 0.18919872160024701 -0.16352865966824401 0 0.1627056351365449 -0.166907242970079 0 0.18919872160024701 -0.16352865966824401 0 0.1719048115996423 -0.15907322974013671 0 0.1627056351365449 -0.166907242970079 0 0.18919872160024701 -0.16352865966824401 0 0.1803587132998164 -0.152926109931528 0 0.1719048115996423 -0.15907322974013671 0 0.18919872160024701 -0.16352865966824401 0 0.1787531478556259 -0.17574830142015599 0 0.1627056351365449 -0.166907242970079 0 0.19127061824665029 -0.18142040703099899 0 0.18919872160024701 -0.16352865966824401 0 0.1787531478556259 -0.17574830142015599 0 0.19127061824665029 -0.18142040703099899 0 0.17183761643906151 -0.19113689601130221 0 0.1787531478556259 -0.17574830142015599 0 0.17183761643906151 -0.19113689601130221 0 0.1627056351365449 -0.166907242970079 0 0.17183761643906151 -0.19113689601130221 0 0.1787531478556259 -0.17574830142015599 0 0.1627056351365449 -0.166907242970079 0 0.17183761643906151 -0.19113689601130221 0 0.15095570439822051 -0.18032338121576341 0 0.1627056351365449 -0.166907242970079 0 0.16927222025973429 -0.15104669259872799 0 0.1719048115996423 -0.15907322974013671 0 0.1627056351365449 -0.166907242970079 0 
</DataArray>
</Points>
<Cells>
<DataArray type="UInt32" Name="connectivity" format="ascii">
0 1 2 3 4 5 6 7 8 9 10 11 12 13 14 15 16 17 18 19 20 21 22 23 24 25 26 27 28 29 30 31 32 33 34 35 36 37 38 39 40 41 42 43 44 45 46 47 48 49 50 51 52 53 54 55 56 57 58 59 60 61 62 63 64 65 66 67 68 69 70 71 72 73 74 75 76 77 78 79 80 81 82 83 84 85 86 87 88 89 90 91 92 93 94 95 96 97 98 99 100 101 102 103 104 105 106 107 108 109 110 111 112 113 114 115 116 117 118 119 120 121 122 123 124 125 126 127 128 129 130 131 132 133 134 135 136 137 138 139 140 141 142 143 144 145 146 147 148 149 150 151 152 153 154 155 156 157 158 159 160 161 162 163 164 165 166 167 168 169 170 171 172 173 174 175 176 177 178 179 180 181 182 183 184 185 186 187 188 189 190 191 192 193 194 195 196 197 198 199 200 201 202 203 204 205 206 207 208 209 210 211 212 213 214 215 216 217 218 219 220 221 222 223 224 225 226 227 228 229 230 231 232 233 234 235 236 237 238 239 240 241 242 243 244 245 246 247 248 249 250 251 252 253 254 255 256 257 258 259 260 261 262 263 264 265 266 267 268 269 270 271 272 273 274 275 276 277 278 279 280 281 282 283 284 285 286 287 288 289 290 291 292 293 294 295 296 297 298 299 300 301 302 303 304 305 306 307 308 309 310 311 312 313 314 315 316 317 318 319 320 321 322 323 324 325 326 327 328 329 330 331 332 333 334 335 336 337 338 339 340 341 342 343 344 345 346 347 348 349 350 351 352 353 354 355 356 357 358 359 360 361 362 363 364 365 366 367 368 369 370 371 372 373 374 375 376 377 378 379 380 381 382 383 384 385 386 387 388 389 390 391 392 393 394 395 396 397 398 399 400 401 402 403 404 405 406 407 408 409 410 411 412 413 414 415 416 417 418 419 420 421 422 423 424 425 426 427 428 429 430 431 432 433 434 435 436 437 438 439 440 441 442 443 444 445 446 447 448 449 450 451 452 453 454 455 456 457 458 459 460 461 462 463 464 465 466 467 468 469 470 471 472 473 474 475 476 477 478 479 480 481 482 483 484 485 486 487 488 489 490 491 492 493 494 495 496 497 498 499 500 501 502 503 504 505 506 507 508 509 510 511 512 513 514 515 516 517 518 519 520 521 522 523 524 525 526 527 528 529 530 531 532 533 534 535 536 537 538 539 540 541 542 543 544 545 546 547 548 549 550 551 552 553 554 555 556 557 558 559 560 561 562 563 564 565 566 567 568 569 570 571 572 573 574 575 576 577 578 579 580 581 582 583 584 585 586 587 588 589 590 591 592 593 594 595 596 597 598 599 600 601 602 603 604 605 606 607 608 609 610 611 612 613 614 615 616 617 618 619 620 621 622 623 624 625 626 627 628 629 630 631 632 633 634 635 636 637 638 639 640 641 642 643 644 645 646 647 648 649 650 651 652 653 654 655 656 657 658 659 660 661 662 663 664 665 666 667 668 669 670 671 672 673 674 675 676 677 678 679 680 681 682 683 684 685 686 687 688 689 690 691 692 693 694 695 696 697 698 699 700 701 702 703 704 705 706 707 708 709 710 711 712 713 714 715 716 717 718 719 720 721 722 723 724 725 726 727 728 729 730 731 732 733 734 735 736 737 738 739 740 741 742 743 744 745 746 747 748 749 750 751 752 753 754 755 756 757 758 759 760 761 762 763 764 765 766 767 768 769 770 771 772 773 774 775 776 777 778 779 780 781 782 783 784 785 786 787 788 789 790 791 792 793 794 795 796 797 798 799 800 801 802 803 804 805 806 807 808 809 810 811 812 813 814 815 816 817 818 819 820 821 822 823 824 825 826 827 828 829 830 831 832 833 834 835 836 837 838 839 840 841 842 843 844 845 846 847 848 849 850 851 852 853 854 855 856 857 858 859 860 861 862 863 864 865 866 867 868 869 870 871 872 873 874 875 876 877 878 879 880 881 882 883 884 885 886 887 888 889 890 891 892 893 894 895 896 897 898 899 900 901 902 903 904 905 906 907 908 909 910 911 912 913 914 915 916 917 918 919 920 921 922 923 924 925 926 927 928 929 930 931 932 933 934 935 936 937 938 939 940 941 942 943 944 945 946 947 948 949 950 951 952 953 954 955 956 957 958 959 960 961 962 963 964 965 966 967 968 969 970 971 972 973 974 975 976 977 978 979 980 981 982 983 984 985 986 987 988 989 990 991 992 993 994 995 996 997 998 999 1000 1001 1002 1003 1004 1005 1006 1007 1008 1009 1010 1011 1012 1013 1014 1015 1016 1017 1018 1019 1020 1021 1022 1023 1024 1025 1026 1027 1028 1029 1030 1031 1032 1033 1034 1035 1036 1037 1038 1039 1040 1041 1042 1043 1044 1045 1046 1047 1048 1049 1050 1051 1052 1053 1054 1055 1056 1057 1058 1059 1060 1061 1062 1063 1064 1065 1066 1067 1068 1069 1070 1071 1072 1073 1074 1075 1076 1077 1078 1079 1080 1081 1082 1083 1084 1085 1086 1087 1088 1089 1090 1091 1092 1093 1094 1095 1096 1097 1098 1099 1100 1101 1102 1103 1104 1105 1106 1107 1108 1109 1110 1111 1112 1113 1114 1115 1116 1117 1118 1119 1120 1121 1122 1123 1124 1125 1126 1127 1128 1129 1130 1131 1132 1133 1134 1135 1136 1137 1138 1139 1140 1141 1142 1143 1144 1145 1146 1147 1148 1149 1150 1151 1152 1153 1154 1155 1156 1157 1158 1159 1160 1161 1162 1163 1164 1165 1166 1167 1168 1169 1170 1171 1172 1173 1174 1175 1176 1177 1178 1179 1180 1181 1182 1183 1184 1185 1186 1187 1188 1189 1190 1191 1192 1193 1194 1195 1196 1197 1198 1199 1200 1201 1202 1203 1204 1205 1206 1207 1208 1209 1210 1211 1212 1213 1214 1215 1216 1217 1218 1219 1220 1221 1222 1223 1224 1225 1226 1227 1228 1229 1230 1231 1232 1233 1234 1235 1236 1237 1238 1239 1240 1241 1242 1243 1244 1245 1246 1247 1248 1249 1250 1251 1252 1253 1254 1255 1256 1257 1258 1259 1260 1261 1262 1263 1264 1265 1266 1267 1268 1269 1270 1271 1272 1273 1274 1275 1276 1277 1278 1279 1280 1281 1282 1283 1284 1285 1286 1287 1288 1289 1290 1291 1292 1293 1294 1295 1296 1297 1298 1299 1300 1301 1302 1303 1304 1305 1306 1307 1308 1309 1310 1311 1312 1313 1314 1315 1316 1317 1318 1319 1320 1321 1322 1323 1324 1325 1326 1327 1328 1329 1330 1331 1332 1333 1334 1335 1336 1337 1338 1339 1340 1341 1342 1343 1344 1345 1346 1347 1348 1349 1350 1351 1352 1353 1354 1355 1356 1357 1358 1359 1360 1361 1362 1363 1364 1365 1366 1367 1368 1369 1370 1371 1372 1373 1374 1375 1376 1377 1378 1379 1380 1381 1382 1383 1384 1385 1386 1387 1388 1389 1390 1391 1392 1393 1394 1395 1396 1397 1398 1399 1400 1401 1402 1403 1404 1405 1406 1407 1408 1409 1410 1411 1412 1413 1414 1415 1416 1417 1418 1419 1420 1421 1422 1423 1424 1425 1426 1427 1428 1429 1430 1431 1432 1433 1434 1435 1436 1437 1438 1439 1440 1441 1442 1443 1444 1445 1446 1447 1448 1449 1450 1451 1452 1453 1454 1455 1456 1457 1458 1459 1460 1461 1462 1463 1464 1465 1466 1467 1468 1469 1470 1471 1472 1473 1474 1475 1476 1477 1478 1479 1480 1481 1482 1483 1484 1485 1486 1487 1488 1489 1490 1491 1492 1493 1494 1495 1496 1497 1498 1499 1500 1501 1502 1503 1504 1505 1506 1507 1508 1509 1510 1511 1512 1513 1514 1515 1516 1517 1518 1519 1520 1521 1522 1523 1524 1525 1526 1527 1528 1529 1530 1531 1532 1533 1534 1535 1536 1537 1538 1539 1540 1541 1542 1543 1544 1545 1546 1547 1548 1549 1550 1551 1552 1553 1554 1555 1556 1557 1558 1559 1560 1561 1562 1563 1564 1565 1566 1567 1568 1569 1570 1571 1572 1573 1574 1575 1576 1577 1578 1579 1580 1581 1582 1583 1584 1585 1586 1587 1588 1589 1590 1591 1592 1593 1594 1595 1596 1597 1598 1599 1600 1601 1602 1603 1604 1605 1606 1607 1608 1609 1610 1611 1612 1613 1614 1615 1616 1617 1618 1619 1620 1621 1622 1623 1624 1625 1626 1627 1628 1629 1630 1631 1632 1633 1634 1635 1636 1637 1638 1639 1640 1641 1642 1643 1644 1645 1646 1647 1648 1649 1650 1651 1652 1653 1654 1655 1656 1657 1658 1659 1660 1661 1662 1663 1664 1665 1666 1667 1668 1669 1670 1671 1672 1673 1674 1675 1676 1677 1678 1679 1680 1681 1682 1683 1684 1685 1686 1687 1688 1689 1690 1691 1692 1693 1694 1695 1696 1697 1698 1699 1700 1701 1702 1703 1704 1705 1706 1707 1708 1709 1710 1711 1712 1713 1714 1715 1716 1717 1718 1719 1720 1721 1722 1723 1724 1725 1726 1727 1728 1729 1730 1731 1732 1733 1734 1735 1736 1737 1738 1739 1740 1741 1742 1743 1744 1745 1746 1747 1748 1749 1750 1751 1752 1753 1754 1755 1756 1757 1758 1759 1760 1761 1762 1763 1764 1765 1766 1767 1768 1769 1770 1771 1772 1773 1774 1775 1776 1777 1778 1779 1780 1781 1782 1783 1784 1785 1786 1787 1788 1789 1790 1791 1792 1793 1794 1795 1796 1797 1798 1799 1800 1801 1802 1803 1804 1805 1806 1807 1808 1809 1810 1811 1812 1813 1814 1815 1816 1817 1818 1819 1820 1821 1822 1823 1824 1825 1826 1827 1828 1829 1830 1831 1832 1833 1834 1835 1836 1837 1838 1839 1840 1841 1842 1843 1844 1845 1846 1847 1848 1849 1850 1851 1852 1853 1854 1855 1856 1857 1858 1859 1860 1861 1862 1863 1864 1865 1866 1867 1868 1869 1870 1871 1872 1873 1874 1875 1876 1877 1878 1879 1880 1881 1882 1883 1884 1885 1886 1887 1888 1889 1890 1891 1892 1893 1894 1895 1896 1897 1898 1899 1900 1901 1902 1903 1904 1905 1906 1907 1908 1909 1910 1911 1912 1913 1914 1915 1916 1917 1918 1919 1920 1921 1922 1923 1924 1925 1926 1927 1928 1929 1930 1931 1932 1933 1934 1935 1936 1937 1938 1939 1940 1941 1942 1943 1944 1945 1946 1947 1948 1949 1950 1951 1952 1953 1954 1955 1956 1957 1958 1959 1960 1961 1962 1963 1964 1965 1966 1967 1968 1969 1970 1971 1972 1973 1974 1975 1976 1977 1978 1979 1980 1981 1982 1983 1984 1985 1986 1987 1988 1989 1990 1991 1992 1993 1994 1995 1996 1997 1998 1999 2000 2001 2002 2003 2004 2005 2006 2007 2008 2009 2010 2011 2012 2013 2014 2015 2016 2017 2018 2019 2020 2021 2022 2023 2024 2025 2026 2027 2028 2029 2030 2031 2032 2033 2034 2035 2036 2037 2038 2039 2040 2041 2042 2043 2044 2045 2046 2047 2048 2049 2050 2051 2052 2053 2054 2055 2056 2057 2058 2059 2060 2061 2062 2063 2064 2065 2066 2067 2068 2069 2070 2071 2072 2073 2074 2075 2076 2077 2078 2079 2080 2081 2082 2083 2084 2085 2086 2087 2088 2089 2090 2091 2092 2093 2094 2095 2096 2097 2098 2099 2100 2101 2102 2103 2104 2105 2106 2107 2108 2109 2110 2111 2112 2113 2114 2115 2116 2117 2118 2119 2120 2121 2122 2123 2124 2125 2126 2127 2128 2129 2130 2131 2132 2133 2134 2135 2136 2137 2138 2139 2140 2141 2142 2143 2144 2145 2146 2147 2148 2149 2150 2151 2152 2153 2154 2155 2156 2157 2158 2159 2160 2161 2162 2163 2164 2165 2166 2167 2168 2169 2170 2171 2172 2173 2174 2175 2176 2177 2178 2179 2180 2181 2182 2183 2184 2185 2186 2187 2188 2189 2190 2191 2192 2193 2194 2195 2196 2197 2198 2199 2200 2201 2202 2203 2204 2205 2206 2207 2208 2209 2210 2211 2212 2213 2214 2215 2216 2217 2218 2219 2220 2221 2222 2223 2224 2225 2226 2227 2228 2229 2230 2231 2232 2233 2234 2235 2236 2237 2238 2239 2240 2241 2242 2243 2244 2245 2246 2247 2248 2249 2250 2251 2252 2253 2254 2255 2256 2257 2258 2259 2260 2261 2262 2263 2264 2265 2266 2267 2268 2269 2270 2271 2272 2273 2274 2275 2276 2277 2278 2279 2280 2281 2282 2283 2284 2285 2286 2287 2288 2289 2290 2291 2292 2293 2294 2295 2296 2297 2298 2299 2300 2301 2302 2303 2304 2305 2306 2307 2308 2309 2310 2311 2312 2313 2314 2315 2316 2317 2318 2319 2320 2321 2322 2323 2324 2325 2326 2327 2328 2329 2330 2331 2332 2333 2334 2335 2336 2337 2338 2339 2340 2341 2342 2343 2344 2345 2346 2347 2348 2349 2350 2351 2352 2353 2354 2355 2356 2357 2358 2359 2360 2361 2362 2363 2364 2365 2366 2367 2368 2369 2370 2371 2372 2373 2374 2375 2376 2377 2378 2379 2380 2381 2382 2383 2384 2385 2386 2387 2388 2389 2390 2391 2392 2393 2394 2395 2396 2397 2398 2399 2400 2401 2402 2403 2404 2405 2406 2407 2408 2409 2410 2411 2412 2413 2414 2415 2416 2417 2418 2419 2420 2421 2422 2423 2424 2425 2426 2427 2428 2429 2430 2431 2432 2433 2434 2435 2436 2437 2438 2439 2440 2441 2442 2443 2444 2445 2446 2447 2448 2449 2450 2451 2452 2453 2454 2455 2456 2457 2458 2459 2460 2461 2462 2463 2464 2465 2466 2467 2468 2469 2470 2471 2472 2473 2474 2475 2476 2477 2478 2479 2480 2481 2482 2483 2484 2485 2486 2487 2488 2489 2490 2491 2492 2493 2494 2495 2496 2497 2498 2499 2500 2501 2502 2503 2504 2505 2506 2507 2508 2509 2510 2511 2512 2513 2514 2515 2516 2517 2518 2519 2520 2521 2522 2523 2524 2525 2526 2527 2528 2529 2530 2531 2532 2533 2534 2535 2536 2537 2538 2539 2540 2541 2542 2543 2544 2545 2546 2547 2548 2549 2550 2551 2552 2553 2554 2555 2556 2557 2558 2559 2560 2561 2562 2563 2564 2565 2566 2567 2568 2569 2570 2571 2572 2573 2574 2575 2576 2577 2578 2579 2580 2581 2582 2583 2584 2585 2586 2587 2588 2589 2590 2591 2592 2593 2594 2595 2596 2597 2598 2599 2600 2601 2602 2603 2604 2605 2606 2607 2608 2609 2610 2611 2612 2613 2614 2615 2616 2617 2618 2619 2620 2621 2622 2623 2624 2625 2626 2627 2628 2629 2630 2631 2632 2633 2634 2635 2636 2637 2638 2639 2640 2641 2642 2643 2644 2645 2646 2647 2648 2649 2650 2651 2652 2653 2654 2655 2656 2657 2658 2659 2660 2661 2662 2663 2664 2665 2666 2667 2668 2669 2670 2671 2672 2673 2674 2675 2676 2677 2678 2679 2680 2681 2682 2683 2684 2685 2686 2687 2688 2689 2690 2691 2692 2693 2694 2695 2696 2697 2698 2699 2700 2701 2702 2703 2704 2705 2706 2707 2708 2709 2710 2711 2712 2713 2714 2715 2716 2717 2718 2719 2720 2721 2722 2723 2724 2725 2726 2727 2728 2729 2730 2731 2732 2733 2734 2735 2736 2737 2738 2739 2740 2741 2742 2743 2744 2745 2746 2747 2748 2749 2750 2751 2752 2753 2754 2755 2756 2757 2758 2759 2760 2761 2762 2763 2764 2765 2766 2767 2768 2769 2770 2771 2772 2773 2774 2775 2776 2777 2778 2779 2780 2781 2782 2783 2784 2785 2786 2787 2788 2789 2790 2791 2792 2793 2794 2795 2796 2797 2798 2799 2800 2801 2802 2803 2804 2805 2806 2807 2808 2809 2810 2811 2812 2813 2814 2815 2816 2817 2818 2819 2820 2821 2822 2823 2824 2825 2826 2827 2828 2829 2830 2831 2832 2833 2834 2835 2836 2837 2838 2839 2840 2841 2842 2843 2844 2845 2846 2847 2848 2849 2850 2851 2852 2853 2854 2855 2856 2857 2858 2859 2860 2861 2862 2863 2864 2865 2866 2867 2868 2869 2870 2871 2872 2873 2874 2875 2876 2877 2878 2879 2880 2881 2882 2883 2884 2885 2886 2887 2888 2889 2890 2891 2892 2893 2894 2895 2896 2897 2898 2899 2900 2901 2902 2903 2904 2905 2906 2907 2908 2909 2910 2911 2912 2913 2914 2915 2916 2917 2918 2919 2920 2921 2922 2923 2924 2925 2926 2927 2928 2929 2930 2931 2932 2933 2934 2935 2936 2937 2938 2939 2940 2941 2942 2943 2944 2945 2946 2947 2948 2949 2950 2951 2952 2953 2954 2955 2956 2957 2958 2959 2960 2961 2962 2963 2964 2965 2966 2967 2968 2969 2970 2971 2972 2973 2974 2975 2976 2977 2978 2979 2980 2981 2982 2983 2984 2985 2986 2987 2988 2989 2990 2991 2992 2993 2994 2995 2996 2997 2998 2999 3000 3001 3002 3003 3004 3005 3006 3007 3008 3009 3010 3011 3012 3013 3014 3015 3016 3017 3018 3019 3020 3021 3022 3023 3024 3025 3026 3027 3028 3029 3030 3031 3032 3033 3034 3035 3036 3037 3038 3039 3040 3041 3042 3043 3044 3045 3046 3047 3048 3049 3050 3051 3052 3053 3054 3055 3056 3057 3058 3059 3060 3061 3062 3063 3064 3065 3066 3067 3068 3069 3070 3071 3072 3073 3074 3075 3076 3077 3078 3079 3080 3081 3082 3083 3084 3085 3086 3087 3088 3089 3090 3091 3092 3093 3094 3095 3096 3097 3098 3099 3100 3101 3102 3103 3104 3105 3106 3107 3108 3109 3110 3111 3112 3113 3114 3115 3116 3117 3118 3119 3120 3121 3122 3123 3124 3125 3126 3127 3128 3129 3130 3131 3132 3133 3134 3135 3136 3137 3138 3139 3140 3141 3142 3143 3144 3145 3146 3147 3148 3149 3150 3151 3152 3153 3154 3155 3156 3157 3158 3159 3160 3161 3162 3163 3164 3165 3166 3167 3168 3169 3170 3171 3172 3173 3174 3175 3176 3177 3178 3179 3180 3181 3182 3183 3184 3185 3186 3187 3188 3189 3190 3191 3192 3193 3194 3195 3196 3197 3198 3199 3200 3201 3202 3203 3204 3205 3206 3207 3208 3209 3210 3211 3212 3213 3214 3215 3216 3217 3218 3219 3220 3221 3222 3223 3224 3225 3226 3227 3228 3229 3230 3231 3232 3233 3234 3235 3236 3237 3238 3239 3240 3241 3242 3243 3244 3245 3246 3247 3248 3249 3250 3251 3252 3253 3254 3255 3256 3257 3258 3259 3260 3261 3262 3263 3264 3265 3266 3267 3268 3269 3270 3271 3272 3273 3274 3275 3276 3277 3278 3279 3280 3281 3282 3283 3284 3285 3286 3287 3288 3289 3290 3291 3292 3293 3294 3295 3296 3297 3298 3299 3300 3301 3302 3303 3304 3305 3306 3307 3308 3309 3310 3311 3312 3313 3314 3315 3316 3317 3318 3319 3320 3321 3322 3323 3324 3325 3326 3327 3328 3329 3330 3331 3332 3333 3334 3335 3336 3337 3338 3339 3340 3341 3342 3343 3344 3345 3346 3347 3348 3349 3350 3351 3352 3353 3354 3355 3356 3357 3358 3359 3360 3361 3362 3363 3364 3365 3366 3367 3368 3369 3370 3371 3372 3373 3374 3375 3376 3377 3378 3379 3380 3381 3382 3383 3384 3385 3386 3387 3388 3389 3390 3391 3392 3393 3394 3395 3396 3397 3398 3399 3400 3401 3402 3403 3404 3405 3406 3407 3408 3409 3410 3411 3412 3413 3414 3415 3416 3417 3418 3419 3420 3421 3422 3423 3424 3425 3426 3427 3428 3429 3430 3431 3432 3433 3434 3435 3436 3437 3438 3439 3440 3441 3442 3443 3444 3445 3446 3447 3448 3449 3450 3451 3452 3453 3454 3455 3456 3457 3458 3459 3460 3461 3462 3463 3464 3465 3466 3467 3468 3469 3470 3471 3472 3473 3474 3475 3476 3477 3478 3479 3480 3481 3482 3483 3484 3485 3486 3487 3488 3489 3490 3491 3492 3493 3494 3495 3496 3497 3498 3499 3500 3501 3502 3503 3504 3505 3506 3507 3508 3509 3510 3511 3512 3513 3514 3515 3516 3517 3518 3519 3520 3521 3522 3523 3524 3525 3526 3527 3528 3529 3530 3531 3532 3533 3534 3535 3536 3537 3538 3539 3540 3541 3542 3543 3544 3545 3546 3547 3548 3549 3550 3551 3552 3553 3554 3555 3556 3557 3558 3559 3560 3561 3562 3563 3564 3565 3566 3567 3568 3569 3570 3571 3572 3573 3574 3575 3576 3577 3578 3579 3580 3581 3582 3583 3584 3585 3586 3587 3588 3589 3590 3591 3592 3593 3594 3595 3596 3597 3598 3599 3600 3601 3602 3603 3604 3605 3606 3607 3608 3609 3610 3611 3612 3613 3614 3615 3616 3617 3618 3619 3620 3621 3622 3623 3624 3625 3626 3627 3628 3629 3630 3631 3632 3633 3634 3635 3636 3637 3638 3639 3640 3641 3642 3643 3644 3645 3646 3647 3648 3649 3650 3651 3652 3653 3654 3655 3656 3657 3658 3659 3660 3661 3662 3663 3664 3665 3666 3667 3668 3669 3670 3671 3672 3673 3674 3675 3676 3677 3678 3679 3680 3681 3682 3683 3684 3685 3686 3687 3688 3689 3690 3691 3692 3693 3694 3695 3696 3697 3698 3699 3700 3701 3702 3703 3704 3705 3706 3707 3708 3709 3710 3711 3712 3713 3714 3715 3716 3717 3718 3719 3720 3721 3722 3723 3724 3725 3726 3727 3728 3729 3730 3731 3732 3733 3734 3735 3736 3737 3738 3739 3740 3741 3742 3743 3744 3745 3746 3747 3748 3749 3750 3751 3752 3753 3754 3755 3756 3757 3758 3759 3760 3761 3762 3763 3764 3765 3766 3767 3768 3769 3770 3771 3772 3773 3774 3775 3776 3777 3778 3779 3780 3781 3782 3783 3784 3785 3786 3787 3788 3789 3790 3791 3792 3793 3794 3795 3796 3797 3798 3799 3800 3801 3802 3803 3804 3805 3806 3807 3808 3809 3810 3811 3812 3813 3814 3815 3816 3817 3818 3819 3820 3821 3822 3823 3824 3825 3826 3827 3828 3829 3830 3831 3832 3833 3834 3835 3836 3837 3838 3839 3840 3841 3842 3843 3844 3845 3846 3847 3848 3849 3850 3851 3852 3853 3854 3855 3856 3857 3858 3859 3860 3861 3862 3863 3864 3865 3866 3867 3868 3869 3870 3871 3872 3873 3874 3875 3876 3877 3878 3879 3880 3881 3882 3883 3884 3885 3886 3887 3888 3889 3890 3891 3892 3893 3894 3895 3896 3897 3898 3899 3900 3901 3902 3903 3904 3905 3906 3907 3908 3909 3910 3911 3912 3913 3914 3915 3916 3917 3918 3919 3920 3921 3922 3923 3924 3925 3926 3927 3928 3929 3930 3931 3932 3933 3934 3935 3936 3937 3938 3939 3940 3941 3942 3943 3944 3945 3946 3947 3948 3949 3950 3951 3952 3953 3954 3955 3956 3957 3958 3959 3960 3961 3962 3963 3964 3965 3966 3967 3968 3969 3970 3971 3972 3973 3974 3975 3976 3977 3978 3979 3980 3981 3982 3983 3984 3985 3986 3987 3988 3989 3990 3991 3992 3993 3994 3995 3996 3997 3998 3999 4000 4001 4002 4003 4004 4005 4006 4007 4008 4009 4010 4011 4012 4013 4014 4015 4016 4017 4018 4019 4020 4021 4022 4023 4024 4025 4026 4027 4028 4029 4030 4031 4032 4033 4034 4035 4036 4037 4038 4039 4040 4041 4042 4043 4044 4045 4046 4047 4048 4049 4050 4051 4052 4053 4054 4055 4056 4057 4058 4059 4060 4061 4062 4063 4064 4065 4066 4067 4068 4069 4070 4071 4072 4073 4074 4075 4076 4077 4078 4079 4080 4081 4082 4083 4084 4085 4086 4087 4088 4089 4090 4091 4092 4093 4094 4095 4096 4097 4098 4099 4100 4101 4102 4103 4104 4105 4106 4107 4108 4109 4110 4111 4112 4113 4114 4115 4116 4117 4118 4119 4120 4121 4122 4123 4124 4125 4126 4127 4128 4129 4130 4131 4132 4133 4134 4135 4136 4137 4138 4139 4140 4141 4142 4143 4144 4145 4146 4147 4148 4149 4150 4151 4152 4153 4154 4155 4156 4157 4158 4159 4160 4161 4162 4163 4164 4165 4166 4167 4168 4169 4170 4171 4172 4173 4174 4175 4176 4177 4178 4179 4180 4181 4182 4183 4184 4185 4186 4187 4188 4189 4190 4191 4192 4193 4194 4195 4196 4197 4198 4199 4200 4201 4202 4203 4204 4205 4206 4207 4208 4209 4210 4211 4212 4213 4214 4215 4216 4217 4218 4219 4220 4221 4222 4223 4224 4225 4226 4227 4228 4229 4230 4231 4232 4233 4234 4235 4236 4237 4238 4239 4240 4241 4242 4243 4244 4245 4246 4247 4248 4249 4250 4251 4252 4253 4254 4255 4256 4257 4258 4259 4260 4261 4262 4263 4264 4265 4266 4267 4268 4269 4270 4271 4272 4273 4274 4275 4276 4277 4278 4279 4280 4281 4282 4283 4284 4285 4286 4287 4288 4289 4290 4291 4292 4293 4294 4295 4296 4297 4298 4299 4300 4301 4302 4303 4304 4305 4306 4307 4308 4309 4310 4311 4312 4313 4314 4315 4316 4317 4318 4319 4320 4321 4322 4323 4324 4325 4326 4327 4328 4329 4330 4331 4332 4333 4334 4335 4336 4337 4338 4339 4340 4341 4342 4343 4344 4345 4346 4347 4348 4349 4350 4351 4352 4353 4354 4355 4356 4357 4358 4359 4360 4361 4362 4363 4364 4365 4366 4367 4368 4369 4370 4371 4372 4373 4374 4375 4376 4377 4378 4379 4380 4381 4382 4383 4384 4385 4386 4387 4388 4389 4390 4391 4392 4393 4394 4395 4396 4397 4398 4399 4400 4401 4402 4403 4404 4405 4406 4407 4408 4409 4410 4411 4412 4413 4414 4415 4416 4417 4418 4419 4420 4421 4422 4423 4424 4425 4426 4427 4428 4429 4430 4431 4432 4433 4434 4435 4436 4437 4438 4439 4440 4441 4442 4443 4444 4445 4446 4447 4448 4449 4450 4451 4452 4453 4454 4455 4456 4457 4458 4459 4460 4461 4462 4463 4464 4465 4466 4467 4468 4469 4470 4471 4472 4473 4474 4475 4476 4477 4478 4479 4480 4481 4482 4483 4484 4485 4486 4487 4488 4489 4490 4491 4492 4493 4494 4495 4496 4497 4498 4499 4500 4501 4502 4503 4504 4505 4506 4507 4508 4509 4510 4511 4512 4513 4514 4515 4516 4517 4518 4519 4520 4521 4522 4523 4524 4525 4526 4527 4528 4529 4530 4531 4532 4533 4534 4535 4536 4537 4538 4539 4540 4541 4542 4543 4544 4545 4546 4547 4548 4549 4550 4551 4552 4553 4554 4555 4556 4557 4558 4559 4560 4561 4562 4563 4564 4565 4566 4567 4568 4569 4570 4571 4572 4573 4574 4575 4576 4577 4578 4579 4580 4581 4582 4583 4584 4585 4586 4587 4588 4589 4590 4591 4592 4593 4594 4595 4596 4597 4598 4599 4600 4601 4602 4603 4604 4605 4606 4607 4608 4609 4610 4611 4612 4613 4614 4615 4616 4617 4618 4619 4620 4621 4622 4623 4624 4625 4626 4627 4628 4629 4630 4631 4632 4633 4634 4635 4636 4637 4638 4639 4640 4641 4642 4643 4644 4645 4646 4647 4648 4649 4650 4651 4652 4653 4654 4655 4656 4657 4658 4659 4660 4661 4662 4663 4664 4665 4666 4667 4668 4669 4670 4671 4672 4673 4674 4675 4676 4677 4678 4679 4680 4681 4682 4683 4684 4685 4686 4687 4688 4689 4690 4691 4692 4693 4694 4695 4696 4697 4698 4699 4700 4701 4702 4703 4704 4705 4706 4707 4708 4709 4710 4711 4712 4713 4714 4715 4716 4717 4718 4719 4720 4721 4722 4723 4724 4725 4726 4727 4728 4729 4730 4731 4732 4733 4734 4735 4736 4737 4738 4739 4740 4741 4742 4743 4744 4745 4746 4747 4748 4749 4750 4751 4752 4753 4754 4755 4756 4757 4758 4759 4760 4761 4762 4763 4764 4765 4766 4767 4768 4769 4770 4771 4772 4773 4774 4775 4776 4777 4778 4779 4780 4781 4782 4783 4784 4785 4786 4787 4788 4789 4790 4791 4792 4793 4794 4795 4796 4797 4798 4799 4800 4801 4802 4803 4804 4805 4806 4807 4808 4809 4810 4811 4812 4813 4814 4815 4816 4817 4818 4819 4820 4821 4822 4823 4824 4825 4826 4827 4828 4829 4830 4831 4832 4833 4834 4835 4836 4837 4838 4839 4840 4841 4842 4843 4844 4845 4846 4847 4848 4849 4850 4851 4852 4853 4854 4855 4856 4857 4858 4859 4860 4861 4862 4863 4864 4865 4866 4867 4868 4869 4870 4871 4872 4873 4874 4875 4876 4877 4878 4879 4880 4881 4882 4883 4884 4885 4886 4887 4888 4889 4890 4891 4892 4893 4894 4895 4896 4897 4898 4899 4900 4901 4902 4903 4904 4905 4906 4907 4908 4909 4910 4911 4912 4913 4914 4915 4916 4917 4918 4919 4920 4921 4922 4923 4924 4925 4926 4927 4928 4929 4930 4931 4932 4933 4934 4935 4936 4937 4938 4939 4940 4941 4942 4943 4944 4945 4946 4947 4948 4949 4950 4951 4952 4953 4954 4955 4956 4957 4958 4959 4960 4961 4962 4963 4964 4965 4966 4967 4968 4969 4970 4971 4972 4973 4974 4975 4976 4977 4978 4979 4980 4981 4982 4983 4984 4985 4986 4987 4988 4989 4990 4991 4992 4993 4994 4995 4996 4997 4998 4999 5000 5001 5002 5003 5004 5005 5006 5007 5008 5009 5010 5011 5012 5013 5014 5015 5016 5017 5018 5019 5020 5021 5022 5023 5024 5025 5026 5027 5028 5029 5030 5031 5032 5033 5034 5035 5036 5037 5038 5039 5040 5041 5042 5043 5044 5045 5046 5047 5048 5049 5050 5051 5052 5053 5054 5055 5056 5057 5058 5059 5060 5061 5062 5063 5064 5065 5066 5067 5068 5069 5070 5071 5072 5073 5074 5075 5076 5077 5078 5079 5080 5081 5082 5083 5084 5085 5086 5087 5088 5089 5090 5091 5092 5093 5094 5095 5096 5097 5098 5099 5100 5101 5102 5103 5104 5105 5106 5107 5108 5109 5110 5111 5112 5113 5114 5115 5116 5117 5118 5119 5120 5121 5122 5123 5124 5125 5126 5127 5128 5129 5130 5131 5132 5133 5134 5135 5136 5137 5138 5139 5140 5141 5142 5143 5144 5145 5146 5147 5148 5149 5150 5151 5152 5153 5154 5155 5156 5157 5158 5159 5160 5161 5162 5163 5164 5165 5166 5167 5168 5169 5170 5171 5172 5173 5174 5175 5176 5177 5178 5179 5180 5181 5182 5183 5184 5185 5186 5187 5188 5189 5190 5191 5192 5193 5194 5195 5196 5197 5198 5199 5200 5201 5202 5203 5204 5205 5206 5207 5208 5209 5210 5211 5212 5213 5214 5215 5216 5217 5218 5219 5220 5221 5222 5223 5224 5225 5226 5227 5228 5229 5230 5231 5232 5233 5234 5235 5236 5237 5238 5239 5240 5241 5242 5243 5244 5245 5246 5247 5248 5249 5250 5251 5252 5253 5254 5255 5256 5257 5258 5259 5260 5261 5262 5263 5264 5265 5266 5267 5268 5269 5270 5271 5272 5273 5274 5275 5276 5277 5278 5279 5280 5281 5282 5283 5284 5285 5286 5287 5288 5289 5290 5291 5292 5293 5294 5295 5296 5297 5298 5299 5300 5301 5302 5303 5304 5305 5306 5307 5308 5309 5310 5311 5312 5313 5314 5315 5316 5317 5318 5319 5320 5321 5322 5323 5324 5325 5326 5327 5328 5329 5330 5331 5332 5333 5334 5335 5336 5337 5338 5339 5340 5341 5342 5343 5344 5345 5346 5347 5348 5349 5350 5351 5352 5353 5354 5355 5356 5357 5358 5359 5360 5361 5362 5363 5364 5365 5366 5367 5368 5369 5370 5371 5372 5373 5374 5375 5376 5377 5378 5379 5380 5381 5382 5383 5384 5385 5386 5387 5388 5389 5390 5391 5392 5393 5394 5395 5396 5397 5398 5399 5400 5401 5402 5403 5404 5405 5406 5407 5408 5409 5410 5411 5412 5413 5414 5415 5416 5417 5418 5419 5420 5421 5422 5423 5424 5425 5426 5427 5428 5429 5430 5431 5432 5433 5434 5435 5436 5437 5438 5439 5440 5441 5442 5443 5444 5445 5446 5447 5448 5449 5450 5451 5452 5453 5454 5455 5456 5457 5458 5459 5460 5461 5462 5463 5464 5465 5466 5467 5468 5469 5470 5471 5472 5473 5474 5475 5476 5477 5478 5479 5480 5481 5482 5483 5484 5485 5486 5487 5488 5489 5490 5491 5492 5493 5494 5495 5496 5497 5498 5499 5500 5501 5502 5503 5504 5505 5506 5507 5508 5509 5510 5511 5512 5513 5514 5515 5516 5517 5518 5519 5520 5521 5522 5523 5524 5525 5526 5527 5528 5529 5530 5531 5532 5533 5534 5535 5536 5537 5538 5539 5540 5541 5542 5543 5544 5545 5546 5547 5548 5549 5550 5551 5552 5553 5554 5555 5556 5557 5558 5559 5560 5561 5562 5563 5564 5565 5566 5567 5568 5569 5570 5571 5572 5573 5574 5575 5576 5577 5578 5579 5580 5581 5582 5583 5584 5585 5586 5587 5588 5589 5590 5591 5592 5593 5594 5595 5596 5597 5598 5599 5600 5601 5602 5603 5604 5605 5606 5607 5608 5609 5610 5611 5612 5613 5614 5615 5616 5617 5618 5619 5620 5621 5622 5623 5624 5625 5626 5627 5628 5629 5630 5631 5632 5633 5634 5635 5636 5637 5638 5639 5640 5641 5642 5643 5644 5645 5646 5647 5648 5649 5650 5651 5652 5653 5654 5655 5656 5657 5658 5659 5660 5661 5662 5663 5664 5665 5666 5667 5668 5669 5670 5671 5672 5673 5674 5675 5676 5677 5678 5679 5680 5681 5682 5683 5684 5685 5686 5687 5688 5689 5690 5691 5692 5693 5694 5695 5696 5697 5698 5699 5700 5701 5702 5703 5704 5705 5706 5707 5708 5709 5710 5711 5712 5713 5714 5715 5716 5717 5718 5719 5720 5721 5722 5723 5724 5725 5726 5727 5728 5729 5730 5731 5732 5733 5734 5735 5736 5737 5738 5739 5740 5741 5742 5743 5744 5745 5746 5747 5748 5749 5750 5751 5752 5753 5754 5755 5756 5757 5758 5759 5760 5761 5762 5763 5764 5765 5766 5767 5768 5769 5770 5771 5772 5773 5774 5775 5776 5777 5778 5779 5780 5781 5782 5783 5784 5785 5786 5787 5788 5789 5790 5791 5792 5793 5794 5795 5796 5797 5798 5799 5800 5801 5802 5803 5804 5805 5806 5807 5808 5809 5810 5811 5812 5813 5814 5815 5816 5817 5818 5819 5820 5821 5822 5823 5824 5825 5826 5827 5828 5829 5830 5831 5832 5833 5834 5835 5836 5837 5838 5839 5840 5841 5842 5843 5844 5845 5846 5847 5848 5849 5850 5851 5852 5853 5854 5855 5856 5857 5858 5859 5860 5861 5862 5863 5864 5865 5866 5867 5868 5869 5870 5871 5872 5873 5874 5875 5876 5877 5878 5879 5880 5881 5882 5883 5884 5885 5886 5887 5888 5889 5890 5891 5892 5893 5894 5895 5896 5897 5898 5899 5900 5901 5902 5903 5904 5905 5906 5907 5908 5909 5910 5911 5912 5913 5914 5915 5916 5917 5918 5919 5920 5921 5922 5923 5924 5925 5926 5927 5928 5929 5930 5931 5932 5933 5934 5935 5936 5937 5938 5939 5940 5941 5942 5943 5944 5945 5946 5947 5948 5949 5950 5951 5952 5953 5954 5955 5956 5957 5958 5959 5960 5961 5962 5963 5964 5965 5966 5967 5968 5969 5970 5971 5972 5973 5974 5975 5976 5977 5978 5979 5980 5981 5982 5983 5984 5985 5986 5987 5988 5989 5990 5991 5992 5993 5994 5995 5996 5997 5998 5999 6000 6001 6002 6003 6004 6005 6006 6007 6008 6009 6010 6011 6012 6013 6014 6015 6016 6017 6018 6019 6020 6021 6022 6023 6024 6025 6026 6027 6028 6029 6030 6031 6032 6033 6034 6035 6036 6037 6038 6039 6040 6041 6042 6043 6044 6045 6046 6047 6048 6049 6050 6051 6052 6053 6054 6055 6056 6057 6058 6059 6060 6061 6062 6063 6064 6065 6066 6067 6068 6069 6070 6071 6072 6073 6074 6075 6076 6077 6078 6079 6080 6081 6082 6083 6084 6085 6086 6087 6088 6089 6090 6091 6092 6093 6094 6095 6096 6097 6098 6099 6100 6101 6102 6103 6104 6105 6106 6107 6108 6109 6110 6111 6112 6113 6114 6115 6116 6117 6118 6119 6120 6121 6122 6123 6124 6125 6126 6127 6128 6129 6130 6131 6132 6133 6134 6135 6136 6137 6138 6139 6140 6141 6142 6143 6144 6145 6146 6147 6148 6149 6150 6151 6152 6153 6154 6155 6156 6157 6158 6159 6160 6161 6162 6163 6164 6165 6166 6167 6168 6169 6170 6171 6172 6173 6174 6175 6176 6177 6178 6179 6180 6181 6182 6183 6184 6185 6186 6187 6188 6189 6190 6191 6192 6193 6194 6195 6196 6197 6198 6199 6200 6201 6202 6203 6204 6205 6206 6207 6208 6209 6210 6211 6212 6213 6214 6215 6216 6217 6218 6219 6220 6221 6222 6223 6224 6225 6226 6227 6228 6229 6230 6231 6232 6233 6234 6235 6236 6237 6238 6239 6240 6241 6242 6243 6244 6245 6246 6247 6248 6249 6250 6251 6252 6253 6254 6255 6256 6257 6258 6259 6260 6261 6262 6263 6264 6265 6266 6267 6268 6269 6270 6271 6272 6273 6274 6275 6276 6277 6278 6279 6280 6281 6282 6283 6284 6285 6286 6287 6288 6289 6290 6291 6292 6293 6294 6295 6296 6297 6298 6299 6300 6301 6302 6303 6304 6305 6306 6307 6308 6309 6310 6311 6312 6313 6314 6315 6316 6317 6318 6319 6320 6321 6322 6323 6324 6325 6326 6327 6328 6329 6330 6331 6332 6333 6334 6335 6336 6337 6338 6339 6340 6341 6342 6343 6344 6345 6346 6347 6348 6349 6350 6351 6352 6353 6354 6355 6356 6357 6358 6359 6360 6361 6362 6363 6364 6365 6366 6367 6368 6369 6370 6371 6372 6373 6374 6375 6376 6377 6378 6379 6380 6381 6382 6383 6384 6385 6386 6387 6388 6389 6390 6391 6392 6393 6394 6395 6396 6397 6398 6399 6400 6401 6402 6403 6404 6405 6406 6407 6408 6409 6410 6411 6412 6413 6414 6415 6416 6417 6418 6419 6420 6421 6422 6423 6424 6425 6426 6427 6428 6429 6430 6431 6432 6433 6434 6435 6436 6437 6438 6439 6440 6441 6442 6443 6444 6445 6446 6447 6448 6449 6450 6451 6452 6453 6454 6455 6456 6457 6458 6459 6460 6461 6462 6463 6464 6465 6466 6467 6468 6469 6470 6471 6472 6473 6474 6475 6476 6477 6478 6479 6480 6481 6482 6483 6484 6485 6486 6487 6488 6489 6490 6491 6492 6493 6494 6495 6496 6497 6498 6499 6500 6501 6502 6503 6504 6505 6506 6507 6508 6509 6510 6511 6512 6513 6514 6515 6516 6517 6518 6519 6520 6521 6522 6523 6524 6525 6526 6527 6528 6529 6530 6531 6532 6533 6534 6535 6536 6537 6538 6539 6540 6541 6542 6543 6544 6545 6546 6547 6548 6549 6550 6551 6552 6553 6554 6555 6556 6557 6558 6559 6560 6561 6562 6563 6564 6565 6566 6567 6568 6569 6570 6571 6572 6573 6574 6575 6576 6577 6578 6579 6580 6581 6582 6583 6584 6585 6586 6587 6588 6589 6590 6591 6592 6593 6594 6595 6596 6597 6598 6599 6600 6601 6602 6603 6604 6605 6606 6607 6608 6609 6610 6611 6612 6613 6614 6615 6616 6617 6618 6619 6620 6621 6622 6623 6624 6625 6626 6627 6628 6629 6630 6631 6632 6633 6634 6635 6636 6637 6638 6639 6640 6641 6642 6643 6644 6645 6646 6647 6648 6649 6650 6651 6652 6653 6654 6655 6656 6657 6658 6659 6660 6661 6662 6663 6664 6665 6666 6667 6668 6669 6670 6671 6672 6673 6674 6675 6676 6677 6678 6679 6680 6681 6682 6683 6684 6685 6686 6687 6688 6689 6690 6691 6692 6693 6694 6695 6696 6697 6698 6699 6700 6701 6702 6703 6704 6705 6706 6707 6708 6709 6710 6711 6712 6713 6714 6715 6716 6717 6718 6719 6720 6721 6722 6723 6724 6725 6726 6727 6728 6729 6730 6731 6732 6733 6734 6735 6736 6737 6738 6739 6740 6741 6742 6743 6744 6745 6746 6747 6748 6749 6750 6751 6752 6753 6754 6755 6756 6757 6758 6759 6760 6761 6762 6763 6764 6765 6766 6767 6768 6769 6770 6771 6772 6773 6774 6775 6776 6777 6778 6779 6780 6781 6782 6783 6784 6785 6786 6787 6788 6789 6790 6791 6792 6793 6794 6795 6796 6797 6798 6799 6800 6801 6802 6803 6804 6805 6806 6807 6808 6809 6810 6811 6812 6813 6814 6815 6816 6817 6818 6819 6820 6821 6822 6823 6824 6825 6826 6827 6828 6829 6830 6831 6832 6833 6834 6835 6836 6837 6838 6839 6840 6841 6842 6843 6844 6845 6846 6847 6848 6849 6850 6851 6852 6853 6854 6855 6856 6857 6858 6859 6860 6861 6862 6863 6864 6865 6866 6867 6868 6869 6870 6871 6872 6873 6874 6875 6876 6877 6878 6879 6880 6881 6882 6883 6884 6885 6886 6887 6888 6889 6890 6891 6892 6893 6894 6895 6896 6897 6898 6899 6900 6901 6902 6903 6904 6905 6906 6907 6908 6909 6910 6911 6912 6913 6914 6915 6916 6917 6918 6919 6920 6921 6922 6923 6924 6925 6926 6927 6928 6929 6930 6931 6932 6933 6934 6935 6936 6937 6938 6939 6940 6941 6942 6943 6944 6945 6946 6947 6948 6949 6950 6951 6952 6953 6954 6955 6956 6957 6958 6959 6960 6961 6962 6963 6964 6965 6966 6967 6968 6969 6970 6971 6972 6973 6974 6975 6976 6977 6978 6979 6980 6981 6982 6983 6984 6985 6986 6987 6988 6989 6990 6991 6992 6993 6994 6995 6996 6997 6998 6999 7000 7001 7002 7003 7004 7005 7006 7007 7008 7009 7010 7011 7012 7013 7014 7015 7016 7017 7018 7019 7020 7021 7022 7023 7024 7025 7026 7027 7028 7029 7030 7031 7032 7033 7034 7035 7036 7037 7038 7039 7040 7041 7042 7043 7044 7045 7046 7047 7048 7049 7050 7051 7052 7053 7054 7055 7056 7057 7058 7059 7060 7061 7062 7063 7064 7065 7066 7067 7068 7069 7070 7071 7072 7073 7074 7075 7076 7077 7078 7079 7080 7081 7082 7083 7084 7085 7086 7087 7088 7089 7090 7091 7092 7093 7094 7095 7096 7097 7098 7099 7100 7101 7102 7103 7104 7105 7106 7107 7108 7109 7110 7111 7112 7113 7114 7115 7116 7117 7118 7119 7120 7121 7122 7123 7124 7125 7126 7127 7128 7129 7130 7131 7132 7133 7134 7135 7136 7137 7138 7139 7140 7141 7142 7143 7144 7145 7146 7147 7148 7149 7150 7151 7152 7153 7154 7155 7156 7157 7158 7159 7160 7161 7162 7163 7164 7165 7166 7167 7168 7169 7170 7171 7172 7173 7174 7175 7176 7177 7178 7179 7180 7181 7182 7183 7184 7185 7186 7187 7188 7189 7190 7191 7192 7193 7194 7195 7196 7197 7198 7199 7200 7201 7202 7203 7204 7205 7206 7207 7208 7209 7210 7211 7212 7213 7214 7215 7216 7217 7218 7219 7220 7221 7222 7223 7224 7225 7226 7227 7228 7229 7230 7231 7232 7233 7234 7235 7236 7237 7238 7239 7240 7241 7242 7243 7244 7245 7246 7247 7248 7249 7250 7251 7252 7253 7254 7255 7256 7257 7258 7259 7260 7261 7262 7263 7264 7265 7266 7267 7268 7269 7270 7271 7272 7273 7274 7275 7276 7277 7278 7279 7280 7281 7282 7283 7284 7285 7286 7287 7288 7289 7290 7291 7292 7293 7294 7295 7296 7297 7298 7299 7300 7301 7302 7303 7304 7305 7306 7307 7308 7309 7310 7311 7312 7313 7314 7315 7316 7317 7318 7319 7320 7321 7322 7323 7324 7325 7326 7327 7328 7329 7330 7331 7332 7333 7334 7335 7336 7337 7338 7339 7340 7341 7342 7343 7344 7345 7346 7347 7348 7349 7350 7351 7352 7353 7354 7355 7356 7357 7358 7359 7360 7361 7362 7363 7364 7365 7366 7367 7368 7369 7370 7371 7372 7373 7374 7375 7376 7377 7378 7379 7380 7381 7382 7383 7384 7385 7386 7387 7388 7389 7390 7391 7392 7393 7394 7395 7396 7397 7398 7399 7400 7401 7402 7403 7404 7405 7406 7407 7408 7409 7410 7411 7412 7413 7414 7415 7416 7417 7418 7419 7420 7421 7422 7423 7424 7425 7426 7427 7428 7429 7430 7431 7432 7433 7434 7435 7436 7437 7438 7439 7440 7441 7442 7443 7444 7445 7446 7447 7448 7449 7450 7451 7452 7453 7454 7455 7456 7457 7458 7459 7460 7461 7462 7463 7464 7465 7466 7467 7468 7469 7470 7471 7472 7473 7474 7475 7476 7477 7478 7479 7480 7481 7482 7483 7484 7485 7486 7487 7488 7489 7490 7491 7492 7493 7494 7495 7496 7497 7498 7499 7500 7501 7502 7503 7504 7505 7506 7507 7508 7509 7510 7511 7512 7513 7514 7515 7516 7517 7518 7519 7520 7521 7522 7523 7524 7525 7526 7527 7528 7529 7530 7531 7532 7533 7534 7535 7536 7537 7538 7539 7540 7541 7542 7543 7544 7545 7546 7547 7548 7549 7550 7551 7552 7553 7554 7555 7556 7557 7558 7559 7560 7561 7562 7563 7564 7565 7566 7567 7568 7569 7570 7571 7572 7573 7574 7575 7576 7577 7578 7579 7580 7581 7582 7583 7584 7585 7586 7587 7588 7589 7590 7591 7592 7593 7594 7595 7596 7597 7598 7599 7600 7601 7602 7603 7604 7605 7606 7607 7608 7609 7610 7611 7612 7613 7614 7615 7616 7617 7618 7619 7620 7621 7622 7623 7624 7625 7626 7627 7628 7629 7630 7631 7632 7633 7634 7635 7636 7637 7638 7639 7640 7641 7642 7643 7644 7645 7646 7647 7648 7649 7650 7651 7652 7653 7654 7655 7656 7657 7658 7659 7660 7661 7662 7663 7664 7665 7666 7667 7668 7669 7670 7671 7672 7673 7674 7675 7676 7677 7678 7679 7680 7681 7682 7683 7684 7685 7686 7687 7688 7689 7690 7691 7692 7693 7694 7695 7696 7697 7698 7699 7700 7701 7702 7703 7704 7705 7706 7707 7708 7709 7710 7711 7712 7713 7714 7715 7716 7717 7718 7719 7720 7721 7722 7723 7724 7725 7726 7727 7728 7729 7730 7731 7732 7733 7734 7735 7736 7737 7738 7739 7740 7741 7742 7743 7744 7745 7746 7747 7748 7749 7750 7751 7752 7753 7754 7755 7756 7757 7758 7759 7760 7761 7762 7763 7764 7765 7766 7767 7768 7769 7770 7771 7772 7773 7774 7775 7776 7777 7778 7779 7780 7781 7782 7783 7784 7785 7786 7787 7788 7789 7790 7791 7792 7793 7794 7795 7796 7797 7798 7799 7800 7801 7802 7803 7804 7805 7806 7807 7808 7809 7810 7811 7812 7813 7814 7815 7816 7817 7818 7819 7820 7821 7822 7823 7824 7825 7826 7827 7828 7829 7830 7831 7832 7833 7834 7835 7836 7837 7838 7839 7840 7841 7842 7843 7844 7845 7846 7847 7848 7849 7850 7851 7852 7853 7854 7855 7856 7857 7858 7859 7860 7861 7862 7863 7864 7865 7866 7867 7868 7869 7870 7871 7872 7873 7874 7875 7876 7877 7878 7879 7880 7881 7882 7883 7884 7885 7886 7887 7888 7889 7890 7891 7892 7893 7894 7895 7896 7897 7898 7899 7900 7901 7902 7903 7904 7905 7906 7907 7908 7909 7910 7911 7912 7913 7914 7915 7916 7917 7918 7919 7920 7921 7922 7923 7924 7925 7926 7927 7928 7929 7930 7931 7932 7933 7934 7935 7936 7937 7938 7939 7940 7941 7942 7943 7944 7945 7946 7947 7948 7949 7950 7951 7952 7953 7954 7955 7956 7957 7958 7959 7960 7961 7962 7963 7964 7965 7966 7967 7968 7969 7970 7971 7972 7973 7974 7975 7976 7977 7978 7979 7980 7981 7982 7983 7984 7985 7986 7987 7988 7989 7990 7991 7992 7993 7994 7995 7996 7997 7998 7999 8000 8001 8002 8003 8004 8005 8006 8007 8008 8009 8010 8011 8012 8013 8014 8015 8016 8017 8018 8019 8020 8021 8022 8023 8024 8025 8026 8027 8028 8029 8030 8031 8032 8033 8034 8035 8036 8037 8038 8039 8040 8041 8042 8043 8044 8045 8046 8047 8048 8049 8050 8051 8052 8053 8054 8055 8056 8057 8058 8059 8060 8061 8062 8063 8064 8065 8066 8067 8068 8069 8070 8071 8072 8073 8074 8075 8076 8077 8078 8079 8080 8081 8082 8083 8084 8085 8086 8087 8088 8089 8090 8091 8092 8093 8094 8095 8096 8097 8098 8099 8100 8101 8102 8103 8104 8105 8106 8107 8108 8109 8110 8111 8112 8113 8114 8115 8116 8117 8118 8119 8120 8121 8122 8123 8124 8125 8126 8127 8128 8129 8130 8131 8132 8133 8134 8135 8136 8137 8138 8139 8140 8141 8142 8143 8144 8145 8146 8147 8148 8149 8150 8151 8152 8153 8154 8155 8156 8157 8158 8159 8160 8161 8162 8163 8164 8165 8166 8167 8168 8169 8170 8171 8172 8173 8174 8175 8176 8177 8178 8179 8180 8181 8182 8183 8184 8185 8186 8187 8188 8189 8190 8191 8192 8193 8194 8195 8196 8197 8198 8199 8200 8201 8202 8203 8204 8205 8206 8207 8208 8209 8210 8211 8212 8213 8214 8215 8216 8217 8218 8219 8220 8221 8222 8223 8224 8225 8226 8227 8228 8229 8230 8231 8232 8233 8234 8235 8236 8237 8238 8239 8240 8241 8242 8243 8244 8245 8246 8247 8248 8249 8250 8251 8252 8253 8254 8255 8256 8257 8258 8259 8260 8261 8262 8263 8264 8265 8266 8267 8268 8269 8270 8271 8272 8273 8274 8275 8276 8277 8278 8279 8280 8281 8282 8283 8284 8285 8286 8287 8288 8289 8290 8291 8292 8293 8294 8295 8296 8297 8298 8299 8300 8301 8302 8303 8304 8305 8306 8307 8308 8309 8310 8311 8312 8313 8314 8315 8316 8317 8318 8319 8320 8321 8322 8323 8324 8325 8326 8327 8328 8329 8330 8331 8332 8333 8334 8335 8336 8337 8338 8339 8340 8341 8342 8343 8344 8345 8346 8347 8348 8349 8350 8351 8352 8353 8354 8355 8356 8357 8358 8359 8360 8361 8362 8363 8364 8365 8366 8367 8368 8369 8370 8371 8372 8373 8374 8375 8376 8377 8378 8379 8380 8381 8382 8383 8384 8385 8386 8387 8388 8389 8390 8391 8392 8393 8394 8395 8396 8397 8398 8399 8400 8401 8402 8403 8404 8405 8406 8407 8408 8409 8410 8411 8412 8413 8414 8415 8416 8417 8418 8419 8420 8421 8422 8423 8424 8425 8426 8427 8428 8429 8430 8431 8432 8433 8434 8435 8436 8437 8438 8439 8440 8441 8442 8443 8444 8445 8446 8447 8448 8449 8450 8451 8452 8453 8454 8455 8456 8457 8458 8459 8460 8461 8462 8463 8464 8465 8466 8467 8468 8469 8470 8471 8472 8473 8474 8475 8476 8477 8478 8479 8480 8481 8482 8483 8484 8485 8486 8487 8488 8489 8490 8491 8492 8493 8494 8495 8496 8497 8498 8499 8500 8501 8502 8503 8504 8505 8506 8507 8508 8509 8510 8511 8512 8513 8514 8515 8516 8517 8518 8519 8520 8521 8522 8523 8524 8525 8526 8527 8528 8529 8530 8531 8532 8533 8534 8535 8536 8537 8538 8539 8540 8541 8542 8543 8544 8545 8546 8547 8548 8549 8550 8551 8552 8553 8554 8555 8556 8557 8558 8559 8560 8561 8562 8563 8564 8565 8566 8567 8568 8569 8570 8571 8572 8573 8574 8575 8576 8577 8578 8579 8580 8581 8582 8583 8584 8585 8586 8587 8588 8589 8590 8591 8592 8593 8594 8595 8596 8597 8598 8599 8600 8601 8602 8603 8604 8605 8606 8607 8608 8609 8610 8611 8612 8613 8614 8615 8616 8617 8618 8619 8620 8621 8622 8623 8624 8625 8626 8627 8628 8629 8630 8631 8632 8633 8634 8635 8636 8637 8638 8639 8640 8641 8642 8643 8644 8645 8646 8647 8648 8649 8650 8651 8652 8653 8654 8655 8656 8657 8658 8659 8660 8661 8662 8663 8664 8665 8666 8667 8668 8669 8670 8671 8672 8673 8674 8675 8676 8677 8678 8679 8680 8681 8682 8683 8684 8685 8686 8687 8688 8689 8690 8691 8692 8693 8694 8695 8696 8697 8698 8699 8700 8701 8702 8703 8704 8705 8706 8707 8708 8709 8710 8711 8712 8713 8714 8715 8716 8717 8718 8719 8720 8721 8722 8723 8724 8725 8726 8727 8728 8729 8730 8731 8732 8733 8734 8735 8736 8737 8738 8739 8740 8741 8742 8743 8744 8745 8746 8747 8748 8749 8750 8751 8752 8753 8754 8755 8756 8757 8758 8759 8760 8761 8762 8763 8764 8765 8766 8767 8768 8769 8770 8771 8772 8773 8774 8775 8776 8777 8778 8779 8780 8781 8782 8783 8784 8785 8786 8787 8788 8789 8790 8791 8792 8793 8794 8795 8796 8797 8798 8799 8800 8801 8802 8803 8804 8805 8806 8807 8808 8809 8810 8811 8812 8813 8814 8815 8816 8817 8818 8819 8820 8821 8822 8823 8824 8825 8826 8827 8828 8829 8830 8831 8832 8833 8834 8835 8836 8837 8838 8839 8840 8841 8842 8843 8844 8845 8846 8847 8848 8849 8850 8851 8852 8853 8854 8855 8856 8857 8858 8859 8860 8861 8862 8863 8864 8865 8866 8867 8868 8869 8870 8871 8872 8873 8874 8875 8876 8877 8878 8879 8880 8881 8882 8883 8884 8885 8886 8887 8888 8889 8890 8891 8892 8893 8894 8895 8896 8897 8898 8899 8900 8901 8902 8903 8904 8905 8906 8907 8908 8909 8910 8911 8912 8913 8914 8915 8916 8917 8918 8919 8920 8921 8922 8923 8924 8925 8926 8927 8928 8929 8930 8931 8932 8933 8934 8935 8936 8937 8938 8939 8940 8941 8942 8943 8944 8945 8946 8947 8948 8949 8950 8951 8952 8953 8954 8955 8956 8957 8958 8959 8960 8961 8962 8963 8964 8965 8966 8967 8968 8969 8970 8971 8972 8973 8974 8975 8976 8977 8978 8979 8980 8981 8982 8983 8984 8985 8986 8987 8988 8989 8990 8991 8992 8993 8994 8995 8996 8997 8998 8999 9000 9001 9002 9003 9004 9005 9006 9007 9008 9009 9010 9011 9012 9013 9014 9015 9016 9017 9018 9019 9020 9021 9022 9023 9024 9025 9026 9027 9028 9029 9030 9031 9032 9033 9034 9035 9036 9037 9038 9039 9040 9041 9042 9043 9044 9045 9046 9047 9048 9049 9050 9051 9052 9053 9054 9055 9056 9057 9058 9059 9060 9061 9062 9063 9064 9065 9066 9067 9068 9069 9070 9071 9072 9073 9074 9075 9076 9077 9078 9079 9080 9081 9082 9083 9084 9085 9086 9087 9088 9089 9090 9091 9092 9093 9094 9095 9096 9097 9098 9099 9100 9101 9102 9103 9104 9105 9106 9107 9108 9109 9110 9111 9112 9113 9114 9115 9116 9117 9118 9119 9120 9121 9122 9123 9124 9125 9126 9127 9128 9129 9130 9131 9132 9133 9134 9135 9136 9137 9138 9139 9140 9141 9142 9143 9144 9145 9146 9147 9148 9149 9150 9151 9152 9153 9154 9155 9156 9157 9158 9159 9160 9161 9162 9163 9164 9165 9166 9167 9168 9169 9170 9171 9172 9173 9174 9175 9176 9177 9178 9179 9180 9181 9182 9183 9184 9185 9186 9187 9188 9189 9190 9191 9192 9193 9194 9195 9196 9197 9198 9199 9200 9201 9202 9203 9204 9205 9206 9207 9208 9209 9210 9211 9212 9213 9214 9215 9216 9217 9218 9219 9220 9221 9222 9223 9224 9225 9226 9227 9228 9229 9230 9231 9232 9233 9234 9235 9236 9237 9238 9239 9240 9241 9242 9243 9244 9245 9246 9247 9248 9249 9250 9251 9252 9253 9254 9255 9256 9257 9258 9259 9260 9261 9262 9263 9264 9265 9266 9267 9268 9269 9270 9271 9272 9273 9274 9275 9276 9277 9278 9279 9280 9281 9282 9283 9284 9285 9286 9287 9288 9289 9290 9291 9292 9293 9294 9295 9296 9297 9298 9299 9300 9301 9302 9303 9304 9305 9306 9307 9308 9309 9310 9311 9312 9313 9314 9315 9316 9317 9318 9319 9320 9321 9322 9323 9324 9325 9326 9327 9328 9329 9330 9331 9332 9333 9334 9335 9336 9337 9338 9339 9340 9341 9342 9343 9344 9345 9346 9347 9348 9349 9350 9351 9352 9353 9354 9355 9356 9357 9358 9359 9360 9361 9362 9363 9364 9365 9366 9367 9368 9369 9370 9371 9372 9373 9374 9375 9376 9377 9378 9379 9380 9381 9382 9383 9384 9385 9386 9387 9388 9389 9390 9391 9392 9393 9394 9395 9396 9397 9398 9399 9400 9401 9402 9403 9404 9405 9406 9407 9408 9409 9410 9411 9412 9413 9414 9415 9416 9417 9418 9419 9420 9421 9422 9423 9424 9425 9426 9427 9428 9429 9430 9431 9432 9433 9434 9435 9436 9437 9438 9439 9440 9441 9442 9443 9444 9445 9446 9447 9448 9449 9450 9451 9452 9453 9454 9455 9456 9457 9458 9459 9460 9461 9462 9463 9464 9465 9466 9467 9468 9469 9470 9471 9472 9473 9474 9475 9476 9477 9478 9479 9480 9481 9482 9483 9484 9485 9486 9487 9488 9489 9490 9491 9492 9493 9494 9495 9496 9497 9498 9499 9500 9501 9502 9503 9504 9505 9506 9507 9508 9509 9510 9511 9512 9513 9514 9515 9516 9517 9518 9519 9520 9521 9522 9523 9524 9525 9526 9527 9528 9529 9530 9531 9532 9533 9534 9535 9536 9537 9538 9539 9540 9541 9542 9543 9544 9545 9546 9547 9548 9549 9550 9551 9552 9553 9554 9555 9556 9557 9558 9559 9560 9561 9562 9563 9564 9565 9566 9567 9568 9569 9570 9571 9572 9573 9574 9575 9576 9577 9578 9579 9580 9581 9582 9583 9584 9585 9586 9587 9588 9589 9590 9591 9592 9593 9594 9595 9596 9597 9598 9599 9600 9601 9602 9603 9604 9605 9606 9607 9608 9609 9610 9611 9612 9613 9614 9615 9616 9617 9618 9619 9620 9621 9622 9623 9624 9625 9626 9627 9628 9629 9630 9631 9632 9633 9634 9635 9636 9637 9638 9639 9640 9641 9642 9643 9644 9645 9646 9647 9648 9649 9650 9651 9652 9653 9654 9655 9656 9657 9658 9659 9660 9661 9662 9663 9664 9665 9666 9667 9668 9669 9670 9671 9672 9673 9674 9675 9676 9677 9678 9679 9680 9681 9682 9683 9684 9685 9686 9687 9688 9689 9690 9691 9692 9693 9694 9695 9696 9697 9698 9699 9700 9701 9702 9703 9704 9705 9706 9707 9708 9709 9710 9711 9712 9713 9714 9715 9716 9717 9718 9719 9720 9721 9722 9723 9724 9725 9726 9727 9728 9729 9730 9731 9732 9733 9734 9735 9736 9737 9738 9739 9740 9741 9742 9743 9744 9745 9746 9747 9748 9749 9750 9751 9752 9753 9754 9755 9756 9757 9758 9759 9760 9761 9762 9763 9764 9765 9766 9767 9768 9769 9770 9771 9772 9773 9774 9775 9776 9777 9778 9779 9780 9781 9782 9783 9784 9785 9786 9787 9788 9789 9790 9791 9792 9793 9794 9795 9796 9797 9798 9799 9800 9801 9802 9803 9804 9805 9806 9807 9808 9809 9810 9811 9812 9813 9814 9815 9816 9817 9818 9819 9820 9821 9822 9823 9824 9825 9826 9827 9828 9829 9830 9831 9832 9833 9834 9835 9836 9837 9838 9839 9840 9841 9842 9843 9844 9845 9846 9847 9848 9849 9850 9851 9852 9853 9854 9855 9856 9857 9858 9859 9860 9861 9862 9863 9864 9865 9866 9867 9868 9869 9870 9871 9872 9873 9874 9875 9876 9877 9878 9879 9880 9881 9882 9883 9884 9885 9886 9887 9888 9889 9890 9891 9892 9893 9894 9895 9896 9897 9898 9899 9900 9901 9902 9903 9904 9905 9906 9907 9908 9909 9910 9911 9912 9913 9914 9915 9916 9917 9918 9919 9920 9921 9922 9923 9924 9925 9926 9927 9928 9929 9930 9931 9932 9933 9934 9935 9936 9937 9938 9939 9940 9941 9942 9943 9944 9945 9946 9947 9948 9949 9950 9951 9952 9953 9954 9955 9956 9957 9958 9959 9960 9961 9962 9963 9964 9965 9966 9967 9968 9969 9970 9971 9972 9973 9974 9975 9976 9977 9978 9979 9980 9981 9982 9983 9984 9985 9986 9987 9988 9989 9990 9991 9992 9993 9994 9995 9996 9997 9998 9999 10000 10001 10002 10003 10004 10005 10006 10007 10008 10009 10010 10011 10012 10013 10014 10015 10016 10017 10018 10019 10020 10021 10022 10023 10024 10025 10026 10027 10028 10029 10030 10031 10032 10033 10034 10035 10036 10037 10038 10039 10040 10041 10042 10043 10044 10045 10046 10047 10048 10049 10050 10051 10052 10053 10054 10055 10056 10057 10058 10059 10060 10061 10062 10063 10064 10065 10066 10067 10068 10069 10070 10071 10072 10073 10074 10075 10076 10077 10078 10079 10080 10081 10082 10083 10084 10085 10086 10087 10088 10089 10090 10091 10092 10093 10094 10095 10096 10097 10098 10099 10100 10101 10102 10103 10104 10105 10106 10107 10108 10109 10110 10111 10112 10113 10114 10115 10116 10117 10118 10119 10120 10121 10122 10123 10124 10125 10126 10127 10128 10129 10130 10131 10132 10133 10134 10135 10136 10137 10138 10139 10140 10141 10142 10143 10144 10145 10146 10147 10148 10149 10150 10151 10152 10153 10154 10155 10156 10157 10158 10159 10160 10161 10162 10163 10164 10165 10166 10167 10168 10169 10170 10171 10172 10173 10174 10175 10176 10177 10178 10179 10180 10181 10182 10183 10184 10185 10186 10187 10188 10189 10190 10191 10192 10193 10194 10195 10196 10197 10198 10199 10200 10201 10202 10203 10204 10205 10206 10207 10208 10209 10210 10211 10212 10213 10214 10215 10216 10217 10218 10219 10220 10221 10222 10223 10224 10225 10226 10227 10228 10229 10230 10231 10232 10233 10234 10235 10236 10237 10238 10239 10240 10241 10242 10243 10244 10245 10246 10247 10248 10249 10250 10251 10252 10253 10254 10255 10256 10257 10258 10259 10260 10261 10262 10263 10264 10265 10266 10267 10268 10269 10270 10271 10272 10273 10274 10275 10276 10277 10278 10279 10280 10281 10282 10283 10284 10285 10286 10287 10288 10289 10290 10291 10292 10293 10294 10295 10296 10297 10298 10299 10300 10301 10302 10303 10304 10305 10306 10307 10308 10309 10310 10311 10312 10313 10314 10315 10316 10317 10318 10319 10320 10321 10322 10323 10324 10325 10326 10327 10328 10329 10330 10331 10332 10333 10334 10335 10336 10337 10338 10339 10340 10341 10342 10343 10344 10345 10346 10347 10348 10349 10350 10351 10352 10353 10354 10355 10356 10357 10358 10359 10360 10361 10362 10363 10364 10365 10366 10367 10368 10369 10370 10371 10372 10373 10374 10375 10376 10377 10378 10379 10380 10381 10382 10383 10384 10385 10386 10387 10388 10389 10390 10391 10392 10393 10394 10395 10396 10397 10398 10399 10400 10401 10402 10403 10404 10405 10406 10407 10408 10409 10410 10411 10412 10413 10414 10415 10416 10417 10418 10419 10420 10421 10422 10423 10424 10425 10426 10427 10428 10429 10430 10431 10432 10433 10434 10435 10436 10437 10438 10439 10440 10441 10442 10443 10444 10445 10446 10447 10448 10449 10450 10451 10452 10453 10454 10455 10456 10457 10458 10459 10460 10461 10462 10463 10464 10465 10466 10467 10468 10469 10470 10471 10472 10473 10474 10475 10476 10477 10478 10479 10480 10481 10482 10483 10484 10485 10486 10487 10488 10489 10490 10491 10492 10493 10494 10495 10496 10497 10498 10499 10500 10501 10502 10503 10504 10505 10506 10507 10508 10509 10510 10511 10512 10513 10514 10515 10516 10517 10518 10519 10520 10521 10522 10523 10524 10525 10526 10527 10528 10529 10530 10531 10532 10533 10534 10535 10536 10537 10538 10539 10540 10541 10542 10543 10544 10545 10546 10547 10548 10549 10550 10551 10552 10553 10554 10555 10556 10557 10558 10559 10560 10561 10562 10563 10564 10565 10566 10567 10568 10569 10570 10571 10572 10573 10574 10575 10576 10577 10578 10579 10580 10581 10582 10583 10584 10585 10586 10587 10588 10589 10590 10591 10592 10593 10594 10595 10596 10597 10598 10599 10600 10601 10602 10603 10604 10605 10606 10607 10608 10609 10610 10611 10612 10613 10614 10615 10616 10617 10618 10619 10620 10621 10622 10623 10624 10625 10626 10627 10628 10629 10630 10631 10632 10633 10634 10635 10636 10637 10638 10639 10640 10641 10642 10643 10644 10645 10646 10647 10648 10649 10650 10651 10652 10653 10654 10655 10656 10657 10658 10659 10660 10661 10662 10663 10664 10665 10666 10667 10668 10669 10670 10671 10672 10673 10674 10675 10676 10677 10678 10679 10680 10681 10682 10683 10684 10685 10686 10687 10688 10689 10690 10691 10692 10693 10694 10695 10696 10697 10698 10699 10700 10701 10702 10703 10704 10705 10706 10707 10708 10709 10710 10711 10712 10713 10714 10715 10716 10717 10718 10719 10720 10721 10722 10723 10724 10725 10726 10727 10728 10729 10730 10731 10732 10733 10734 10735 10736 10737 10738 10739 10740 10741 10742 10743 10744 10745 10746 10747 10748 10749 10750 10751 10752 10753 10754 10755 10756 10757 10758 10759 10760 10761 10762 10763 10764 10765 10766 10767 10768 10769 10770 10771 10772 10773 10774 10775 10776 10777 10778 10779 10780 10781 10782 10783 10784 10785 10786 10787 10788 10789 10790 10791 10792 10793 10794 10795 10796 10797 10798 10799 10800 10801 10802 10803 10804 10805 10806 10807 10808 10809 10810 10811 10812 10813 10814 10815 10816 10817 10818 10819 10820 10821 10822 10823 10824 10825 10826 10827 10828 10829 10830 10831 10832 10833 10834 10835 10836 10837 10838 10839 10840 10841 10842 10843 10844 10845 10846 10847 10848 10849 10850 10851 10852 10853 10854 10855 10856 10857 10858 10859 10860 10861 10862 10863 10864 10865 10866 10867 10868 10869 10870 10871 10872 10873 10874 10875 10876 10877 10878 10879 10880 10881 10882 10883 10884 10885 10886 10887 10888 10889 10890 10891 10892 10893 10894 10895 10896 10897 10898 10899 10900 10901 10902 10903 10904 10905 10906 10907 10908 10909 10910 10911 10912 10913 10914 10915 10916 10917 10918 10919 10920 10921 10922 10923 10924 10925 10926 10927 10928 10929 10930 10931 10932 10933 10934 10935 10936 10937 10938 10939 10940 10941 10942 10943 10944 10945 10946 10947 10948 10949 10950 10951 10952 10953 10954 10955 10956 10957 10958 10959 10960 10961 10962 10963 10964 10965 10966 10967 10968 10969 10970 10971 10972 10973 10974 10975 10976 10977 10978 10979 10980 10981 10982 10983 10984 10985 10986 10987 10988 10989 10990 10991 10992 10993 10994 10995 10996 10997 10998 10999 11000 11001 11002 11003 11004 11005 11006 11007 11008 11009 11010 11011 11012 11013 11014 11015 11016 11017 11018 11019 11020 11021 11022 11023 11024 11025 11026 11027 11028 11029 11030 11031 11032 11033 11034 11035 11036 11037 11038 11039 11040 11041 11042 11043 11044 11045 11046 11047 11048 11049 11050 11051 11052 11053 11054 11055 11056 11057 11058 11059 11060 11061 11062 11063 11064 11065 11066 11067 11068 11069 11070 11071 11072 11073 11074 11075 11076 11077 11078 11079 11080 11081 11082 11083 11084 11085 11086 11087 11088 11089 11090 11091 11092 11093 11094 11095 11096 11097 11098 11099 11100 11101 11102 11103 11104 11105 11106 11107 11108 11109 11110 11111 11112 11113 11114 11115 11116 11117 11118 11119 11120 11121 11122 11123 11124 11125 11126 11127 11128 11129 11130 11131 11132 11133 11134 11135 11136 11137 11138 11139 11140 11141 11142 11143 11144 11145 11146 11147 11148 11149 11150 11151 11152 11153 11154 11155 11156 11157 11158 11159 11160 11161 11162 11163 11164 11165 11166 11167 11168 11169 11170 11171 11172 11173 11174 11175 11176 11177 11178 11179 11180 11181 11182 11183 11184 11185 11186 11187 11188 11189 11190 11191 11192 11193 11194 11195 11196 11197 11198 11199 11200 11201 11202 11203 11204 11205 11206 11207 11208 11209 11210 11211 11212 11213 11214 11215 11216 11217 11218 11219 11220 11221 11222 11223 11224 11225 11226 11227 11228 11229 11230 11231 11232 11233 11234 11235 11236 11237 11238 11239 11240 11241 11242 11243 11244 11245 11246 11247 11248 11249 11250 11251 11252 11253 11254 11255 11256 11257 11258 11259 11260 11261 11262 11263 11264 11265 11266 11267 11268 11269 11270 11271 11272 11273 11274 11275 11276 11277 11278 11279 11280 11281 11282 11283 11284 11285 11286 11287 11288 11289 11290 11291 11292 11293 11294 11295 11296 11297 11298 11299 11300 11301 11302 11303 11304 11305 11306 11307 11308 11309 11310 11311 11312 11313 11314 11315 11316 11317 11318 11319 11320 11321 11322 11323 11324 11325 11326 11327 11328 11329 11330 11331 11332 11333 11334 11335 11336 11337 11338 11339 11340 11341 11342 11343 11344 11345 11346 11347 11348 11349 11350 11351 11352 11353 11354 11355 11356 11357 11358 11359 11360 11361 11362 11363 11364 11365 11366 11367 11368 11369 11370 11371 11372 11373 11374 11375 11376 11377 11378 11379 11380 11381 11382 11383 11384 11385 11386 11387 11388 11389 11390 11391 11392 11393 11394 11395 11396 11397 11398 11399 11400 11401 11402 11403 11404 11405 11406 11407 11408 11409 11410 11411 11412 11413 11414 11415 11416 11417 11418 11419 11420 11421 11422 11423 11424 11425 11426 11427 11428 11429 11430 11431 11432 11433 11434 11435 11436 11437 11438 11439 11440 11441 11442 11443 11444 11445 11446 11447 11448 11449 11450 11451 11452 11453 11454 11455 11456 11457 11458 11459 11460 11461 11462 11463 11464 11465 11466 11467 11468 11469 11470 11471 11472 11473 11474 11475 11476 11477 11478 11479 11480 11481 11482 11483 11484 11485 11486 11487 11488 11489 11490 11491 11492 11493 11494 11495 11496 11497 11498 11499 11500 11501 11502 11503 11504 11505 11506 11507 11508 11509 11510 11511 11512 11513 11514 11515 11516 11517 11518 11519 11520 11521 11522 11523 11524 11525 11526 11527 11528 11529 11530 11531 11532 11533 11534 11535 11536 11537 11538 11539 11540 11541 11542 11543 11544 11545 11546 11547 11548 11549 11550 11551 11552 11553 11554 11555 11556 11557 11558 11559 11560 11561 11562 11563 11564 11565 11566 11567 11568 11569 11570 11571 11572 11573 11574 11575 11576 11577 11578 11579 11580 11581 11582 11583 11584 11585 11586 11587 11588 11589 11590 11591 11592 11593 11594 11595 11596 11597 11598 11599 11600 11601 11602 11603 11604 11605 11606 11607 11608 11609 11610 11611 11612 11613 11614 11615 11616 11617 11618 11619 11620 11621 11622 11623 11624 11625 11626 11627 11628 11629 11630 11631 11632 11633 11634 11635 11636 11637 11638 11639 11640 11641 11642 11643 11644 11645 11646 11647 11648 11649 11650 11651 11652 11653 11654 11655 11656 11657 11658 11659 11660 11661 11662 11663 11664 11665 11666 11667 11668 11669 11670 11671 11672 11673 11674 11675 11676 11677 11678 11679 11680 11681 11682 11683 11684 11685 11686 11687 11688 11689 11690 11691 11692 11693 11694 11695 11696 11697 11698 11699 11700 11701 11702 11703 11704 11705 11706 11707 11708 11709 11710 11711 11712 11713 11714 11715 11716 11717 11718 11719 11720 11721 11722 11723 11724 11725 11726 11727 11728 11729 11730 11731 11732 11733 11734 11735 11736 11737 11738 11739 11740 11741 11742 11743 11744 11745 11746 11747 11748 11749 11750 11751 11752 11753 11754 11755 11756 11757 11758 11759 11760 11761 11762 11763 11764 11765 11766 11767 11768 11769 11770 11771 11772 11773 11774 11775 11776 11777 11778 11779 11780 11781 11782 11783 11784 11785 11786 11787 11788 11789 11790 11791 11792 11793 11794 11795 11796 11797 11798 11799 11800 11801 11802 11803 11804 11805 11806 11807 11808 11809 11810 11811 11812 11813 11814 11815 11816 11817 11818 11819 11820 11821 11822 11823 11824 11825 11826 11827 11828 11829 11830 11831 11832 11833 11834 11835 11836 11837 11838 11839 11840 11841 11842 11843 11844 11845 11846 11847 11848 11849 11850 11851 11852 11853 11854 11855 11856 11857 11858 11859 11860 11861 11862 11863 11864 11865 11866 11867 11868 11869 11870 11871 11872 11873 11874 11875 11876 11877 11878 11879 11880 11881 11882 11883 11884 11885 11886 11887 11888 11889 11890 11891 11892 11893 11894 11895 11896 11897 11898 11899 11900 11901 11902 11903 11904 11905 11906 11907 11908 11909 11910 11911 11912 11913 11914 11915 11916 11917 11918 11919 11920 11921 11922 11923 11924 11925 11926 11927 11928 11929 11930 11931 11932 11933 11934 11935 11936 11937 11938 11939 11940 11941 11942 11943 11944 11945 11946 11947 11948 11949 11950 11951 11952 11953 11954 11955 11956 11957 11958 11959 11960 11961 11962 11963 11964 11965 11966 11967 11968 11969 11970 11971 11972 11973 11974 11975 11976 11977 11978 11979 11980 11981 11982 11983 11984 11985 11986 11987 11988 11989 11990 11991 11992 11993 11994 11995 11996 11997 11998 11999 12000 12001 12002 12003 12004 12005 12006 12007 12008 12009 12010 12011 12012 12013 12014 12015 12016 12017 12018 12019 12020 12021 12022 12023 12024 12025 12026 12027 12028 12029 12030 12031 12032 12033 12034 12035 12036 12037 12038 12039 12040 12041 12042 12043 12044 12045 12046 12047 12048 12049 12050 12051 12052 12053 12054 12055 12056 12057 12058 12059 12060 12061 12062 12063 12064 12065 12066 12067 12068 12069 12070 12071 12072 12073 12074 12075 12076 12077 12078 12079 12080 12081 12082 12083 12084 12085 12086 12087 12088 12089 12090 12091 12092 12093 12094 12095 12096 12097 12098 12099 12100 12101 12102 12103 12104 12105 12106 12107 12108 12109 12110 12111 12112 12113 12114 12115 12116 12117 12118 12119 12120 12121 12122 12123 12124 12125 12126 12127 12128 12129 12130 12131 12132 12133 12134 12135 12136 12137 12138 12139 12140 12141 12142 12143 12144 12145 12146 12147 12148 12149 12150 12151 12152 12153 12154 12155 12156 12157 12158 12159 12160 12161 12162 12163 12164 12165 12166 12167 12168 12169 12170 12171 12172 12173 12174 12175 12176 12177 12178 12179 12180 12181 12182 12183 12184 12185 12186 12187 12188 12189 12190 12191 12192 12193 12194 12195 12196 12197 12198 12199 12200 12201 12202 12203 12204 12205 12206 12207 12208 12209 12210 12211 12212 12213 12214 12215 12216 12217 12218 12219 12220 12221 12222 12223 12224 12225 12226 12227 12228 12229 12230 12231 12232 12233 12234 12235 12236 12237 12238 12239 12240 12241 12242 12243 12244 12245 12246 12247 12248 12249 12250 12251 12252 12253 12254 12255 12256 12257 12258 12259 12260 12261 12262 12263 12264 12265 12266 12267 12268 12269 12270 12271 12272 12273 12274 12275 12276 12277 12278 12279 12280 12281 12282 12283 12284 12285 12286 12287 12288 12289 12290 12291 12292 12293 12294 12295 12296 12297 12298 12299 12300 12301 12302 12303 12304 12305 12306 12307 12308 12309 12310 12311 12312 12313 12314 12315 12316 12317 12318 12319 12320 12321 12322 12323 12324 12325 12326 12327 12328 12329 12330 12331 12332 12333 12334 12335 12336 12337 12338 12339 12340 12341 12342 12343 12344 12345 12346 12347 12348 12349 12350 12351 12352 12353 12354 12355 12356 12357 12358 12359 12360 12361 12362 12363 12364 12365 12366 12367 12368 12369 12370 12371 12372 12373 12374 12375 12376 12377 12378 12379 12380 12381 12382 12383 12384 12385 12386 12387 12388 12389 12390 12391 12392 12393 12394 12395 12396 12397 12398 12399 12400 12401 12402 12403 12404 12405 12406 12407 12408 12409 12410 12411 12412 12413 12414 12415 12416 12417 12418 12419 12420 12421 12422 12423 12424 12425 12426 12427 12428 12429 12430 12431 12432 12433 12434 12435 12436 12437 12438 12439 12440 12441 12442 12443 12444 12445 12446 12447 12448 12449 12450 12451 12452 12453 12454 12455 12456 12457 12458 12459 12460 12461 12462 12463 12464 12465 12466 12467 12468 12469 12470 12471 12472 12473 12474 12475 12476 12477 12478 12479 12480 12481 12482 12483 12484 12485 12486 12487 12488 12489 12490 12491 12492 12493 12494 12495 12496 12497 12498 12499 12500 12501 12502 12503 12504 12505 12506 12507 12508 12509 12510 12511 12512 12513 12514 12515 12516 12517 12518 12519 12520 12521 12522 12523 12524 12525 12526 12527 12528 12529 12530 12531 12532 12533 12534 12535 12536 12537 12538 12539 12540 12541 12542 12543 12544 12545 12546 12547 12548 12549 12550 12551 12552 12553 12554 12555 12556 12557 12558 12559 12560 12561 12562 12563 12564 12565 12566 12567 12568 12569 12570 12571 12572 12573 12574 12575 12576 12577 12578 12579 12580 12581 12582 12583 12584 12585 12586 12587 12588 12589 12590 12591 12592 12593 12594 12595 12596 12597 12598 12599 12600 12601 12602 12603 12604 12605 12606 12607 12608 12609 12610 12611 12612 12613 12614 12615 12616 12617 12618 12619 12620 12621 12622 12623 12624 12625 12626 12627 12628 12629 12630 12631 12632 12633 12634 12635 12636 12637 12638 12639 12640 12641 12642 12643 12644 12645 12646 12647 12648 12649 12650 12651 12652 12653 12654 12655 12656 12657 12658 12659 12660 12661 12662 12663 12664 12665 12666 12667 12668 12669 12670 12671 12672 12673 12674 12675 12676 12677 12678 12679 12680 12681 12682 12683 12684 12685 12686 12687 12688 12689 12690 12691 12692 12693 12694 12695 12696 12697 12698 12699 12700 12701 12702 12703 12704 12705 12706 12707 12708 12709 12710 12711 12712 12713 12714 12715 12716 12717 12718 12719 12720 12721 12722 12723 12724 12725 12726 12727 12728 12729 12730 12731 12732 12733 12734 12735 12736 12737 12738 12739 12740 12741 12742 12743 12744 12745 12746 12747 12748 12749 12750 12751 12752 12753 12754 12755 12756 12757 12758 12759 12760 12761 12762 12763 12764 12765 12766 12767 12768 12769 12770 12771 12772 12773 12774 12775 12776 12777 12778 12779 12780 12781 12782 12783 12784 12785 12786 12787 12788 12789 12790 12791 12792 12793 12794 12795 12796 12797 12798 12799 12800 12801 12802 12803 12804 12805 12806 12807 12808 12809 12810 12811 12812 12813 12814 12815 12816 12817 12818 12819 12820 12821 12822 12823 12824 12825 12826 12827 12828 12829 12830 12831 12832 12833 12834 12835 12836 12837 12838 12839 12840 12841 12842 12843 12844 12845 12846 12847 12848 12849 12850 12851 12852 12853 12854 12855 12856 12857 12858 12859 12860 12861 12862 12863 12864 12865 12866 12867 12868 12869 12870 12871 12872 12873 12874 12875 12876 12877 12878 12879 12880 12881 12882 12883 12884 12885 12886 12887 12888 12889 12890 12891 12892 12893 12894 12895 12896 12897 12898 12899 12900 12901 12902 12903 12904 12905 12906 12907 12908 12909 12910 12911 12912 12913 12914 12915 12916 12917 12918 12919 12920 12921 12922 12923 12924 12925 12926 12927 12928 12929 12930 12931 12932 12933 12934 12935 12936 12937 12938 12939 12940 12941 12942 12943 12944 12945 12946 12947 12948 12949 12950 12951 12952 12953 12954 12955 12956 12957 12958 12959 12960 12961 12962 12963 12964 12965 12966 12967 12968 12969 12970 12971 12972 12973 12974 12975 12976 12977 12978 12979 12980 12981 12982 12983 12984 12985 12986 12987 12988 12989 12990 12991 12992 12993 12994 12995 12996 12997 12998 12999 13000 13001 13002 13003 13004 13005 13006 13007 13008 13009 13010 13011 13012 13013 13014 13015 13016 13017 13018 13019 13020 13021 13022 13023 13024 13025 13026 13027 13028 13029 13030 13031 13032 13033 13034 13035 13036 13037 13038 13039 13040 13041 13042 13043 13044 13045 13046 13047 13048 13049 13050 13051 13052 13053 13054 13055 13056 13057 13058 13059 13060 13061 13062 13063 13064 13065 13066 13067 13068 13069 13070 13071 13072 13073 13074 13075 13076 13077 13078 13079 13080 13081 13082 13083 13084 13085 13086 13087 13088 13089 13090 13091 13092 13093 13094 13095 13096 13097 13098 13099 13100 13101 13102 13103 13104 13105 13106 13107 13108 13109 13110 13111 13112 13113 13114 13115 13116 13117 13118 13119 13120 13121 13122 13123 13124 13125 13126 13127 13128 13129 13130 13131 13132 13133 13134 13135 13136 13137 13138 13139 13140 13141 13142 13143 13144 13145 13146 13147 13148 13149 13150 13151 13152 13153 13154 13155 13156 13157 13158 13159 13160 13161 13162 13163 13164 13165 13166 13167 13168 13169 13170 13171 13172 13173 13174 13175 13176 13177 13178 13179 13180 13181 13182 13183 13184 13185 13186 13187 13188 13189 13190 13191 13192 13193 13194 13195 13196 13197 13198 13199 13200 13201 13202 13203 13204 13205 13206 13207 13208 13209 13210 13211 13212 13213 13214 13215 13216 13217 13218 13219 13220 13221 13222 13223 13224 13225 13226 13227 13228 13229 13230 13231 13232 13233 13234 13235 13236 13237 13238 13239 13240 13241 13242 13243 13244 13245 13246 13247 13248 13249 13250 13251 13252 13253 13254 13255 13256 13257 13258 13259 13260 13261 13262 13263 13264 13265 13266 13267 13268 13269 13270 13271 13272 13273 13274 13275 13276 13277 13278 13279 13280 13281 13282 13283 13284 13285 13286 13287 13288 13289 13290 13291 13292 13293 13294 13295 13296 13297 13298 13299 13300 13301 13302 13303 13304 13305 13306 13307 13308 13309 13310 13311 13312 13313 13314 13315 13316 13317 13318 13319 13320 13321 13322 13323 13324 13325 13326 13327 13328 13329 13330 13331 13332 13333 13334 13335 13336 13337 13338 13339 13340 13341 13342 13343 13344 13345 13346 13347 13348 13349 13350 13351 13352 13353 13354 13355 13356 13357 13358 13359 13360 13361 13362 13363 13364 13365 13366 13367 13368 13369 13370 13371 13372 13373 13374 13375 13376 13377 13378 13379 13380 13381 13382 13383 13384 13385 13386 13387 13388 13389 13390 13391 13392 13393 13394 13395 13396 13397 13398 13399 13400 13401 13402 13403 13404 13405 13406 13407 13408 13409 13410 13411 13412 13413 13414 13415 13416 13417 13418 13419 13420 13421 13422 13423 13424 13425 13426 13427 13428 13429 13430 13431 13432 13433 13434 13435 13436 13437 13438 13439 13440 13441 13442 13443 13444 13445 13446 13447 13448 13449 13450 13451 13452 13453 13454 13455 13456 13457 13458 13459 13460 13461 13462 13463 13464 13465 13466 13467 13468 13469 13470 13471 13472 13473 13474 13475 13476 13477 13478 13479 13480 13481 13482 13483 13484 13485 13486 13487 13488 13489 13490 13491 13492 13493 13494 13495 13496 13497 13498 13499 13500 13501 13502 13503 13504 13505 13506 13507 13508 13509 13510 13511 13512 13513 13514 13515 13516 13517 13518 13519 13520 13521 13522 13523 13524 13525 13526 13527 13528 13529 13530 13531 13532 13533 13534 13535 13536 13537 13538 13539 13540 13541 13542 13543 13544 13545 13546 13547 13548 13549 13550 13551 13552 13553 13554 13555 13556 13557 13558 13559 13560 13561 13562 13563 13564 13565 13566 13567 13568 13569 13570 13571 13572 13573 13574 13575 13576 13577 13578 13579 13580 13581 13582 13583 13584 13585 13586 13587 13588 13589 13590 13591 13592 13593 13594 13595 13596 13597 13598 13599 13600 13601 13602 13603 13604 13605 13606 13607 13608 13609 13610 13611 13612 13613 13614 13615 13616 13617 13618 13619 13620 13621 13622 13623 13624 13625 13626 13627 13628 13629 13630 13631 13632 13633 13634 13635 13636 13637 13638 13639 13640 13641 13642 13643 13644 13645 13646 13647 13648 13649 13650 13651 13652 13653 13654 13655 13656 13657 13658 13659 13660 13661 13662 13663 13664 13665 13666 13667 13668 13669 13670 13671 13672 13673 13674 13675 13676 13677 13678 13679 13680 13681 13682 13683 13684 13685 13686 13687 13688 13689 13690 13691 13692 13693 13694 13695 13696 13697 13698 13699 13700 13701 13702 13703 13704 13705 13706 13707 13708 13709 13710 13711 13712 13713 13714 13715 13716 13717 13718 13719 13720 13721 13722 13723 13724 13725 13726 13727 13728 13729 13730 13731 13732 13733 13734 13735 13736 13737 13738 13739 13740 13741 13742 13743 13744 13745 13746 13747 13748 13749 13750 13751 13752 13753 13754 13755 13756 13757 13758 13759 13760 13761 13762 13763 13764 13765 13766 13767 13768 13769 13770 13771 13772 13773 13774 13775 13776 13777 13778 13779 13780 13781 13782 13783 13784 13785 13786 13787 13788 13789 13790 13791 13792 13793 13794 13795 13796 13797 13798 13799 13800 13801 13802 13803 13804 13805 13806 13807 13808 13809 13810 13811 13812 13813 13814 13815 13816 13817 13818 13819 13820 13821 13822 13823 13824 13825 13826 13827 13828 13829 13830 13831 13832 13833 13834 13835 13836 13837 13838 13839 13840 13841 13842 13843 13844 13845 13846 13847 13848 13849 13850 13851 13852 13853 13854 13855 13856 13857 13858 13859 13860 13861 13862 13863 13864 13865 13866 13867 13868 13869 13870 13871 13872 13873 13874 13875 13876 13877 13878 13879 13880 13881 13882 13883 13884 13885 13886 13887 13888 13889 13890 13891 13892 13893 13894 13895 13896 13897 13898 13899 13900 13901 13902 13903 13904 13905 13906 13907 13908 13909 13910 13911 13912 13913 13914 13915 13916 13917 13918 13919 13920 13921 13922 13923 13924 13925 13926 13927 13928 13929 13930 13931 13932 13933 13934 13935 13936 13937 13938 13939 13940 13941 13942 13943 13944 13945 13946 13947 13948 13949 13950 13951 13952 13953 13954 13955 13956 13957 13958 13959 13960 13961 13962 13963 13964 13965 13966 13967 13968 13969 13970 13971 13972 13973 13974 13975 13976 13977 13978 13979 13980 13981 13982 13983 13984 13985 13986 13987 13988 13989 13990 13991 13992 13993 13994 13995 13996 13997 13998 13999 14000 14001 14002 14003 14004 14005 14006 14007 14008 14009 14010 14011 14012 14013 14014 14015 14016 14017 14018 14019 14020 14021 14022 14023 14024 14025 14026 14027 14028 14029 14030 14031 14032 14033 14034 14035 14036 14037 14038 14039 14040 14041 14042 14043 14044 14045 14046 14047 14048 14049 14050 14051 14052 14053 14054 14055 14056 14057 14058 14059 14060 14061 14062 14063 14064 14065 14066 14067 14068 14069 14070 14071 14072 14073 14074 14075 14076 14077 14078 14079 14080 14081 14082 14083 14084 14085 14086 14087 14088 14089 14090 14091 14092 14093 14094 14095 14096 14097 14098 14099 14100 14101 14102 14103 14104 14105 14106 14107 14108 14109 14110 14111 14112 14113 14114 14115 14116 14117 14118 14119 14120 14121 14122 14123 14124 14125 14126 14127 14128 14129 14130 14131 14132 14133 14134 14135 14136 14137 14138 14139 14140 14141 14142 14143 14144 14145 14146 14147 14148 14149 14150 14151 14152 14153 14154 14155 14156 14157 14158 14159 14160 14161 14162 14163 14164 14165 14166 14167 14168 14169 14170 14171 14172 14173 14174 14175 14176 14177 14178 14179 14180 14181 14182 14183 14184 14185 14186 14187 14188 14189 14190 14191 14192 14193 14194 14195 14196 14197 14198 14199 14200 14201 14202 14203 14204 14205 14206 14207 14208 14209 14210 14211 14212 14213 14214 14215 14216 14217 14218 14219 14220 14221 14222 14223 14224 14225 14226 14227 14228 14229 14230 14231 14232 14233 14234 14235 14236 14237 14238 14239 14240 14241 14242 14243 14244 14245 14246 14247 14248 14249 14250 14251 14252 14253 14254 14255 14256 14257 14258 14259 14260 14261 14262 14263 14264 14265 14266 14267 14268 14269 14270 14271 14272 14273 14274 14275 14276 14277 14278 14279 14280 14281 14282 14283 14284 14285 14286 14287 14288 14289 14290 14291 14292 14293 14294 14295 14296 14297 14298 14299 14300 14301 14302 14303 14304 14305 14306 14307 14308 14309 14310 14311 14312 14313 14314 14315 14316 14317 14318 14319 14320 14321 14322 14323 14324 14325 14326 14327 14328 14329 14330 14331 14332 14333 14334 14335 14336 14337 14338 14339 14340 14341 14342 14343 14344 14345 14346 14347 14348 14349 14350 14351 14352 14353 14354 14355 14356 14357 14358 14359 14360 14361 14362 14363 14364 14365 14366 14367 14368 14369 14370 14371 14372 14373 14374 14375 14376 14377 14378 14379 14380 14381 14382 14383 14384 14385 14386 14387 14388 14389 14390 14391 14392 14393 14394 14395 14396 14397 14398 14399 14400 14401 14402 14403 14404 14405 14406 14407 14408 14409 14410 14411 14412 14413 14414 14415 14416 14417 14418 14419 14420 14421 14422 14423 14424 14425 14426 14427 14428 14429 14430 14431 14432 14433 14434 14435 14436 14437 14438 14439 14440 14441 14442 14443 14444 14445 14446 14447 14448 14449 14450 14451 14452 14453 14454 14455 14456 14457 14458 14459 14460 14461 14462 14463 14464 14465 14466 14467 14468 14469 14470 14471 14472 14473 14474 14475 14476 14477 14478 14479 14480 14481 14482 14483 14484 14485 14486 14487 14488 14489 14490 14491 14492 14493 14494 14495 14496 14497 14498 14499 14500 14501 14502 14503 14504 14505 14506 14507 14508 14509 14510 14511 14512 14513 14514 14515 14516 14517 14518 14519 14520 14521 14522 14523 14524 14525 14526 14527 14528 14529 14530 14531 14532 14533 14534 14535 14536 14537 14538 14539 14540 14541 14542 14543 14544 14545 14546 14547 14548 14549 14550 14551 14552 14553 14554 14555 14556 14557 14558 14559 14560 14561 14562 14563 14564 14565 14566 14567 14568 14569 14570 14571 14572 14573 14574 14575 14576 14577 14578 14579 14580 14581 14582 14583 14584 14585 14586 14587 14588 14589 14590 14591 14592 14593 14594 14595 14596 14597 14598 14599 14600 14601 14602 14603 14604 14605 14606 14607 14608 14609 14610 14611 14612 14613 14614 14615 14616 14617 14618 14619 14620 14621 14622 14623 14624 14625 14626 14627 14628 14629 14630 14631 14632 14633 14634 14635 14636 14637 14638 14639 14640 14641 14642 14643 14644 14645 14646 14647 14648 14649 14650 14651 14652 14653 14654 14655 14656 14657 14658 14659 14660 14661 14662 14663 14664 14665 14666 14667 14668 14669 14670 14671 14672 14673 14674 14675 14676 14677 14678 14679 14680 14681 14682 14683 14684 14685 14686 14687 14688 14689 14690 14691 14692 14693 14694 14695 14696 14697 14698 14699 14700 14701 14702 14703 14704 14705 14706 14707 14708 14709 14710 14711 14712 14713 14714 14715 14716 14717 14718 14719 14720 14721 14722 14723 14724 14725 14726 14727 14728 14729 14730 14731 14732 14733 14734 14735 14736 14737 14738 14739 14740 14741 14742 14743 14744 14745 14746 14747 14748 14749 14750 14751 14752 14753 14754 14755 14756 14757 14758 14759 14760 14761 14762 14763 14764 14765 14766 14767 14768 14769 14770 14771 14772 14773 14774 14775 14776 14777 14778 14779 14780 14781 14782 14783 14784 14785 14786 14787 14788 14789 14790 14791 14792 14793 14794 14795 14796 14797 14798 14799 14800 14801 14802 14803 14804 14805 14806 14807 14808 14809 14810 14811 14812 14813 14814 14815 14816 14817 14818 14819 14820 14821 14822 14823 14824 14825 14826 14827 14828 14829 14830 14831 14832 14833 14834 14835 14836 14837 14838 14839 14840 14841 14842 14843 14844 14845 14846 14847 14848 14849 14850 14851 14852 14853 14854 14855 14856 14857 14858 14859 14860 14861 14862 14863 14864 14865 14866 14867 14868 14869 14870 14871 14872 14873 14874 14875 14876 14877 14878 14879 14880 14881 14882 14883 14884 14885 14886 14887 14888 14889 14890 14891 14892 14893 14894 14895 14896 14897 14898 14899 14900 14901 14902 14903 14904 14905 14906 14907 14908 14909 14910 14911 14912 14913 14914 14915 14916 14917 14918 14919 14920 14921 14922 14923 14924 14925 14926 14927 14928 14929 14930 14931 14932 14933 14934 14935 14936 14937 14938 14939 14940 14941 14942 14943 14944 14945 14946 14947 14948 14949 14950 14951 14952 14953 14954 14955 14956 14957 14958 14959 14960 14961 14962 14963 14964 14965 14966 14967 14968 14969 14970 14971 14972 14973 14974 14975 14976 14977 14978 14979 14980 14981 14982 14983 14984 14985 14986 14987 14988 14989 14990 14991 14992 14993 14994 14995 14996 14997 14998 14999 15000 15001 15002 15003 15004 15005 15006 15007 15008 15009 15010 15011 15012 15013 15014 15015 15016 15017 15018 15019 15020 15021 15022 15023 15024 15025 15026 15027 15028 15029 15030 15031 15032 15033 15034 15035 15036 15037 15038 15039 15040 15041 15042 15043 15044 15045 15046 15047 15048 15049 15050 15051 15052 15053 15054 15055 15056 15057 15058 15059 15060 15061 15062 15063 15064 15065 15066 15067 15068 15069 15070 15071 15072 15073 15074 15075 15076 15077 15078 15079 15080 15081 15082 15083 15084 15085 15086 15087 15088 15089 15090 15091 15092 15093 15094 15095 15096 15097 15098 15099 15100 15101 15102 15103 15104 15105 15106 15107 15108 15109 15110 15111 15112 15113 15114 15115 15116 15117 15118 15119 15120 15121 15122 15123 15124 15125 15126 15127 15128 15129 15130 15131 15132 15133 15134 15135 15136 15137 15138 15139 15140 15141 15142 15143 15144 15145 15146 15147 15148 15149 15150 15151 15152 15153 15154 15155 15156 15157 15158 15159 15160 15161 15162 15163 15164 15165 15166 15167 15168 15169 15170 15171 15172 15173 15174 15175 15176 15177 15178 15179 15180 15181 15182 15183 15184 15185 15186 15187 15188 15189 15190 15191 15192 15193 15194 15195 15196 15197 15198 15199 15200 15201 15202 15203 15204 15205 15206 15207 15208 15209 15210 15211 15212 15213 15214 15215 15216 15217 15218 15219 15220 15221 15222 15223 15224 15225 15226 15227 15228 15229 15230 15231 15232 15233 15234 15235 15236 15237 15238 15239 15240 15241 15242 15243 15244 15245 15246 15247 15248 15249 15250 15251 15252 15253 15254 15255 15256 15257 15258 15259 15260 15261 15262 15263 15264 15265 15266 15267 15268 15269 15270 15271 15272 15273 15274 15275 15276 15277 15278 15279 15280 15281 15282 15283 15284 15285 15286 15287 15288 15289 15290 15291 15292 15293 15294 15295 15296 15297 15298 15299 15300 15301 15302 15303 15304 15305 15306 15307 15308 15309 15310 15311 15312 15313 15314 15315 15316 15317 15318 15319 15320 15321 15322 15323 15324 15325 15326 15327 15328 15329 15330 15331 15332 15333 15334 15335 15336 15337 15338 15339 15340 15341 15342 15343 15344 15345 15346 15347 15348 15349 15350 15351 15352 15353 15354 15355 15356 15357 15358 15359 15360 15361 15362 15363 15364 15365 15366 15367 15368 15369 15370 15371 15372 15373 15374 15375 15376 15377 15378 15379 15380 15381 15382 15383 15384 15385 15386 15387 15388 15389 15390 15391 15392 15393 15394 15395 15396 15397 15398 15399 15400 15401 15402 15403 15404 15405 15406 15407 15408 15409 15410 15411 15412 15413 15414 15415 15416 15417 15418 15419 15420 15421 15422 15423 15424 15425 15426 15427 15428 15429 15430 15431 15432 15433 15434 15435 15436 15437 15438 15439 15440 15441 15442 15443 15444 15445 15446 15447 15448 15449 15450 15451 15452 15453 15454 15455 15456 15457 15458 15459 15460 15461 15462 15463 15464 15465 15466 15467 15468 15469 15470 15471 15472 15473 15474 15475 15476 15477 15478 15479 15480 15481 15482 15483 15484 15485 15486 15487 15488 15489 15490 15491 15492 15493 15494 15495 15496 15497 15498 15499 15500 15501 15502 15503 15504 15505 15506 15507 15508 15509 15510 15511 15512 15513 15514 15515 15516 15517 15518 15519 15520 15521 15522 15523 15524 15525 15526 15527 15528 15529 15530 15531 15532 15533 15534 15535 15536 15537 15538 15539 15540 15541 15542 15543 15544 15545 15546 15547 15548 15549 15550 15551 15552 15553 15554 15555 15556 15557 15558 15559 15560 15561 15562 15563 15564 15565 15566 15567 15568 15569 15570 15571 15572 15573 15574 15575 15576 15577 15578 15579 15580 15581 15582 15583 15584 15585 15586 15587 15588 15589 15590 15591 15592 15593 15594 15595 15596 15597 15598 15599 15600 15601 15602 15603 15604 15605 15606 15607 15608 15609 15610 15611 15612 15613 15614 15615 15616 15617 15618 15619 15620 15621 15622 15623 15624 15625 15626 15627 15628 15629 15630 15631 15632 15633 15634 15635 15636 15637 15638 15639 15640 15641 15642 15643 15644 15645 15646 15647 15648 15649 15650 15651 15652 15653 15654 15655 15656 15657 15658 15659 15660 15661 15662 15663 15664 15665 15666 15667 15668 15669 15670 15671 15672 15673 15674 15675 15676 15677 15678 15679 15680 15681 15682 15683 15684 15685 15686 15687 15688 15689 15690 15691 15692 15693 15694 15695 15696 15697 15698 15699 15700 15701 15702 15703 15704 15705 15706 15707 15708 15709 15710 15711 15712 15713 15714 15715 15716 15717 15718 15719 15720 15721 15722 15723 15724 15725 15726 15727 15728 15729 15730 15731 15732 15733 15734 15735 15736 15737 15738 15739 15740 15741 15742 15743 15744 15745 15746 15747 15748 15749 15750 15751 15752 15753 15754 15755 15756 15757 15758 15759 15760 15761 15762 15763 15764 15765 15766 15767 15768 15769 15770 15771 15772 15773 15774 15775 15776 15777 15778 15779 15780 15781 15782 15783 15784 15785 15786 15787 15788 15789 15790 15791 15792 15793 15794 15795 15796 15797 15798 15799 15800 15801 15802 15803 15804 15805 15806 15807 15808 15809 15810 15811 15812 15813 15814 15815 15816 15817 15818 15819 15820 15821 15822 15823 15824 15825 15826 15827 15828 15829 15830 15831 15832 15833 15834 15835 15836 15837 15838 15839 15840 15841 15842 15843 15844 15845 15846 15847 15848 15849 15850 15851 15852 15853 15854 15855 15856 15857 15858 15859 15860 15861 15862 15863 15864 15865 15866 15867 15868 15869 15870 15871 15872 15873 15874 15875 15876 15877 15878 15879 15880 15881 15882 15883 15884 15885 15886 15887 15888 15889 15890 15891 15892 15893 15894 15895 15896 15897 15898 15899 15900 15901 15902 15903 15904 15905 15906 15907 15908 15909 15910 15911 15912 15913 15914 15915 15916 15917 15918 15919 15920 15921 15922 15923 15924 15925 15926 15927 15928 15929 15930 15931 15932 15933 15934 15935 15936 15937 15938 15939 15940 15941 15942 15943 15944 15945 15946 15947 15948 15949 15950 15951 15952 15953 15954 15955 15956 15957 15958 15959 15960 15961 15962 15963 15964 15965 15966 15967 15968 15969 15970 15971 15972 15973 15974 15975 15976 15977 15978 15979 15980 15981 15982 15983 15984 15985 15986 15987 15988 15989 15990 15991 15992 15993 15994 15995 15996 15997 15998 15999 16000 16001 16002 16003 16004 16005 16006 16007 16008 16009 16010 16011 16012 16013 16014 16015 16016 16017 16018 16019 16020 16021 16022 16023 16024 16025 16026 16027 16028 16029 16030 16031 16032 16033 16034 16035 16036 16037 16038 16039 16040 16041 16042 16043 16044 16045 16046 16047 16048 16049 16050 16051 16052 16053 16054 16055 16056 16057 16058 16059 16060 16061 16062 16063 16064 16065 16066 16067 16068 16069 16070 16071 16072 16073 16074 16075 16076 16077 16078 16079 16080 16081 16082 16083 16084 16085 16086 16087 16088 16089 16090 16091 16092 16093 16094 16095 16096 16097 16098 16099 16100 16101 16102 16103 16104 16105 16106 16107 16108 16109 16110 16111 16112 16113 16114 16115 16116 16117 16118 16119 16120 16121 16122 16123 16124 16125 16126 16127 16128 16129 16130 16131 16132 16133 16134 16135 16136 16137 16138 16139 16140 16141 16142 16143 16144 16145 16146 16147 16148 16149 16150 16151 16152 16153 16154 16155 16156 16157 16158 16159 16160 16161 16162 16163 16164 16165 16166 16167 16168 16169 16170 16171 16172 16173 16174 16175 16176 16177 16178 16179 16180 16181 16182 16183 16184 16185 16186 16187 16188 16189 16190 16191 16192 16193 16194 16195 16196 16197 16198 16199 16200 16201 16202 16203 16204 16205 16206 16207 16208 16209 16210 16211 16212 16213 16214 16215 16216 16217 16218 16219 16220 16221 16222 16223 16224 16225 16226 16227 16228 16229 16230 16231 16232 16233 16234 16235 16236 16237 16238 16239 16240 16241 16242 16243 16244 16245 16246 16247 16248 16249 16250 16251 16252 16253 16254 16255 16256 16257 16258 16259 16260 16261 16262 16263 16264 16265 16266 16267 16268 16269 16270 16271 16272 16273 16274 16275 16276 16277 16278 16279 16280 16281 16282 16283 16284 16285 16286 16287 16288 16289 16290 16291 16292 16293 16294 16295 16296 16297 16298 16299 16300 16301 16302 16303 16304 16305 16306 16307 16308 16309 16310 16311 16312 16313 16314 16315 16316 16317 16318 16319 16320 16321 16322 16323 16324 16325 16326 16327 16328 16329 16330 16331 16332 16333 16334 16335 16336 16337 16338 16339 16340 16341 16342 16343 16344 16345 16346 16347 16348 16349 16350 16351 16352 16353 16354 16355 16356 16357 16358 16359 16360 16361 16362 16363 16364 16365 16366 16367 16368 16369 16370 16371 16372 16373 16374 16375 16376 16377 16378 16379 16380 16381 16382 16383 16384 16385 16386 16387 16388 16389 16390 16391 16392 16393 16394 16395 16396 16397 16398 16399 16400 16401 16402 16403 16404 16405 16406 16407 16408 16409 16410 16411 16412 16413 16414 16415 16416 16417 16418 16419 16420 16421 16422 16423 16424 16425 16426 16427 16428 16429 16430 16431 16432 16433 16434 16435 16436 16437 16438 16439 16440 16441 16442 16443 16444 16445 16446 16447 16448 16449 16450 16451 16452 16453 16454 16455 16456 16457 16458 16459 16460 16461 16462 16463 16464 16465 16466 16467 16468 16469 16470 16471 16472 16473 16474 16475 16476 16477 16478 16479 16480 16481 16482 16483 16484 16485 16486 16487 16488 16489 16490 16491 16492 16493 16494 16495 16496 16497 16498 16499 16500 16501 16502 16503 16504 16505 16506 16507 16508 16509 16510 16511 16512 16513 16514 16515 16516 16517 16518 16519 16520 16521 16522 16523 16524 16525 16526 16527 16528 16529 16530 16531 16532 16533 16534 16535 16536 16537 16538 16539 16540 16541 16542 16543 16544 16545 16546 16547 16548 16549 16550 16551 16552 16553 16554 16555 16556 16557 16558 16559 16560 16561 16562 16563 16564 16565 16566 16567 16568 16569 16570 16571 16572 16573 16574 16575 16576 16577 16578 16579 16580 16581 16582 16583 16584 16585 16586 16587 16588 16589 16590 16591 16592 16593 16594 16595 16596 16597 16598 16599 16600 16601 16602 16603 16604 16605 16606 16607 16608 16609 16610 16611 16612 16613 16614 16615 16616 16617 16618 16619 16620 16621 16622 16623 16624 16625 16626 16627 16628 16629 16630 16631 16632 16633 16634 16635 16636 16637 16638 16639 16640 16641 16642 16643 16644 16645 16646 16647 16648 16649 16650 16651 16652 16653 16654 16655 16656 16657 16658 16659 16660 16661 16662 16663 16664 16665 16666 16667 16668 16669 16670 16671 16672 16673 16674 16675 16676 16677 16678 16679 16680 16681 16682 16683 16684 16685 16686 16687 16688 16689 16690 16691 16692 16693 16694 16695 16696 16697 16698 16699 16700 16701 16702 16703 16704 16705 16706 16707 16708 16709 16710 16711 16712 16713 16714 16715 16716 16717 16718 16719 16720 16721 16722 16723 16724 16725 16726 16727 16728 16729 16730 16731 16732 16733 16734 16735 16736 16737 16738 16739 16740 16741 16742 16743 16744 16745 16746 16747 16748 16749 16750 16751 16752 16753 16754 16755 16756 16757 16758 16759 16760 16761 16762 16763 16764 16765 16766 16767 16768 16769 16770 16771 16772 16773 16774 16775 16776 16777 16778 16779 16780 16781 16782 16783 16784 16785 16786 16787 16788 16789 16790 16791 16792 16793 16794 16795 16796 16797 16798 16799 16800 16801 16802 16803 16804 16805 16806 16807 16808 16809 16810 16811 16812 16813 16814 16815 16816 16817 16818 16819 16820 16821 16822 16823 16824 16825 16826 16827 16828 16829 16830 16831 16832 16833 16834 16835 16836 16837 16838 16839 16840 16841 16842 16843 16844 16845 16846 16847 16848 16849 16850 16851 16852 16853 16854 16855 16856 16857 16858 16859 16860 16861 16862 16863 16864 16865 16866 16867 16868 16869 16870 16871 16872 16873 16874 16875 16876 16877 16878 16879 16880 16881 16882 16883 16884 16885 16886 16887 16888 16889 16890 16891 16892 16893 16894 16895 16896 16897 16898 16899 16900 16901 16902 16903 16904 16905 16906 16907 16908 16909 16910 16911 16912 16913 16914 16915 16916 16917 16918 16919 16920 16921 16922 16923 16924 16925 16926 16927 16928 16929 16930 16931 16932 16933 16934 16935 16936 16937 16938 16939 16940 16941 16942 16943 16944 16945 16946 16947 16948 16949 16950 16951 16952 16953 16954 16955 16956 16957 16958 16959 16960 16961 16962 16963 16964 16965 16966 16967 16968 16969 16970 16971 16972 16973 16974 16975 16976 16977 16978 16979 16980 16981 16982 16983 16984 16985 16986 16987 16988 16989 16990 16991 16992 16993 16994 16995 16996 16997 16998 16999 17000 17001 17002 17003 17004 17005 17006 17007 17008 17009 17010 17011 17012 17013 17014 17015 17016 17017 17018 17019 17020 17021 17022 17023 17024 17025 17026 17027 17028 17029 17030 17031 17032 17033 17034 17035 17036 17037 17038 17039 17040 17041 17042 17043 17044 17045 17046 17047 17048 17049 17050 17051 17052 17053 17054 17055 17056 17057 17058 17059 17060 17061 17062 17063 17064 17065 17066 17067 17068 17069 17070 17071 17072 17073 17074 17075 17076 17077 17078 17079 17080 17081 17082 17083 17084 17085 17086 17087 17088 17089 17090 17091 17092 17093 17094 17095 17096 17097 17098 17099 17100 17101 17102 17103 17104 17105 17106 17107 17108 17109 17110 17111 17112 17113 17114 17115 17116 17117 17118 17119 17120 17121 17122 17123 17124 17125 17126 17127 17128 17129 17130 17131 17132 17133 17134 17135 17136 17137 17138 17139 17140 17141 17142 17143 17144 17145 17146 17147 17148 17149 17150 17151 17152 17153 17154 17155 17156 17157 17158 17159 17160 17161 17162 17163 17164 17165 17166 17167 17168 17169 17170 17171 17172 17173 17174 17175 17176 17177 17178 17179 17180 17181 17182 17183 17184 17185 17186 17187 17188 17189 17190 17191 17192 17193 17194 17195 17196 17197 17198 17199 17200 17201 17202 17203 17204 17205 17206 17207 17208 17209 17210 17211 17212 17213 17214 17215 17216 17217 17218 17219 17220 17221 17222 17223 17224 17225 17226 17227 17228 17229 17230 17231 17232 17233 17234 17235 17236 17237 17238 17239 17240 17241 17242 17243 17244 17245 17246 17247 17248 17249 17250 17251 17252 17253 17254 17255 17256 17257 17258 17259 17260 17261 17262 17263 17264 17265 17266 17267 17268 17269 17270 17271 17272 17273 17274 17275 17276 17277 17278 17279 17280 17281 17282 17283 17284 17285 17286 17287 17288 17289 17290 17291 17292 17293 17294 17295 17296 17297 17298 17299 17300 17301 17302 17303 17304 17305 17306 17307 17308 17309 17310 17311 17312 17313 17314 17315 17316 17317 17318 17319 17320 17321 17322 17323 17324 17325 17326 17327 17328 17329 17330 17331 17332 17333 17334 17335 17336 17337 17338 17339 17340 17341 17342 17343 17344 17345 17346 17347 17348 17349 17350 17351 17352 17353 17354 17355 17356 17357 17358 17359 17360 17361 17362 17363 17364 17365 17366 17367 17368 17369 17370 17371 17372 17373 17374 17375 17376 17377 17378 17379 17380 17381 17382 17383 17384 17385 17386 17387 17388 17389 17390 17391 17392 17393 17394 17395 17396 17397 17398 17399 17400 17401 17402 17403 17404 17405 17406 17407 17408 17409 17410 17411 17412 17413 17414 17415 17416 17417 17418 17419 17420 17421 17422 17423 17424 17425 17426 17427 17428 17429 17430 17431 17432 17433 17434 17435 17436 17437 17438 17439 17440 17441 17442 17443 17444 17445 17446 17447 17448 17449 17450 17451 17452 17453 17454 17455 17456 17457 17458 17459 17460 17461 17462 17463 17464 17465 17466 17467 17468 17469 17470 17471 17472 17473 17474 17475 17476 17477 17478 17479 17480 17481 17482 17483 17484 17485 17486 17487 17488 17489 17490 17491 17492 17493 17494 17495 17496 17497 17498 17499 17500 17501 17502 17503 17504 17505 17506 17507 17508 17509 17510 17511 17512 17513 17514 17515 17516 17517 17518 17519 17520 17521 17522 17523 17524 17525 17526 17527 17528 17529 17530 17531 17532 17533 17534 17535 17536 17537 17538 17539 17540 17541 17542 17543 17544 17545 17546 17547 17548 17549 17550 17551 17552 17553 17554 17555 17556 17557 17558 17559 17560 17561 17562 17563 17564 17565 17566 17567 17568 17569 17570 17571 17572 17573 17574 17575 17576 17577 17578 17579 17580 17581 17582 17583 17584 17585 17586 17587 17588 17589 17590 17591 17592 17593 17594 17595 17596 17597 17598 17599 17600 17601 17602 17603 17604 17605 17606 17607 17608 17609 17610 17611 17612 17613 17614 17615 17616 17617 17618 17619 17620 17621 17622 17623 17624 17625 17626 17627 17628 17629 17630 17631 17632 17633 17634 17635 17636 17637 17638 17639 17640 17641 17642 17643 17644 17645 17646 17647 17648 17649 17650 17651 17652 17653 17654 17655 17656 17657 17658 17659 17660 17661 17662 17663 17664 17665 17666 17667 17668 17669 17670 17671 17672 17673 17674 17675 17676 17677 17678 17679 17680 17681 17682 17683 17684 17685 17686 17687 17688 17689 17690 17691 17692 17693 17694 17695 17696 17697 17698 17699 17700 17701 17702 17703 17704 17705 17706 17707 17708 17709 17710 17711 17712 17713 17714 17715 17716 17717 17718 17719 17720 17721 17722 17723 17724 17725 17726 17727 17728 17729 17730 17731 17732 17733 17734 17735 17736 17737 17738 17739 17740 17741 17742 17743 17744 17745 17746 17747 17748 17749 17750 17751 17752 17753 17754 17755 17756 17757 17758 17759 17760 17761 17762 17763 17764 17765 17766 17767 17768 17769 17770 17771 17772 17773 17774 17775 17776 17777 17778 17779 17780 17781 17782 17783 17784 17785 17786 17787 17788 17789 17790 17791 17792 17793 17794 17795 17796 17797 17798 17799 17800 17801 17802 17803 17804 17805 17806 17807 17808 17809 17810 17811 17812 17813 17814 17815 17816 17817 17818 17819 17820 17821 17822 17823 17824 17825 17826 17827 17828 17829 17830 17831 17832 17833 17834 17835 17836 17837 17838 17839 17840 17841 17842 17843 17844 17845 17846 17847 17848 17849 17850 17851 17852 17853 17854 17855 17856 17857 17858 17859 17860 17861 17862 17863 17864 17865 17866 17867 17868 17869 17870 17871 17872 17873 17874 17875 17876 17877 17878 17879 17880 17881 17882 17883 17884 17885 17886 17887 17888 17889 17890 17891 17892 17893 17894 17895 17896 17897 17898 17899 17900 17901 17902 17903 17904 17905 17906 17907 17908 17909 17910 17911 17912 17913 17914 17915 17916 17917 17918 17919 17920 17921 17922 17923 17924 17925 17926 17927 17928 17929 17930 17931 17932 17933 17934 17935 17936 17937 17938 17939 17940 17941 17942 17943 17944 17945 17946 17947 17948 17949 17950 17951 17952 17953 17954 17955 17956 17957 17958 17959 17960 17961 17962 17963 17964 17965 17966 17967 17968 17969 17970 17971 17972 17973 17974 17975 17976 17977 17978 17979 17980 17981 17982 17983 17984 17985 17986 17987 17988 17989 17990 17991 17992 17993 17994 17995 17996 17997 17998 17999 18000 18001 18002 18003 18004 18005 18006 18007 18008 18009 18010 18011 18012 18013 18014 18015 18016 18017 18018 18019 18020 18021 18022 18023 18024 18025 18026 18027 18028 18029 18030 18031 18032 18033 18034 18035 18036 18037 18038 18039 18040 18041 18042 18043 18044 18045 18046 18047 18048 18049 18050 18051 18052 18053 18054 18055 18056 18057 18058 18059 18060 18061 18062 18063 18064 18065 18066 18067 18068 18069 18070 18071 18072 18073 18074 18075 18076 18077 18078 18079 18080 18081 18082 18083 18084 18085 18086 18087 18088 18089 18090 18091 18092 18093 18094 18095 18096 18097 18098 18099 18100 18101 18102 18103 18104 18105 18106 18107 18108 18109 18110 18111 18112 18113 18114 18115 18116 18117 18118 18119 18120 18121 18122 18123 18124 18125 18126 18127 18128 18129 18130 18131 18132 18133 18134 18135 18136 18137 18138 18139 18140 18141 18142 18143 18144 18145 18146 18147 18148 18149 18150 18151 18152 18153 18154 18155 18156 18157 18158 18159 18160 18161 18162 18163 18164 18165 18166 18167 18168 18169 18170 18171 18172 18173 18174 18175 18176 18177 18178 18179 18180 18181 18182 18183 18184 18185 18186 18187 18188 18189 18190 18191 18192 18193 18194 18195 18196 18197 18198 18199 18200 18201 18202 18203 18204 18205 18206 18207 18208 18209 18210 18211 18212 18213 18214 18215 18216 18217 18218 18219 18220 18221 18222 18223 18224 18225 18226 18227 18228 18229 18230 18231 18232 18233 18234 18235 18236 18237 18238 18239 18240 18241 18242 18243 18244 18245 18246 18247 18248 18249 18250 18251 18252 18253 18254 18255 18256 18257 18258 18259 18260 18261 18262 18263 18264 18265 18266 18267 18268 18269 18270 18271 18272 18273 18274 18275 18276 18277 18278 18279 18280 18281 18282 18283 18284 18285 18286 18287 18288 18289 18290 18291 18292 18293 18294 18295 18296 18297 18298 18299 18300 18301 18302 18303 18304 18305 18306 18307 18308 18309 18310 18311 18312 18313 18314 18315 18316 18317 18318 18319 18320 18321 18322 18323 18324 18325 18326 18327 18328 18329 18330 18331 18332 18333 18334 18335 18336 18337 18338 18339 18340 18341 18342 18343 18344 18345 18346 18347 18348 18349 18350 18351 18352 18353 18354 18355 18356 18357 18358 18359 18360 18361 18362 18363 18364 18365 18366 18367 18368 18369 18370 18371 18372 18373 18374 18375 18376 18377 18378 18379 18380 18381 18382 18383 18384 18385 18386 18387 18388 18389 18390 18391 18392 18393 18394 18395 18396 18397 18398 18399 18400 18401 18402 18403 18404 18405 18406 18407 18408 18409 18410 18411 18412 18413 18414 18415 18416 18417 18418 18419 18420 18421 18422 18423 18424 18425 18426 18427 18428 18429 18430 18431 18432 18433 18434 18435 18436 18437 18438 18439 18440 18441 18442 18443 18444 18445 18446 18447 18448 18449 18450 18451 18452 18453 18454 18455 18456 18457 18458 18459 18460 18461 18462 18463 18464 18465 18466 18467 18468 18469 18470 18471 18472 18473 18474 18475 18476 18477 18478 18479 18480 18481 18482 18483 18484 18485 18486 18487 18488 18489 18490 18491 18492 18493 18494 18495 18496 18497 18498 18499 18500 18501 18502 18503 18504 18505 18506 18507 18508 18509 18510 18511 18512 18513 18514 18515 18516 18517 18518 18519 18520 18521 18522 18523 18524 18525 18526 18527 18528 18529 18530 18531 18532 18533 18534 18535 18536 18537 18538 18539 18540 18541 18542 18543 18544 18545 18546 18547 18548 18549 18550 18551 18552 18553 18554 18555 18556 18557 18558 18559 18560 18561 18562 18563 18564 18565 18566 18567 18568 18569 18570 18571 18572 18573 18574 18575 18576 18577 18578 18579 18580 18581 18582 18583 18584 18585 18586 18587 18588 18589 18590 18591 18592 18593 18594 18595 18596 18597 18598 18599 18600 18601 18602 18603 18604 18605 18606 18607 18608 18609 18610 18611 18612 18613 18614 18615 18616 18617 18618 18619 18620 18621 18622 18623 18624 18625 18626 18627 18628 18629 18630 18631 18632 18633 18634 18635 18636 18637 18638 18639 18640 18641 18642 18643 18644 18645 18646 18647 18648 18649 18650 18651 18652 18653 18654 18655 18656 18657 18658 18659 18660 18661 18662 18663 18664 18665 18666 18667 18668 18669 18670 18671 18672 18673 18674 18675 18676 18677 18678 18679 18680 18681 18682 18683 18684 18685 18686 18687 18688 18689 18690 18691 18692 18693 18694 18695 18696 18697 18698 18699 18700 18701 18702 18703 18704 18705 18706 18707 18708 18709 18710 18711 18712 18713 18714 18715 18716 18717 18718 18719 18720 18721 18722 18723 18724 18725 18726 18727 18728 18729 18730 18731 18732 18733 18734 18735 18736 18737 18738 18739 18740 18741 18742 18743 18744 18745 18746 18747 18748 18749 18750 18751 18752 18753 18754 18755 18756 18757 18758 18759 18760 18761 18762 18763 18764 18765 18766 18767 18768 18769 18770 18771 18772 18773 18774 18775 18776 18777 18778 18779 18780 18781 18782 18783 18784 18785 18786 18787 18788 18789 18790 18791 18792 18793 18794 18795 18796 18797 18798 18799 18800 18801 18802 18803 18804 18805 18806 18807 18808 18809 18810 18811 18812 18813 18814 18815 18816 18817 18818 18819 18820 18821 18822 18823 18824 18825 18826 18827 18828 18829 18830 18831 18832 18833 18834 18835 18836 18837 18838 18839 18840 18841 18842 18843 18844 18845 18846 18847 18848 18849 18850 18851 18852 18853 18854 18855 18856 18857 18858 18859 18860 18861 18862 18863 18864 18865 18866 18867 18868 18869 18870 18871 18872 18873 18874 18875 18876 18877 18878 18879 18880 18881 18882 18883 18884 18885 18886 18887 18888 18889 18890 18891 18892 18893 18894 18895 18896 18897 18898 18899 18900 18901 18902 18903 18904 18905 18906 18907 18908 18909 18910 18911 18912 18913 18914 18915 18916 18917 18918 18919 18920 18921 18922 18923 18924 18925 18926 18927 18928 18929 18930 18931 18932 18933 18934 18935 18936 18937 18938 18939 18940 18941 18942 18943 18944 18945 18946 18947 18948 18949 18950 18951 18952 18953 18954 18955 18956 18957 18958 18959 18960 18961 18962 18963 18964 18965 18966 18967 18968 18969 18970 18971 18972 18973 18974 18975 18976 18977 18978 18979 18980 18981 18982 18983 18984 18985 18986 18987 18988 18989 18990 18991 18992 18993 18994 18995 18996 18997 18998 18999 19000 19001 19002 19003 19004 19005 19006 19007 19008 19009 19010 19011 19012 19013 19014 19015 19016 19017 19018 19019 19020 19021 19022 19023 19024 19025 19026 19027 19028 19029 19030 19031 19032 19033 19034 19035 19036 19037 19038 19039 19040 19041 19042 19043 19044 19045 19046 19047 19048 19049 19050 19051 19052 19053 19054 19055 19056 19057 19058 19059 19060 19061 19062 19063 19064 19065 19066 19067 19068 19069 19070 19071 19072 19073 19074 19075 19076 19077 19078 19079 19080 19081 19082 19083 19084 19085 19086 19087 19088 19089 19090 19091 19092 19093 19094 19095 19096 19097 19098 19099 19100 19101 19102 19103 19104 19105 19106 19107 19108 19109 19110 19111 19112 19113 19114 19115 19116 19117 19118 19119 19120 19121 19122 19123 19124 19125 19126 19127 19128 19129 19130 19131 19132 19133 19134 19135 19136 19137 19138 19139 19140 19141 19142 19143 19144 19145 19146 19147 19148 19149 19150 19151 19152 19153 19154 19155 19156 19157 19158 19159 19160 19161 19162 19163 19164 19165 19166 19167 19168 19169 19170 19171 19172 19173 19174 19175 19176 19177 19178 19179 19180 19181 19182 19183 19184 19185 19186 19187 19188 19189 19190 19191 19192 19193 19194 19195 19196 19197 19198 19199 19200 19201 19202 19203 19204 19205 19206 19207 19208 19209 19210 19211 19212 19213 19214 19215 19216 19217 19218 19219 19220 19221 19222 19223 19224 19225 19226 19227 19228 19229 19230 19231 19232 19233 19234 19235 19236 19237 19238 19239 19240 19241 19242 19243 19244 19245 19246 19247 19248 19249 19250 19251 19252 19253 19254 19255 19256 19257 19258 19259 19260 19261 19262 19263 19264 19265 19266 19267 19268 19269 19270 19271 19272 19273 19274 19275 19276 19277 19278 19279 19280 19281 19282 19283 19284 19285 19286 19287 19288 19289 19290 19291 19292 19293 19294 19295 19296 19297 19298 19299 19300 19301 19302 19303 19304 19305 19306 19307 19308 19309 19310 19311 19312 19313 19314 19315 19316 19317 19318 19319 19320 19321 19322 19323 19324 19325 19326 19327 19328 19329 19330 19331 19332 19333 19334 19335 19336 19337 19338 19339 19340 19341 19342 19343 19344 19345 19346 19347 19348 19349 19350 19351 19352 19353 19354 19355 19356 19357 19358 19359 19360 19361 19362 19363 19364 19365 19366 19367 19368 19369 19370 19371 19372 19373 19374 19375 19376 19377 19378 19379 19380 19381 19382 19383 19384 19385 19386 19387 19388 19389 19390 19391 19392 19393 19394 19395 19396 19397 19398 19399 19400 19401 19402 19403 19404 19405 19406 19407 19408 19409 19410 19411 19412 19413 19414 19415 19416 19417 19418 19419 19420 19421 19422 19423 19424 19425 19426 19427 19428 19429 19430 19431 19432 19433 19434 19435 19436 19437 19438 19439 19440 19441 19442 19443 19444 19445 19446 19447 19448 19449 19450 19451 19452 19453 19454 19455 19456 19457 19458 19459 19460 19461 19462 19463 19464 19465 19466 19467 19468 19469 19470 19471 19472 19473 19474 19475 19476 19477 19478 19479 19480 19481 19482 19483 19484 19485 19486 19487 19488 19489 19490 19491 19492 19493 19494 19495 19496 19497 19498 19499 19500 19501 19502 19503 19504 19505 19506 19507 19508 19509 19510 19511 19512 19513 19514 19515 19516 19517 19518 19519 19520 19521 19522 19523 19524 19525 19526 19527 19528 19529 19530 19531 19532 19533 19534 19535 19536 19537 19538 19539 19540 19541 19542 19543 19544 19545 19546 19547 19548 19549 19550 19551 19552 19553 19554 19555 19556 19557 19558 19559 19560 19561 19562 19563 19564 19565 19566 19567 19568 19569 19570 19571 19572 19573 19574 19575 19576 19577 19578 19579 19580 19581 19582 19583 19584 19585 19586 19587 19588 19589 19590 19591 19592 19593 19594 19595 19596 19597 19598 19599 19600 19601 19602 19603 19604 19605 19606 19607 19608 19609 19610 19611 19612 19613 19614 19615 19616 19617 19618 19619 19620 19621 19622 19623 19624 19625 19626 19627 19628 19629 19630 19631 19632 19633 19634 19635 19636 19637 19638 19639 19640 19641 19642 19643 19644 19645 19646 19647 19648 19649 19650 19651 19652 19653 19654 19655 19656 19657 19658 19659 19660 19661 19662 19663 19664 19665 19666 19667 19668 19669 19670 19671 19672 19673 19674 19675 19676 19677 19678 19679 19680 19681 19682 19683 19684 19685 19686 19687 19688 19689 19690 19691 19692 19693 19694 19695 19696 19697 19698 19699 19700 19701 19702 19703 19704 19705 19706 19707 19708 19709 19710 19711 19712 19713 19714 19715 19716 19717 19718 19719 19720 19721 19722 19723 19724 19725 19726 19727 19728 19729 19730 19731 19732 19733 19734 19735 19736 19737 19738 19739 19740 19741 19742 19743 19744 19745 19746 19747 19748 19749 19750 19751 19752 19753 19754 19755 19756 19757 19758 19759 19760 19761 19762 19763 19764 19765 19766 19767 19768 19769 19770 19771 19772 19773 19774 19775 19776 19777 19778 19779 19780 19781 19782 19783 19784 19785 19786 19787 19788 19789 19790 19791 19792 19793 19794 19795 19796 19797 19798 19799 19800 19801 19802 19803 19804 19805 19806 19807 19808 19809 19810 19811 19812 19813 19814 19815 19816 19817 19818 19819 19820 19821 19822 19823 19824 19825 19826 19827 19828 19829 19830 19831 19832 19833 19834 19835 19836 19837 19838 19839 19840 19841 19842 19843 19844 19845 19846 19847 19848 19849 19850 19851 19852 19853 19854 19855 19856 19857 19858 19859 19860 19861 19862 19863 19864 19865 19866 19867 19868 19869 19870 19871 19872 19873 19874 19875 19876 19877 19878 19879 19880 19881 19882 19883 19884 19885 19886 19887 19888 19889 19890 19891 19892 19893 19894 19895 19896 19897 19898 19899 19900 19901 19902 19903 19904 19905 19906 19907 19908 19909 19910 19911 19912 19913 19914 19915 19916 19917 19918 19919 19920 19921 19922 19923 19924 19925 19926 19927 19928 19929 19930 19931 19932 19933 19934 19935 19936 19937 19938 19939 19940 19941 19942 19943 19944 19945 19946 19947 19948 19949 19950 19951 19952 19953 19954 19955 19956 19957 19958 19959 19960 19961 19962 19963 19964 19965 19966 19967 19968 19969 19970 19971 19972 19973 19974 19975 19976 19977 19978 19979 19980 19981 19982 19983 19984 19985 19986 19987 19988 19989 19990 19991 19992 19993 19994 19995 19996 19997 19998 19999 20000 20001 20002 20003 20004 20005 20006 20007 20008 20009 20010 20011 20012 20013 20014 20015 20016 20017 20018 20019 20020 20021 20022 20023 20024 20025 20026 20027 20028 20029 20030 20031 20032 20033 20034 20035 20036 20037 20038 20039 20040 20041 20042 20043 20044 20045 20046 20047 20048 20049 20050 20051 20052 20053 20054 20055 20056 20057 20058 20059 20060 20061 20062 20063 20064 20065 20066 20067 20068 20069 20070 20071 20072 20073 20074 20075 20076 20077 20078 20079 20080 20081 20082 20083 20084 20085 20086 20087 20088 20089 20090 20091 20092 20093 20094 20095 20096 20097 20098 20099 20100 20101 20102 20103 20104 20105 20106 20107 20108 20109 20110 20111 20112 20113 20114 20115 20116 20117 20118 20119 20120 20121 20122 20123 20124 20125 20126 20127 20128 20129 20130 20131 20132 20133 20134 20135 20136 20137 20138 20139 20140 20141 20142 20143 20144 20145 20146 20147 20148 20149 20150 20151 20152 20153 20154 20155 20156 20157 20158 20159 20160 20161 20162 20163 20164 20165 20166 20167 20168 20169 20170 20171 20172 20173 20174 20175 20176 20177 20178 20179 20180 20181 20182 20183 20184 20185 20186 20187 20188 20189 20190 20191 20192 20193 20194 20195 20196 20197 20198 20199 20200 20201 20202 20203 20204 20205 20206 20207 20208 20209 20210 20211 20212 20213 20214 20215 20216 20217 20218 20219 20220 20221 20222 20223 20224 20225 20226 20227 20228 20229 20230 20231 20232 20233 20234 20235 20236 20237 20238 20239 20240 20241 20242 20243 20244 20245 20246 20247 20248 20249 20250 20251 20252 20253 20254 20255 20256 20257 20258 20259 20260 20261 20262 20263 20264 20265 20266 20267 20268 20269 20270 20271 20272 20273 20274 20275 20276 20277 20278 20279 20280 20281 20282 20283 20284 20285 20286 20287 20288 20289 20290 20291 20292 20293 20294 20295 20296 20297 20298 20299 20300 20301 20302 20303 20304 20305 20306 20307 20308 20309 20310 20311 20312 20313 20314 20315 20316 20317 20318 20319 20320 20321 20322 20323 20324 20325 20326 20327 20328 20329 20330 20331 20332 20333 20334 20335 20336 20337 20338 20339 20340 20341 20342 20343 20344 20345 20346 20347 20348 20349 20350 20351 20352 20353 20354 20355 20356 20357 20358 20359 20360 20361 20362 20363 20364 20365 20366 20367 20368 20369 20370 20371 20372 20373 20374 20375 20376 20377 20378 20379 20380 20381 20382 20383 20384 20385 20386 20387 20388 20389 20390 20391 20392 20393 20394 20395 20396 20397 20398 20399 20400 20401 20402 20403 20404 20405 20406 20407 20408 20409 20410 20411 20412 20413 20414 20415 20416 20417 20418 20419 20420 20421 20422 20423 20424 20425 20426 20427 20428 20429 20430 20431 20432 20433 20434 20435 20436 20437 20438 20439 20440 20441 20442 20443 20444 20445 20446 20447 20448 20449 20450 20451 20452 20453 20454 20455 20456 20457 20458 20459 20460 20461 20462 20463 20464 20465 20466 20467 20468 20469 20470 20471 20472 20473 20474 20475 20476 20477 20478 20479 20480 20481 20482 20483 20484 20485 20486 20487 20488 20489 20490 20491 20492 20493 20494 20495 20496 20497 20498 20499 20500 20501 20502 20503 20504 20505 20506 20507 20508 20509 20510 20511 20512 20513 20514 20515 20516 20517 20518 20519 20520 20521 20522 20523 20524 20525 20526 20527 20528 20529 20530 20531 20532 20533 20534 20535 20536 20537 20538 20539 20540 20541 20542 20543 20544 20545 20546 20547 20548 20549 20550 20551 20552 20553 20554 20555 20556 20557 20558 20559 20560 20561 20562 20563 20564 20565 20566 20567 20568 20569 20570 20571 20572 20573 20574 20575 20576 20577 20578 20579 20580 20581 20582 20583 20584 20585 20586 20587 20588 20589 20590 20591 20592 20593 20594 20595 20596 20597 20598 20599 20600 20601 20602 20603 20604 20605 20606 20607 20608 20609 20610 20611 20612 20613 20614 20615 20616 20617 20618 20619 20620 20621 20622 20623 20624 20625 20626 20627 20628 20629 20630 20631 20632 20633 20634 20635 20636 20637 20638 20639 20640 20641 20642 20643 20644 20645 20646 20647 20648 20649 20650 20651 20652 20653 20654 20655 20656 20657 20658 20659 20660 20661 20662 20663 20664 20665 20666 20667 20668 20669 20670 20671 20672 20673 20674 20675 20676 20677 20678 20679 20680 20681 20682 20683 20684 20685 20686 20687 20688 20689 20690 20691 20692 20693 20694 20695 20696 20697 20698 20699 20700 20701 20702 20703 20704 20705 20706 20707 20708 20709 20710 20711 20712 20713 20714 20715 20716 20717 20718 20719 20720 20721 20722 20723 20724 20725 20726 20727 20728 20729 20730 20731 20732 20733 20734 20735 20736 20737 20738 20739 20740 20741 20742 20743 20744 20745 20746 20747 20748 20749 20750 20751 20752 20753 20754 20755 20756 20757 20758 20759 20760 20761 20762 20763 20764 20765 20766 20767 20768 20769 20770 20771 20772 20773 20774 20775 20776 20777 20778 20779 20780 20781 20782 20783 20784 20785 20786 20787 20788 20789 20790 20791 20792 20793 20794 20795 20796 20797 20798 20799 20800 20801 20802 20803 20804 20805 20806 20807 20808 20809 20810 20811 20812 20813 20814 20815 20816 20817 20818 20819 20820 20821 20822 20823 20824 20825 20826 20827 20828 20829 20830 20831 20832 20833 20834 20835 20836 20837 20838 20839 20840 20841 20842 20843 20844 20845 20846 20847 20848 20849 20850 20851 20852 20853 20854 20855 20856 20857 20858 20859 20860 20861 20862 20863 20864 20865 20866 20867 20868 20869 20870 20871 20872 20873 20874 20875 20876 20877 20878 20879 20880 20881 20882 20883 20884 20885 20886 20887 20888 20889 20890 20891 20892 20893 20894 20895 20896 20897 20898 20899 20900 20901 20902 20903 20904 20905 20906 20907 20908 20909 20910 20911 20912 20913 20914 20915 20916 20917 20918 20919 20920 20921 20922 20923 20924 20925 20926 20927 20928 20929 20930 20931 20932 20933 20934 20935 20936 20937 20938 20939 20940 20941 20942 20943 20944 20945 20946 20947 20948 20949 20950 20951 20952 20953 20954 20955 20956 20957 20958 20959 20960 20961 20962 20963 20964 20965 20966 20967 20968 20969 20970 20971 20972 20973 20974 20975 20976 20977 20978 20979 20980 20981 20982 20983 20984 20985 20986 20987 20988 20989 20990 20991 20992 20993 20994 20995 20996 20997 20998 20999 21000 21001 21002 21003 21004 21005 21006 21007 21008 21009 21010 21011 21012 21013 21014 21015 21016 21017 21018 21019 21020 21021 21022 21023 21024 21025 21026 21027 21028 21029 21030 21031 21032 21033 21034 21035 21036 21037 21038 21039 21040 21041 21042 21043 21044 21045 21046 21047 21048 21049 21050 21051 21052 21053 21054 21055 21056 21057 21058 21059 21060 21061 21062 21063 21064 21065 21066 21067 21068 21069 21070 21071 21072 21073 21074 21075 21076 21077 21078 21079 21080 21081 21082 21083 21084 21085 21086 21087 21088 21089 21090 21091 21092 21093 21094 21095 21096 21097 21098 21099 21100 21101 21102 21103 21104 21105 21106 21107 21108 21109 21110 21111 21112 21113 21114 21115 21116 21117 21118 21119 21120 21121 21122 21123 21124 21125 21126 21127 21128 21129 21130 21131 21132 21133 21134 21135 21136 21137 21138 21139 21140 21141 21142 21143 21144 21145 21146 21147 21148 21149 21150 21151 21152 21153 21154 21155 21156 21157 21158 21159 21160 21161 21162 21163 21164 21165 21166 21167 21168 21169 21170 21171 21172 21173 21174 21175 21176 21177 21178 21179 21180 21181 21182 21183 21184 21185 21186 21187 21188 21189 21190 21191 21192 21193 21194 21195 21196 21197 21198 21199 21200 21201 21202 21203 21204 21205 21206 21207 21208 21209 21210 21211 21212 21213 21214 21215 21216 21217 21218 21219 21220 21221 21222 21223 21224 21225 21226 21227 21228 21229 21230 21231 21232 21233 21234 21235 21236 21237 21238 21239 21240 21241 21242 21243 21244 21245 21246 21247 21248 21249 21250 21251 21252 21253 21254 21255 21256 21257 21258 21259 21260 21261 21262 21263 21264 21265 21266 21267 21268 21269 21270 21271 21272 21273 21274 21275 21276 21277 21278 21279 21280 21281 21282 21283 21284 21285 21286 21287 21288 21289 21290 21291 21292 21293 21294 21295 21296 21297 21298 21299 21300 21301 21302 21303 21304 21305 21306 21307 21308 21309 21310 21311 21312 21313 21314 21315 21316 21317 21318 21319 21320 21321 21322 21323 21324 21325 21326 21327 21328 21329 21330 21331 21332 21333 21334 21335 21336 21337 21338 21339 21340 21341 21342 21343 21344 21345 21346 21347 21348 21349 21350 21351 21352 21353 21354 21355 21356 21357 21358 21359 21360 21361 21362 21363 21364 21365 21366 21367 21368 21369 21370 21371 21372 21373 21374 21375 21376 21377 21378 21379 21380 21381 21382 21383 21384 21385 21386 21387 21388 21389 21390 21391 21392 21393 21394 21395 21396 21397 21398 21399 21400 21401 21402 21403 21404 21405 21406 21407 21408 21409 21410 21411 21412 21413 21414 21415 21416 21417 21418 21419 21420 21421 21422 21423 21424 21425 21426 21427 21428 21429 21430 21431 21432 21433 21434 21435 21436 21437 21438 21439 21440 21441 21442 21443 21444 21445 21446 21447 21448 21449 21450 21451 21452 21453 21454 21455 21456 21457 21458 21459 21460 21461 21462 21463 21464 21465 21466 21467 21468 21469 21470 21471 21472 21473 21474 21475 21476 21477 21478 21479 21480 21481 21482 21483 21484 21485 21486 21487 21488 21489 21490 21491 21492 21493 21494 21495 21496 21497 21498 21499 21500 21501 21502 21503 21504 21505 21506 21507 21508 21509 21510 21511 21512 21513 21514 21515 21516 21517 21518 21519 21520 21521 21522 21523 21524 21525 21526 21527 21528 21529 21530 21531 21532 21533 21534 21535 21536 21537 21538 21539 21540 21541 21542 21543 21544 21545 21546 21547 21548 21549 21550 21551 21552 21553 21554 21555 21556 21557 21558 21559 21560 21561 21562 21563 21564 21565 21566 21567 21568 21569 21570 21571 21572 21573 21574 21575 21576 21577 21578 21579 21580 21581 21582 21583 21584 21585 21586 21587 21588 21589 21590 21591 21592 21593 21594 21595 21596 21597 21598 21599 21600 21601 21602 21603 21604 21605 21606 21607 21608 21609 21610 21611 21612 21613 21614 21615 21616 21617 21618 21619 21620 21621 21622 21623 21624 21625 21626 21627 21628 21629 21630 21631 21632 21633 21634 21635 21636 21637 21638 21639 21640 21641 21642 21643 21644 21645 21646 21647 21648 21649 21650 21651 21652 21653 21654 21655 21656 21657 21658 21659 21660 21661 21662 21663 21664 21665 21666 21667 21668 21669 21670 21671 21672 21673 21674 21675 21676 21677 21678 21679 21680 21681 21682 21683 21684 21685 21686 21687 21688 21689 21690 21691 21692 21693 21694 21695 21696 21697 21698 21699 21700 21701 21702 21703 21704 21705 21706 21707 21708 21709 21710 21711 21712 21713 21714 21715 21716 21717 21718 21719 21720 21721 21722 21723 21724 21725 21726 21727 21728 21729 21730 21731 21732 21733 21734 21735 21736 21737 21738 21739 21740 21741 21742 21743 21744 21745 21746 21747 21748 21749 21750 21751 21752 21753 21754 21755 21756 21757 21758 21759 21760 21761 21762 21763 21764 21765 21766 21767 21768 21769 21770 21771 21772 21773 21774 21775 21776 21777 21778 21779 21780 21781 21782 21783 21784 21785 21786 21787 21788 21789 21790 21791 21792 21793 21794 21795 21796 21797 21798 21799 21800 21801 21802 21803 21804 21805 21806 21807 21808 21809 21810 21811 21812 21813 21814 21815 21816 21817 21818 21819 21820 21821 21822 21823 21824 21825 21826 21827 21828 21829 21830 21831 21832 21833 21834 21835 21836 21837 21838 21839 21840 21841 21842 21843 21844 21845 21846 21847 21848 21849 21850 21851 21852 21853 21854 21855 21856 21857 21858 21859 21860 21861 21862 21863 21864 21865 21866 21867 21868 21869 21870 21871 21872 21873 21874 21875 21876 21877 21878 21879 21880 21881 21882 21883 21884 21885 21886 21887 21888 21889 21890 21891 21892 21893 21894 21895 21896 21897 21898 21899 21900 21901 21902 21903 21904 21905 21906 21907 21908 21909 21910 21911 21912 21913 21914 21915 21916 21917 21918 21919 21920 21921 21922 21923 21924 21925 21926 21927 21928 21929 21930 21931 21932 21933 21934 21935 21936 21937 21938 21939 21940 21941 21942 21943 21944 21945 21946 21947 21948 21949 21950 21951 21952 21953 21954 21955 21956 21957 21958 21959 21960 21961 21962 21963 21964 21965 21966 21967 21968 21969 21970 21971 21972 21973 21974 21975 21976 21977 21978 21979 21980 21981 21982 21983 21984 21985 21986 21987 21988 21989 21990 21991 21992 21993 21994 21995 21996 21997 21998 21999 22000 22001 22002 22003 22004 22005 22006 22007 22008 22009 22010 22011 22012 22013 22014 22015 22016 22017 22018 22019 22020 22021 22022 22023 22024 22025 22026 22027 22028 22029 22030 22031 22032 22033 22034 22035 22036 22037 22038 22039 22040 22041 22042 22043 22044 22045 22046 22047 22048 22049 22050 22051 22052 22053 22054 22055 22056 22057 22058 22059 22060 22061 22062 22063 22064 22065 22066 22067 22068 22069 22070 22071 22072 22073 22074 22075 22076 22077 22078 22079 22080 22081 22082 22083 22084 22085 22086 22087 22088 22089 22090 22091 22092 22093 22094 22095 22096 22097 22098 22099 22100 22101 22102 22103 22104 22105 22106 22107 22108 22109 22110 22111 22112 22113 22114 22115 22116 22117 22118 22119 22120 22121 22122 22123 22124 22125 22126 22127 22128 22129 22130 22131 22132 22133 22134 22135 22136 22137 22138 22139 22140 22141 22142 22143 22144 22145 22146 22147 22148 22149 22150 22151 22152 22153 22154 22155 22156 22157 22158 22159 22160 22161 22162 22163 22164 22165 22166 22167 22168 22169 22170 22171 22172 22173 22174 22175 22176 22177 22178 22179 22180 22181 22182 22183 22184 22185 22186 22187 22188 22189 22190 22191 22192 22193 22194 22195 22196 22197 22198 22199 22200 22201 22202 22203 22204 22205 22206 22207 22208 22209 22210 22211 22212 22213 22214 22215 22216 22217 22218 22219 22220 22221 22222 22223 22224 22225 22226 22227 22228 22229 22230 22231 22232 22233 22234 22235 22236 22237 22238 22239 22240 22241 22242 22243 22244 22245 22246 22247 22248 22249 22250 22251 22252 22253 22254 22255 22256 22257 22258 22259 22260 22261 22262 22263 22264 22265 22266 22267 22268 22269 22270 22271 22272 22273 22274 22275 22276 22277 22278 22279 22280 22281 22282 22283 22284 22285 22286 22287 22288 22289 22290 22291 22292 22293 22294 22295 22296 22297 22298 22299 22300 22301 22302 22303 22304 22305 22306 22307 22308 22309 22310 22311 22312 22313 22314 22315 22316 22317 22318 22319 22320 22321 22322 22323 22324 22325 22326 22327 22328 22329 22330 22331 22332 22333 22334 22335 22336 22337 22338 22339 22340 22341 22342 22343 22344 22345 22346 22347 22348 22349 22350 22351 22352 22353 22354 22355 22356 22357 22358 22359 22360 22361 22362 22363 22364 22365 22366 22367 22368 22369 22370 22371 22372 22373 22374 22375 22376 22377 22378 22379 22380 22381 22382 22383 22384 22385 22386 22387 22388 22389 22390 22391 22392 22393 22394 22395 22396 22397 22398 22399 22400 22401 22402 22403 22404 22405 22406 22407 22408 22409 22410 22411 22412 22413 22414 22415 22416 22417 22418 22419 22420 22421 22422 22423 22424 22425 22426 22427 22428 22429 22430 22431 22432 22433 22434 22435 22436 22437 22438 22439 22440 22441 22442 22443 22444 22445 22446 22447 22448 22449 22450 22451 22452 22453 22454 22455 22456 22457 22458 22459 22460 22461 22462 22463 22464 22465 22466 22467 22468 22469 22470 22471 22472 22473 22474 22475 22476 22477 22478 22479 22480 22481 22482 22483 22484 22485 22486 22487 22488 22489 22490 22491 22492 22493 22494 22495 22496 22497 22498 22499 22500 22501 22502 22503 22504 22505 22506 22507 22508 22509 22510 22511 22512 22513 22514 22515 22516 22517 22518 22519 22520 22521 22522 22523 22524 22525 22526 22527 22528 22529 22530 22531 22532 22533 22534 22535 22536 22537 22538 22539 22540 22541 22542 22543 22544 22545 22546 22547 22548 22549 22550 22551 22552 22553 22554 22555 22556 22557 22558 22559 22560 22561 22562 22563 22564 22565 22566 22567 22568 22569 22570 22571 22572 22573 22574 22575 22576 22577 22578 22579 22580 22581 22582 22583 22584 22585 22586 22587 22588 22589 22590 22591 22592 22593 22594 22595 22596 22597 22598 22599 22600 22601 22602 22603 22604 22605 22606 22607 22608 22609 22610 22611 22612 22613 22614 22615 22616 22617 22618 22619 22620 22621 22622 22623 22624 22625 22626 22627 22628 22629 22630 22631 22632 22633 22634 22635 22636 22637 22638 22639 22640 22641 22642 22643 22644 22645 22646 22647 22648 22649 22650 22651 22652 22653 22654 22655 22656 22657 22658 22659 22660 22661 22662 22663 22664 22665 22666 22667 22668 22669 22670 22671 22672 22673 22674 22675 22676 22677 22678 22679 22680 22681 22682 22683 22684 22685 22686 22687 22688 22689 22690 22691 22692 22693 22694 22695 22696 22697 22698 22699 22700 22701 22702 22703 22704 22705 22706 22707 22708 22709 22710 22711 22712 22713 22714 22715 22716 22717 22718 22719 22720 22721 22722 22723 22724 22725 22726 22727 22728 22729 22730 22731 22732 22733 22734 22735 22736 22737 22738 22739 22740 22741 22742 22743 22744 22745 22746 22747 22748 22749 22750 22751 22752 22753 22754 22755 22756 22757 22758 22759 22760 22761 22762 22763 22764 22765 22766 22767 22768 22769 22770 22771 22772 22773 22774 22775 22776 22777 22778 22779 22780 22781 22782 22783 22784 22785 22786 22787 22788 22789 22790 22791 22792 22793 22794 22795 22796 22797 22798 22799 22800 22801 22802 22803 22804 22805 22806 22807 22808 22809 22810 22811 22812 22813 22814 22815 22816 22817 22818 22819 22820 22821 22822 22823 22824 22825 22826 22827 22828 22829 22830 22831 22832 22833 22834 22835 22836 22837 22838 22839 22840 22841 22842 22843 22844 22845 22846 22847 22848 22849 22850 22851 22852 22853 22854 22855 22856 22857 22858 22859 22860 22861 22862 22863 22864 22865 22866 22867 22868 22869 22870 22871 22872 22873 22874 22875 22876 22877 22878 22879 22880 22881 22882 22883 22884 22885 22886 22887 22888 22889 22890 22891 22892 22893 22894 22895 22896 22897 22898 22899 22900 22901 22902 22903 22904 22905 22906 22907 22908 22909 22910 22911 22912 22913 22914 22915 22916 22917 22918 22919 22920 22921 22922 22923 22924 22925 22926 22927 22928 22929 22930 22931 22932 22933 22934 22935 22936 22937 22938 22939 22940 22941 22942 22943 22944 22945 22946 22947 22948 22949 22950 22951 22952 22953 22954 22955 22956 22957 22958 22959 22960 22961 22962 22963 22964 22965 22966 22967 22968 22969 22970 22971 22972 22973 22974 22975 22976 22977 22978 22979 22980 22981 22982 22983 22984 22985 22986 22987 22988 22989 22990 22991 22992 22993 22994 22995 22996 22997 22998 22999 23000 23001 23002 23003 23004 23005 23006 23007 23008 23009 23010 23011 23012 23013 23014 23015 23016 23017 23018 23019 23020 23021 23022 23023 23024 23025 23026 23027 23028 23029 23030 23031 23032 23033 23034 23035 23036 23037 23038 23039 23040 23041 23042 23043 23044 23045 23046 23047 23048 23049 23050 23051 23052 23053 23054 23055 23056 23057 23058 23059 23060 23061 23062 23063 23064 23065 23066 23067 23068 23069 23070 23071 23072 23073 23074 23075 23076 23077 23078 23079 23080 23081 23082 23083 23084 23085 23086 23087 23088 23089 23090 23091 23092 23093 23094 23095 23096 23097 23098 23099 23100 23101 23102 23103 23104 23105 23106 23107 23108 23109 23110 23111 23112 23113 23114 23115 23116 23117 23118 23119 23120 23121 23122 23123 23124 23125 23126 23127 23128 23129 23130 23131 23132 23133 23134 23135 23136 23137 23138 23139 23140 23141 23142 23143 23144 23145 23146 23147 23148 23149 23150 23151 23152 23153 23154 23155 23156 23157 23158 23159 23160 23161 23162 23163 23164 23165 23166 23167 23168 23169 23170 23171 23172 23173 23174 23175 23176 23177 23178 23179 23180 23181 23182 23183 23184 23185 23186 23187 23188 23189 23190 23191 23192 23193 23194 23195 23196 23197 23198 23199 23200 23201 23202 23203 23204 23205 23206 23207 23208 23209 23210 23211 23212 23213 23214 23215 23216 23217 23218 23219 23220 23221 23222 23223 23224 23225 23226 23227 23228 23229 23230 23231 23232 23233 23234 23235 23236 23237 23238 23239 23240 23241 23242 23243 23244 23245 23246 23247 23248 23249 23250 23251 23252 23253 23254 23255 23256 23257 23258 23259 23260 23261 23262 23263 23264 23265 23266 23267 23268 23269 23270 23271 23272 23273 23274 23275 23276 23277 23278 23279 23280 23281 23282 23283 23284 23285 23286 23287 23288 23289 23290 23291 23292 23293 23294 23295 23296 23297 23298 23299 23300 23301 23302 23303 23304 23305 23306 23307 23308 23309 23310 23311 23312 23313 23314 23315 23316 23317 23318 23319 23320 23321 23322 23323 23324 23325 23326 23327 23328 23329 23330 23331 23332 23333 23334 23335 23336 23337 23338 23339 23340 23341 23342 23343 23344 23345 23346 23347 23348 23349 23350 23351 23352 23353 23354 23355 23356 23357 23358 23359 23360 23361 23362 23363 23364 23365 23366 23367 23368 23369 23370 23371 23372 23373 23374 23375 23376 23377 23378 23379 23380 23381 23382 23383 23384 23385 23386 23387 23388 23389 23390 23391 23392 23393 23394 23395 23396 23397 23398 23399 23400 23401 23402 23403 23404 23405 23406 23407 23408 23409 23410 23411 23412 23413 23414 23415 23416 23417 23418 23419 23420 23421 23422 23423 23424 23425 23426 23427 23428 23429 23430 23431 23432 23433 23434 23435 23436 23437 23438 23439 23440 23441 23442 23443 23444 23445 23446 23447 23448 23449 23450 23451 23452 23453 23454 23455 23456 23457 23458 23459 23460 23461 23462 23463 23464 23465 23466 23467 23468 23469 23470 23471 23472 23473 23474 23475 23476 23477 23478 23479 23480 23481 23482 23483 23484 23485 23486 23487 23488 23489 23490 23491 23492 23493 23494 23495 23496 23497 23498 23499 23500 23501 23502 23503 23504 23505 23506 23507 23508 23509 23510 23511 23512 23513 23514 23515 23516 23517 23518 23519 23520 23521 23522 23523 23524 23525 23526 23527 23528 23529 23530 23531 23532 23533 23534 23535 23536 23537 23538 23539 23540 23541 23542 23543 23544 23545 23546 23547 23548 23549 23550 23551 23552 23553 23554 23555 23556 23557 23558 23559 23560 23561 23562 23563 23564 23565 23566 23567 23568 23569 23570 23571 23572 23573 23574 23575 23576 23577 23578 23579 23580 23581 23582 23583 23584 23585 23586 23587 23588 23589 23590 23591 23592 23593 23594 23595 23596 23597 23598 23599 23600 23601 23602 23603 23604 23605 23606 23607 23608 23609 23610 23611 23612 23613 23614 23615 23616 23617 23618 23619 23620 23621 23622 23623 23624 23625 23626 23627 23628 23629 23630 23631 23632 23633 23634 23635 23636 23637 23638 23639 23640 23641 23642 23643 23644 23645 23646 23647 23648 23649 23650 23651 23652 23653 23654 23655 23656 23657 23658 23659 23660 23661 23662 23663 23664 23665 23666 23667 23668 23669 23670 23671 23672 23673 23674 23675 23676 23677 23678 23679 23680 23681 23682 23683 23684 23685 23686 23687 23688 23689 23690 23691 23692 23693 23694 23695 23696 23697 23698 23699 23700 23701 23702 23703 23704 23705 23706 23707 23708 23709 23710 23711 23712 23713 23714 23715 23716 23717 23718 23719 23720 23721 23722 23723 23724 23725 23726 23727 23728 23729 23730 23731 23732 23733 23734 23735 23736 23737 23738 23739 23740 23741 23742 23743 23744 23745 23746 23747 23748 23749 23750 23751 23752 23753 23754 23755 23756 23757 23758 23759 23760 23761 23762 23763 23764 23765 23766 23767 23768 23769 23770 23771 23772 23773 23774 23775 23776 23777 23778 23779 23780 23781 23782 23783 23784 23785 23786 23787 23788 23789 23790 23791 23792 23793 23794 23795 23796 23797 23798 23799 23800 23801 23802 23803 23804 23805 23806 23807 23808 23809 23810 23811 23812 23813 23814 23815 23816 23817 23818 23819 23820 23821 23822 23823 23824 23825 23826 23827 23828 23829 23830 23831 23832 23833 23834 23835 23836 23837 23838 23839 23840 23841 23842 23843 23844 23845 23846 23847 23848 23849 23850 23851 23852 23853 23854 23855 23856 23857 23858 23859 23860 23861 23862 23863 23864 23865 23866 23867 23868 23869 23870 23871 23872 23873 23874 23875 23876 23877 23878 23879 23880 23881 23882 23883 23884 23885 23886 23887 23888 23889 23890 23891 23892 23893 23894 23895 23896 23897 23898 23899 23900 23901 23902 23903 23904 23905 23906 23907 23908 23909 23910 23911 23912 23913 23914 23915 23916 23917 23918 23919 23920 23921 23922 23923 23924 23925 23926 23927 23928 23929 23930 23931 23932 23933 23934 23935 23936 23937 23938 23939 23940 23941 23942 23943 23944 23945 23946 23947 23948 23949 23950 23951 23952 23953 23954 23955 23956 23957 23958 23959 23960 23961 23962 23963 23964 23965 23966 23967 23968 23969 23970 23971 23972 23973 23974 23975 23976 23977 23978 23979 23980 23981 23982 23983 23984 23985 23986 23987 23988 23989 23990 23991 23992 23993 23994 23995 23996 23997 23998 23999 24000 24001 24002 24003 24004 24005 24006 24007 24008 24009 24010 24011 24012 24013 24014 24015 24016 24017 24018 24019 24020 24021 24022 24023 24024 24025 24026 24027 24028 24029 24030 24031 24032 24033 24034 24035 24036 24037 24038 24039 24040 24041 24042 24043 24044 24045 24046 24047 24048 24049 24050 24051 24052 24053 24054 24055 24056 24057 24058 24059 24060 24061 24062 24063 24064 24065 24066 24067 24068 24069 24070 24071 24072 24073 24074 24075 24076 24077 24078 24079 24080 24081 24082 24083 24084 24085 24086 24087 24088 24089 24090 24091 24092 24093 24094 24095 24096 24097 24098 24099 24100 24101 24102 24103 24104 24105 24106 24107 24108 24109 24110 24111 24112 24113 24114 24115 24116 24117 24118 24119 24120 24121 24122 24123 24124 24125 24126 24127 24128 24129 24130 24131 24132 24133 24134 24135 24136 24137 24138 24139 24140 24141 24142 24143 24144 24145 24146 24147 24148 24149 24150 24151 24152 24153 24154 24155 24156 24157 24158 24159 24160 24161 24162 24163 24164 24165 24166 24167 24168 24169 24170 24171 24172 24173 24174 24175 24176 24177 24178 24179 24180 24181 24182 24183 24184 24185 24186 24187 24188 24189 24190 24191 24192 24193 24194 24195 24196 24197 24198 24199 24200 24201 24202 24203 24204 24205 24206 24207 24208 24209 24210 24211 24212 24213 24214 24215 24216 24217 24218 24219 24220 24221 24222 24223 24224 24225 24226 24227 24228 24229 24230 24231 24232 24233 24234 24235 24236 24237 24238 24239 24240 24241 24242 24243 24244 24245 24246 24247 24248 24249 24250 24251 24252 24253 24254 24255 24256 24257 24258 24259 24260 24261 24262 24263 24264 24265 24266 24267 24268 24269 24270 24271 24272 24273 24274 24275 24276 24277 24278 24279 24280 24281 24282 24283 24284 24285 24286 24287 24288 24289 24290 24291 24292 24293 24294 24295 24296 24297 24298 24299 24300 24301 24302 24303 24304 24305 24306 24307 24308 24309 24310 24311 24312 24313 24314 24315 24316 24317 24318 24319 24320 24321 24322 24323 24324 24325 24326 24327 24328 24329 24330 24331 24332 24333 24334 24335 24336 24337 24338 24339 24340 24341 24342 24343 24344 24345 24346 24347 24348 24349 24350 24351 24352 24353 24354 24355 24356 24357 24358 24359 24360 24361 24362 24363 24364 24365 24366 24367 24368 24369 24370 24371 24372 24373 24374 24375 24376 24377 24378 24379 24380 24381 24382 24383 24384 24385 24386 24387 24388 24389 24390 24391 24392 24393 24394 24395 24396 24397 24398 24399 24400 24401 24402 24403 24404 24405 24406 24407 24408 24409 24410 24411 24412 24413 24414 24415 24416 24417 24418 24419 24420 24421 24422 24423 24424 24425 24426 24427 24428 24429 24430 24431 24432 24433 24434 24435 24436 24437 24438 24439 24440 24441 24442 24443 24444 24445 24446 24447 24448 24449 24450 24451 24452 24453 24454 24455 24456 24457 24458 24459 24460 24461 24462 24463 24464 24465 24466 24467 24468 24469 24470 24471 24472 24473 24474 24475 24476 24477 24478 24479 24480 24481 24482 24483 24484 24485 24486 24487 24488 24489 24490 24491 24492 24493 24494 24495 24496 24497 24498 24499 24500 24501 24502 24503 24504 24505 24506 24507 24508 24509 24510 24511 24512 24513 24514 24515 24516 24517 24518 24519 24520 24521 24522 24523 24524 24525 24526 24527 24528 24529 24530 24531 24532 24533 24534 24535 24536 24537 24538 24539 24540 24541 24542 24543 24544 24545 24546 24547 24548 24549 24550 24551 24552 24553 24554 24555 24556 24557 24558 24559 24560 24561 24562 24563 24564 24565 24566 24567 24568 24569 24570 24571 24572 24573 24574 24575 24576 24577 24578 24579 24580 24581 24582 24583 24584 24585 24586 24587 24588 24589 24590 24591 24592 24593 24594 24595 24596 24597 24598 24599 24600 24601 24602 24603 24604 24605 24606 24607 24608 24609 24610 24611 24612 24613 24614 24615 24616 24617 24618 24619 24620 24621 24622 24623 24624 24625 24626 24627 24628 24629 24630 24631 24632 24633 24634 24635 24636 24637 24638 24639 24640 24641 24642 24643 24644 24645 24646 24647 24648 24649 24650 24651 24652 24653 24654 24655 24656 24657 24658 24659 24660 24661 24662 24663 24664 24665 24666 24667 24668 24669 24670 24671 24672 24673 24674 24675 24676 24677 24678 24679 24680 24681 24682 24683 24684 24685 24686 24687 24688 24689 24690 24691 24692 24693 24694 24695 24696 24697 24698 24699 24700 24701 24702 24703 24704 24705 24706 24707 24708 24709 24710 24711 24712 24713 24714 24715 24716 24717 24718 24719 24720 24721 24722 24723 24724 24725 24726 24727 24728 24729 24730 24731 24732 24733 24734 24735 24736 24737 24738 24739 24740 24741 24742 24743 24744 24745 24746 24747 24748 24749 24750 24751 24752 24753 24754 24755 24756 24757 24758 24759 24760 24761 24762 24763 24764 24765 24766 24767 24768 24769 24770 24771 24772 24773 24774 24775 24776 24777 24778 24779 24780 24781 24782 24783 24784 24785 24786 24787 24788 24789 24790 24791 24792 24793 24794 24795 24796 24797 24798 24799 24800 24801 24802 24803 24804 24805 24806 24807 24808 24809 24810 24811 24812 24813 24814 24815 24816 24817 24818 24819 24820 24821 24822 24823 24824 24825 24826 24827 24828 24829 24830 24831 24832 24833 24834 24835 24836 24837 24838 24839 24840 24841 24842 24843 24844 24845 24846 24847 24848 24849 24850 24851 24852 24853 24854 24855 24856 24857 24858 24859 24860 24861 24862 24863 24864 24865 24866 24867 24868 24869 24870 24871 24872 24873 24874 24875 24876 24877 24878 24879 24880 24881 24882 24883 24884 24885 24886 24887 24888 24889 24890 24891 24892 24893 24894 24895 24896 24897 24898 24899 24900 24901 24902 24903 24904 24905 24906 24907 24908 24909 24910 24911 24912 24913 24914 24915 24916 24917 24918 24919 24920 24921 24922 24923 24924 24925 24926 24927 24928 24929 24930 24931 24932 24933 24934 24935 24936 24937 24938 24939 24940 24941 24942 24943 24944 24945 24946 24947 24948 24949 24950 24951 24952 24953 24954 24955 24956 24957 24958 24959 24960 24961 24962 24963 24964 24965 24966 24967 24968 24969 24970 24971 24972 24973 24974 24975 24976 24977 24978 24979 24980 24981 24982 24983 24984 24985 24986 24987 24988 24989 24990 24991 24992 24993 24994 24995 24996 24997 24998 24999 25000 25001 25002 25003 25004 25005 25006 25007 25008 25009 25010 25011 25012 25013 25014 25015 25016 25017 25018 25019 25020 25021 25022 25023 25024 25025 25026 25027 25028 25029 25030 25031 25032 25033 25034 25035 25036 25037 25038 25039 25040 25041 25042 25043 25044 25045 25046 25047 25048 25049 25050 25051 25052 25053 25054 25055 25056 25057 25058 25059 25060 25061 25062 25063 25064 25065 25066 25067 25068 25069 25070 25071 25072 25073 25074 25075 25076 25077 25078 25079 25080 25081 25082 25083 25084 25085 25086 25087 25088 25089 25090 25091 25092 25093 25094 25095 25096 25097 25098 25099 25100 25101 25102 25103 25104 25105 25106 25107 25108 25109 25110 25111 25112 25113 25114 25115 25116 25117 25118 25119 25120 25121 25122 25123 25124 25125 25126 25127 25128 25129 25130 25131 25132 25133 25134 25135 25136 25137 25138 25139 25140 25141 25142 25143 25144 25145 25146 25147 25148 25149 25150 25151 25152 25153 25154 25155 25156 25157 25158 25159 25160 25161 25162 25163 25164 25165 25166 25167 25168 25169 25170 25171 25172 25173 25174 25175 25176 25177 25178 25179 25180 25181 25182 25183 25184 25185 25186 25187 25188 25189 25190 25191 25192 25193 25194 25195 25196 25197 25198 25199 25200 25201 25202 25203 25204 25205 25206 25207 25208 25209 25210 25211 25212 25213 25214 25215 25216 25217 25218 25219 25220 25221 25222 25223 25224 25225 25226 25227 25228 25229 25230 25231 25232 25233 25234 25235 25236 25237 25238 25239 25240 25241 25242 25243 25244 25245 25246 25247 25248 25249 25250 25251 25252 25253 25254 25255 25256 25257 25258 25259 25260 25261 25262 25263 25264 25265 25266 25267 25268 25269 25270 25271 25272 25273 25274 25275 25276 25277 25278 25279 25280 25281 25282 25283 25284 25285 25286 25287 25288 25289 25290 25291 25292 25293 25294 25295 25296 25297 25298 25299 25300 25301 25302 25303 25304 25305 25306 25307 25308 25309 25310 25311 25312 25313 25314 25315 25316 25317 25318 25319 25320 25321 25322 25323 25324 25325 25326 25327 25328 25329 25330 25331 25332 25333 25334 25335 25336 25337 25338 25339 25340 25341 25342 25343 25344 25345 25346 25347 25348 25349 25350 25351 25352 25353 25354 25355 25356 25357 25358 25359 25360 25361 25362 25363 25364 25365 25366 25367 25368 25369 25370 25371 25372 25373 25374 25375 25376 25377 25378 25379 25380 25381 25382 25383 25384 25385 25386 25387 25388 25389 25390 25391 25392 25393 25394 25395 25396 25397 25398 25399 25400 25401 25402 25403 25404 25405 25406 25407 25408 25409 25410 25411 25412 25413 25414 25415 25416 25417 25418 25419 25420 25421 25422 25423 25424 25425 25426 25427 25428 25429 25430 25431 25432 25433 25434 25435 25436 25437 25438 25439 25440 25441 25442 25443 25444 25445 25446 25447 25448 25449 25450 25451 25452 25453 25454 25455 25456 25457 25458 25459 25460 25461 25462 25463 25464 25465 25466 25467 25468 25469 25470 25471 25472 25473 25474 25475 25476 25477 25478 25479 25480 25481 25482 25483 25484 25485 25486 25487 25488 25489 25490 25491 25492 25493 25494 25495 25496 25497 25498 25499 25500 25501 25502 25503 25504 25505 25506 25507 25508 25509 25510 25511 25512 25513 25514 25515 25516 25517 25518 25519 25520 25521 25522 25523 25524 25525 25526 25527 25528 25529 25530 25531 25532 25533 25534 25535 25536 25537 25538 25539 25540 25541 25542 25543 25544 25545 25546 25547 25548 25549 25550 25551 25552 25553 25554 25555 25556 25557 25558 25559 25560 25561 25562 25563 25564 25565 25566 25567 25568 25569 25570 25571 25572 25573 25574 25575 25576 25577 25578 25579 25580 25581 25582 25583 25584 25585 25586 25587 25588 25589 25590 25591 25592 25593 25594 25595 25596 25597 25598 25599 25600 25601 25602 25603 25604 25605 25606 25607 25608 25609 25610 25611 25612 25613 25614 25615 25616 25617 25618 25619 25620 25621 25622 25623 25624 25625 25626 25627 25628 25629 25630 25631 25632 25633 25634 25635 25636 25637 25638 25639 25640 25641 25642 25643 25644 25645 25646 25647 25648 25649 25650 25651 25652 25653 25654 25655 25656 25657 25658 25659 25660 25661 25662 25663 25664 25665 25666 25667 25668 25669 25670 25671 25672 25673 25674 25675 25676 25677 25678 25679 25680 25681 25682 25683 25684 25685 25686 25687 25688 25689 25690 25691 25692 25693 25694 25695 25696 25697 25698 25699 25700 25701 25702 25703 25704 25705 25706 25707 25708 25709 25710 25711 25712 25713 25714 25715 25716 25717 25718 25719 25720 25721 25722 25723 25724 25725 25726 25727 25728 25729 25730 25731 25732 25733 25734 25735 25736 25737 25738 25739 25740 25741 25742 25743 25744 25745 25746 25747 25748 25749 25750 25751 25752 25753 25754 25755 25756 25757 25758 25759 25760 25761 25762 25763 25764 25765 25766 25767 25768 25769 25770 25771 25772 25773 25774 25775 25776 25777 25778 25779 25780 25781 25782 25783 25784 25785 25786 25787 25788 25789 25790 25791 25792 25793 25794 25795 25796 25797 25798 25799 25800 25801 25802 25803 25804 25805 25806 25807 25808 25809 25810 25811 25812 25813 25814 25815 25816 25817 25818 25819 25820 25821 25822 25823 25824 25825 25826 25827 25828 25829 25830 25831 25832 25833 25834 25835 25836 25837 25838 25839 25840 25841 25842 25843 25844 25845 25846 25847 25848 25849 25850 25851 25852 25853 25854 25855 25856 25857 25858 25859 25860 25861 25862 25863 25864 25865 25866 25867 25868 25869 25870 25871 25872 25873 25874 25875 25876 25877 25878 25879 25880 25881 25882 25883 25884 25885 25886 25887 25888 25889 25890 25891 25892 25893 25894 25895 25896 25897 25898 25899 25900 25901 25902 25903 25904 25905 25906 25907 25908 25909 25910 25911 25912 25913 25914 25915 25916 25917 25918 25919 25920 25921 25922 25923 25924 25925 25926 25927 25928 25929 25930 25931 25932 25933 25934 25935 25936 25937 25938 25939 25940 25941 25942 25943 25944 25945 25946 25947 25948 25949 25950 25951 25952 25953 25954 25955 25956 25957 25958 25959 25960 25961 25962 25963 25964 25965 25966 25967 25968 25969 25970 25971 25972 25973 25974 25975 25976 25977 25978 25979 25980 25981 25982 25983 25984 25985 25986 25987 25988 25989 25990 25991 25992 25993 25994 25995 25996 25997 25998 25999 26000 26001 26002 26003 26004 26005 26006 26007 26008 26009 26010 26011 26012 26013 26014 26015 26016 26017 26018 26019 26020 26021 26022 26023 26024 26025 26026 26027 26028 26029 26030 26031 26032 26033 26034 26035 26036 26037 26038 26039 26040 26041 26042 26043 26044 26045 26046 26047 26048 26049 26050 26051 26052 26053 26054 26055 26056 26057 26058 26059 26060 26061 26062 26063 26064 26065 26066 26067 26068 26069 26070 26071 26072 26073 26074 26075 26076 26077 26078 26079 26080 26081 26082 26083 26084 26085 26086 26087 26088 26089 26090 26091 26092 26093 26094 26095 26096 26097 26098 26099 26100 26101 26102 26103 26104 26105 26106 26107 26108 26109 26110 26111 26112 26113 26114 26115 26116 26117 26118 26119 26120 26121 26122 26123 26124 26125 26126 26127 26128 26129 26130 26131 26132 26133 26134 26135 26136 26137 26138 26139 26140 26141 26142 26143 26144 26145 26146 26147 26148 26149 26150 26151 26152 26153 26154 26155 26156 26157 26158 26159 26160 26161 26162 26163 26164 26165 26166 26167 26168 26169 26170 26171 26172 26173 26174 26175 26176 26177 26178 26179 26180 26181 26182 26183 26184 26185 26186 26187 26188 26189 26190 26191 26192 26193 26194 26195 26196 26197 26198 26199 26200 26201 26202 26203 26204 26205 26206 26207 26208 26209 26210 26211 26212 26213 26214 26215 26216 26217 26218 26219 26220 26221 26222 26223 26224 26225 26226 26227 26228 26229 26230 26231 26232 26233 26234 26235 26236 26237 26238 26239 26240 26241 26242 26243 26244 26245 26246 26247 26248 26249 26250 26251 26252 26253 26254 26255 26256 26257 26258 26259 26260 26261 26262 26263 26264 26265 26266 26267 26268 26269 26270 26271 26272 26273 26274 26275 26276 26277 26278 26279 26280 26281 26282 26283 26284 26285 26286 26287 26288 26289 26290 26291 26292 26293 26294 26295 26296 26297 26298 26299 26300 26301 26302 26303 26304 26305 26306 26307 26308 26309 26310 26311 26312 26313 26314 26315 26316 26317 26318 26319 26320 26321 26322 26323 26324 26325 26326 26327 26328 26329 26330 26331 26332 26333 26334 26335 26336 26337 26338 26339 26340 26341 26342 26343 26344 26345 26346 26347 26348 26349 26350 26351 26352 26353 26354 26355 26356 26357 26358 26359 26360 26361 26362 26363 26364 26365 26366 26367 26368 26369 26370 26371 26372 26373 26374 26375 26376 26377 26378 26379 26380 26381 26382 26383 26384 26385 26386 26387 26388 26389 26390 26391 26392 26393 26394 26395 26396 26397 26398 26399 26400 26401 26402 26403 26404 26405 26406 26407 26408 26409 26410 26411 26412 26413 26414 26415 26416 26417 26418 26419 26420 26421 26422 26423 26424 26425 26426 26427 26428 26429 26430 26431 26432 26433 26434 26435 26436 26437 26438 26439 26440 26441 26442 26443 26444 26445 26446 26447 26448 26449 26450 26451 26452 26453 26454 26455 26456 26457 26458 26459 26460 26461 26462 26463 26464 26465 26466 26467 26468 26469 26470 26471 26472 26473 26474 26475 26476 26477 26478 26479 26480 26481 26482 26483 26484 26485 26486 26487 26488 26489 26490 26491 26492 26493 26494 26495 26496 26497 26498 26499 26500 26501 26502 26503 26504 26505 26506 26507 26508 26509 26510 26511 26512 26513 26514 26515 26516 26517 26518 26519 26520 26521 26522 26523 26524 26525 26526 26527 26528 26529 26530 26531 26532 26533 26534 26535 26536 26537 26538 26539 26540 26541 26542 26543 26544 26545 26546 26547 26548 26549 26550 26551 26552 26553 26554 26555 26556 26557 26558 26559 26560 26561 26562 26563 26564 26565 26566 26567 26568 26569 26570 26571 26572 26573 26574 26575 26576 26577 26578 26579 26580 26581 26582 26583 26584 26585 26586 26587 26588 26589 26590 26591 26592 26593 26594 26595 26596 26597 26598 26599 26600 26601 26602 26603 26604 26605 26606 26607 26608 26609 26610 26611 26612 26613 26614 26615 26616 26617 26618 26619 26620 26621 26622 26623 26624 26625 26626 26627 26628 26629 26630 26631 26632 26633 26634 26635 26636 26637 26638 26639 26640 26641 26642 26643 26644 26645 26646 26647 26648 26649 26650 26651 26652 26653 26654 26655 26656 26657 26658 26659 26660 26661 26662 26663 26664 26665 26666 26667 26668 26669 26670 26671 26672 26673 26674 26675 26676 26677 26678 26679 26680 26681 26682 26683 26684 26685 26686 26687 26688 26689 26690 26691 26692 26693 26694 26695 26696 26697 26698 26699 26700 26701 26702 26703 26704 26705 26706 26707 26708 26709 26710 26711 26712 26713 26714 26715 26716 26717 26718 26719 26720 26721 26722 26723 26724 26725 26726 26727 26728 26729 26730 26731 26732 26733 26734 26735 26736 26737 26738 26739 26740 26741 26742 26743 26744 26745 26746 26747 26748 26749 26750 26751 26752 26753 26754 26755 26756 26757 26758 26759 26760 26761 26762 26763 26764 26765 26766 26767 26768 26769 26770 26771 26772 26773 26774 26775 26776 26777 26778 26779 26780 26781 26782 26783 26784 26785 26786 26787 26788 26789 26790 26791 26792 26793 26794 26795 26796 26797 26798 26799 26800 26801 26802 26803 26804 26805 26806 26807 26808 26809 26810 26811 26812 26813 26814 26815 26816 26817 26818 26819 26820 26821 26822 26823 26824 26825 26826 26827 26828 26829 26830 26831 26832 26833 26834 26835 26836 26837 26838 26839 26840 26841 26842 26843 26844 26845 26846 26847 26848 26849 26850 26851 26852 26853 26854 26855 26856 26857 26858 26859 26860 26861 26862 26863 26864 26865 26866 26867 26868 26869 26870 26871 26872 26873 26874 26875 26876 26877 26878 26879 26880 26881 26882 26883 26884 26885 26886 26887 26888 26889 26890 26891 26892 26893 26894 26895 26896 26897 26898 26899 26900 26901 26902 26903 26904 26905 26906 26907 26908 26909 26910 26911 26912 26913 26914 26915 26916 26917 26918 26919 26920 26921 26922 26923 26924 26925 26926 26927 26928 26929 26930 26931 26932 26933 26934 26935 26936 26937 26938 26939 26940 26941 26942 26943 26944 26945 26946 26947 26948 26949 26950 26951 26952 26953 26954 26955 26956 26957 26958 26959 26960 26961 26962 26963 26964 26965 26966 26967 26968 26969 26970 26971 26972 26973 26974 26975 26976 26977 26978 26979 26980 26981 26982 26983 26984 26985 26986 26987 26988 26989 26990 26991 26992 26993 26994 26995 26996 26997 26998 26999 27000 27001 27002 27003 27004 27005 27006 27007 27008 27009 27010 27011 27012 27013 27014 27015 27016 27017 27018 27019 27020 27021 27022 27023 27024 27025 27026 27027 27028 27029 27030 27031 27032 27033 27034 27035 27036 27037 27038 27039 27040 27041 27042 27043 27044 27045 27046 27047 27048 27049 27050 27051 27052 27053 27054 27055 27056 27057 27058 27059 27060 27061 27062 27063 27064 27065 27066 27067 27068 27069 27070 27071 27072 27073 27074 27075 27076 27077 27078 27079 27080 27081 27082 27083 27084 27085 27086 27087 27088 27089 27090 27091 27092 27093 27094 27095 27096 27097 27098 27099 27100 27101 27102 27103 27104 27105 27106 27107 27108 27109 27110 27111 27112 27113 27114 27115 27116 27117 27118 27119 27120 27121 27122 27123 27124 27125 27126 27127 27128 27129 27130 27131 27132 27133 27134 27135 27136 27137 27138 27139 27140 27141 27142 27143 27144 27145 27146 27147 27148 27149 27150 27151 27152 27153 27154 27155 27156 27157 27158 27159 27160 27161 27162 27163 27164 27165 27166 27167 27168 27169 27170 27171 27172 27173 27174 27175 27176 27177 27178 27179 27180 27181 27182 27183 27184 27185 27186 27187 27188 27189 27190 27191 27192 27193 27194 27195 27196 27197 27198 27199 27200 27201 27202 27203 27204 27205 27206 27207 27208 27209 27210 27211 27212 27213 27214 27215 27216 27217 27218 27219 27220 27221 27222 27223 27224 27225 27226 27227 27228 27229 27230 27231 27232 27233 27234 27235 27236 27237 27238 27239 27240 27241 27242 27243 27244 27245 27246 27247 27248 27249 27250 27251 27252 27253 27254 27255 27256 27257 27258 27259 27260 27261 27262 27263 27264 27265 27266 27267 27268 27269 27270 27271 27272 27273 27274 27275 27276 27277 27278 27279 27280 27281 27282 27283 27284 27285 27286 27287 27288 27289 27290 27291 27292 27293 27294 27295 27296 27297 27298 27299 27300 27301 27302 27303 27304 27305 27306 27307 27308 27309 27310 27311 27312 27313 27314 27315 27316 27317 27318 27319 27320 27321 27322 27323 27324 27325 27326 27327 27328 27329 27330 27331 27332 27333 27334 27335 27336 27337 27338 27339 27340 27341 27342 27343 27344 27345 27346 27347 27348 27349 27350 27351 27352 27353 27354 27355 27356 27357 27358 27359 27360 27361 27362 27363 27364 27365 27366 27367 27368 27369 27370 27371 27372 27373 27374 27375 27376 27377 27378 27379 27380 27381 27382 27383 27384 27385 27386 27387 27388 27389 27390 27391 27392 27393 27394 27395 27396 27397 27398 27399 27400 27401 27402 27403 27404 27405 27406 27407 27408 27409 27410 27411 27412 27413 27414 27415 27416 27417 27418 27419 27420 27421 27422 27423 27424 27425 27426 27427 27428 27429 27430 27431 27432 27433 27434 27435 27436 27437 27438 27439 27440 27441 27442 27443 27444 27445 27446 27447 27448 27449 27450 27451 27452 27453 27454 27455 27456 27457 27458 27459 27460 27461 27462 27463 27464 27465 27466 27467 27468 27469 27470 27471 27472 27473 27474 27475 27476 27477 27478 27479 27480 27481 27482 27483 27484 27485 27486 27487 27488 27489 27490 27491 27492 27493 27494 27495 27496 27497 27498 27499 27500 27501 27502 27503 27504 27505 27506 27507 27508 27509 27510 27511 27512 27513 27514 27515 27516 27517 27518 27519 27520 27521 27522 27523 27524 27525 27526 27527 27528 27529 27530 27531 27532 27533 27534 27535 27536 27537 27538 27539 27540 27541 27542 27543 27544 27545 27546 27547 27548 27549 27550 27551 27552 27553 27554 27555 27556 27557 27558 27559 27560 27561 27562 27563 27564 27565 27566 27567 27568 27569 27570 27571 27572 27573 27574 27575 27576 27577 27578 27579 27580 27581 27582 27583 27584 27585 27586 27587 27588 27589 27590 27591 27592 27593 27594 27595 27596 27597 27598 27599 27600 27601 27602 27603 27604 27605 27606 27607 27608 27609 27610 27611 27612 27613 27614 27615 27616 27617 27618 27619 27620 27621 27622 27623 27624 27625 27626 27627 27628 27629 27630 27631 27632 27633 27634 27635 27636 27637 27638 27639 27640 27641 27642 27643 27644 27645 27646 27647 27648 27649 27650 27651 27652 27653 27654 27655 27656 27657 27658 27659 27660 27661 27662 27663 27664 27665 27666 27667 27668 27669 27670 27671 27672 27673 27674 27675 27676 27677 27678 27679 27680 27681 27682 27683 27684 27685 27686 27687 27688 27689 27690 27691 27692 27693 27694 27695 27696 27697 27698 27699 27700 27701 27702 27703 27704 27705 27706 27707 27708 27709 27710 27711 27712 27713 27714 27715 27716 27717 27718 27719 27720 27721 27722 27723 27724 27725 27726 27727 27728 27729 27730 27731 27732 27733 27734 27735 27736 27737 27738 27739 27740 27741 27742 27743 27744 27745 27746 27747 27748 27749 27750 27751 27752 27753 27754 27755 27756 27757 27758 27759 27760 27761 27762 27763 27764 27765 27766 27767 27768 27769 27770 27771 27772 27773 27774 27775 27776 27777 27778 27779 27780 27781 27782 27783 27784 27785 27786 27787 27788 27789 27790 27791 27792 27793 27794 27795 27796 27797 27798 27799 27800 27801 27802 27803 27804 27805 27806 27807 27808 27809 27810 27811 27812 27813 27814 27815 27816 27817 27818 27819 27820 27821 27822 27823 27824 27825 27826 27827 27828 27829 27830 27831 27832 27833 27834 27835 27836 27837 27838 27839 27840 27841 27842 27843 27844 27845 27846 27847 27848 27849 27850 27851 27852 27853 27854 27855 27856 27857 27858 27859 27860 27861 27862 27863 27864 27865 27866 27867 27868 27869 27870 27871 27872 27873 27874 27875 27876 27877 27878 27879 27880 27881 27882 27883 27884 27885 27886 27887 27888 27889 27890 27891 27892 27893 27894 27895 27896 27897 27898 27899 27900 27901 27902 27903 27904 27905 27906 27907 27908 27909 27910 27911 27912 27913 27914 27915 27916 27917 27918 27919 27920 27921 27922 27923 27924 27925 27926 27927 27928 27929 27930 27931 27932 27933 27934 27935 27936 27937 27938 27939 27940 27941 27942 27943 27944 27945 27946 27947 27948 27949 27950 27951 27952 27953 27954 27955 27956 27957 27958 27959 27960 27961 27962 27963 27964 27965 27966 27967 27968 27969 27970 27971 27972 27973 27974 27975 27976 27977 27978 27979 27980 27981 27982 27983 27984 27985 27986 27987 27988 27989 27990 27991 27992 27993 27994 27995 27996 27997 27998 27999 28000 28001 28002 28003 28004 28005 28006 28007 28008 28009 28010 28011 28012 28013 28014 28015 28016 28017 28018 28019 28020 28021 28022 28023 28024 28025 28026 28027 28028 28029 28030 28031 28032 28033 28034 28035 28036 28037 28038 28039 28040 28041 28042 28043 28044 28045 28046 28047 28048 28049 28050 28051 28052 28053 28054 28055 28056 28057 28058 28059 28060 28061 28062 28063 28064 28065 28066 28067 28068 28069 28070 28071 28072 28073 28074 28075 28076 28077 28078 28079 28080 28081 28082 28083 28084 28085 28086 28087 28088 28089 28090 28091 28092 28093 28094 28095 28096 28097 28098 28099 28100 28101 28102 28103 28104 28105 28106 28107 28108 28109 28110 28111 28112 28113 28114 28115 28116 28117 28118 28119 28120 28121 28122 28123 28124 28125 28126 28127 28128 28129 28130 28131 28132 28133 28134 28135 28136 28137 28138 28139 28140 28141 28142 28143 28144 28145 28146 28147 28148 28149 28150 28151 28152 28153 28154 28155 28156 28157 28158 28159 28160 28161 28162 28163 28164 28165 28166 28167 28168 28169 28170 28171 28172 28173 28174 28175 28176 28177 28178 28179 28180 28181 28182 28183 28184 28185 28186 28187 28188 28189 28190 28191 28192 28193 28194 28195 28196 28197 28198 28199 28200 28201 28202 28203 28204 28205 28206 28207 28208 28209 28210 28211 28212 28213 28214 28215 28216 28217 28218 28219 28220 28221 28222 28223 28224 28225 28226 28227 28228 28229 28230 28231 28232 28233 28234 28235 28236 28237 28238 28239 28240 28241 28242 28243 28244 28245 28246 28247 28248 28249 28250 28251 28252 28253 28254 28255 28256 28257 28258 28259 28260 28261 28262 28263 28264 28265 28266 28267 28268 28269 28270 28271 28272 28273 28274 28275 28276 28277 28278 28279 28280 28281 28282 28283 28284 28285 28286 28287 28288 28289 28290 28291 28292 28293 28294 28295 28296 28297 28298 28299 28300 28301 28302 28303 28304 28305 28306 28307 28308 28309 28310 28311 28312 28313 28314 28315 28316 28317 28318 28319 28320 28321 28322 28323 28324 28325 28326 28327 28328 28329 28330 28331 28332 28333 28334 28335 28336 28337 28338 28339 28340 28341 28342 28343 28344 28345 28346 28347 28348 28349 28350 28351 28352 28353 28354 28355 28356 28357 28358 28359 28360 28361 28362 28363 28364 28365 28366 28367 28368 28369 28370 28371 28372 28373 28374 28375 28376 28377 28378 28379 28380 28381 28382 28383 28384 28385 28386 28387 28388 28389 28390 28391 28392 28393 28394 28395 28396 28397 28398 28399 28400 28401 28402 28403 28404 28405 28406 28407 28408 28409 28410 28411 28412 28413 28414 28415 28416 28417 28418 28419 28420 28421 28422 28423 28424 28425 28426 28427 28428 28429 28430 28431 28432 28433 28434 28435 28436 28437 28438 28439 28440 28441 28442 28443 28444 28445 28446 28447 28448 28449 28450 28451 28452 28453 28454 28455 28456 28457 28458 28459 28460 28461 28462 28463 28464 28465 28466 28467 28468 28469 28470 28471 28472 28473 28474 28475 28476 28477 28478 28479 28480 28481 28482 28483 28484 28485 28486 28487 28488 28489 28490 28491 28492 28493 28494 28495 28496 28497 28498 28499 28500 28501 28502 28503 28504 28505 28506 28507 28508 28509 28510 28511 28512 28513 28514 28515 28516 28517 28518 28519 28520 28521 28522 28523 28524 28525 28526 28527 28528 28529 28530 28531 28532 28533 28534 28535 28536 28537 28538 28539 28540 28541 28542 28543 28544 28545 28546 28547 28548 28549 28550 28551 28552 28553 28554 28555 28556 28557 28558 28559 28560 28561 28562 28563 28564 28565 28566 28567 28568 28569 28570 28571 28572 28573 28574 28575 28576 28577 28578 28579 28580 28581 28582 28583 28584 28585 28586 28587 28588 28589 28590 28591 28592 28593 28594 28595 28596 28597 28598 28599 28600 28601 28602 28603 28604 28605 28606 28607 28608 28609 28610 28611 28612 28613 28614 28615 28616 28617 28618 28619 28620 28621 28622 28623 28624 28625 28626 28627 28628 28629 28630 28631 28632 28633 28634 28635 28636 28637 28638 28639 28640 28641 28642 28643 28644 28645 28646 28647 28648 28649 28650 28651 28652 28653 28654 28655 28656 28657 28658 28659 28660 28661 28662 28663 28664 28665 28666 28667 28668 28669 28670 28671 28672 28673 28674 28675 28676 28677 28678 28679 28680 28681 28682 28683 28684 28685 28686 28687 28688 28689 28690 28691 28692 28693 28694 28695 28696 28697 28698 28699 28700 28701 28702 28703 28704 28705 28706 28707 28708 28709 28710 28711 28712 28713 28714 28715 28716 28717 28718 28719 28720 28721 28722 28723 28724 28725 28726 28727 28728 28729 28730 28731 28732 28733 28734 28735 28736 28737 28738 28739 28740 28741 28742 28743 28744 28745 28746 28747 28748 28749 28750 28751 28752 28753 28754 28755 28756 28757 28758 28759 28760 28761 28762 28763 28764 28765 28766 28767 28768 28769 28770 28771 28772 28773 28774 28775 28776 28777 28778 28779 28780 28781 28782 28783 28784 28785 28786 28787 28788 28789 28790 28791 28792 28793 28794 28795 28796 28797 28798 28799 28800 28801 28802 28803 28804 28805 28806 28807 28808 28809 28810 28811 28812 28813 28814 28815 28816 28817 28818 28819 28820 28821 28822 28823 28824 28825 28826 28827 28828 28829 28830 28831 28832 28833 28834 28835 28836 28837 28838 28839 28840 28841 28842 28843 28844 28845 28846 28847 28848 28849 28850 28851 28852 28853 28854 28855 28856 28857 28858 28859 28860 28861 28862 28863 28864 28865 28866 28867 28868 28869 28870 28871 28872 28873 28874 28875 28876 28877 28878 28879 28880 28881 28882 28883 28884 28885 28886 28887 28888 28889 28890 28891 28892 28893 28894 28895 28896 28897 28898 28899 28900 28901 28902 28903 28904 28905 28906 28907 28908 28909 28910 28911 28912 28913 28914 28915 28916 28917 28918 28919 28920 28921 28922 28923 28924 28925 28926 28927 28928 28929 28930 28931 28932 28933 28934 28935 28936 28937 28938 28939 28940 28941 28942 28943 28944 28945 28946 28947 28948 28949 28950 28951 28952 28953 28954 28955 28956 28957 28958 28959 28960 28961 28962 28963 28964 28965 28966 28967 28968 28969 28970 28971 28972 28973 28974 28975 28976 28977 28978 28979 28980 28981 28982 28983 28984 28985 28986 28987 28988 28989 28990 28991 28992 28993 28994 28995 28996 28997 28998 28999 29000 29001 29002 29003 29004 29005 29006 29007 29008 29009 29010 29011 29012 29013 29014 29015 29016 29017 29018 29019 29020 29021 29022 29023 29024 29025 29026 29027 29028 29029 29030 29031 29032 29033 29034 29035 29036 29037 29038 29039 29040 29041 29042 29043 29044 29045 29046 29047 29048 29049 29050 29051 29052 29053 29054 29055 29056 29057 29058 29059 29060 29061 29062 29063 29064 29065 29066 29067 29068 29069 29070 29071 29072 29073 29074 29075 29076 29077 29078 29079 29080 29081 29082 29083 29084 29085 29086 29087 29088 29089 29090 29091 29092 29093 29094 29095 29096 29097 29098 29099 29100 29101 29102 29103 29104 29105 29106 29107 29108 29109 29110 29111 29112 29113 29114 29115 29116 29117 29118 29119 29120 29121 29122 29123 29124 29125 29126 29127 29128 29129 29130 29131 29132 29133 29134 29135 29136 29137 29138 29139 29140 29141 29142 29143 29144 29145 29146 29147 29148 29149 29150 29151 29152 29153 29154 29155 29156 29157 29158 29159 29160 29161 29162 29163 29164 29165 29166 29167 29168 29169 29170 29171 29172 29173 29174 29175 29176 29177 29178 29179 29180 29181 29182 29183 29184 29185 29186 29187 29188 29189 29190 29191 29192 29193 29194 29195 29196 29197 29198 29199 29200 29201 29202 29203 29204 29205 29206 29207 29208 29209 29210 29211 29212 29213 29214 29215 29216 29217 29218 29219 29220 29221 29222 29223 29224 29225 29226 29227 29228 29229 29230 29231 29232 29233 29234 29235 29236 29237 29238 29239 29240 29241 29242 29243 29244 29245 29246 29247 29248 29249 29250 29251 29252 29253 29254 29255 29256 29257 29258 29259 29260 29261 29262 29263 29264 29265 29266 29267 29268 29269 29270 29271 29272 29273 29274 29275 29276 29277 29278 29279 29280 29281 29282 29283 29284 29285 29286 29287 29288 29289 29290 29291 29292 29293 29294 29295 29296 29297 
</DataArray>
<DataArray type="UInt32" Name="offsets" format="ascii">
3 6 9 12 15 18 21 24 27 30 32 35 37 40 43 46 49 51 54 57 60 62 65 67 70 73 76 78 81 84 87 90 92 95 98 101 104 107 110 113 116 119 122 124 127 130 133 136 139 142 145 148 151 154 157 160 163 166 169 172 175 178 181 184 187 190 193 196 199 202 205 207 210 213 216 219 221 224 227 230 233 235 238 241 244 247 250 253 256 259 262 265 267 270 272 275 278 280 283 286 289 292 295 298 301 303 306 309 312 315 318 321 324 327 330 333 335 337 340 343 346 348 351 354 356 359 362 365 368 371 374 377 380 383 386 389 392 395 397 400 403 406 409 412 415 417 420 423 426 429 432 435 438 441 444 447 450 453 456 459 462 465 468 471 474 477 480 483 486 489 492 495 498 501 504 507 510 513 516 519 522 525 528 531 534 537 540 543 546 549 552 555 558 561 564 567 570 573 576 579 582 585 588 591 594 597 600 602 605 608 611 614 617 620 623 626 629 632 635 638 641 644 647 650 653 656 659 662 665 668 671 674 677 679 682 684 687 690 693 696 699 702 705 708 711 713 716 718 721 724 727 730 733 736 739 742 745 748 751 754 757 760 763 766 769 772 775 778 781 784 787 790 793 795 798 801 804 807 810 813 816 819 822 825 828 831 833 836 839 842 845 848 850 853 856 859 862 865 868 871 874 876 879 882 885 888 890 893 896 899 902 905 907 910 913 916 919 922 925 928 931 934 937 940 943 946 949 952 955 958 961 964 967 970 973 976 979 982 985 988 991 993 996 999 1002 1005 1008 1011 1014 1017 1020 1023 1026 1029 1032 1035 1038 1041 1044 1047 1050 1053 1056 1059 1062 1064 1067 1070 1073 1076 1079 1082 1085 1088 1090 1093 1096 1099 1102 1104 1107 1110 1113 1115 1118 1121 1123 1126 1129 1131 1134 1136 1139 1142 1144 1147 1150 1153 1156 1159 1162 1165 1167 1169 1172 1175 1178 1180 1183 1186 1189 1192 1195 1197 1200 1203 1206 1209 1212 1215 1218 1221 1224 1227 1230 1233 1236 1238 1241 1244 1247 1250 1253 1256 1259 1262 1265 1268 1271 1273 1276 1278 1281 1284 1287 1290 1293 1296 1299 1302 1305 1308 1310 1313 1316 1318 1321 1324 1327 1329 1332 1335 1338 1340 1343 1346 1348 1351 1353 1356 1358 1361 1363 1365 1368 1371 1374 1376 1378 1380 1382 1385 1388 1391 1394 1397 1400 1403 1406 1408 1411 1414 1417 1420 1422 1425 1427 1430 1432 1435 1438 1440 1443 1446 1449 1452 1454 1457 1460 1463 1466 1469 1472 1475 1478 1481 1484 1486 1488 1491 1494 1497 1500 1503 1505 1508 1511 1514 1517 1520 1523 1526 1529 1532 1535 1538 1541 1544 1546 1549 1552 1555 1558 1561 1564 1567 1570 1573 1576 1579 1582 1584 1586 1588 1591 1594 1597 1600 1603 1606 1609 1612 1615 1618 1621 1624 1627 1630 1633 1636 1639 1642 1645 1648 1651 1653 1656 1659 1662 1664 1667 1670 1673 1676 1679 1682 1685 1688 1691 1694 1697 1700 1703 1706 1709 1712 1715 1718 1721 1724 1727 1730 1733 1736 1739 1742 1745 1748 1751 1754 1757 1760 1763 1765 1768 1771 1773 1776 1779 1782 1785 1788 1791 1794 1797 1800 1803 1806 1809 1812 1815 1818 1821 1824 1827 1830 1833 1836 1838 1841 1844 1847 1850 1853 1856 1859 1862 1865 1868 1871 1874 1877 1880 1883 1886 1889 1892 1895 1897 1900 1903 1906 1909 1912 1915 1918 1921 1924 1927 1929 1932 1934 1937 1940 1942 1945 1948 1951 1953 1956 1959 1962 1965 1968 1970 1973 1975 1978 1981 1983 1986 1989 1992 1995 1998 2001 2004 2006 2009 2012 2015 2017 2019 2022 2025 2028 2031 2034 2037 2040 2042 2045 2048 2050 2053 2055 2057 2060 2063 2066 2068 2071 2074 2076 2078 2080 2083 2086 2089 2091 2094 2097 2099 2101 2104 2107 2110 2112 2115 2118 2120 2123 2126 2128 2130 2132 2135 2138 2141 2143 2146 2149 2152 2155 2158 2161 2164 2166 2169 2172 2175 2178 2181 2184 2187 2190 2193 2196 2199 2202 2205 2208 2211 2214 2217 2220 2223 2226 2229 2232 2235 2238 2241 2244 2247 2250 2252 2255 2258 2261 2263 2265 2268 2271 2273 2276 2279 2282 2285 2288 2291 2294 2297 2299 2302 2305 2308 2311 2313 2316 2319 2322 2325 2328 2331 2334 2337 2340 2342 2345 2348 2351 2353 2356 2359 2361 2364 2366 2369 2372 2374 2377 2380 2383 2385 2387 2390 2393 2395 2398 2401 2403 2405 2408 2411 2414 2417 2420 2423 2426 2429 2432 2435 2438 2440 2443 2446 2449 2452 2455 2458 2461 2464 2467 2470 2472 2475 2478 2480 2483 2485 2487 2489 2492 2494 2497 2500 2503 2506 2509 2512 2515 2518 2521 2524 2527 2530 2533 2536 2539 2542 2545 2548 2551 2554 2557 2560 2563 2566 2569 2572 2575 2578 2581 2584 2587 2590 2593 2596 2599 2602 2605 2607 2610 2613 2615 2618 2620 2623 2626 2628 2631 2634 2637 2639 2642 2644 2647 2649 2652 2655 2658 2661 2664 2667 2670 2673 2676 2679 2682 2685 2688 2691 2694 2697 2700 2703 2706 2708 2711 2713 2716 2719 2722 2725 2728 2731 2734 2737 2740 2743 2746 2749 2752 2755 2758 2761 2764 2767 2769 2772 2774 2777 2780 2782 2785 2788 2791 2793 2796 2799 2802 2805 2807 2810 2813 2815 2818 2820 2822 2825 2828 2830 2832 2835 2838 2840 2843 2846 2848 2850 2853 2856 2859 2862 2864 2867 2870 2873 2876 2878 2881 2884 2887 2889 2891 2894 2897 2899 2902 2905 2907 2910 2913 2916 2919 2922 2925 2927 2930 2933 2935 2938 2940 2943 2946 2949 2952 2955 2958 2961 2964 2967 2970 2972 2975 2978 2981 2984 2987 2990 2993 2996 2999 3002 3005 3008 3011 3014 3017 3020 3022 3025 3028 3031 3034 3037 3040 3043 3045 3047 3050 3053 3055 3058 3061 3064 3067 3069 3071 3074 3077 3080 3083 3086 3089 3092 3095 3098 3101 3104 3107 3110 3113 3116 3119 3122 3125 3128 3131 3133 3136 3139 3142 3145 3148 3151 3154 3157 3160 3163 3166 3169 3172 3175 3178 3181 3184 3187 3189 3192 3195 3197 3200 3203 3206 3209 3211 3214 3217 3220 3223 3226 3229 3232 3235 3238 3241 3244 3247 3250 3253 3256 3259 3262 3265 3268 3271 3273 3276 3279 3282 3285 3288 3291 3294 3297 3299 3302 3305 3308 3311 3314 3317 3320 3322 3325 3328 3331 3334 3337 3340 3343 3346 3349 3352 3355 3357 3360 3363 3366 3368 3371 3374 3377 3380 3383 3386 3389 3392 3395 3398 3401 3404 3407 3410 3413 3416 3419 3422 3425 3428 3431 3434 3437 3440 3443 3446 3449 3452 3455 3458 3460 3463 3466 3469 3472 3475 3478 3481 3483 3486 3489 3492 3495 3498 3501 3504 3507 3510 3513 3516 3519 3522 3525 3528 3531 3534 3537 3540 3543 3546 3549 3552 3555 3558 3561 3564 3567 3570 3573 3576 3578 3581 3584 3587 3590 3593 3596 3599 3601 3604 3607 3610 3612 3615 3618 3621 3623 3626 3629 3632 3635 3638 3641 3644 3646 3649 3652 3655 3657 3660 3663 3666 3669 3672 3675 3678 3681 3684 3687 3690 3693 3696 3699 3702 3705 3707 3710 3713 3716 3719 3722 3725 3728 3731 3734 3736 3739 3742 3745 3748 3751 3754 3757 3759 3762 3765 3768 3771 3773 3776 3779 3782 3784 3786 3789 3792 3795 3798 3800 3803 3806 3809 3812 3815 3818 3821 3824 3827 3830 3833 3836 3839 3842 3845 3847 3850 3853 3856 3859 3862 3865 3868 3871 3874 3877 3880 3883 3886 3889 3892 3895 3898 3901 3904 3907 3910 3913 3916 3919 3922 3925 3928 3930 3933 3936 3939 3942 3945 3948 3951 3954 3957 3960 3963 3965 3968 3971 3973 3976 3979 3981 3984 3987 3990 3992 3995 3998 4000 4003 4006 4009 4012 4015 4018 4021 4024 4026 4029 4032 4034 4037 4040 4043 4046 4049 4052 4055 4058 4061 4064 4067 4070 4073 4075 4078 4081 4084 4086 4089 4092 4095 4098 4101 4104 4107 4110 4113 4116 4119 4122 4125 4128 4131 4134 4136 4139 4142 4144 4147 4150 4153 4156 4159 4161 4164 4167 4170 4173 4176 4179 4182 4185 4188 4191 4194 4197 4200 4203 4206 4209 4212 4215 4218 4221 4224 4226 4229 4231 4233 4236 4239 4242 4245 4248 4250 4253 4256 4258 4261 4263 4266 4269 4272 4275 4278 4281 4284 4286 4289 4292 4295 4298 4301 4304 4307 4310 4313 4316 4319 4322 4325 4328 4330 4333 4336 4339 4342 4345 4348 4351 4354 4357 4360 4363 4366 4369 4372 4375 4378 4380 4383 4386 4388 4391 4394 4397 4400 4403 4406 4409 4412 4414 4417 4419 4422 4424 4426 4429 4432 4435 4438 4440 4443 4446 4449 4452 4454 4457 4460 4463 4466 4469 4472 4475 4478 4481 4484 4486 4489 4492 4495 4498 4501 4504 4507 4510 4513 4516 4519 4522 4524 4527 4530 4532 4535 4538 4540 4542 4545 4548 4551 4554 4557 4560 4563 4566 4568 4571 4574 4577 4580 4583 4586 4589 4592 4595 4597 4600 4603 4605 4608 4611 4614 4616 4618 4621 4624 4627 4630 4633 4636 4639 4642 4645 4648 4650 4653 4656 4658 4660 4663 4665 4668 4671 4673 4676 4679 4682 4685 4688 4691 4694 4697 4700 4703 4706 4708 4711 4714 4717 4720 4723 4726 4729 4732 4735 4737 4740 4743 4746 4749 4752 4755 4758 4760 4763 4766 4769 4772 4775 4778 4781 4784 4786 4789 4792 4795 4798 4801 4804 4806 4808 4811 4814 4817 4820 4823 4826 4829 4832 4835 4837 4840 4843 4846 4849 4851 4854 4857 4860 4863 4866 4869 4872 4875 4878 4881 4884 4886 4889 4892 4895 4898 4901 4903 4906 4909 4912 4915 4918 4921 4924 4927 4930 4933 4936 4939 4942 4945 4948 4951 4954 4957 4960 4963 4966 4969 4972 4975 4978 4981 4984 4987 4990 4993 4996 4999 5002 5005 5008 5011 5014 5017 5020 5023 5026 5029 5032 5035 5038 5041 5044 5047 5050 5053 5056 5058 5061 5064 5067 5070 5073 5075 5078 5081 5083 5086 5089 5092 5095 5098 5101 5104 5107 5110 5113 5116 5119 5122 5125 5128 5130 5133 5136 5139 5141 5144 5147 5150 5152 5154 5157 5160 5163 5166 5169 5172 5175 5178 5181 5184 5187 5189 5192 5195 5198 5201 5204 5206 5209 5212 5215 5218 5221 5224 5227 5230 5233 5236 5239 5242 5245 5248 5251 5254 5257 5260 5263 5266 5269 5272 5275 5278 5281 5284 5287 5290 5292 5295 5298 5301 5304 5307 5310 5313 5316 5319 5322 5325 5327 5330 5333 5335 5338 5340 5342 5345 5348 5351 5354 5357 5360 5363 5365 5367 5370 5373 5376 5378 5381 5384 5387 5390 5393 5396 5399 5402 5405 5408 5411 5414 5417 5419 5422 5425 5427 5430 5432 5435 5438 5441 5444 5446 5449 5451 5454 5457 5460 5462 5464 5467 5470 5473 5476 5479 5482 5485 5488 5491 5494 5497 5500 5502 5505 5508 5511 5514 5516 5519 5522 5525 5527 5530 5533 5535 5537 5540 5543 5545 5548 5550 5553 5556 5559 5562 5565 5568 5571 5574 5576 5579 5582 5585 5587 5590 5593 5596 5599 5602 5605 5608 5611 5614 5617 5620 5623 5626 5629 5632 5635 5638 5641 5644 5647 5650 5653 5656 5659 5662 5665 5668 5671 5674 5677 5679 5682 5685 5688 5690 5693 5695 5697 5700 5703 5706 5709 5712 5714 5716 5719 5722 5725 5728 5730 5733 5736 5739 5742 5745 5748 5751 5754 5757 5760 5763 5766 5769 5771 5774 5777 5780 5783 5785 5788 5791 5794 5797 5800 5803 5806 5809 5812 5814 5817 5820 5823 5825 5828 5831 5834 5837 5840 5842 5845 5848 5851 5853 5856 5858 5861 5864 5866 5869 5871 5874 5877 5879 5882 5885 5888 5890 5892 5895 5898 5901 5904 5906 5909 5912 5915 5917 5920 5922 5925 5927 5930 5933 5936 5938 5941 5944 5947 5950 5953 5956 5959 5962 5965 5967 5970 5973 5975 5977 5979 5982 5985 5988 5991 5994 5997 6000 6003 6005 6008 6011 6014 6017 6020 6023 6025 6028 6031 6034 6037 6040 6043 6046 6049 6052 6054 6057 6060 6063 6066 6069 6072 6075 6078 6081 6084 6087 6090 6093 6096 6099 6102 6105 6108 6111 6114 6117 6120 6123 6126 6129 6132 6135 6138 6141 6144 6147 6149 6152 6155 6158 6160 6163 6166 6169 6172 6175 6178 6181 6184 6186 6189 6192 6195 6198 6201 6204 6207 6210 6213 6216 6218 6221 6223 6226 6229 6232 6235 6238 6241 6244 6247 6250 6253 6256 6259 6261 6264 6266 6269 6272 6275 6278 6281 6283 6286 6289 6291 6294 6297 6300 6303 6306 6309 6312 6315 6317 6320 6323 6326 6329 6332 6335 6337 6340 6343 6346 6349 6352 6355 6358 6361 6364 6367 6370 6373 6376 6379 6382 6385 6388 6391 6394 6397 6400 6403 6406 6409 6412 6415 6418 6420 6423 6426 6429 6432 6434 6437 6440 6443 6445 6448 6450 6453 6455 6458 6461 6464 6466 6468 6471 6474 6477 6480 6483 6485 6488 6491 6494 6497 6500 6503 6506 6509 6512 6515 6518 6520 6523 6526 6529 6532 6534 6537 6539 6542 6545 6548 6551 6553 6556 6558 6561 6563 6566 6568 6571 6573 6576 6578 6581 6583 6586 6589 6591 6594 6597 6600 6603 6606 6609 6612 6614 6617 6620 6623 6626 6629 6632 6635 6638 6641 6643 6646 6649 6652 6655 6658 6661 6664 6667 6670 6672 6675 6678 6681 6684 6687 6690 6693 6696 6699 6702 6705 6708 6711 6713 6716 6719 6722 6725 6728 6731 6734 6737 6740 6742 6745 6748 6751 6754 6757 6760 6763 6765 6768 6771 6774 6777 6779 6782 6785 6787 6790 6793 6796 6798 6801 6804 6807 6810 6813 6815 6817 6820 6822 6825 6828 6830 6833 6836 6839 6841 6844 6847 6850 6853 6856 6859 6862 6865 6868 6871 6873 6876 6879 6882 6885 6888 6891 6893 6896 6899 6902 6905 6908 6911 6914 6917 6920 6923 6926 6929 6932 6935 6937 6939 6942 6945 6948 6951 6954 6956 6959 6962 6965 6967 6970 6972 6975 6978 6980 6983 6986 6989 6992 6994 6997 7000 7003 7006 7009 7012 7015 7018 7021 7024 7027 7030 7033 7036 7039 7042 7045 7048 7051 7054 7057 7060 7063 7066 7069 7072 7075 7078 7081 7084 7086 7089 7092 7094 7097 7100 7103 7106 7109 7112 7115 7118 7121 7123 7126 7129 7132 7135 7138 7141 7144 7147 7149 7151 7153 7156 7159 7161 7164 7166 7169 7172 7175 7177 7180 7182 7184 7187 7190 7193 7196 7198 7201 7204 7207 7209 7211 7214 7217 7219 7222 7224 7227 7230 7233 7235 7238 7241 7244 7247 7250 7253 7255 7258 7261 7264 7267 7270 7273 7276 7279 7282 7285 7288 7291 7294 7297 7300 7302 7305 7308 7311 7313 7316 7319 7322 7325 7328 7331 7334 7337 7340 7343 7346 7349 7352 7355 7358 7361 7364 7367 7370 7373 7376 7379 7382 7385 7388 7391 7394 7397 7400 7403 7406 7409 7412 7415 7418 7421 7424 7427 7430 7433 7436 7439 7442 7445 7448 7450 7453 7456 7458 7461 7464 7467 7470 7473 7476 7479 7482 7485 7487 7490 7493 7496 7499 7502 7505 7508 7511 7514 7517 7520 7522 7525 7528 7531 7534 7537 7540 7543 7546 7549 7552 7554 7557 7560 7562 7565 7568 7571 7573 7576 7579 7582 7584 7587 7590 7593 7596 7599 7602 7605 7608 7610 7613 7616 7619 7622 7625 7628 7631 7634 7637 7640 7643 7646 7649 7652 7655 7657 7660 7663 7666 7669 7671 7674 7677 7680 7683 7686 7689 7692 7695 7698 7701 7704 7707 7710 7713 7716 7719 7722 7725 7728 7731 7734 7737 7740 7743 7746 7749 7752 7755 7758 7761 7764 7766 7769 7772 7775 7778 7781 7784 7787 7789 7792 7795 7798 7800 7803 7806 7808 7811 7814 7817 7819 7822 7825 7828 7831 7834 7837 7840 7843 7845 7848 7851 7854 7857 7860 7863 7866 7869 7872 7875 7878 7881 7883 7886 7889 7892 7895 7898 7900 7903 7905 7908 7911 7914 7917 7920 7923 7925 7928 7931 7933 7936 7939 7941 7944 7947 7950 7953 7956 7958 7961 7963 7966 7969 7972 7974 7977 7980 7983 7986 7989 7992 7994 7997 8000 8003 8005 8008 8011 8014 8017 8020 8023 8026 8029 8032 8035 8038 8041 8044 8047 8049 8052 8054 8057 8059 8062 8065 8068 8071 8074 8076 8079 8081 8084 8086 8089 8092 8095 8098 8101 8103 8106 8109 8112 8114 8117 8120 8123 8126 8129 8132 8134 8137 8139 8142 8144 8147 8150 8153 8156 8158 8160 8163 8166 8169 8172 8175 8178 8181 8184 8187 8190 8193 8196 8199 8202 8205 8208 8211 8213 8216 8219 8222 8225 8227 8230 8233 8236 8239 8242 8245 8248 8251 8254 8257 8259 8262 8265 8268 8271 8274 8277 8280 8282 8285 8288 8291 8293 8296 8299 8302 8304 8307 8310 8313 8316 8319 8322 8325 8328 8331 8334 8337 8340 8343 8346 8349 8352 8355 8358 8361 8364 8367 8370 8373 8376 8379 8382 8385 8388 8391 8394 8397 8400 8403 8406 8409 8412 8415 8418 8421 8424 8427 8430 8433 8436 8439 8442 8445 8448 8451 8454 8457 8460 8463 8466 8469 8472 8475 8478 8481 8483 8486 8489 8492 8495 8497 8500 8503 8506 8509 8512 8514 8517 8520 8523 8526 8529 8532 8535 8538 8541 8544 8547 8550 8553 8556 8559 8562 8564 8567 8569 8572 8575 8578 8581 8583 8585 8588 8591 8594 8597 8599 8601 8604 8607 8610 8613 8616 8619 8621 8624 8626 8628 8631 8634 8637 8640 8642 8644 8647 8650 8653 8656 8659 8662 8664 8667 8670 8673 8676 8679 8682 8684 8687 8690 8693 8696 8698 8700 8703 8706 8708 8710 8713 8716 8719 8722 8724 8727 8730 8733 8735 8737 8740 8743 8745 8748 8750 8752 8755 8758 8761 8763 8766 8768 8771 8773 8776 8779 8782 8785 8787 8790 8793 8795 8798 8801 8804 8807 8810 8812 8814 8817 8820 8823 8826 8829 8832 8834 8836 8839 8842 8845 8848 8851 8853 8856 8859 8861 8864 8867 8870 8873 8876 8879 8882 8884 8887 8890 8893 8895 8898 8901 8904 8907 8910 8912 8915 8918 8921 8924 8927 8929 8932 8935 8938 8941 8944 8947 8950 8953 8956 8958 8961 8964 8967 8969 8972 8975 8978 8981 8984 8987 8990 8993 8996 8998 9001 9003 9006 9009 9012 9015 9018 9021 9023 9026 9029 9031 9034 9037 9040 9043 9046 9049 9051 9054 9057 9060 9063 9066 9069 9072 9075 9078 9081 9084 9087 9089 9091 9094 9097 9099 9102 9105 9108 9111 9114 9116 9119 9122 9124 9126 9129 9132 9135 9138 9141 9144 9147 9149 9152 9155 9158 9161 9164 9167 9170 9172 9175 9178 9181 9184 9187 9190 9193 9196 9199 9202 9205 9208 9211 9214 9217 9220 9223 9226 9229 9231 9234 9237 9240 9242 9245 9248 9251 9254 9257 9260 9263 9266 9269 9272 9275 9278 9281 9284 9286 9289 9292 9295 9298 9301 9304 9307 9310 9313 9316 9319 9321 9324 9327 9330 9333 9336 9339 9342 9344 9347 9350 9353 9356 9359 9362 9365 9368 9371 9374 9377 9379 9382 9385 9388 9391 9394 9397 9400 9403 9406 9409 9411 9414 9417 9420 9423 9426 9429 9432 9435 9438 9441 9444 9446 9449 9452 9455 9458 9461 9464 9467 9470 9473 9476 9479 9482 9484 9486 9489 9492 9495 9498 9501 9504 9507 9510 9513 9516 9519 9522 9524 9527 9529 9532 9535 9538 9540 9543 9546 9548 9551 9554 9557 9560 9563 9566 9569 9572 9575 9578 9581 9584 9587 9590 9592 9595 9598 9601 9604 9607 9610 9613 9616 9619 9622 9624 9627 9630 9633 9636 9639 9642 9645 9648 9651 9654 9657 9660 9663 9666 9669 9672 9675 9678 9681 9684 9687 9690 9693 9696 9699 9702 9705 9707 9709 9712 9715 9718 9721 9724 9727 9730 9733 9736 9739 9742 9745 9747 9750 9752 9755 9758 9761 9764 9767 9770 9772 9775 9778 9780 9783 9786 9789 9792 9795 9798 9800 9803 9805 9808 9811 9814 9817 9820 9823 9826 9829 9832 9835 9838 9841 9844 9847 9850 9852 9855 9858 9860 9863 9866 9869 9871 9874 9876 9879 9882 9885 9888 9891 9894 9897 9900 9903 9906 9909 9912 9915 9918 9921 9924 9927 9930 9933 9936 9939 9942 9944 9946 9949 9952 9955 9957 9960 9963 9966 9969 9972 9975 9978 9981 9984 9987 9990 9993 9996 9999 10002 10005 10008 10011 10014 10017 10020 10023 10026 10029 10032 10035 10038 10040 10043 10045 10048 10051 10054 10057 10060 10063 10066 10069 10072 10075 10078 10081 10084 10087 10090 10093 10096 10099 10102 10105 10108 10111 10114 10117 10120 10123 10126 10128 10131 10134 10137 10140 10143 10146 10149 10152 10155 10158 10161 10164 10167 10170 10173 10176 10179 10182 10185 10188 10191 10194 10197 10200 10203 10206 10209 10212 10215 10218 10221 10224 10227 10230 10233 10236 10239 10242 10245 10248 10251 10254 10257 10260 10263 10266 10269 10272 10275 10278 10281 10284 10287 10290 10292 10295 10297 10300 10303 10305 10308 10311 10314 10317 10319 10322 10325 10328 10331 10334 10336 10339 10342 10345 10347 10349 10352 10355 10358 10361 10363 10365 10368 10371 10373 10375 10378 10381 10383 10386 10389 10391 10393 10396 10399 10402 10404 10407 10410 10413 10416 10418 10421 10424 10427 10430 10432 10435 10437 10440 10443 10445 10448 10451 10454 10456 10458 10461 10463 10466 10469 10472 10474 10476 10479 10482 10485 10488 10491 10493 10496 10499 10502 10505 10508 10511 10513 10516 10519 10522 10525 10528 10531 10533 10536 10539 10542 10545 10547 10550 10553 10555 10558 10560 10563 10566 10569 10572 10575 10578 10581 10584 10587 10590 10593 10596 10598 10601 10604 10606 10609 10611 10614 10616 10619 10622 10625 10628 10631 10633 10636 10638 10641 10644 10647 10649 10652 10655 10658 10660 10663 10666 10668 10671 10673 10676 10679 10681 10684 10687 10690 10693 10696 10699 10702 10705 10708 10711 10714 10717 10719 10722 10725 10728 10731 10734 10737 10739 10742 10744 10747 10750 10753 10756 10759 10761 10764 10767 10770 10773 10776 10779 10782 10785 10787 10790 10793 10796 10799 10802 10804 10807 10809 10812 10815 10817 10819 10822 10824 10827 10830 10833 10836 10839 10842 10845 10848 10851 10854 10857 10860 10863 10866 10868 10871 10874 10877 10880 10883 10886 10888 10891 10893 10896 10899 10902 10905 10907 10909 10912 10915 10918 10921 10924 10926 10929 10932 10935 10938 10940 10942 10945 10948 10951 10954 10956 10959 10962 10965 10968 10971 10974 10976 10979 10982 10985 10988 10991 10994 10997 10999 11002 11005 11008 11011 11014 11017 11020 11023 11026 11029 11031 11034 11036 11039 11041 11044 11047 11049 11052 11055 11057 11060 11062 11065 11068 11071 11074 11077 11080 11083 11085 11088 11091 11094 11097 11099 11102 11105 11108 11110 11113 11115 11118 11120 11122 11124 11126 11129 11132 11134 11136 11139 11142 11145 11147 11150 11152 11155 11158 11161 11164 11167 11169 11172 11175 11178 11181 11184 11187 11190 11193 11196 11198 11201 11204 11207 11210 11213 11216 11219 11222 11225 11228 11231 11234 11237 11240 11243 11246 11249 11252 11254 11257 11260 11263 11266 11268 11271 11274 11276 11279 11282 11285 11288 11291 11294 11297 11300 11302 11305 11308 11310 11313 11316 11319 11322 11325 11328 11331 11334 11337 11340 11343 11346 11349 11352 11354 11357 11360 11363 11366 11368 11371 11374 11376 11379 11381 11384 11387 11390 11393 11396 11399 11402 11405 11408 11411 11414 11417 11420 11423 11426 11429 11432 11435 11438 11441 11444 11447 11450 11452 11455 11458 11461 11464 11467 11470 11473 11476 11478 11481 11483 11486 11489 11491 11494 11497 11500 11503 11506 11509 11512 11515 11518 11521 11524 11527 11530 11532 11535 11538 11540 11543 11546 11549 11552 11555 11558 11560 11563 11566 11569 11572 11574 11577 11580 11583 11586 11589 11591 11594 11597 11600 11602 11605 11608 11611 11614 11617 11620 11623 11626 11629 11632 11635 11638 11641 11644 11646 11649 11652 11655 11658 11661 11664 11667 11670 11673 11675 11678 11681 11684 11687 11690 11693 11696 11699 11702 11704 11707 11710 11713 11716 11719 11722 11725 11728 11730 11733 11736 11739 11742 11745 11748 11751 11754 11757 11760 11763 11766 11769 11772 11775 11778 11781 11784 11787 11790 11793 11796 11799 11802 11805 11808 11811 11814 11817 11820 11823 11826 11829 11832 11835 11838 11841 11844 11847 11850 11853 11856 11858 11861 11864 11867 11869 11872 11875 11878 11881 11884 11887 11890 11893 11896 11898 11900 11903 11906 11908 11911 11913 11916 11919 11922 11925 11928 11930 11933 11936 11938 11940 11943 11946 11948 11951 11953 11956 11959 11962 11964 11967 11970 11973 11976 11979 11982 11985 11988 11991 11994 11997 11999 12002 12005 12008 12011 12014 12017 12020 12023 12026 12028 12031 12034 12037 12040 12043 12046 12048 12051 12054 12057 12060 12063 12066 12069 12072 12075 12077 12080 12083 12086 12089 12092 12095 12098 12100 12103 12106 12109 12112 12115 12118 12121 12124 12127 12130 12132 12135 12137 12140 12143 12146 12149 12152 12155 12158 12161 12164 12167 12170 12173 12176 12179 12182 12185 12188 12191 12194 12197 12200 12203 12205 12208 12211 12214 12217 12220 12223 12226 12229 12231 12234 12237 12239 12242 12245 12247 12250 12253 12256 12259 12261 12263 12266 12269 12271 12274 12276 12278 12281 12284 12286 12289 12292 12294 12297 12300 12302 12305 12307 12310 12313 12315 12318 12321 12324 12327 12330 12333 12335 12338 12341 12344 12346 12349 12352 12355 12358 12361 12363 12366 12369 12372 12375 12378 12381 12384 12387 12390 12392 12395 12398 12400 12403 12406 12409 12412 12414 12417 12420 12423 12426 12428 12431 12434 12436 12439 12442 12445 12448 12450 12452 12455 12458 12461 12464 12467 12470 12473 12476 12478 12481 12484 12486 12489 12492 12495 12498 12501 12504 12507 12510 12513 12516 12519 12522 12524 12527 12530 12533 12536 12539 12542 12545 12548 12550 12553 12556 12559 12561 12564 12567 12570 12573 12575 12578 12580 12583 12586 12589 12592 12595 12597 12599 12602 12605 12608 12610 12613 12616 12619 12621 12624 12626 12629 12632 12635 12637 12640 12643 12645 12648 12651 12654 12656 12659 12662 12664 12667 12670 12673 12676 12679 12681 12684 12687 12689 12692 12695 12698 12701 12704 12707 12710 12713 12716 12719 12722 12725 12728 12731 12734 12737 12740 12743 12746 12749 12752 12755 12757 12760 12763 12766 12769 12772 12775 12778 12780 12782 12785 12788 12791 12794 12797 12800 12803 12806 12809 12812 12814 12817 12820 12822 12825 12828 12831 12833 12836 12839 12841 12844 12847 12849 12851 12854 12856 12859 12861 12863 12866 12868 12871 12873 12876 12879 12881 12884 12887 12890 12892 12894 12897 12899 12902 12905 12908 12911 12914 12916 12918 12921 12923 12926 12929 12932 12935 12938 12940 12943 12946 12949 12952 12955 12958 12960 12963 12966 12969 12972 12975 12978 12981 12984 12987 12990 12993 12996 12999 13001 13004 13007 13010 13013 13016 13019 13022 13025 13028 13031 13034 13037 13040 13043 13045 13047 13049 13052 13055 13057 13060 13062 13064 13066 13069 13072 13075 13078 13081 13084 13087 13089 13092 13095 13098 13101 13104 13106 13109 13112 13115 13118 13121 13124 13127 13130 13133 13136 13139 13142 13145 13147 13150 13152 13155 13157 13160 13162 13165 13168 13171 13174 13177 13180 13183 13186 13189 13192 13195 13198 13201 13204 13207 13210 13213 13216 13219 13222 13224 13227 13230 13232 13234 13237 13240 13243 13246 13249 13252 13255 13258 13261 13264 13267 13270 13273 13275 13278 13281 13284 13287 13290 13293 13296 13299 13302 13305 13308 13310 13312 13315 13318 13321 13324 13326 13329 13332 13335 13338 13341 13343 13346 13349 13352 13354 13357 13360 13363 13366 13369 13372 13374 13376 13379 13381 13384 13387 13389 13392 13395 13398 13401 13404 13406 13409 13411 13414 13417 13420 13423 13426 13429 13432 13434 13437 13440 13443 13446 13449 13452 13455 13458 13461 13464 13467 13470 13473 13476 13479 13482 13485 13487 13490 13493 13496 13499 13502 13505 13508 13511 13513 13516 13518 13521 13524 13527 13530 13533 13536 13539 13542 13545 13548 13551 13554 13557 13560 13563 13566 13569 13572 13575 13577 13580 13583 13586 13589 13592 13595 13597 13600 13602 13605 13607 13610 13613 13616 13619 13621 13624 13627 13630 13633 13636 13639 13642 13645 13648 13651 13654 13657 13660 13663 13666 13669 13672 13675 13678 13681 13684 13687 13690 13693 13696 13699 13702 13705 13708 13710 13713 13716 13718 13721 13724 13727 13730 13733 13736 13739 13742 13745 13748 13751 13754 13757 13760 13763 13766 13769 13772 13775 13778 13781 13784 13787 13790 13793 13796 13799 13802 13805 13808 13811 13813 13816 13819 13821 13823 13826 13829 13832 13835 13838 13841 13843 13846 13849 13852 13854 13857 13860 13863 13866 13869 13872 13875 13878 13881 13884 13887 13890 13892 13895 13897 13900 13902 13905 13908 13911 13914 13917 13920 13923 13925 13928 13930 13933 13936 13939 13942 13945 13948 13951 13954 13957 13959 13961 13964 13967 13969 13971 13974 13977 13980 13983 13986 13989 13991 13994 13996 13999 14002 14005 14008 14011 14014 14016 14019 14022 14025 14028 14031 14034 14037 14039 14042 14045 14048 14050 14053 14056 14059 14062 14065 14068 14070 14073 14075 14078 14081 14083 14086 14089 14091 14094 14097 14099 14102 14105 14107 14110 14113 14116 14119 14122 14125 14128 14131 14134 14137 14140 14143 14146 14149 14152 14155 14158 14161 14164 14167 14170 14173 14175 14178 14181 14184 14187 14190 14192 14195 14198 14200 14203 14205 14207 14209 14212 14215 14217 14220 14222 14225 14227 14230 14232 14235 14238 14240 14243 14245 14248 14251 14254 14257 14260 14263 14266 14269 14272 14275 14278 14281 14284 14287 14290 14293 14296 14299 14302 14305 14308 14311 14314 14317 14320 14323 14326 14329 14332 14335 14338 14341 14343 14346 14349 14352 14355 14358 14361 14364 14367 14369 14372 14375 14378 14380 14383 14386 14389 14392 14394 14397 14400 14403 14406 14408 14411 14414 14417 14420 14423 14425 14428 14431 14434 14436 14439 14442 14445 14448 14451 14453 14456 14459 14462 14465 14468 14471 14474 14477 14480 14482 14485 14488 14491 14494 14497 14500 14503 14506 14509 14512 14514 14517 14520 14523 14525 14528 14531 14534 14537 14540 14543 14546 14549 14552 14555 14558 14561 14564 14567 14570 14573 14576 14579 14582 14585 14588 14591 14594 14597 14599 14602 14605 14607 14610 14613 14616 14618 14621 14624 14627 14630 14633 14636 14639 14642 14645 14648 14650 14653 14656 14659 14662 14664 14667 14670 14673 14675 14678 14681 14683 14686 14688 14691 14694 14697 14700 14702 14705 14707 14710 14713 14716 14719 14722 14725 14728 14731 14734 14737 14740 14743 14746 14749 14752 14755 14758 14761 14763 14766 14769 14772 14775 14778 14781 14784 14787 14790 14793 14796 14798 14801 14804 14807 14810 14813 14816 14819 14821 14824 14827 14830 14833 14836 14839 14842 14844 14847 14850 14853 14856 14858 14861 14864 14867 14870 14873 14876 14879 14882 14885 14888 14891 14894 14897 14900 14902 14905 14908 14911 14914 14917 14920 14923 14926 14929 14932 14935 14938 14941 14944 14947 14950 14953 14956 14959 14962 14964 14967 14970 14972 14975 14978 14981 14984 14987 14990 14993 14996 14999 15002 15005 15008 15011 15014 15017 15020 15023 15026 15029 15032 15035 15037 15039 15042 15045 15048 15051 15054 15057 15060 15063 15066 15069 15072 15074 15077 15080 15083 15085 15088 15091 15094 15097 15099 15102 15105 15108 15111 15114 15117 15120 15123 15125 15128 15131 15134 15137 15140 15142 15145 15148 15151 15154 15157 15159 15162 15165 15168 15171 15174 15177 15179 15182 15185 15188 15191 15194 15196 15198 15200 15203 15206 15208 15211 15214 15216 15218 15221 15224 15227 15229 15231 15234 15236 15239 15242 15245 15248 15251 15253 15256 15259 15262 15264 15267 15270 15272 15275 15278 15281 15283 15285 15288 15291 15293 15295 15298 15301 15304 15307 15310 15312 15315 15317 15319 15322 15325 15328 15331 15334 15336 15339 15341 15344 15347 15350 15352 15354 15357 15359 15362 15364 15367 15370 15373 15376 15379 15381 15384 15386 15389 15392 15395 15398 15401 15404 15407 15410 15413 15416 15419 15422 15425 15428 15430 15433 15436 15438 15441 15444 15447 15449 15452 15455 15458 15461 15464 15467 15470 15473 15475 15478 15481 15483 15486 15489 15492 15495 15498 15501 15504 15507 15509 15512 15515 15518 15521 15524 15527 15530 15533 15536 15539 15542 15545 15548 15551 15554 15557 15559 15562 15565 15567 15570 15573 15576 15579 15582 15585 15588 15591 15594 15597 15600 15602 15605 15608 15611 15613 15615 15617 15620 15623 15625 15628 15631 15633 15636 15639 15642 15645 15648 15651 15654 15657 15660 15663 15665 15668 15671 15674 15677 15680 15683 15686 15689 15692 15695 15698 15701 15704 15707 15710 15713 15716 15719 15722 15725 15728 15731 15733 15736 15739 15742 15745 15748 15750 15753 15755 15757 15760 15763 15766 15769 15771 15774 15777 15780 15783 15786 15789 15792 15795 15798 15801 15803 15805 15808 15810 15813 15816 15819 15821 15824 15827 15830 15832 15835 15838 15841 15844 15847 15850 15853 15856 15859 15862 15865 15868 15871 15874 15876 15879 15882 15885 15888 15891 15894 15897 15899 15902 15905 15908 15911 15914 15917 15920 15923 15926 15929 15932 15934 15937 15940 15943 15946 15949 15952 15955 15958 15961 15964 15967 15969 15971 15974 15977 15980 15983 15986 15989 15992 15995 15998 16001 16004 16007 16010 16013 16015 16018 16021 16024 16026 16029 16032 16034 16037 16040 16043 16046 16049 16052 16055 16058 16061 16064 16067 16070 16073 16076 16079 16082 16085 16088 16091 16094 16097 16100 16103 16106 16109 16112 16115 16118 16121 16124 16127 16130 16133 16136 16139 16142 16145 16148 16151 16154 16157 16160 16162 16164 16167 16170 16173 16176 16179 16182 16184 16187 16189 16192 16195 16198 16201 16204 16207 16210 16213 16216 16219 16222 16225 16227 16230 16233 16235 16238 16241 16243 16246 16249 16251 16254 16257 16260 16263 16266 16269 16272 16275 16278 16281 16284 16287 16290 16293 16295 16298 16301 16304 16307 16309 16312 16315 16318 16321 16324 16327 16330 16333 16336 16338 16341 16344 16346 16349 16352 16355 16358 16361 16364 16367 16370 16373 16376 16379 16382 16384 16387 16390 16393 16396 16399 16402 16405 16407 16410 16412 16415 16418 16420 16423 16426 16429 16432 16435 16438 16441 16444 16447 16450 16453 16456 16459 16462 16465 16467 16469 16471 16474 16476 16479 16482 16485 16488 16491 16494 16496 16499 16501 16504 16507 16510 16513 16516 16519 16522 16525 16527 16530 16533 16536 16538 16541 16544 16546 16549 16552 16555 16558 16561 16564 16567 16570 16572 16575 16578 16581 16584 16587 16590 16592 16595 16598 16601 16604 16607 16610 16613 16615 16618 16620 16623 16626 16628 16631 16634 16637 16640 16643 16646 16649 16652 16655 16658 16661 16664 16667 16670 16673 16676 16679 16681 16684 16687 16690 16693 16695 16698 16701 16704 16707 16710 16713 16716 16719 16721 16724 16727 16730 16733 16736 16739 16742 16745 16748 16751 16754 16757 16760 16763 16766 16769 16772 16775 16778 16781 16784 16787 16790 16793 16795 16798 16801 16804 16806 16808 16811 16814 16817 16820 16823 16826 16829 16832 16835 16837 16840 16843 16846 16849 16851 16853 16856 16858 16861 16864 16866 16869 16872 16875 16877 16879 16882 16885 16888 16891 16894 16897 16900 16902 16905 16908 16910 16913 16916 16918 16921 16924 16927 16930 16933 16936 16938 16941 16943 16946 16949 16952 16955 16957 16960 16962 16965 16968 16971 16974 16976 16979 16982 16985 16988 16991 16994 16997 17000 17003 17006 17009 17012 17015 17017 17020 17023 17025 17028 17031 17034 17037 17040 17043 17046 17049 17052 17055 17058 17061 17064 17067 17070 17073 17076 17079 17082 17085 17088 17091 17094 17097 17100 17103 17106 17109 17112 17115 17118 17121 17124 17126 17129 17132 17135 17138 17141 17144 17147 17150 17153 17156 17159 17162 17165 17168 17171 17174 17176 17179 17182 17185 17188 17191 17194 17197 17200 17202 17205 17208 17210 17213 17216 17219 17222 17225 17228 17231 17233 17236 17239 17241 17244 17247 17250 17253 17256 17259 17262 17265 17268 17271 17274 17277 17280 17283 17286 17289 17292 17295 17298 17301 17304 17307 17310 17313 17316 17319 17322 17325 17328 17331 17334 17337 17340 17343 17346 17349 17352 17355 17358 17360 17363 17365 17368 17371 17374 17377 17380 17383 17386 17389 17392 17395 17398 17400 17403 17406 17409 17412 17415 17418 17421 17424 17427 17430 17433 17436 17439 17442 17445 17448 17451 17454 17457 17460 17463 17465 17468 17471 17474 17476 17479 17481 17484 17486 17489 17492 17494 17497 17500 17503 17506 17508 17511 17514 17516 17519 17521 17523 17526 17529 17532 17534 17537 17540 17542 17545 17548 17550 17553 17556 17558 17561 17563 17566 17569 17572 17575 17578 17580 17582 17585 17587 17590 17593 17595 17598 17601 17604 17607 17610 17613 17616 17619 17622 17625 17627 17629 17632 17635 17638 17641 17643 17645 17648 17651 17654 17657 17660 17663 17666 17669 17671 17674 17677 17679 17681 17684 17687 17689 17691 17693 17696 17698 17700 17702 17705 17708 17711 17714 17716 17719 17722 17725 17728 17731 17734 17737 17740 17742 17745 17747 17750 17753 17756 17759 17762 17765 17768 17770 17773 17776 17779 17781 17784 17787 17790 17793 17796 17798 17801 17804 17807 17810 17813 17816 17819 17822 17825 17828 17831 17834 17837 17840 17843 17846 17848 17851 17853 17856 17858 17861 17864 17867 17870 17872 17874 17876 17879 17882 17884 17887 17890 17893 17895 17897 17900 17903 17905 17907 17910 17912 17914 17917 17920 17923 17926 17929 17932 17935 17937 17940 17943 17946 17949 17952 17955 17958 17961 17964 17967 17970 17972 17975 17978 17981 17984 17986 17988 17991 17993 17996 17999 18001 18004 18007 18010 18013 18016 18018 18021 18024 18027 18030 18033 18036 18039 18042 18045 18048 18051 18054 18057 18060 18063 18065 18068 18071 18073 18076 18079 18082 18085 18088 18091 18094 18097 18099 18102 18105 18108 18111 18114 18117 18120 18123 18125 18128 18131 18134 18137 18140 18142 18145 18148 18151 18154 18157 18160 18163 18166 18168 18171 18174 18177 18180 18183 18185 18187 18190 18192 18195 18198 18201 18204 18206 18209 18211 18214 18216 18219 18222 18225 18227 18230 18233 18236 18239 18242 18244 18247 18250 18253 18256 18258 18261 18263 18266 18269 18271 18274 18277 18280 18283 18286 18289 18292 18295 18298 18301 18304 18307 18310 18313 18316 18319 18322 18325 18327 18330 18333 18336 18339 18342 18345 18348 18351 18353 18356 18359 18361 18364 18367 18370 18372 18375 18378 18380 18382 18385 18388 18390 18392 18394 18397 18399 18402 18405 18408 18411 18414 18416 18419 18422 18425 18428 18431 18434 18436 18439 18442 18445 18448 18451 18454 18457 18460 18463 18466 18469 18472 18475 18478 18481 18484 18487 18490 18493 18496 18499 18502 18505 18508 18511 18514 18517 18520 18522 18525 18528 18531 18534 18537 18540 18543 18545 18548 18551 18554 18557 18560 18563 18565 18568 18571 18573 18576 18578 18581 18583 18586 18588 18591 18594 18597 18600 18603 18606 18608 18611 18614 18616 18619 18622 18625 18628 18631 18634 18637 18640 18643 18646 18649 18652 18655 18658 18661 18663 18666 18669 18671 18674 18677 18680 18683 18686 18688 18691 18694 18697 18700 18703 18706 18708 18710 18713 18716 18719 18722 18725 18728 18731 18734 18737 18740 18743 18746 18749 18752 18755 18757 18760 18763 18766 18769 18772 18775 18778 18781 18784 18787 18789 18791 18794 18797 18800 18803 18806 18809 18812 18815 18818 18820 18823 18826 18829 18832 18835 18838 18841 18843 18846 18848 18851 18854 18857 18860 18862 18865 18868 18871 18874 18877 18879 18882 18885 18888 18890 18893 18896 18899 18902 18905 18908 18910 18913 18916 18919 18922 18925 18928 18931 18934 18937 18940 18943 18946 18948 18951 18954 18957 18960 18963 18966 18969 18972 18975 18978 18981 18984 18986 18989 18992 18995 18998 19000 19002 19004 19006 19009 19011 19014 19017 19020 19023 19026 19028 19031 19033 19035 19038 19040 19043 19046 19049 19052 19055 19058 19061 19064 19067 19069 19071 19074 19076 19079 19081 19084 19086 19089 19091 19093 19096 19099 19102 19104 19107 19110 19113 19116 19119 19122 19125 19127 19130 19133 19135 19138 19141 19143 19146 19148 19151 19154 19156 19159 19162 19165 19168 19170 19173 19176 19179 19182 19185 19188 19191 19194 19197 19200 19203 19206 19209 19212 19215 19218 19221 19224 19227 19230 19233 19236 19239 19242 19245 19248 19251 19254 19257 19260 19263 19266 19268 19271 19273 19276 19279 19281 19284 19286 19289 19292 19295 19298 19301 19303 19306 19309 19312 19315 19318 19321 19324 19327 19330 19333 19336 19339 19341 19343 19346 19349 19352 19354 19357 19360 19363 19366 19369 19372 19375 19377 19380 19383 19386 19389 19392 19395 19397 19400 19402 19405 19408 19410 19413 19416 19419 19422 19424 19427 19430 19432 19435 19438 19441 19444 19447 19450 19452 19455 19457 19460 19463 19466 19469 19472 19475 19478 19481 19484 19487 19489 19492 19494 19497 19500 19503 19506 19509 19512 19515 19518 19521 19524 19527 19530 19533 19535 19538 19541 19544 19547 19550 19553 19556 19559 19562 19565 19568 19571 19574 19576 19578 19581 19584 19586 19589 19592 19595 19597 19600 19603 19606 19609 19612 19614 19616 19619 19622 19624 19627 19630 19633 19635 19638 19641 19644 19647 19650 19653 19656 19659 19662 19665 19668 19671 19674 19677 19680 19683 19686 19689 19692 19695 19697 19700 19703 19706 19709 19712 19715 19718 19721 19724 19727 19730 19733 19736 19739 19742 19745 19748 19751 19754 19757 19760 19763 19766 19769 19772 19775 19778 19781 19784 19787 19790 19793 19796 19799 19802 19805 19808 19811 19814 19817 19820 19823 19826 19829 19832 19835 19838 19841 19844 19847 19850 19853 19856 19859 19862 19865 19868 19871 19874 19877 19880 19883 19886 19889 19892 19895 19898 19901 19904 19907 19910 19913 19916 19919 19922 19925 19927 19930 19933 19936 19938 19941 19944 19947 19950 19953 19956 19959 19962 19965 19967 19970 19973 19976 19978 19981 19984 19987 19990 19993 19996 19999 20002 20005 20008 20011 20014 20017 20020 20022 20025 20028 20031 20034 20037 20040 20042 20045 20047 20050 20053 20056 20059 20062 20065 20068 20071 20074 20077 20080 20083 20086 20089 20092 20095 20098 20101 20104 20107 20110 20113 20116 20119 20122 20125 20128 20131 20134 20137 20140 20143 20146 20149 20152 20155 20158 20161 20164 20167 20170 20173 20176 20179 20182 20185 20187 20190 20192 20195 20198 20200 20202 20205 20208 20211 20213 20216 20219 20222 20225 20228 20231 20234 20237 20240 20243 20246 20249 20252 20255 20258 20261 20264 20267 20270 20273 20276 20279 20282 20285 20288 20290 20293 20296 20299 20302 20305 20308 20311 20314 20317 20320 20323 20326 20329 20332 20335 20338 20341 20344 20347 20350 20353 20356 20359 20362 20365 20368 20371 20374 20377 20380 20383 20386 20389 20392 20395 20398 20401 20404 20407 20410 20413 20415 20418 20421 20424 20427 20430 20433 20436 20438 20441 20444 20447 20450 20453 20456 20459 20462 20465 20468 20471 20474 20477 20480 20483 20486 20489 20492 20495 20498 20501 20503 20506 20509 20512 20515 20518 20520 20523 20526 20529 20531 20534 20537 20540 20543 20546 20549 20552 20555 20558 20561 20564 20567 20570 20573 20576 20579 20582 20585 20588 20591 20594 20597 20600 20603 20606 20609 20612 20615 20618 20621 20624 20626 20629 20632 20634 20637 20640 20642 20645 20648 20651 20654 20657 20660 20663 20666 20669 20672 20674 20677 20680 20683 20685 20687 20690 20693 20696 20699 20702 20705 20707 20710 20712 20715 20718 20720 20723 20726 20729 20732 20735 20737 20739 20742 20745 20748 20751 20753 20756 20758 20760 20763 20765 20768 20771 20774 20777 20780 20783 20785 20788 20790 20793 20796 20798 20801 20804 20807 20809 20812 20815 20818 20821 20824 20827 20830 20833 20836 20839 20842 20845 20848 20851 20854 20857 20860 20863 20866 20869 20871 20874 20877 20880 20883 20886 20889 20892 20895 20898 20901 20903 20906 20909 20912 20915 20918 20920 20923 20926 20929 20932 20935 20938 20941 20944 20946 20949 20952 20955 20958 20960 20962 20965 20968 20970 20973 20976 20979 20982 20984 20987 20990 20993 20995 20997 21000 21002 21005 21008 21010 21013 21015 21018 21020 21023 21026 21029 21032 21035 21038 21041 21043 21046 21049 21051 21054 21057 21060 21063 21066 21068 21071 21074 21077 21079 21082 21085 21087 21090 21093 21096 21098 21101 21104 21107 21110 21113 21116 21119 21122 21124 21127 21130 21133 21135 21138 21141 21144 21147 21150 21153 21156 21158 21161 21164 21167 21169 21172 21175 21178 21181 21184 21187 21190 21193 21195 21198 21201 21204 21207 21210 21213 21216 21219 21222 21225 21228 21231 21234 21237 21240 21243 21246 21249 21252 21255 21258 21261 21264 21266 21269 21272 21275 21278 21281 21284 21287 21290 21293 21296 21299 21302 21305 21308 21311 21314 21317 21320 21323 21326 21329 21331 21334 21337 21340 21343 21346 21349 21351 21354 21357 21360 21363 21366 21369 21372 21375 21378 21381 21384 21387 21390 21393 21396 21399 21402 21405 21408 21411 21414 21417 21420 21423 21426 21428 21431 21434 21437 21440 21443 21446 21449 21452 21455 21458 21461 21464 21467 21470 21473 21476 21479 21482 21485 21488 21491 21494 21496 21499 21502 21505 21508 21511 21514 21516 21519 21522 21525 21528 21531 21534 21537 21540 21543 21546 21549 21552 21555 21558 21561 21564 21567 21569 21572 21575 21578 21581 21583 21586 21589 21592 21595 21598 21601 21603 21606 21609 21612 21615 21618 21621 21623 21626 21629 21632 21635 21638 21641 21644 21647 21650 21653 21656 21659 21662 21665 21668 21670 21673 21676 21679 21682 21685 21688 21691 21693 21695 21697 21700 21703 21706 21709 21712 21715 21718 21721 21724 21727 21730 21733 21736 21739 21742 21745 21748 21751 21753 21755 21758 21761 21764 21767 21770 21772 21775 21778 21780 21783 21786 21789 21791 21794 21797 21800 21803 21806 21809 21812 21815 21818 21820 21823 21826 21829 21832 21835 21838 21841 21844 21847 21850 21853 21855 21857 21860 21863 21865 21868 21871 21874 21877 21880 21882 21885 21888 21891 21893 21896 21898 21901 21904 21906 21909 21912 21915 21918 21920 21923 21926 21928 21931 21934 21937 21940 21943 21945 21948 21951 21954 21957 21960 21963 21966 21969 21972 21975 21978 21981 21984 21987 21990 21992 21995 21998 22001 22004 22006 22009 22012 22015 22018 22021 22024 22027 22029 22032 22035 22038 22041 22044 22047 22049 22051 22054 22057 22060 22063 22066 22069 22072 22075 22078 22081 22084 22087 22090 22093 22096 22099 22101 22104 22107 22110 22113 22115 22118 22121 22124 22127 22130 22133 22135 22138 22141 22144 22147 22150 22153 22156 22159 22162 22165 22168 22171 22174 22177 22180 22183 22186 22189 22192 22195 22198 22201 22203 22206 22209 22212 22214 22217 22219 22222 22225 22228 22230 22233 22236 22239 22242 22245 22248 22251 22254 22257 22260 22263 22266 22269 22272 22275 22278 22281 22284 22287 22290 22293 22296 22299 22302 22305 22308 22311 22314 22317 22320 22323 22326 22329 22332 22335 22338 22341 22344 22347 22350 22353 22356 22359 22362 22365 22368 22371 22374 22377 22380 22382 22384 22387 22390 22393 22396 22399 22402 22405 22408 22411 22414 22417 22420 22423 22426 22429 22432 22435 22438 22441 22444 22447 22450 22452 22455 22457 22460 22463 22466 22469 22472 22475 22477 22480 22483 22486 22489 22492 22495 22498 22501 22504 22507 22509 22512 22515 22518 22521 22524 22527 22530 22533 22535 22538 22541 22544 22547 22549 22552 22555 22557 22560 22563 22566 22569 22572 22574 22577 22579 22582 22585 22588 22591 22594 22597 22600 22603 22606 22609 22612 22615 22618 22621 22624 22627 22630 22633 22636 22639 22642 22645 22648 22651 22654 22656 22659 22662 22665 22668 22671 22674 22677 22679 22682 22685 22688 22691 22694 22697 22700 22702 22705 22708 22711 22714 22717 22720 22723 22726 22729 22732 22735 22737 22740 22743 22745 22748 22750 22753 22756 22759 22762 22765 22768 22771 22773 22776 22778 22781 22783 22786 22789 22792 22794 22797 22799 22802 22805 22808 22811 22814 22817 22820 22822 22825 22828 22831 22834 22837 22839 22842 22845 22847 22850 22853 22856 22859 22862 22865 22867 22870 22873 22876 22879 22882 22885 22888 22891 22894 22897 22900 22903 22906 22908 22911 22914 22917 22920 22922 22925 22928 22931 22933 22936 22938 22941 22943 22946 22949 22951 22954 22957 22960 22962 22964 22967 22970 22973 22976 22979 22982 22985 22988 22991 22994 22997 23000 23002 23004 23007 23009 23012 23015 23018 23021 23024 23027 23030 23033 23036 23039 23041 23044 23047 23050 23052 23055 23058 23061 23063 23066 23068 23071 23074 23077 23080 23083 23086 23089 23092 23094 23097 23100 23103 23106 23109 23112 23115 23118 23121 23124 23127 23129 23132 23135 23138 23141 23144 23147 23150 23153 23156 23159 23162 23165 23168 23171 23174 23177 23180 23183 23186 23189 23192 23195 23197 23200 23203 23206 23209 23212 23215 23218 23221 23224 23227 23230 23233 23236 23238 23241 23244 23247 23250 23253 23255 23258 23261 23264 23266 23269 23271 23274 23277 23280 23283 23286 23289 23292 23295 23298 23301 23304 23307 23310 23313 23316 23319 23321 23324 23327 23330 23333 23336 23339 23341 23344 23347 23350 23353 23356 23358 23361 23364 23366 23369 23372 23375 23377 23380 23383 23386 23389 23392 23394 23397 23400 23403 23405 23408 23411 23414 23416 23418 23421 23424 23427 23430 23432 23435 23438 23440 23443 23446 23448 23451 23454 23457 23459 23461 23464 23467 23470 23473 23476 23479 23481 23484 23486 23489 23491 23494 23497 23499 23502 23504 23507 23509 23512 23515 23517 23520 23523 23526 23529 23532 23535 23538 23541 23544 23547 23550 23553 23556 23559 23562 23565 23568 23571 23574 23577 23580 23583 23586 23589 23592 23595 23598 23601 23604 23607 23609 23612 23615 23618 23621 23624 23627 23630 23633 23636 23638 23641 23644 23647 23650 23653 23655 23658 23661 23664 23667 23670 23673 23676 23679 23682 23685 23688 23691 23694 23697 23700 23703 23705 23708 23711 23714 23717 23720 23723 23726 23728 23731 23734 23736 23739 23742 23745 23748 23751 23753 23756 23759 23762 23765 23768 23771 23774 23777 23780 23783 23786 23788 23791 23794 23797 23800 23803 23806 23809 23812 23815 23818 23821 23824 23827 23830 23833 23836 23839 23842 23845 23848 23851 23854 23857 23860 23863 23866 23869 23872 23875 23878 23881 23884 23887 23890 23893 23896 23899 23902 23905 23908 23911 23914 23917 23920 23923 23926 23929 23932 23935 23938 23941 23944 23947 23950 23953 23956 23959 23962 23965 23968 23971 23974 23977 23980 23983 23986 23989 23992 23994 23997 24000 24003 24006 24008 24011 24014 24017 24019 24022 24024 24027 24030 24032 24035 24038 24041 24044 24046 24048 24051 24054 24056 24058 24061 24063 24066 24069 24072 24074 24076 24079 24082 24085 24087 24090 24093 24096 24099 24102 24105 24108 24111 24114 24116 24118 24121 24124 24127 24130 24133 24136 24139 24141 24144 24147 24150 24153 24156 24159 24162 24165 24167 24170 24173 24176 24179 24182 24184 24187 24190 24193 24196 24199 24201 24204 24207 24210 24213 24216 24218 24221 24224 24227 24230 24233 24236 24239 24242 24245 24248 24251 24254 24257 24260 24263 24266 24269 24272 24275 24278 24281 24284 24287 24290 24293 24296 24298 24301 24304 24307 24310 24313 24316 24319 24322 24325 24328 24331 24333 24336 24339 24342 24345 24348 24351 24354 24357 24360 24363 24366 24369 24372 24375 24378 24381 24384 24387 24390 24393 24396 24399 24402 24405 24408 24411 24414 24417 24420 24423 24426 24429 24432 24435 24438 24441 24444 24447 24450 24453 24456 24459 24461 24463 24466 24469 24471 24474 24476 24479 24482 24485 24488 24491 24494 24497 24500 24503 24506 24509 24512 24515 24518 24521 24524 24527 24529 24532 24535 24538 24540 24543 24546 24549 24552 24554 24557 24560 24563 24566 24569 24571 24574 24576 24578 24581 24584 24587 24590 24593 24596 24599 24602 24604 24607 24610 24613 24616 24618 24621 24624 24626 24629 24632 24635 24638 24641 24644 24647 24650 24653 24655 24658 24661 24663 24666 24669 24672 24675 24678 24681 24684 24687 24690 24693 24696 24699 24702 24705 24708 24710 24713 24716 24718 24721 24724 24727 24730 24732 24735 24737 24740 24742 24744 24747 24750 24753 24756 24759 24761 24764 24767 24770 24773 24776 24779 24781 24784 24787 24790 24792 24795 24798 24801 24804 24807 24810 24813 24816 24819 24822 24825 24828 24831 24834 24837 24840 24843 24846 24849 24852 24855 24858 24861 24864 24867 24869 24872 24875 24878 24881 24884 24887 24890 24893 24896 24899 24902 24904 24907 24910 24913 24915 24918 24921 24924 24927 24929 24932 24935 24938 24941 24944 24947 24950 24953 24956 24959 24962 24965 24968 24970 24973 24976 24978 24981 24984 24987 24990 24993 24996 24999 25002 25005 25008 25011 25013 25016 25019 25022 25025 25028 25031 25034 25037 25040 25043 25046 25049 25052 25054 25057 25060 25063 25066 25069 25072 25075 25078 25081 25084 25087 25090 25093 25096 25099 25102 25105 25107 25110 25113 25116 25118 25121 25124 25127 25130 25133 25136 25139 25142 25145 25147 25150 25153 25156 25159 25162 25165 25168 25171 25174 25177 25180 25183 25186 25189 25192 25195 25198 25201 25204 25207 25210 25212 25215 25217 25220 25223 25226 25229 25232 25235 25238 25241 25244 25247 25249 25252 25255 25258 25261 25264 25267 25269 25272 25275 25278 25281 25284 25287 25290 25293 25295 25298 25301 25303 25306 25309 25312 25315 25318 25320 25323 25326 25329 25331 25334 25337 25340 25342 25345 25348 25351 25354 25357 25360 25363 25366 25369 25372 25375 25378 25381 25384 25387 25390 25393 25396 25399 25402 25405 25408 25411 25414 25417 25420 25423 25426 25429 25432 25435 25438 25441 25443 25446 25449 25452 25455 25458 25461 25464 25466 25469 25471 25474 25477 25480 25483 25486 25489 25491 25494 25496 25499 25502 25504 25507 25510 25513 25516 25519 25522 25525 25528 25531 25534 25536 25538 25541 25544 25547 25550 25553 25556 25559 25561 25564 25567 25570 25573 25576 25579 25582 25585 25588 25591 25593 25596 25599 25602 25605 25608 25611 25614 25617 25620 25623 25626 25629 25632 25635 25638 25641 25644 25646 25649 25651 25654 25657 25660 25663 25666 25669 25672 25675 25678 25680 25683 25686 25689 25691 25694 25696 25699 25702 25705 25708 25711 25714 25717 25720 25723 25726 25729 25731 25733 25736 25739 25742 25745 25748 25751 25754 25757 25760 25763 25766 25768 25771 25774 25777 25780 25783 25786 25789 25792 25795 25798 25801 25804 25807 25810 25813 25816 25819 25822 25824 25827 25830 25833 25836 25838 25841 25843 25846 25848 25851 25854 25857 25859 25862 25865 25868 25871 25874 25877 25880 25883 25885 25888 25891 25894 25897 25900 25903 25906 25909 25912 25914 25917 25920 25923 25926 25929 25932 25934 25937 25939 25942 25944 25947 25950 25953 25956 25959 25962 25965 25967 25970 25973 25976 25979 25982 25984 25987 25990 25993 25996 25999 26002 26005 26008 26011 26014 26016 26019 26022 26024 26027 26030 26033 26036 26038 26041 26044 26047 26050 26053 26056 26059 26062 26065 26068 26071 26074 26077 26080 26083 26086 26089 26092 26095 26098 26101 26104 26106 26109 26112 26114 26116 26119 26122 26125 26128 26131 26134 26137 26140 26142 26145 26148 26151 26154 26156 26159 26162 26165 26168 26170 26173 26176 26179 26182 26185 26188 26190 26193 26196 26198 26201 26203 26206 26209 26211 26214 26216 26219 26222 26225 26227 26230 26232 26235 26238 26240 26243 26246 26248 26251 26254 26257 26260 26263 26265 26267 26270 26273 26276 26279 26281 26284 26287 26289 26292 26295 26297 26300 26303 26306 26309 26312 26314 26317 26320 26322 26325 26328 26331 26334 26337 26339 26342 26345 26348 26351 26354 26357 26360 26363 26365 26368 26371 26374 26377 26380 26383 26386 26389 26392 26395 26397 26400 26403 26406 26408 26411 26414 26417 26419 26422 26425 26428 26431 26434 26436 26439 26442 26445 26448 26451 26454 26457 26460 26463 26466 26469 26472 26474 26477 26480 26483 26486 26489 26492 26495 26498 26501 26504 26507 26510 26513 26516 26519 26522 26525 26528 26531 26534 26537 26540 26543 26546 26549 26552 26555 26558 26561 26564 26566 26568 26571 26574 26577 26580 26583 26586 26589 26591 26594 26597 26599 26602 26605 26608 26611 26614 26617 26620 26623 26626 26629 26632 26635 26638 26641 26644 26647 26649 26652 26655 26658 26661 26664 26667 26670 26673 26676 26679 26682 26685 26688 26691 26694 26697 26700 26702 26704 26707 26710 26713 26716 26719 26722 26725 26728 26731 26734 26737 26740 26743 26746 26749 26752 26755 26758 26761 26763 26766 26769 26772 26775 26778 26780 26783 26786 26789 26792 26795 26798 26801 26804 26807 26809 26812 26815 26818 26821 26824 26827 26830 26833 26835 26838 26841 26843 26846 26849 26852 26855 26857 26859 26862 26865 26867 26870 26873 26876 26879 26882 26884 26886 26889 26892 26895 26898 26901 26904 26907 26910 26913 26915 26918 26921 26924 26927 26930 26933 26936 26939 26942 26945 26948 26951 26954 26957 26959 26962 26965 26968 26971 26974 26977 26980 26983 26986 26989 26992 26995 26998 27001 27004 27007 27010 27013 27016 27019 27022 27025 27028 27031 27033 27036 27038 27041 27044 27047 27050 27053 27056 27059 27062 27065 27068 27071 27074 27077 27079 27082 27084 27087 27090 27093 27096 27099 27101 27104 27107 27110 27113 27115 27118 27121 27124 27127 27130 27133 27136 27139 27141 27144 27147 27149 27152 27154 27157 27160 27163 27166 27169 27172 27175 27178 27181 27184 27187 27189 27192 27195 27198 27200 27203 27206 27209 27212 27215 27217 27220 27223 27225 27228 27231 27234 27237 27240 27243 27246 27249 27252 27255 27258 27261 27264 27266 27269 27272 27275 27278 27280 27283 27286 27289 27291 27294 27297 27300 27303 27306 27309 27312 27315 27318 27320 27323 27326 27329 27331 27333 27336 27339 27342 27345 27347 27349 27352 27354 27357 27359 27362 27365 27368 27371 27373 27376 27379 27382 27385 27388 27391 27394 27397 27399 27402 27405 27408 27411 27414 27417 27420 27423 27425 27428 27431 27433 27435 27438 27441 27443 27446 27448 27451 27454 27457 27460 27462 27465 27468 27471 27474 27477 27480 27483 27486 27489 27492 27495 27498 27501 27504 27507 27510 27513 27516 27519 27522 27525 27528 27531 27534 27536 27539 27542 27545 27548 27551 27554 27557 27560 27563 27566 27568 27571 27574 27577 27580 27582 27585 27588 27591 27594 27597 27600 27603 27606 27609 27611 27614 27617 27619 27622 27625 27628 27631 27634 27637 27640 27643 27646 27648 27651 27653 27656 27659 27661 27663 27665 27668 27671 27673 27676 27678 27681 27684 27687 27689 27692 27695 27697 27700 27703 27706 27709 27711 27714 27717 27720 27723 27725 27728 27731 27734 27737 27740 27743 27745 27748 27751 27754 27757 27760 27762 27765 27767 27770 27772 27775 27778 27781 27784 27787 27790 27793 27796 27799 27802 27805 27808 27811 27814 27817 27820 27822 27825 27828 27831 27834 27837 27839 27842 27845 27848 27851 27854 27857 27860 27862 27865 27867 27870 27873 27875 27877 27880 27883 27886 27889 27892 27894 27897 27900 27903 27906 27909 27912 27915 27918 27921 27924 27926 27929 27931 27933 27936 27939 27942 27945 27948 27951 27954 27957 27959 27962 27965 27968 27971 27974 27977 27980 27982 27985 27988 27991 27994 27997 28000 28002 28004 28007 28010 28012 28015 28018 28021 28024 28026 28029 28031 28033 28035 28038 28040 28043 28046 28049 28051 28054 28057 28059 28062 28065 28068 28071 28074 28077 28080 28083 28086 28089 28092 28095 28098 28101 28104 28107 28109 28112 28115 28118 28121 28124 28127 28130 28133 28135 28138 28141 28144 28147 28149 28152 28155 28158 28161 28164 28167 28170 28173 28176 28178 28181 28183 28186 28189 28192 28195 28198 28201 28204 28206 28209 28211 28214 28217 28220 28223 28226 28229 28232 28235 28238 28241 28244 28247 28250 28253 28256 28259 28261 28264 28267 28270 28273 28275 28278 28281 28284 28287 28290 28293 28295 28298 28301 28304 28307 28310 28313 28316 28319 28322 28325 28328 28331 28334 28337 28340 28343 28346 28349 28352 28355 28358 28361 28364 28367 28370 28373 28375 28378 28381 28384 28387 28390 28393 28396 28399 28402 28404 28407 28410 28412 28415 28417 28420 28423 28426 28429 28432 28435 28437 28440 28443 28446 28449 28452 28455 28458 28461 28464 28466 28469 28472 28475 28478 28481 28483 28486 28489 28492 28495 28498 28501 28504 28507 28510 28513 28515 28518 28521 28523 28526 28528 28531 28534 28537 28540 28543 28546 28549 28552 28555 28558 28561 28564 28567 28570 28573 28576 28579 28582 28585 28588 28591 28594 28597 28600 28603 28605 28608 28610 28613 28616 28619 28622 28625 28627 28630 28633 28636 28639 28641 28644 28647 28649 28652 28655 28658 28660 28663 28666 28668 28670 28673 28675 28678 28681 28684 28687 28690 28693 28695 28698 28701 28704 28707 28710 28713 28716 28719 28722 28725 28728 28731 28734 28737 28740 28743 28745 28748 28751 28754 28757 28760 28763 28766 28769 28772 28775 28778 28781 28784 28787 28790 28792 28795 28798 28801 28804 28806 28809 28812 28815 28818 28820 28823 28825 28828 28831 28834 28837 28840 28843 28845 28848 28851 28853 28856 28859 28862 28865 28868 28871 28874 28877 28879 28882 28885 28887 28890 28893 28896 28899 28902 28905 28908 28910 28913 28916 28919 28922 28925 28927 28930 28933 28936 28938 28941 28944 28947 28950 28953 28956 28959 28962 28965 28968 28970 28973 28976 28979 28982 28985 28987 28990 28993 28996 28999 29002 29004 29007 29010 29013 29015 29017 29020 29023 29026 29029 29032 29035 29037 29040 29043 29046 29049 29052 29055 29058 29061 29064 29067 29070 29073 29076 29079 29082 29085 29088 29091 29094 29097 29100 29103 29106 29109 29112 29115 29118 29121 29124 29127 29129 29131 29133 29136 29139 29142 29145 29147 29150 29153 29156 29158 29161 29163 29166 29169 29172 29174 29177 29179 29181 29184 29187 29190 29192 29195 29197 29200 29203 29205 29207 29210 29213 29216 29219 29222 29225 29228 29231 29234 29237 29239 29241 29244 29247 29250 29253 29256 29259 29261 29264 29267 29270 29272 29275 29278 29281 29284 29287 29289 29292 29295 29298 
</DataArray>
<DataArray type="UInt32" Name="types" format="ascii">
5 5 5 5 5 5 5 5 5 5 3 5 3 5 5 5 5 3 5 5 5 3 5 3 5 5 5 3 5 5 5 5 3 5 5 5 5 5 5 5 5 5 5 3 5 5 5 5 5 5 5 5 5 5 5 5 5 5 5 5 5 5 5 5 5 5 5 5 5 5 5 3 5 5 5 5 3 5 5 5 5 3 5 5 5 5 5 5 5 5 5 5 3 5 3 5 5 3 5 5 5 5 5 5 5 3 5 5 5 5 5 5 5 5 5 5 3 3 5 5 5 3 5 5 3 5 5 5 5 5 5 5 5 5 5 5 5 5 3 5 5 5 5 5 5 3 5 5 5 5 5 5 5 5 5 5 5 5 5 5 5 5 5 5 5 5 5 5 5 5 5 5 5 5 5 5 5 5 5 5 5 5 5 5 5 5 5 5 5 5 5 5 5 5 5 5 5 5 5 5 5 5 5 5 5 5 5 3 5 5 5 5 5 5 5 5 5 5 5 5 5 5 5 5 5 5 5 5 5 5 5 5 5 3 5 3 5 5 5 5 5 5 5 5 5 3 5 3 5 5 5 5 5 5 5 5 5 5 5 5 5 5 5 5 5 5 5 5 5 5 5 5 5 3 5 5 5 5 5 5 5 5 5 5 5 5 3 5 5 5 5 5 3 5 5 5 5 5 5 5 5 3 5 5 5 5 3 5 5 5 5 5 3 5 5 5 5 5 5 5 5 5 5 5 5 5 5 5 5 5 5 5 5 5 5 5 5 5 5 5 5 3 5 5 5 5 5 5 5 5 5 5 5 5 5 5 5 5 5 5 5 5 5 5 5 3 5 5 5 5 5 5 5 5 3 5 5 5 5 3 5 5 5 3 5 5 3 5 5 3 5 3 5 5 3 5 5 5 5 5 5 5 3 3 5 5 5 3 5 5 5 5 5 3 5 5 5 5 5 5 5 5 5 5 5 5 5 3 5 5 5 5 5 5 5 5 5 5 5 3 5 3 5 5 5 5 5 5 5 5 5 5 3 5 5 3 5 5 5 3 5 5 5 3 5 5 3 5 3 5 3 5 3 3 5 5 5 3 3 3 3 5 5 5 5 5 5 5 5 3 5 5 5 5 3 5 3 5 3 5 5 3 5 5 5 5 3 5 5 5 5 5 5 5 5 5 5 3 3 5 5 5 5 5 3 5 5 5 5 5 5 5 5 5 5 5 5 5 3 5 5 5 5 5 5 5 5 5 5 5 5 3 3 3 5 5 5 5 5 5 5 5 5 5 5 5 5 5 5 5 5 5 5 5 5 3 5 5 5 3 5 5 5 5 5 5 5 5 5 5 5 5 5 5 5 5 5 5 5 5 5 5 5 5 5 5 5 5 5 5 5 5 5 3 5 5 3 5 5 5 5 5 5 5 5 5 5 5 5 5 5 5 5 5 5 5 5 5 3 5 5 5 5 5 5 5 5 5 5 5 5 5 5 5 5 5 5 5 3 5 5 5 5 5 5 5 5 5 5 3 5 3 5 5 3 5 5 5 3 5 5 5 5 5 3 5 3 5 5 3 5 5 5 5 5 5 5 3 5 5 5 3 3 5 5 5 5 5 5 5 3 5 5 3 5 3 3 5 5 5 3 5 5 3 3 3 5 5 5 3 5 5 3 3 5 5 5 3 5 5 3 5 5 3 3 3 5 5 5 3 5 5 5 5 5 5 5 3 5 5 5 5 5 5 5 5 5 5 5 5 5 5 5 5 5 5 5 5 5 5 5 5 5 5 5 5 3 5 5 5 3 3 5 5 3 5 5 5 5 5 5 5 5 3 5 5 5 5 3 5 5 5 5 5 5 5 5 5 3 5 5 5 3 5 5 3 5 3 5 5 3 5 5 5 3 3 5 5 3 5 5 3 3 5 5 5 5 5 5 5 5 5 5 5 3 5 5 5 5 5 5 5 5 5 5 3 5 5 3 5 3 3 3 5 3 5 5 5 5 5 5 5 5 5 5 5 5 5 5 5 5 5 5 5 5 5 5 5 5 5 5 5 5 5 5 5 5 5 5 5 5 5 3 5 5 3 5 3 5 5 3 5 5 5 3 5 3 5 3 5 5 5 5 5 5 5 5 5 5 5 5 5 5 5 5 5 5 5 3 5 3 5 5 5 5 5 5 5 5 5 5 5 5 5 5 5 5 5 5 3 5 3 5 5 3 5 5 5 3 5 5 5 5 3 5 5 3 5 3 3 5 5 3 3 5 5 3 5 5 3 3 5 5 5 5 3 5 5 5 5 3 5 5 5 3 3 5 5 3 5 5 3 5 5 5 5 5 5 3 5 5 3 5 3 5 5 5 5 5 5 5 5 5 5 3 5 5 5 5 5 5 5 5 5 5 5 5 5 5 5 5 3 5 5 5 5 5 5 5 3 3 5 5 3 5 5 5 5 3 3 5 5 5 5 5 5 5 5 5 5 5 5 5 5 5 5 5 5 5 5 3 5 5 5 5 5 5 5 5 5 5 5 5 5 5 5 5 5 5 3 5 5 3 5 5 5 5 3 5 5 5 5 5 5 5 5 5 5 5 5 5 5 5 5 5 5 5 5 3 5 5 5 5 5 5 5 5 3 5 5 5 5 5 5 5 3 5 5 5 5 5 5 5 5 5 5 5 3 5 5 5 3 5 5 5 5 5 5 5 5 5 5 5 5 5 5 5 5 5 5 5 5 5 5 5 5 5 5 5 5 5 5 3 5 5 5 5 5 5 5 3 5 5 5 5 5 5 5 5 5 5 5 5 5 5 5 5 5 5 5 5 5 5 5 5 5 5 5 5 5 5 5 3 5 5 5 5 5 5 5 3 5 5 5 3 5 5 5 3 5 5 5 5 5 5 5 3 5 5 5 3 5 5 5 5 5 5 5 5 5 5 5 5 5 5 5 5 3 5 5 5 5 5 5 5 5 5 3 5 5 5 5 5 5 5 3 5 5 5 5 3 5 5 5 3 3 5 5 5 5 3 5 5 5 5 5 5 5 5 5 5 5 5 5 5 5 3 5 5 5 5 5 5 5 5 5 5 5 5 5 5 5 5 5 5 5 5 5 5 5 5 5 5 5 3 5 5 5 5 5 5 5 5 5 5 5 3 5 5 3 5 5 3 5 5 5 3 5 5 3 5 5 5 5 5 5 5 5 3 5 5 3 5 5 5 5 5 5 5 5 5 5 5 5 5 3 5 5 5 3 5 5 5 5 5 5 5 5 5 5 5 5 5 5 5 5 3 5 5 3 5 5 5 5 5 3 5 5 5 5 5 5 5 5 5 5 5 5 5 5 5 5 5 5 5 5 5 3 5 3 3 5 5 5 5 5 3 5 5 3 5 3 5 5 5 5 5 5 5 3 5 5 5 5 5 5 5 5 5 5 5 5 5 5 3 5 5 5 5 5 5 5 5 5 5 5 5 5 5 5 5 3 5 5 3 5 5 5 5 5 5 5 5 3 5 3 5 3 3 5 5 5 5 3 5 5 5 5 3 5 5 5 5 5 5 5 5 5 5 3 5 5 5 5 5 5 5 5 5 5 5 5 3 5 5 3 5 5 3 3 5 5 5 5 5 5 5 5 3 5 5 5 5 5 5 5 5 5 3 5 5 3 5 5 5 3 3 5 5 5 5 5 5 5 5 5 5 3 5 5 3 3 5 3 5 5 3 5 5 5 5 5 5 5 5 5 5 5 3 5 5 5 5 5 5 5 5 5 3 5 5 5 5 5 5 5 3 5 5 5 5 5 5 5 5 3 5 5 5 5 5 5 3 3 5 5 5 5 5 5 5 5 5 3 5 5 5 5 3 5 5 5 5 5 5 5 5 5 5 5 3 5 5 5 5 5 3 5 5 5 5 5 5 5 5 5 5 5 5 5 5 5 5 5 5 5 5 5 5 5 5 5 5 5 5 5 5 5 5 5 5 5 5 5 5 5 5 5 5 5 5 5 5 5 5 5 5 5 3 5 5 5 5 5 3 5 5 3 5 5 5 5 5 5 5 5 5 5 5 5 5 5 5 3 5 5 5 3 5 5 5 3 3 5 5 5 5 5 5 5 5 5 5 5 3 5 5 5 5 5 3 5 5 5 5 5 5 5 5 5 5 5 5 5 5 5 5 5 5 5 5 5 5 5 5 5 5 5 5 3 5 5 5 5 5 5 5 5 5 5 5 3 5 5 3 5 3 3 5 5 5 5 5 5 5 3 3 5 5 5 3 5 5 5 5 5 5 5 5 5 5 5 5 5 3 5 5 3 5 3 5 5 5 5 3 5 3 5 5 5 3 3 5 5 5 5 5 5 5 5 5 5 5 5 3 5 5 5 5 3 5 5 5 3 5 5 3 3 5 5 3 5 3 5 5 5 5 5 5 5 5 3 5 5 5 3 5 5 5 5 5 5 5 5 5 5 5 5 5 5 5 5 5 5 5 5 5 5 5 5 5 5 5 5 5 5 3 5 5 5 3 5 3 3 5 5 5 5 5 3 3 5 5 5 5 3 5 5 5 5 5 5 5 5 5 5 5 5 5 3 5 5 5 5 3 5 5 5 5 5 5 5 5 5 3 5 5 5 3 5 5 5 5 5 3 5 5 5 3 5 3 5 5 3 5 3 5 5 3 5 5 5 3 3 5 5 5 5 3 5 5 5 3 5 3 5 3 5 5 5 3 5 5 5 5 5 5 5 5 5 3 5 5 3 3 3 5 5 5 5 5 5 5 5 3 5 5 5 5 5 5 3 5 5 5 5 5 5 5 5 5 3 5 5 5 5 5 5 5 5 5 5 5 5 5 5 5 5 5 5 5 5 5 5 5 5 5 5 5 5 5 5 5 3 5 5 5 3 5 5 5 5 5 5 5 5 3 5 5 5 5 5 5 5 5 5 5 3 5 3 5 5 5 5 5 5 5 5 5 5 5 5 3 5 3 5 5 5 5 5 3 5 5 3 5 5 5 5 5 5 5 5 3 5 5 5 5 5 5 3 5 5 5 5 5 5 5 5 5 5 5 5 5 5 5 5 5 5 5 5 5 5 5 5 5 5 5 3 5 5 5 5 3 5 5 5 3 5 3 5 3 5 5 5 3 3 5 5 5 5 5 3 5 5 5 5 5 5 5 5 5 5 5 3 5 5 5 5 3 5 3 5 5 5 5 3 5 3 5 3 5 3 5 3 5 3 5 3 5 5 3 5 5 5 5 5 5 5 3 5 5 5 5 5 5 5 5 5 3 5 5 5 5 5 5 5 5 5 3 5 5 5 5 5 5 5 5 5 5 5 5 5 3 5 5 5 5 5 5 5 5 5 3 5 5 5 5 5 5 5 3 5 5 5 5 3 5 5 3 5 5 5 3 5 5 5 5 5 3 3 5 3 5 5 3 5 5 5 3 5 5 5 5 5 5 5 5 5 5 3 5 5 5 5 5 5 3 5 5 5 5 5 5 5 5 5 5 5 5 5 5 3 3 5 5 5 5 5 3 5 5 5 3 5 3 5 5 3 5 5 5 5 3 5 5 5 5 5 5 5 5 5 5 5 5 5 5 5 5 5 5 5 5 5 5 5 5 5 5 5 5 5 5 3 5 5 3 5 5 5 5 5 5 5 5 5 3 5 5 5 5 5 5 5 5 3 3 3 5 5 3 5 3 5 5 5 3 5 3 3 5 5 5 5 3 5 5 5 3 3 5 5 3 5 3 5 5 5 3 5 5 5 5 5 5 3 5 5 5 5 5 5 5 5 5 5 5 5 5 5 5 3 5 5 5 3 5 5 5 5 5 5 5 5 5 5 5 5 5 5 5 5 5 5 5 5 5 5 5 5 5 5 5 5 5 5 5 5 5 5 5 5 5 5 5 5 5 5 5 5 5 3 5 5 3 5 5 5 5 5 5 5 5 5 3 5 5 5 5 5 5 5 5 5 5 5 3 5 5 5 5 5 5 5 5 5 5 3 5 5 3 5 5 5 3 5 5 5 3 5 5 5 5 5 5 5 5 3 5 5 5 5 5 5 5 5 5 5 5 5 5 5 5 3 5 5 5 5 3 5 5 5 5 5 5 5 5 5 5 5 5 5 5 5 5 5 5 5 5 5 5 5 5 5 5 5 5 5 5 5 3 5 5 5 5 5 5 5 3 5 5 5 3 5 5 3 5 5 5 3 5 5 5 5 5 5 5 5 3 5 5 5 5 5 5 5 5 5 5 5 5 3 5 5 5 5 5 3 5 3 5 5 5 5 5 5 3 5 5 3 5 5 3 5 5 5 5 5 3 5 3 5 5 5 3 5 5 5 5 5 5 3 5 5 5 3 5 5 5 5 5 5 5 5 5 5 5 5 5 5 3 5 3 5 3 5 5 5 5 5 3 5 3 5 3 5 5 5 5 5 3 5 5 5 3 5 5 5 5 5 5 3 5 3 5 3 5 5 5 5 3 3 5 5 5 5 5 5 5 5 5 5 5 5 5 5 5 5 5 3 5 5 5 5 3 5 5 5 5 5 5 5 5 5 5 3 5 5 5 5 5 5 5 3 5 5 5 3 5 5 5 3 5 5 5 5 5 5 5 5 5 5 5 5 5 5 5 5 5 5 5 5 5 5 5 5 5 5 5 5 5 5 5 5 5 5 5 5 5 5 5 5 5 5 5 5 5 5 5 5 5 5 5 5 5 5 5 5 5 5 5 3 5 5 5 5 3 5 5 5 5 5 3 5 5 5 5 5 5 5 5 5 5 5 5 5 5 5 5 3 5 3 5 5 5 5 3 3 5 5 5 5 3 3 5 5 5 5 5 5 3 5 3 3 5 5 5 5 3 3 5 5 5 5 5 5 3 5 5 5 5 5 5 3 5 5 5 5 3 3 5 5 3 3 5 5 5 5 3 5 5 5 3 3 5 5 3 5 3 3 5 5 5 3 5 3 5 3 5 5 5 5 3 5 5 3 5 5 5 5 5 3 3 5 5 5 5 5 5 3 3 5 5 5 5 5 3 5 5 3 5 5 5 5 5 5 5 3 5 5 5 3 5 5 5 5 5 3 5 5 5 5 5 3 5 5 5 5 5 5 5 5 5 3 5 5 5 3 5 5 5 5 5 5 5 5 5 3 5 3 5 5 5 5 5 5 3 5 5 3 5 5 5 5 5 5 3 5 5 5 5 5 5 5 5 5 5 5 5 3 3 5 5 3 5 5 5 5 5 3 5 5 3 3 5 5 5 5 5 5 5 3 5 5 5 5 5 5 5 3 5 5 5 5 5 5 5 5 5 5 5 5 5 5 5 5 5 5 5 3 5 5 5 3 5 5 5 5 5 5 5 5 5 5 5 5 5 5 3 5 5 5 5 5 5 5 5 5 5 5 3 5 5 5 5 5 5 5 3 5 5 5 5 5 5 5 5 5 5 5 3 5 5 5 5 5 5 5 5 5 5 3 5 5 5 5 5 5 5 5 5 5 5 3 5 5 5 5 5 5 5 5 5 5 5 5 3 3 5 5 5 5 5 5 5 5 5 5 5 5 3 5 3 5 5 5 3 5 5 3 5 5 5 5 5 5 5 5 5 5 5 5 5 5 3 5 5 5 5 5 5 5 5 5 5 3 5 5 5 5 5 5 5 5 5 5 5 5 5 5 5 5 5 5 5 5 5 5 5 5 5 5 5 3 3 5 5 5 5 5 5 5 5 5 5 5 5 3 5 3 5 5 5 5 5 5 3 5 5 3 5 5 5 5 5 5 3 5 3 5 5 5 5 5 5 5 5 5 5 5 5 5 5 5 3 5 5 3 5 5 5 3 5 3 5 5 5 5 5 5 5 5 5 5 5 5 5 5 5 5 5 5 5 5 5 5 3 3 5 5 5 3 5 5 5 5 5 5 5 5 5 5 5 5 5 5 5 5 5 5 5 5 5 5 5 5 5 5 5 3 5 3 5 5 5 5 5 5 5 5 5 5 5 5 5 5 5 5 5 5 5 5 5 5 5 5 5 5 5 3 5 5 5 5 5 5 5 5 5 5 5 5 5 5 5 5 5 5 5 5 5 5 5 5 5 5 5 5 5 5 5 5 5 5 5 5 5 5 5 5 5 5 5 5 5 5 5 5 5 5 5 5 5 5 3 5 3 5 5 3 5 5 5 5 3 5 5 5 5 5 3 5 5 5 3 3 5 5 5 5 3 3 5 5 3 3 5 5 3 5 5 3 3 5 5 5 3 5 5 5 5 3 5 5 5 5 3 5 3 5 5 3 5 5 5 3 3 5 3 5 5 5 3 3 5 5 5 5 5 3 5 5 5 5 5 5 3 5 5 5 5 5 5 3 5 5 5 5 3 5 5 3 5 3 5 5 5 5 5 5 5 5 5 5 5 5 3 5 5 3 5 3 5 3 5 5 5 5 5 3 5 3 5 5 5 3 5 5 5 3 5 5 3 5 3 5 5 3 5 5 5 5 5 5 5 5 5 5 5 5 3 5 5 5 5 5 5 3 5 3 5 5 5 5 5 3 5 5 5 5 5 5 5 5 3 5 5 5 5 5 3 5 3 5 5 3 3 5 3 5 5 5 5 5 5 5 5 5 5 5 5 5 5 3 5 5 5 5 5 5 3 5 3 5 5 5 5 3 3 5 5 5 5 5 3 5 5 5 5 3 3 5 5 5 5 3 5 5 5 5 5 5 3 5 5 5 5 5 5 5 3 5 5 5 5 5 5 5 5 5 5 3 5 3 5 3 5 5 3 5 5 3 5 3 5 5 5 5 5 5 5 3 5 5 5 5 3 5 5 5 3 5 3 5 3 3 3 3 5 5 3 3 5 5 5 3 5 3 5 5 5 5 5 3 5 5 5 5 5 5 5 5 5 3 5 5 5 5 5 5 5 5 5 5 5 5 5 5 5 5 5 5 3 5 5 5 5 3 5 5 3 5 5 5 5 5 5 5 5 3 5 5 3 5 5 5 5 5 5 5 5 5 5 5 5 5 5 3 5 5 5 5 3 5 5 3 5 3 5 5 5 5 5 5 5 5 5 5 5 5 5 5 5 5 5 5 5 5 5 5 5 3 5 5 5 5 5 5 5 5 3 5 3 5 5 3 5 5 5 5 5 5 5 5 5 5 5 5 5 3 5 5 3 5 5 5 5 5 5 3 5 5 5 5 3 5 5 5 5 5 3 5 5 5 3 5 5 5 5 5 5 5 5 5 5 5 5 5 5 3 5 5 5 5 5 5 5 5 5 3 5 5 5 5 5 5 5 5 5 3 5 5 5 5 5 5 5 5 3 5 5 5 5 5 5 5 5 5 5 5 5 5 5 5 5 5 5 5 5 5 5 5 5 5 5 5 5 5 5 5 5 5 5 5 5 5 5 5 5 5 5 3 5 5 5 3 5 5 5 5 5 5 5 5 5 3 3 5 5 3 5 3 5 5 5 5 5 3 5 5 3 3 5 5 3 5 3 5 5 5 3 5 5 5 5 5 5 5 5 5 5 5 3 5 5 5 5 5 5 5 5 5 3 5 5 5 5 5 5 3 5 5 5 5 5 5 5 5 5 3 5 5 5 5 5 5 5 3 5 5 5 5 5 5 5 5 5 5 3 5 3 5 5 5 5 5 5 5 5 5 5 5 5 5 5 5 5 5 5 5 5 5 5 3 5 5 5 5 5 5 5 5 3 5 5 3 5 5 3 5 5 5 5 3 3 5 5 3 5 3 3 5 5 3 5 5 3 5 5 3 5 3 5 5 3 5 5 5 5 5 5 3 5 5 5 3 5 5 5 5 5 3 5 5 5 5 5 5 5 5 5 3 5 5 3 5 5 5 5 3 5 5 5 5 3 5 5 3 5 5 5 5 3 3 5 5 5 5 5 5 5 5 3 5 5 3 5 5 5 5 5 5 5 5 5 5 5 5 3 5 5 5 5 5 5 5 5 3 5 5 5 3 5 5 5 5 3 5 3 5 5 5 5 5 3 3 5 5 5 3 5 5 5 3 5 3 5 5 5 3 5 5 3 5 5 5 3 5 5 3 5 5 5 5 5 3 5 5 3 5 5 5 5 5 5 5 5 5 5 5 5 5 5 5 5 5 5 5 5 5 5 3 5 5 5 5 5 5 5 3 3 5 5 5 5 5 5 5 5 5 5 3 5 5 3 5 5 5 3 5 5 3 5 5 3 3 5 3 5 3 3 5 3 5 3 5 5 3 5 5 5 3 3 5 3 5 5 5 5 5 3 3 5 3 5 5 5 5 5 3 5 5 5 5 5 5 3 5 5 5 5 5 5 5 5 5 5 5 5 5 3 5 5 5 5 5 5 5 5 5 5 5 5 5 5 3 3 3 5 5 3 5 3 3 3 5 5 5 5 5 5 5 3 5 5 5 5 5 3 5 5 5 5 5 5 5 5 5 5 5 5 5 3 5 3 5 3 5 3 5 5 5 5 5 5 5 5 5 5 5 5 5 5 5 5 5 5 5 5 3 5 5 3 3 5 5 5 5 5 5 5 5 5 5 5 5 5 3 5 5 5 5 5 5 5 5 5 5 5 3 3 5 5 5 5 3 5 5 5 5 5 3 5 5 5 3 5 5 5 5 5 5 3 3 5 3 5 5 3 5 5 5 5 5 3 5 3 5 5 5 5 5 5 5 3 5 5 5 5 5 5 5 5 5 5 5 5 5 5 5 5 5 3 5 5 5 5 5 5 5 5 3 5 3 5 5 5 5 5 5 5 5 5 5 5 5 5 5 5 5 5 5 5 3 5 5 5 5 5 5 3 5 3 5 3 5 5 5 5 3 5 5 5 5 5 5 5 5 5 5 5 5 5 5 5 5 5 5 5 5 5 5 5 5 5 5 5 5 5 3 5 5 3 5 5 5 5 5 5 5 5 5 5 5 5 5 5 5 5 5 5 5 5 5 5 5 5 5 5 5 5 5 5 5 3 5 5 3 3 5 5 5 5 5 5 3 5 5 5 3 5 5 5 5 5 5 5 5 5 5 5 5 3 5 3 5 3 5 5 5 5 5 5 5 3 5 3 5 5 5 5 5 5 5 5 5 3 3 5 5 3 3 5 5 5 5 5 5 3 5 3 5 5 5 5 5 5 3 5 5 5 5 5 5 5 3 5 5 5 3 5 5 5 5 5 5 3 5 3 5 5 3 5 5 3 5 5 3 5 5 3 5 5 5 5 5 5 5 5 5 5 5 5 5 5 5 5 5 5 5 5 5 5 3 5 5 5 5 5 3 5 5 3 5 3 3 3 5 5 3 5 3 5 3 5 3 5 5 3 5 3 5 5 5 5 5 5 5 5 5 5 5 5 5 5 5 5 5 5 5 5 5 5 5 5 5 5 5 5 5 5 5 5 3 5 5 5 5 5 5 5 5 3 5 5 5 3 5 5 5 5 3 5 5 5 5 3 5 5 5 5 5 3 5 5 5 3 5 5 5 5 5 3 5 5 5 5 5 5 5 5 5 3 5 5 5 5 5 5 5 5 5 5 3 5 5 5 3 5 5 5 5 5 5 5 5 5 5 5 5 5 5 5 5 5 5 5 5 5 5 5 5 3 5 5 3 5 5 5 3 5 5 5 5 5 5 5 5 5 5 3 5 5 5 5 3 5 5 5 3 5 5 3 5 3 5 5 5 5 3 5 3 5 5 5 5 5 5 5 5 5 5 5 5 5 5 5 5 5 5 3 5 5 5 5 5 5 5 5 5 5 5 3 5 5 5 5 5 5 5 3 5 5 5 5 5 5 5 3 5 5 5 5 3 5 5 5 5 5 5 5 5 5 5 5 5 5 5 3 5 5 5 5 5 5 5 5 5 5 5 5 5 5 5 5 5 5 5 5 3 5 5 3 5 5 5 5 5 5 5 5 5 5 5 5 5 5 5 5 5 5 5 5 5 3 3 5 5 5 5 5 5 5 5 5 5 5 3 5 5 5 3 5 5 5 5 3 5 5 5 5 5 5 5 5 3 5 5 5 5 5 3 5 5 5 5 5 3 5 5 5 5 5 5 3 5 5 5 5 5 3 3 3 5 5 3 5 5 3 3 5 5 5 3 3 5 3 5 5 5 5 5 3 5 5 5 3 5 5 3 5 5 5 3 3 5 5 3 3 5 5 5 5 5 3 5 3 3 5 5 5 5 5 3 5 3 5 5 5 3 3 5 3 5 3 5 5 5 5 5 3 5 3 5 5 5 5 5 5 5 5 5 5 5 5 5 5 3 5 5 3 5 5 5 3 5 5 5 5 5 5 5 5 3 5 5 3 5 5 5 5 5 5 5 5 3 5 5 5 5 5 5 5 5 5 5 5 5 5 5 5 5 3 5 5 3 5 5 5 5 5 5 5 5 5 5 5 3 5 5 5 3 3 3 5 5 3 5 5 3 5 5 5 5 5 5 5 5 5 5 3 5 5 5 5 5 5 5 5 5 5 5 5 5 5 5 5 5 5 5 5 5 5 3 5 5 5 5 5 3 5 3 3 5 5 5 5 3 5 5 5 5 5 5 5 5 5 5 3 3 5 3 5 5 5 3 5 5 5 3 5 5 5 5 5 5 5 5 5 5 5 5 5 5 3 5 5 5 5 5 5 5 3 5 5 5 5 5 5 5 5 5 5 5 3 5 5 5 5 5 5 5 5 5 5 5 3 3 5 5 5 5 5 5 5 5 5 5 5 5 5 5 3 5 5 5 3 5 5 3 5 5 5 5 5 5 5 5 5 5 5 5 5 5 5 5 5 5 5 5 5 5 5 5 5 5 5 5 5 5 5 5 5 5 5 5 5 5 5 5 5 5 3 3 5 5 5 5 5 5 3 5 3 5 5 5 5 5 5 5 5 5 5 5 5 3 5 5 3 5 5 3 5 5 3 5 5 5 5 5 5 5 5 5 5 5 5 5 5 3 5 5 5 5 3 5 5 5 5 5 5 5 5 5 3 5 5 3 5 5 5 5 5 5 5 5 5 5 5 5 3 5 5 5 5 5 5 5 3 5 3 5 5 3 5 5 5 5 5 5 5 5 5 5 5 5 5 5 5 3 3 3 5 3 5 5 5 5 5 5 3 5 3 5 5 5 5 5 5 5 5 3 5 5 5 3 5 5 3 5 5 5 5 5 5 5 5 3 5 5 5 5 5 5 3 5 5 5 5 5 5 5 3 5 3 5 5 3 5 5 5 5 5 5 5 5 5 5 5 5 5 5 5 5 5 3 5 5 5 5 3 5 5 5 5 5 5 5 5 3 5 5 5 5 5 5 5 5 5 5 5 5 5 5 5 5 5 5 5 5 5 5 5 5 3 5 5 5 3 3 5 5 5 5 5 5 5 5 5 3 5 5 5 5 3 3 5 3 5 5 3 5 5 5 3 3 5 5 5 5 5 5 5 3 5 5 3 5 5 3 5 5 5 5 5 5 3 5 3 5 5 5 5 3 5 3 5 5 5 5 3 5 5 5 5 5 5 5 5 5 5 5 5 5 3 5 5 3 5 5 5 5 5 5 5 5 5 5 5 5 5 5 5 5 5 5 5 5 5 5 5 5 5 5 5 5 5 5 5 5 5 3 5 5 5 5 5 5 5 5 5 5 5 5 5 5 5 5 3 5 5 5 5 5 5 5 5 3 5 5 3 5 5 5 5 5 5 5 3 5 5 3 5 5 5 5 5 5 5 5 5 5 5 5 5 5 5 5 5 5 5 5 5 5 5 5 5 5 5 5 5 5 5 5 5 5 5 5 5 5 5 3 5 3 5 5 5 5 5 5 5 5 5 5 5 3 5 5 5 5 5 5 5 5 5 5 5 5 5 5 5 5 5 5 5 5 5 3 5 5 5 3 5 3 5 3 5 5 3 5 5 5 5 3 5 5 3 5 3 3 5 5 5 3 5 5 3 5 5 3 5 5 3 5 3 5 5 5 5 5 3 3 5 3 5 5 3 5 5 5 5 5 5 5 5 5 5 3 3 5 5 5 5 3 3 5 5 5 5 5 5 5 5 3 5 5 3 3 5 5 3 3 3 5 3 3 3 5 5 5 5 3 5 5 5 5 5 5 5 5 3 5 3 5 5 5 5 5 5 5 3 5 5 5 3 5 5 5 5 5 3 5 5 5 5 5 5 5 5 5 5 5 5 5 5 5 5 3 5 3 5 3 5 5 5 5 3 3 3 5 5 3 5 5 5 3 3 5 5 3 3 5 3 3 5 5 5 5 5 5 5 3 5 5 5 5 5 5 5 5 5 5 5 3 5 5 5 5 3 3 5 3 5 5 3 5 5 5 5 5 3 5 5 5 5 5 5 5 5 5 5 5 5 5 5 5 3 5 5 3 5 5 5 5 5 5 5 5 3 5 5 5 5 5 5 5 5 3 5 5 5 5 5 3 5 5 5 5 5 5 5 5 3 5 5 5 5 5 3 3 5 3 5 5 5 5 3 5 3 5 3 5 5 5 3 5 5 5 5 5 3 5 5 5 5 3 5 3 5 5 3 5 5 5 5 5 5 5 5 5 5 5 5 5 5 5 5 5 5 3 5 5 5 5 5 5 5 5 3 5 5 3 5 5 5 3 5 5 3 3 5 5 3 3 3 5 3 5 5 5 5 5 3 5 5 5 5 5 5 3 5 5 5 5 5 5 5 5 5 5 5 5 5 5 5 5 5 5 5 5 5 5 5 5 5 5 5 5 3 5 5 5 5 5 5 5 3 5 5 5 5 5 5 3 5 5 3 5 3 5 3 5 3 5 5 5 5 5 5 3 5 5 3 5 5 5 5 5 5 5 5 5 5 5 5 5 5 5 3 5 5 3 5 5 5 5 5 3 5 5 5 5 5 5 3 3 5 5 5 5 5 5 5 5 5 5 5 5 5 5 5 3 5 5 5 5 5 5 5 5 5 5 3 3 5 5 5 5 5 5 5 5 5 3 5 5 5 5 5 5 5 3 5 3 5 5 5 5 3 5 5 5 5 5 3 5 5 5 3 5 5 5 5 5 5 3 5 5 5 5 5 5 5 5 5 5 5 5 3 5 5 5 5 5 5 5 5 5 5 5 5 3 5 5 5 5 3 3 3 3 5 3 5 5 5 5 5 3 5 3 3 5 3 5 5 5 5 5 5 5 5 5 3 3 5 3 5 3 5 3 5 3 3 5 5 5 3 5 5 5 5 5 5 5 3 5 5 3 5 5 3 5 3 5 5 3 5 5 5 5 3 5 5 5 5 5 5 5 5 5 5 5 5 5 5 5 5 5 5 5 5 5 5 5 5 5 5 5 5 5 5 5 5 3 5 3 5 5 3 5 3 5 5 5 5 5 3 5 5 5 5 5 5 5 5 5 5 5 5 3 3 5 5 5 3 5 5 5 5 5 5 5 3 5 5 5 5 5 5 3 5 3 5 5 3 5 5 5 5 3 5 5 3 5 5 5 5 5 5 3 5 3 5 5 5 5 5 5 5 5 5 5 3 5 3 5 5 5 5 5 5 5 5 5 5 5 5 5 3 5 5 5 5 5 5 5 5 5 5 5 5 5 3 3 5 5 3 5 5 5 3 5 5 5 5 5 3 3 5 5 3 5 5 5 3 5 5 5 5 5 5 5 5 5 5 5 5 5 5 5 5 5 5 5 5 3 5 5 5 5 5 5 5 5 5 5 5 5 5 5 5 5 5 5 5 5 5 5 5 5 5 5 5 5 5 5 5 5 5 5 5 5 5 5 5 5 5 5 5 5 5 5 5 5 5 5 5 5 5 5 5 5 5 5 5 5 5 5 5 5 5 5 5 5 5 5 5 5 5 5 5 5 3 5 5 5 3 5 5 5 5 5 5 5 5 5 3 5 5 5 3 5 5 5 5 5 5 5 5 5 5 5 5 5 5 3 5 5 5 5 5 5 3 5 3 5 5 5 5 5 5 5 5 5 5 5 5 5 5 5 5 5 5 5 5 5 5 5 5 5 5 5 5 5 5 5 5 5 5 5 5 5 5 5 5 5 5 5 5 5 5 3 5 3 5 5 3 3 5 5 5 3 5 5 5 5 5 5 5 5 5 5 5 5 5 5 5 5 5 5 5 5 5 5 5 5 5 3 5 5 5 5 5 5 5 5 5 5 5 5 5 5 5 5 5 5 5 5 5 5 5 5 5 5 5 5 5 5 5 5 5 5 5 5 5 5 5 5 5 3 5 5 5 5 5 5 5 3 5 5 5 5 5 5 5 5 5 5 5 5 5 5 5 5 5 5 5 5 5 3 5 5 5 5 5 3 5 5 5 3 5 5 5 5 5 5 5 5 5 5 5 5 5 5 5 5 5 5 5 5 5 5 5 5 5 5 5 5 5 5 5 3 5 5 3 5 5 3 5 5 5 5 5 5 5 5 5 5 3 5 5 5 3 3 5 5 5 5 5 5 3 5 3 5 5 3 5 5 5 5 5 3 3 5 5 5 5 3 5 3 3 5 3 5 5 5 5 5 5 3 5 3 5 5 3 5 5 5 3 5 5 5 5 5 5 5 5 5 5 5 5 5 5 5 5 5 5 5 5 3 5 5 5 5 5 5 5 5 5 5 3 5 5 5 5 5 3 5 5 5 5 5 5 5 5 3 5 5 5 5 3 3 5 5 3 5 5 5 5 3 5 5 5 3 3 5 3 5 5 3 5 3 5 3 5 5 5 5 5 5 5 3 5 5 3 5 5 5 5 5 3 5 5 5 3 5 5 3 5 5 5 3 5 5 5 5 5 5 5 5 3 5 5 5 3 5 5 5 5 5 5 5 3 5 5 5 3 5 5 5 5 5 5 5 5 3 5 5 5 5 5 5 5 5 5 5 5 5 5 5 5 5 5 5 5 5 5 5 5 3 5 5 5 5 5 5 5 5 5 5 5 5 5 5 5 5 5 5 5 5 5 3 5 5 5 5 5 5 3 5 5 5 5 5 5 5 5 5 5 5 5 5 5 5 5 5 5 5 5 5 5 5 5 5 3 5 5 5 5 5 5 5 5 5 5 5 5 5 5 5 5 5 5 5 5 5 5 3 5 5 5 5 5 5 3 5 5 5 5 5 5 5 5 5 5 5 5 5 5 5 5 5 3 5 5 5 5 3 5 5 5 5 5 5 3 5 5 5 5 5 5 3 5 5 5 5 5 5 5 5 5 5 5 5 5 5 5 3 5 5 5 5 5 5 5 3 3 3 5 5 5 5 5 5 5 5 5 5 5 5 5 5 5 5 5 5 3 3 5 5 5 5 5 3 5 5 3 5 5 5 3 5 5 5 5 5 5 5 5 5 3 5 5 5 5 5 5 5 5 5 5 5 3 3 5 5 3 5 5 5 5 5 3 5 5 5 3 5 3 5 5 3 5 5 5 5 3 5 5 3 5 5 5 5 5 3 5 5 5 5 5 5 5 5 5 5 5 5 5 5 5 3 5 5 5 5 3 5 5 5 5 5 5 5 3 5 5 5 5 5 5 3 3 5 5 5 5 5 5 5 5 5 5 5 5 5 5 5 5 3 5 5 5 5 3 5 5 5 5 5 5 3 5 5 5 5 5 5 5 5 5 5 5 5 5 5 5 5 5 5 5 5 5 5 3 5 5 5 3 5 3 5 5 5 3 5 5 5 5 5 5 5 5 5 5 5 5 5 5 5 5 5 5 5 5 5 5 5 5 5 5 5 5 5 5 5 5 5 5 5 5 5 5 5 5 5 5 5 5 5 5 5 5 5 5 3 3 5 5 5 5 5 5 5 5 5 5 5 5 5 5 5 5 5 5 5 5 5 5 3 5 3 5 5 5 5 5 5 3 5 5 5 5 5 5 5 5 5 5 3 5 5 5 5 5 5 5 5 3 5 5 5 5 3 5 5 3 5 5 5 5 5 3 5 3 5 5 5 5 5 5 5 5 5 5 5 5 5 5 5 5 5 5 5 5 5 5 5 5 5 3 5 5 5 5 5 5 5 3 5 5 5 5 5 5 5 3 5 5 5 5 5 5 5 5 5 5 5 3 5 5 3 5 3 5 5 5 5 5 5 5 3 5 3 5 3 5 5 5 3 5 3 5 5 5 5 5 5 5 3 5 5 5 5 5 3 5 5 3 5 5 5 5 5 5 3 5 5 5 5 5 5 5 5 5 5 5 5 5 3 5 5 5 5 3 5 5 5 3 5 3 5 3 5 5 3 5 5 5 3 3 5 5 5 5 5 5 5 5 5 5 5 5 3 3 5 3 5 5 5 5 5 5 5 5 5 5 3 5 5 5 3 5 5 5 3 5 3 5 5 5 5 5 5 5 5 3 5 5 5 5 5 5 5 5 5 5 5 3 5 5 5 5 5 5 5 5 5 5 5 5 5 5 5 5 5 5 5 5 5 5 3 5 5 5 5 5 5 5 5 5 5 5 5 5 3 5 5 5 5 5 3 5 5 5 3 5 3 5 5 5 5 5 5 5 5 5 5 5 5 5 5 5 5 3 5 5 5 5 5 5 3 5 5 5 5 5 3 5 5 3 5 5 5 3 5 5 5 5 5 3 5 5 5 3 5 5 5 3 3 5 5 5 5 3 5 5 3 5 5 3 5 5 5 3 3 5 5 5 5 5 5 3 5 3 5 3 5 5 3 5 3 5 3 5 5 3 5 5 5 5 5 5 5 5 5 5 5 5 5 5 5 5 5 5 5 5 5 5 5 5 5 5 5 5 5 5 3 5 5 5 5 5 5 5 5 5 3 5 5 5 5 5 3 5 5 5 5 5 5 5 5 5 5 5 5 5 5 5 5 3 5 5 5 5 5 5 5 3 5 5 3 5 5 5 5 5 3 5 5 5 5 5 5 5 5 5 5 5 3 5 5 5 5 5 5 5 5 5 5 5 5 5 5 5 5 5 5 5 5 5 5 5 5 5 5 5 5 5 5 5 5 5 5 5 5 5 5 5 5 5 5 5 5 5 5 5 5 5 5 5 5 5 5 5 5 5 5 5 5 5 5 5 5 5 5 5 5 3 5 5 5 5 3 5 5 5 3 5 3 5 5 3 5 5 5 5 3 3 5 5 3 3 5 3 5 5 5 3 3 5 5 5 3 5 5 5 5 5 5 5 5 5 3 3 5 5 5 5 5 5 5 3 5 5 5 5 5 5 5 5 3 5 5 5 5 5 3 5 5 5 5 5 3 5 5 5 5 5 3 5 5 5 5 5 5 5 5 5 5 5 5 5 5 5 5 5 5 5 5 5 5 5 5 5 5 3 5 5 5 5 5 5 5 5 5 5 5 3 5 5 5 5 5 5 5 5 5 5 5 5 5 5 5 5 5 5 5 5 5 5 5 5 5 5 5 5 5 5 5 5 5 5 5 5 5 5 5 5 5 5 3 3 5 5 3 5 3 5 5 5 5 5 5 5 5 5 5 5 5 5 5 5 5 5 3 5 5 5 3 5 5 5 5 3 5 5 5 5 5 3 5 3 3 5 5 5 5 5 5 5 5 3 5 5 5 5 3 5 5 3 5 5 5 5 5 5 5 5 5 3 5 5 3 5 5 5 5 5 5 5 5 5 5 5 5 5 5 5 3 5 5 3 5 5 5 5 3 5 3 5 3 3 5 5 5 5 5 3 5 5 5 5 5 5 3 5 5 5 3 5 5 5 5 5 5 5 5 5 5 5 5 5 5 5 5 5 5 5 5 5 5 5 5 5 3 5 5 5 5 5 5 5 5 5 5 5 3 5 5 5 3 5 5 5 5 3 5 5 5 5 5 5 5 5 5 5 5 5 5 3 5 5 3 5 5 5 5 5 5 5 5 5 5 5 3 5 5 5 5 5 5 5 5 5 5 5 5 5 3 5 5 5 5 5 5 5 5 5 5 5 5 5 5 5 5 5 3 5 5 5 3 5 5 5 5 5 5 5 5 5 3 5 5 5 5 5 5 5 5 5 5 5 5 5 5 5 5 5 5 5 5 5 3 5 3 5 5 5 5 5 5 5 5 5 5 3 5 5 5 5 5 5 3 5 5 5 5 5 5 5 5 3 5 5 3 5 5 5 5 5 3 5 5 5 3 5 5 5 3 5 5 5 5 5 5 5 5 5 5 5 5 5 5 5 5 5 5 5 5 5 5 5 5 5 5 5 5 5 5 5 5 5 3 5 5 5 5 5 5 5 3 5 3 5 5 5 5 5 5 3 5 3 5 5 3 5 5 5 5 5 5 5 5 5 5 3 3 5 5 5 5 5 5 5 3 5 5 5 5 5 5 5 5 5 5 3 5 5 5 5 5 5 5 5 5 5 5 5 5 5 5 5 5 3 5 3 5 5 5 5 5 5 5 5 5 3 5 5 5 3 5 3 5 5 5 5 5 5 5 5 5 5 5 3 3 5 5 5 5 5 5 5 5 5 5 5 3 5 5 5 5 5 5 5 5 5 5 5 5 5 5 5 5 5 5 3 5 5 5 5 3 5 3 5 3 5 5 5 3 5 5 5 5 5 5 5 5 3 5 5 5 5 5 5 5 5 5 3 5 5 5 5 5 5 3 5 3 5 3 5 5 5 5 5 5 5 3 5 5 5 5 5 3 5 5 5 5 5 5 5 5 5 5 3 5 5 3 5 5 5 5 3 5 5 5 5 5 5 5 5 5 5 5 5 5 5 5 5 5 5 5 5 5 5 3 5 5 3 3 5 5 5 5 5 5 5 5 3 5 5 5 5 3 5 5 5 5 3 5 5 5 5 5 5 3 5 5 3 5 3 5 5 3 5 3 5 5 5 3 5 3 5 5 3 5 5 3 5 5 5 5 5 3 3 5 5 5 5 3 5 5 3 5 5 3 5 5 5 5 5 3 5 5 3 5 5 5 5 5 3 5 5 5 5 5 5 5 5 3 5 5 5 5 5 5 5 5 5 5 3 5 5 5 3 5 5 5 3 5 5 5 5 5 3 5 5 5 5 5 5 5 5 5 5 5 5 3 5 5 5 5 5 5 5 5 5 5 5 5 5 5 5 5 5 5 5 5 5 5 5 5 5 5 5 5 5 5 3 3 5 5 5 5 5 5 5 3 5 5 3 5 5 5 5 5 5 5 5 5 5 5 5 5 5 5 5 3 5 5 5 5 5 5 5 5 5 5 5 5 5 5 5 5 5 3 3 5 5 5 5 5 5 5 5 5 5 5 5 5 5 5 5 5 5 5 3 5 5 5 5 5 3 5 5 5 5 5 5 5 5 5 3 5 5 5 5 5 5 5 5 3 5 5 3 5 5 5 5 3 3 5 5 3 5 5 5 5 5 3 3 5 5 5 5 5 5 5 5 5 3 5 5 5 5 5 5 5 5 5 5 5 5 5 5 3 5 5 5 5 5 5 5 5 5 5 5 5 5 5 5 5 5 5 5 5 5 5 5 5 3 5 3 5 5 5 5 5 5 5 5 5 5 5 5 5 3 5 3 5 5 5 5 5 3 5 5 5 5 3 5 5 5 5 5 5 5 5 3 5 5 3 5 3 5 5 5 5 5 5 5 5 5 5 5 3 5 5 5 3 5 5 5 5 5 3 5 5 3 5 5 5 5 5 5 5 5 5 5 5 5 5 3 5 5 5 5 3 5 5 5 3 5 5 5 5 5 5 5 5 5 3 5 5 5 3 3 5 5 5 5 3 3 5 3 5 3 5 5 5 5 3 5 5 5 5 5 5 5 5 3 5 5 5 5 5 5 5 5 3 5 5 3 3 5 5 3 5 3 5 5 5 5 3 5 5 5 5 5 5 5 5 5 5 5 5 5 5 5 5 5 5 5 5 5 5 5 5 3 5 5 5 5 5 5 5 5 5 5 3 5 5 5 5 3 5 5 5 5 5 5 5 5 5 3 5 5 3 5 5 5 5 5 5 5 5 5 3 5 3 5 5 3 3 3 5 5 3 5 3 5 5 5 3 5 5 3 5 5 5 5 3 5 5 5 5 3 5 5 5 5 5 5 3 5 5 5 5 5 3 5 3 5 3 5 5 5 5 5 5 5 5 5 5 5 5 5 5 5 5 3 5 5 5 5 5 3 5 5 5 5 5 5 5 3 5 3 5 5 3 3 5 5 5 5 5 3 5 5 5 5 5 5 5 5 5 5 3 5 3 3 5 5 5 5 5 5 5 5 3 5 5 5 5 5 5 5 3 5 5 5 5 5 5 3 3 5 5 3 5 5 5 5 3 5 3 3 3 5 3 5 5 5 3 5 5 3 5 5 5 5 5 5 5 5 5 5 5 5 5 5 5 5 3 5 5 5 5 5 5 5 5 3 5 5 5 5 3 5 5 5 5 5 5 5 5 5 3 5 3 5 5 5 5 5 5 5 3 5 3 5 5 5 5 5 5 5 5 5 5 5 5 5 5 5 5 3 5 5 5 5 3 5 5 5 5 5 5 3 5 5 5 5 5 5 5 5 5 5 5 5 5 5 5 5 5 5 5 5 5 5 5 5 5 5 3 5 5 5 5 5 5 5 5 5 3 5 5 3 5 3 5 5 5 5 5 5 3 5 5 5 5 5 5 5 5 5 3 5 5 5 5 5 3 5 5 5 5 5 5 5 5 5 5 3 5 5 3 5 3 5 5 5 5 5 5 5 5 5 5 5 5 5 5 5 5 5 5 5 5 5 5 5 5 5 3 5 3 5 5 5 5 5 3 5 5 5 5 3 5 5 3 5 5 5 3 5 5 3 3 5 3 5 5 5 5 5 5 3 5 5 5 5 5 5 5 5 5 5 5 5 5 5 5 5 3 5 5 5 5 5 5 5 5 5 5 5 5 5 5 5 3 5 5 5 5 3 5 5 5 5 3 5 3 5 5 5 5 5 5 3 5 5 3 5 5 5 5 5 5 5 5 3 5 5 3 5 5 5 5 5 5 5 3 5 5 5 5 5 3 5 5 5 3 5 5 5 5 5 5 5 5 5 5 3 5 5 5 5 5 3 5 5 5 5 5 3 5 5 5 3 3 5 5 5 5 5 5 3 5 5 5 5 5 5 5 5 5 5 5 5 5 5 5 5 5 5 5 5 5 5 5 5 5 5 5 5 5 5 3 3 3 5 5 5 5 3 5 5 5 3 5 3 5 5 5 3 5 3 3 5 5 5 3 5 3 5 5 3 3 5 5 5 5 5 5 5 5 5 5 3 3 5 5 5 5 5 5 3 5 5 5 3 5 5 5 5 5 3 5 5 5 
</DataArray>
</Cells>
<PointData Scalars="" Vectors="displacement," Tensors="">
<DataArray type="Float64" Name="displacement" NumberOfComponents="3" format="ascii">
-0.044996396546801633 -7.1564725301335884e-07 0 -0.041440050007660802 -1.0522219830865368e-06 0 -0.043963862797171203 -0.00032270766318901731 0 -0.044996396546801633 -7.1564725301335884e-07 0 -0.044548191587776807 -0.0002239680341453887 0 -0.044998629243783402 -4.9701272230966905e-07 0 -0.041440050007660802 -1.0522219830865368e-06 0 -0.042931073184895051 -8.4549860720279168e-05 0 -0.041722529566486859 0.00015112158790380668 0 -0.041440050007660802 -1.0522219830865368e-06 0 -0.042931073184895051 -8.4549860720279168e-05 0 -0.043963862797171203 -0.00032270766318901731 0 -0.042931073184895051 -8.4549860720279168e-05 0 -0.042899867230707024 0.00032166305710328952 0 -0.043911738667949611 -0.00037781337169805456 0 -0.042931073184895051 -8.4549860720279168e-05 0 -0.043963862797171203 -0.00032270766318901731 0 -0.043911738667949611 -0.00037781337169805456 0 -0.042899867230707024 0.00032166305710328952 0 -0.043438359240465109 0.00091055458788329776 0 -0.041944234951402086 0.0010697664999878016 0 -0.042931073184895051 -8.4549860720279168e-05 0 -0.042899867230707024 0.00032166305710328952 0 -0.041722529566486859 0.00015112158790380668 0 -0.042899867230707024 0.00032166305710328952 0 -0.041722529566486859 0.00015112158790380668 0 -0.041944234951402086 0.0010697664999878016 0 -0.041440050007660802 -1.0522219830865368e-06 0 -0.041722529566486859 0.00015112158790380668 0 -0.038776501601458312 3.394535026648325e-06 0 -0.040914214297862371 -0.0018269808484860733 0 -0.040108576017801018 -0.00049084405051831289 0 -0.043665677931243582 -0.00077914215494176669 0 -0.043893795106689171 -0.00079575913459217112 0 -0.043751404393779954 -0.00060794476564726262 0 -0.040108576017801018 -0.00049084405051831289 0 -0.044712716630177313 -0.00011452110371889329 0 -0.042899867230707024 0.00032166305710328952 0 -0.043438359240465109 0.00091055458788329776 0 -0.043911738667949611 -0.00037781337169805456 0 -0.043893795106689171 -0.00079575913459217112 0 -0.043911738667949611 -0.00037781337169805456 0 -0.043751404393779954 -0.00060794476564726262 0 -0.043963862797171203 -0.00032270766318901731 0 -0.043911738667949611 -0.00037781337169805456 0 -0.043703924917490006 -0.00048742515275169469 0 -0.043911738667949611 -0.00037781337169805456 0 -0.043751404393779954 -0.00060794476564726262 0 -0.043703924917490006 -0.00048742515275169469 0 -0.043994034184329504 -0.00033119481862229038 0 -0.044136317916002039 -0.00034957134812746665 0 -0.044996396546801633 -7.1564725301335884e-07 0 -0.043963862797171203 -0.00032270766318901731 0 -0.044548191587776807 -0.0002239680341453887 0 -0.044548191587776807 -0.0002239680341453887 0 -0.044884171721707222 -0.00011148603915917972 0 -0.044998629243783402 -4.9701272230966905e-07 0 -0.043703924917490006 -0.00048742515275169469 0 -0.043430362256439793 -0.00042347277213081722 0 -0.043601187672235482 -0.00067940732595396297 0 -0.044136317916002039 -0.00034957134812746665 0 -0.044158756625417794 -0.00027573992267404123 0 -0.044884171721707222 -0.00011148603915917972 0 -0.044482851494723141 -0.00033155230305134789 0 -0.044998629243783402 -4.9701272230966905e-07 0 -0.044158756625417794 -0.00027573992267404123 0 -0.044429181508139001 -0.00031879460420213538 0 -0.043430362256439793 -0.00042347277213081722 0 -0.044482851494723141 -0.00033155230305134789 0 -0.042886086753337653 -0.00060747553997975785 0 -0.044482851494723141 -0.00033155230305134789 0 -0.042886086753337653 -0.00060747553997975785 0 -0.044476964658154275 -0.00014889128698917774 0 -0.042886086753337653 -0.00060747553997975785 0 -0.041659982920583462 -0.0015514121251191952 0 -0.041213841438385294 -0.0015249403582914948 0 -0.042966162006921015 -0.00066113513849416989 0 -0.042914785673989646 -0.00082679924315420415 0 -0.042886086753337653 -0.00060747553997975785 0 -0.04221644957012767 -0.0015258423144412 0 -0.041659982920583462 -0.0015514121251191952 0 -0.042886086753337653 -0.00060747553997975785 0 -0.043276309011906079 -0.00068489781077352618 0 -0.04221644957012767 -0.0015258423144412 0 -0.043430362256439793 -0.00042347277213081722 0 -0.042886086753337653 -0.00060747553997975785 0 -0.043276309011906079 -0.00068489781077352618 0 -0.043276309011906079 -0.00068489781077352618 0 -0.04221644957012767 -0.0015258423144412 0 -0.043496961686797904 -0.0010075494052620222 0 -0.042036111651558287 -0.0015904760791396117 0 -0.041463105247616962 -0.0017533027070018991 0 -0.040708184882136997 -0.0018336055403731107 0 -0.04221644957012767 -0.0015258423144412 0 -0.039581500485717555 -0.0026622080641885396 0 -0.040708184882136997 -0.0018336055403731107 0 -0.04221644957012767 -0.0015258423144412 0 -0.041361862515221635 -0.0017398191573222972 0 -0.041361862515221635 -0.0017398191573222972 0 -0.041659982920583462 -0.0015514121251191952 0 -0.04132720922153349 -0.0016601225808898494 0 -0.04221644957012767 -0.0015258423144412 0 -0.041361862515221635 -0.0017398191573222972 0 -0.041659982920583462 -0.0015514121251191952 0 -0.043751404393779954 -0.00060794476564726262 0 -0.043703924917490006 -0.00048742515275169469 0 -0.043601187672235482 -0.00067940732595396297 0 -0.043430362256439793 -0.00042347277213081722 0 -0.043276309011906079 -0.00068489781077352618 0 -0.043601187672235482 -0.00067940732595396297 0 -0.043276309011906079 -0.00068489781077352618 0 -0.043601187672235482 -0.00067940732595396297 0 -0.043496961686797904 -0.0010075494052620222 0 -0.040708184882136997 -0.0018336055403731107 0 -0.039581500485717555 -0.0026622080641885396 0 -0.039447225762467487 -0.0017892150698589147 0 -0.038018501909410161 -0.0026009847370793049 0 -0.039581500485717555 -0.0026622080641885396 0 -0.039447225762467487 -0.0017892150698589147 0 -0.043665677931243582 -0.00077914215494176669 0 -0.043751404393779954 -0.00060794476564726262 0 -0.043601187672235482 -0.00067940732595396297 0 -0.040914214297862371 -0.0018269808484860733 0 -0.041463105247616962 -0.0017533027070018991 0 -0.043665677931243582 -0.00077914215494176669 0 -0.043601187672235482 -0.00067940732595396297 0 -0.043496961686797904 -0.0010075494052620222 0 -0.038018501909410161 -0.0026009847370793049 0 -0.039447225762467487 -0.0017892150698589147 0 -0.03863800387876621 -0.0013021942597795338 0 -0.038018501909410161 -0.0026009847370793049 0 -0.03863800387876621 -0.0013021942597795338 0 -0.037489612407587011 -0.0017820272636070696 0 -0.039447225762467487 -0.0017892150698589147 0 -0.03863800387876621 -0.0013021942597795338 0 -0.039564396195380838 -0.0013132460317610605 0 -0.03863800387876621 -0.0013021942597795338 0 -0.039564396195380838 -0.0013132460317610605 0 -0.038979062008519319 -0.0010844540642380837 0 -0.041361862515221635 -0.0017398191573222972 0 -0.040947397616330115 -0.0015759489346700668 0 -0.04132720922153349 -0.0016601225808898494 0 -0.041361862515221635 -0.0017398191573222972 0 -0.040947397616330115 -0.0015759489346700668 0 -0.040356410505059372 -0.0016077187524209976 0 -0.040947397616330115 -0.0015759489346700668 0 -0.040356410505059372 -0.0016077187524209976 0 -0.040353042838116672 -0.0013043532189142833 0 -0.039447225762467487 -0.0017892150698589147 0 -0.040356410505059372 -0.0016077187524209976 0 -0.039564396195380838 -0.0013132460317610605 0 -0.040708184882136997 -0.0018336055403731107 0 -0.039447225762467487 -0.0017892150698589147 0 -0.040356410505059372 -0.0016077187524209976 0 -0.040708184882136997 -0.0018336055403731107 0 -0.041361862515221635 -0.0017398191573222972 0 -0.040356410505059372 -0.0016077187524209976 0 -0.039564396195380838 -0.0013132460317610605 0 -0.040353042838116672 -0.0013043532189142833 0 -0.039781427794155361 -0.00092270023034593637 0 -0.040356410505059372 -0.0016077187524209976 0 -0.039564396195380838 -0.0013132460317610605 0 -0.040353042838116672 -0.0013043532189142833 0 -0.040947397616330115 -0.0015759489346700668 0 -0.040353042838116672 -0.0013043532189142833 0 -0.040974521771828705 -0.0013193922544036461 0 -0.040353042838116672 -0.0013043532189142833 0 -0.040529205691892799 -0.00099277593347393768 0 -0.040974521771828705 -0.0013193922544036461 0 -0.039781427794155361 -0.00092270023034593637 0 -0.040529205691892799 -0.00099277593347393768 0 -0.040576733483633026 -0.00050731124610663755 0 -0.039781427794155361 -0.00092270023034593637 0 -0.039955793482494922 -0.00032114014004846027 0 -0.040576733483633026 -0.00050731124610663755 0 -0.040353042838116672 -0.0013043532189142833 0 -0.039781427794155361 -0.00092270023034593637 0 -0.040529205691892799 -0.00099277593347393768 0 -0.039564396195380838 -0.0013132460317610605 0 -0.039781427794155361 -0.00092270023034593637 0 -0.038979062008519319 -0.0010844540642380837 0 -0.039781427794155361 -0.00092270023034593637 0 -0.038979062008519319 -0.0010844540642380837 0 -0.039121617707827835 -0.00011312493848994057 0 -0.038979062008519319 -0.0010844540642380837 0 -0.039121617707827835 -0.00011312493848994057 0 -0.037402386247771632 -0.00019634605213514526 0 -0.039121617707827835 -0.00011312493848994057 0 -0.037402386247771632 -0.00019634605213514526 0 -0.038337468543432139 0.00080202640877374723 0 -0.039781427794155361 -0.00092270023034593637 0 -0.039121617707827835 -0.00011312493848994057 0 -0.039955793482494922 -0.00032114014004846027 0 -0.039121617707827835 -0.00011312493848994057 0 -0.039955793482494922 -0.00032114014004846027 0 -0.040194837038587811 0.00040896788098984617 0 -0.039955793482494922 -0.00032114014004846027 0 -0.040561650324075375 -6.7799342808934401e-06 0 -0.040194837038587811 0.00040896788098984617 0 -0.039955793482494922 -0.00032114014004846027 0 -0.040576733483633026 -0.00050731124610663755 0 -0.040561650324075375 -6.7799342808934401e-06 0 -0.03863800387876621 -0.0013021942597795338 0 -0.038359463544428353 -0.00033901673290806874 0 -0.037416693209705289 -0.00089227584969645436 0 -0.0386539346985562 -0.0011312505932830979 0 -0.036650965724723844 -0.00082814969268703385 0 -0.03863800387876621 -0.0013021942597795338 0 -0.038979062008519319 -0.0010844540642380837 0 -0.038359463544428353 -0.00033901673290806874 0 -0.037402386247771632 -0.00019634605213514526 0 -0.03502523154388619 -0.0015089778026463425 0 -0.034783993285985255 0.0002342140942541908 0 -0.038979062008519319 -0.0010844540642380837 0 -0.037402386247771632 -0.00019634605213514526 0 -0.03502523154388619 -0.0015089778026463425 0 -0.03502523154388619 -0.0015089778026463425 0 -0.031439685675049844 -0.00049964582633535383 0 -0.034783993285985255 0.0002342140942541908 0 -0.036650965724723844 -0.00082814969268703385 0 -0.034243544798437997 -5.1127863882961728e-05 0 -0.036957595069305009 0.00036444880836498342 0 -0.037416693209705289 -0.00089227584969645436 0 -0.036236776015413925 -0.00033274167866062976 0 -0.038359463544428353 -0.00033901673290806874 0 -0.036957595069305009 0.00036444880836498342 0 -0.037416693209705289 -0.00089227584969645436 0 -0.037416693209705289 -0.00089227584969645436 0 -0.036236776015413925 -0.00033274167866062976 0 -0.03673456997195948 -0.0014085072288407285 0 -0.036236776015413925 -0.00033274167866062976 0 -0.035801939078445637 -0.00040405785264077324 0 -0.035805406666104336 -0.00034061981783903246 0 -0.036337288978031589 -0.00026475066803905567 0 -0.035869800757490529 -0.00093059350418109809 0 -0.036957595069305009 0.00036444880836498342 0 -0.036236776015413925 -0.00033274167866062976 0 -0.035345372828839684 0.00067273752321262553 0 -0.036236776015413925 -0.00033274167866062976 0 -0.034883181328951365 -0.00025085824611288887 0 -0.035345372828839684 0.00067273752321262553 0 -0.036236776015413925 -0.00033274167866062976 0 -0.034883181328951365 -0.00025085824611288887 0 -0.035801939078445637 -0.00040405785264077324 0 -0.034883181328951365 -0.00025085824611288887 0 -0.036101346427281182 -1.8896933633680954e-06 0 -0.033428255591139225 8.223886878016774e-07 0 -0.034883181328951365 -0.00025085824611288887 0 -0.036101346427281182 -1.8896933633680954e-06 0 -0.035801939078445637 -0.00040405785264077324 0 -0.036101346427281182 -1.8896933633680954e-06 0 -0.035801939078445637 -0.00040405785264077324 0 -0.036498970518856387 -0.00024226956464243029 0 -0.035801939078445637 -0.00040405785264077324 0 -0.036498970518856387 -0.00024226956464243029 0 -0.035805406666104336 -0.00034061981783903246 0 -0.036498970518856387 -0.00024226956464243029 0 -0.036701768125959502 0.00064073461062467702 0 -0.035805406666104336 -0.00034061981783903246 0 -0.036101346427281182 -1.8896933633680954e-06 0 -0.036498970518856387 -0.00024226956464243029 0 -0.038769281454503104 2.1097105356876562e-06 0 -0.036498970518856387 -0.00024226956464243029 0 -0.038769281454503104 2.1097105356876562e-06 0 -0.036701768125959502 0.00064073461062467702 0 -0.038774059042140992 3.9999977519167224e-07 0 -0.039251275652467686 0.000779147743263778 0 -0.041722529566486859 0.00015112158790380668 0 -0.038776501601458312 3.394535026648325e-06 0 -0.041944234951402086 0.0010697664999878016 0 -0.040108576017801018 -0.00049084405051831289 0 -0.039251275652467686 0.000779147743263778 0 -0.03680198341272356 -0.0024413293007643153 0 -0.037489612407587011 -0.0017820272636070696 0 -0.03673456997195948 -0.0014085072288407285 0 -0.035902459479945421 0.00077151388753721054 0 -0.036701768125959502 0.00064073461062467702 0 -0.035805406666104336 -0.00034061981783903246 0 -0.040108576017801018 -0.00049084405051831289 0 -0.035869800757490529 -0.00093059350418109809 0 -0.038018501909410161 -0.0026009847370793049 0 -0.03680198341272356 -0.0024413293007643153 0 -0.037489612407587011 -0.0017820272636070696 0 -0.03863800387876621 -0.0013021942597795338 0 -0.037416693209705289 -0.00089227584969645436 0 -0.037489612407587011 -0.0017820272636070696 0 -0.037416693209705289 -0.00089227584969645436 0 -0.037489612407587011 -0.0017820272636070696 0 -0.03673456997195948 -0.0014085072288407285 0 -0.044969940171454073 -1.0558665531937836e-05 0 -0.044999361760405636 -3.9267706315727605e-07 0 -0.044999676223205602 3.5252420108548151e-08 0 -0.04330560251257512 0.00031434731533404097 0 -0.043096658087354849 6.7628205100331775e-05 0 -0.042969216965120335 0.00017293375928370528 0 -0.044696542470897396 0.0001671301961756361 0 -0.044593970117595506 1.6527124910229339e-05 0 -0.044243301010699516 0.00016595609415105138 0 -0.044696542470897396 0.0001671301961756361 0 -0.044243301010699516 0.00016595609415105138 0 -0.04407661482525807 5.9660744975773502e-05 0 -0.043985503530771033 0.000253361800040158 0 -0.044115349902745564 6.6602750698143321e-05 0 -0.044593970117595506 1.6527124910229339e-05 0 -0.044781554567203043 -0.00010992374371684863 0 -0.044452512334526038 -0.00015276766687119089 0 -0.044593970117595506 1.6527124910229339e-05 0 -0.044785355267784425 -9.7221067136951461e-06 0 -0.044781554567203043 -0.00010992374371684863 0 -0.044696542470897396 0.0001671301961756361 0 -0.044785355267784425 -9.7221067136951461e-06 0 -0.04493793795046136 3.9625795027680077e-05 0 -0.044696542470897396 0.0001671301961756361 0 -0.044593970117595506 1.6527124910229339e-05 0 -0.044785355267784425 -9.7221067136951461e-06 0 -0.044867931895619322 -7.6357274817259242e-05 0 -0.044969940171454073 -1.0558665531937836e-05 0 -0.044999676223205602 3.5252420108548151e-08 0 -0.044785355267784425 -9.7221067136951461e-06 0 -0.044867931895619322 -7.6357274817259242e-05 0 -0.044781554567203043 -0.00010992374371684863 0 -0.044785355267784425 -9.7221067136951461e-06 0 -0.044867931895619322 -7.6357274817259242e-05 0 -0.044902871078895117 -7.2917364655452163e-05 0 -0.044867931895619322 -7.6357274817259242e-05 0 -0.044999676223205602 3.5252420108548151e-08 0 -0.044902871078895117 -7.2917364655452163e-05 0 -0.044867931895619322 -7.6357274817259242e-05 0 -0.044781554567203043 -0.00010992374371684863 0 -0.044969940171454073 -1.0558665531937836e-05 0 -0.044781554567203043 -0.00010992374371684863 0 -0.044934738036839512 -0.00014456794607075761 0 -0.044969940171454073 -1.0558665531937836e-05 0 -0.044886580701743659 -0.00019910689056789965 0 -0.044181466541063828 -0.00075281786518843329 0 -0.044181466541063828 -0.00075281786518843329 0 -0.044991267014468705 0.00021446753072832303 0 -0.044969940171454073 -1.0558665531937836e-05 0 -0.044966425522539648 -9.0189158509702837e-06 0 -0.044999361760405636 -3.9267706315727605e-07 0 -0.044965176363011929 -1.1445984017982936e-05 0 -0.044969940171454073 -1.0558665531937836e-05 0 -0.044966425522539648 -9.0189158509702837e-06 0 -0.044965176363011929 -1.1445984017982936e-05 0 -0.044966425522539648 -9.0189158509702837e-06 0 -0.044943802068334704 -4.6234553350462498e-06 0 -0.044181466541063828 -0.00075281786518843329 0 -0.043676079801388192 -0.0011163999486179293 0 -0.042460870737047629 -0.0021570531758989945 0 -0.042858961216107133 -0.0018667446886709916 0 -0.042597960947136963 -0.0016934406960307689 0 -0.043115704038879911 -0.0022165224556881897 0 -0.042460870737047629 -0.0021570531758989945 0 -0.042858961216107133 -0.0018667446886709916 0 -0.044181466541063828 -0.00075281786518843329 0 -0.043615306356325351 -0.00081185771997855901 0 -0.044593970117595506 1.6527124910229339e-05 0 -0.044452512334526038 -0.00015276766687119089 0 -0.044243301010699516 0.00016595609415105138 0 -0.043115704038879911 -0.0022165224556881897 0 -0.042858961216107133 -0.0018667446886709916 0 -0.043086403968774979 -0.0016107283089239572 0 -0.042858961216107133 -0.0018667446886709916 0 -0.043086403968774979 -0.0016107283089239572 0 -0.042830503805434517 -0.0016267075310106038 0 -0.043086403968774979 -0.0016107283089239572 0 -0.042830503805434517 -0.0016267075310106038 0 -0.042775397317736059 -0.0013479501361110275 0 -0.042830503805434517 -0.0016267075310106038 0 -0.042597960947136963 -0.0016934406960307689 0 -0.042775397317736059 -0.0013479501361110275 0 -0.042597960947136963 -0.0016934406960307689 0 -0.042255249398928017 -0.0013853989001324928 0 -0.042775397317736059 -0.0013479501361110275 0 -0.042858961216107133 -0.0018667446886709916 0 -0.042830503805434517 -0.0016267075310106038 0 -0.042597960947136963 -0.0016934406960307689 0 -0.044482851494723141 -0.00033155230305134789 0 -0.044998629243783402 -4.9701272230966905e-07 0 -0.044999361760405636 -3.9267706315727605e-07 0 -0.042597960947136963 -0.0016934406960307689 0 -0.042167497804072439 -0.0017490686434158481 0 -0.042255249398928017 -0.0013853989001324928 0 -0.042167497804072439 -0.0017490686434158481 0 -0.041828073971002848 -0.0015696510377310121 0 -0.042255249398928017 -0.0013853989001324928 0 -0.041828073971002848 -0.0015696510377310121 0 -0.041758764550908635 -0.0019571519962850812 0 -0.041437175482199211 -0.0015686588222678776 0 -0.042167497804072439 -0.0017490686434158481 0 -0.041828073971002848 -0.0015696510377310121 0 -0.041758764550908635 -0.0019571519962850812 0 -0.042460870737047629 -0.0021570531758989945 0 -0.042597960947136963 -0.0016934406960307689 0 -0.042167497804072439 -0.0017490686434158481 0 -0.043676079801388192 -0.0011163999486179293 0 -0.043306027774022732 -0.00097371227490293056 0 -0.042460870737047629 -0.0021570531758989945 0 -0.042167497804072439 -0.0017490686434158481 0 -0.041758764550908635 -0.0019571519962850812 0 -0.044966425522539648 -9.0189158509702837e-06 0 -0.044943802068334704 -4.6234553350462498e-06 0 -0.044999361760405636 -3.9267706315727605e-07 0 -0.044943802068334704 -4.6234553350462498e-06 0 -0.044826209518994894 1.2561420978599581e-06 0 -0.044999361760405636 -3.9267706315727605e-07 0 -0.044826209518994894 1.2561420978599581e-06 0 -0.044999361760405636 -3.9267706315727605e-07 0 -0.044476964658154275 -0.00014889128698917774 0 -0.044482851494723141 -0.00033155230305134789 0 -0.044999361760405636 -3.9267706315727605e-07 0 -0.044476964658154275 -0.00014889128698917774 0 -0.041758764550908635 -0.0019571519962850812 0 -0.041213841438385294 -0.0015249403582914948 0 -0.041437175482199211 -0.0015686588222678776 0 -0.043306027774022732 -0.00097371227490293056 0 -0.042914785673989646 -0.00082679924315420415 0 -0.041659982920583462 -0.0015514121251191952 0 -0.041213841438385294 -0.0015249403582914948 0 -0.04132720922153349 -0.0016601225808898494 0 -0.041213841438385294 -0.0015249403582914948 0 -0.041437175482199211 -0.0015686588222678776 0 -0.04132720922153349 -0.0016601225808898494 0 -0.041437175482199211 -0.0015686588222678776 0 -0.04132720922153349 -0.0016601225808898494 0 -0.041324692359181264 -0.0013423146914862097 0 -0.04132720922153349 -0.0016601225808898494 0 -0.041324692359181264 -0.0013423146914862097 0 -0.040974521771828705 -0.0013193922544036461 0 -0.040947397616330115 -0.0015759489346700668 0 -0.04132720922153349 -0.0016601225808898494 0 -0.040974521771828705 -0.0013193922544036461 0 -0.041437175482199211 -0.0015686588222678776 0 -0.041574247784769341 -0.0013282465657122697 0 -0.041324692359181264 -0.0013423146914862097 0 -0.041828073971002848 -0.0015696510377310121 0 -0.041437175482199211 -0.0015686588222678776 0 -0.041574247784769341 -0.0013282465657122697 0 -0.041324692359181264 -0.0013423146914862097 0 -0.041635796126275194 -0.00097398934735535745 0 -0.041330495552243336 -0.00098055710485510698 0 -0.041574247784769341 -0.0013282465657122697 0 -0.041324692359181264 -0.0013423146914862097 0 -0.041635796126275194 -0.00097398934735535745 0 -0.041635796126275194 -0.00097398934735535745 0 -0.041330495552243336 -0.00098055710485510698 0 -0.04152620260884806 -0.00071740661344882599 0 -0.041330495552243336 -0.00098055710485510698 0 -0.040974521771828705 -0.0013193922544036461 0 -0.040979047249211496 -0.00085851232169187189 0 -0.041324692359181264 -0.0013423146914862097 0 -0.041330495552243336 -0.00098055710485510698 0 -0.040974521771828705 -0.0013193922544036461 0 -0.040529205691892799 -0.00099277593347393768 0 -0.040974521771828705 -0.0013193922544036461 0 -0.040979047249211496 -0.00085851232169187189 0 -0.040529205691892799 -0.00099277593347393768 0 -0.040979047249211496 -0.00085851232169187189 0 -0.040576733483633026 -0.00050731124610663755 0 -0.041330495552243336 -0.00098055710485510698 0 -0.040979047249211496 -0.00085851232169187189 0 -0.041290044432006845 -0.00059962988014065661 0 -0.040979047249211496 -0.00085851232169187189 0 -0.041046416479398481 -0.00045276025381522548 0 -0.041290044432006845 -0.00059962988014065661 0 -0.040979047249211496 -0.00085851232169187189 0 -0.041046416479398481 -0.00045276025381522548 0 -0.040576733483633026 -0.00050731124610663755 0 -0.041046416479398481 -0.00045276025381522548 0 -0.040576733483633026 -0.00050731124610663755 0 -0.040968336354124266 -7.4254365348867381e-05 0 -0.040576733483633026 -0.00050731124610663755 0 -0.040968336354124266 -7.4254365348867381e-05 0 -0.040561650324075375 -6.7799342808934401e-06 0 -0.041046416479398481 -0.00045276025381522548 0 -0.040968336354124266 -7.4254365348867381e-05 0 -0.041293219873465917 -0.00012970169777090803 0 -0.040968336354124266 -7.4254365348867381e-05 0 -0.041215687933233915 0.00027181101582493002 0 -0.041293219873465917 -0.00012970169777090803 0 -0.040968336354124266 -7.4254365348867381e-05 0 -0.041215687933233915 0.00027181101582493002 0 -0.040863906696331879 0.00036850280091615197 0 -0.040561650324075375 -6.7799342808934401e-06 0 -0.040863906696331879 0.00036850280091615197 0 -0.040194837038587811 0.00040896788098984617 0 -0.040968336354124266 -7.4254365348867381e-05 0 -0.040561650324075375 -6.7799342808934401e-06 0 -0.040863906696331879 0.00036850280091615197 0 -0.041608862929746269 0.00011932187945058778 0 -0.041215687933233915 0.00027181101582493002 0 -0.041293219873465917 -0.00012970169777090803 0 -0.041608862929746269 0.00011932187945058778 0 -0.041505463434510351 -0.00039123900616649167 0 -0.041758575059508439 -0.00021153778768820785 0 -0.041608862929746269 0.00011932187945058778 0 -0.041293219873465917 -0.00012970169777090803 0 -0.041505463434510351 -0.00039123900616649167 0 -0.041505463434510351 -0.00039123900616649167 0 -0.041290044432006845 -0.00059962988014065661 0 -0.04152620260884806 -0.00071740661344882599 0 -0.041046416479398481 -0.00045276025381522548 0 -0.041293219873465917 -0.00012970169777090803 0 -0.041290044432006845 -0.00059962988014065661 0 -0.041293219873465917 -0.00012970169777090803 0 -0.041505463434510351 -0.00039123900616649167 0 -0.041290044432006845 -0.00059962988014065661 0 -0.041330495552243336 -0.00098055710485510698 0 -0.041290044432006845 -0.00059962988014065661 0 -0.04152620260884806 -0.00071740661344882599 0 -0.041505463434510351 -0.00039123900616649167 0 -0.04152620260884806 -0.00071740661344882599 0 -0.041856039743979161 -0.0006088768705191837 0 -0.041635796126275194 -0.00097398934735535745 0 -0.04152620260884806 -0.00071740661344882599 0 -0.041856039743979161 -0.0006088768705191837 0 -0.041856039743979161 -0.0006088768705191837 0 -0.042027435355181116 -0.00016869956172874221 0 -0.042235733003735086 -0.00041048392801434344 0 -0.041856039743979161 -0.0006088768705191837 0 -0.041758575059508439 -0.00021153778768820785 0 -0.042027435355181116 -0.00016869956172874221 0 -0.041505463434510351 -0.00039123900616649167 0 -0.041856039743979161 -0.0006088768705191837 0 -0.041758575059508439 -0.00021153778768820785 0 -0.041758575059508439 -0.00021153778768820785 0 -0.042027435355181116 -0.00016869956172874221 0 -0.041943695008788084 0.00016095827783742893 0 -0.042027435355181116 -0.00016869956172874221 0 -0.041943695008788084 0.00016095827783742893 0 -0.042286733368063996 1.0810583310553071e-05 0 -0.041608862929746269 0.00011932187945058778 0 -0.041758575059508439 -0.00021153778768820785 0 -0.041943695008788084 0.00016095827783742893 0 -0.042286733368063996 1.0810583310553071e-05 0 -0.042614942175526735 1.6943354839158155e-05 0 -0.042494156936503505 0.0002611521128257403 0 -0.042286733368063996 1.0810583310553071e-05 0 -0.042196136320626972 0.00047593049425533989 0 -0.042494156936503505 0.0002611521128257403 0 -0.041943695008788084 0.00016095827783742893 0 -0.042286733368063996 1.0810583310553071e-05 0 -0.042196136320626972 0.00047593049425533989 0 -0.042027435355181116 -0.00016869956172874221 0 -0.042286733368063996 1.0810583310553071e-05 0 -0.042235733003735086 -0.00041048392801434344 0 -0.042286733368063996 1.0810583310553071e-05 0 -0.042478324109927822 -0.00023267416450523538 0 -0.042614942175526735 1.6943354839158155e-05 0 -0.042286733368063996 1.0810583310553071e-05 0 -0.042478324109927822 -0.00023267416450523538 0 -0.042235733003735086 -0.00041048392801434344 0 -0.042478324109927822 -0.00023267416450523538 0 -0.042235733003735086 -0.00041048392801434344 0 -0.04255309669738213 -0.00046469806716959621 0 -0.041856039743979161 -0.0006088768705191837 0 -0.042235733003735086 -0.00041048392801434344 0 -0.042295856163549646 -0.00077682560347405532 0 -0.042235733003735086 -0.00041048392801434344 0 -0.042295856163549646 -0.00077682560347405532 0 -0.04255309669738213 -0.00046469806716959621 0 -0.042295856163549646 -0.00077682560347405532 0 -0.042204087569033745 -0.0010930036832483717 0 -0.042542445792051596 -0.0010587906838376308 0 -0.042295856163549646 -0.00077682560347405532 0 -0.042204087569033745 -0.0010930036832483717 0 -0.041917148709588618 -0.0010495861542802187 0 -0.041856039743979161 -0.0006088768705191837 0 -0.042295856163549646 -0.00077682560347405532 0 -0.041917148709588618 -0.0010495861542802187 0 -0.041635796126275194 -0.00097398934735535745 0 -0.041856039743979161 -0.0006088768705191837 0 -0.041917148709588618 -0.0010495861542802187 0 -0.041574247784769341 -0.0013282465657122697 0 -0.041635796126275194 -0.00097398934735535745 0 -0.041917148709588618 -0.0010495861542802187 0 -0.042204087569033745 -0.0010930036832483717 0 -0.041917148709588618 -0.0010495861542802187 0 -0.041925951687092615 -0.0013189712367814672 0 -0.041828073971002848 -0.0015696510377310121 0 -0.041925951687092615 -0.0013189712367814672 0 -0.042255249398928017 -0.0013853989001324928 0 -0.041574247784769341 -0.0013282465657122697 0 -0.041917148709588618 -0.0010495861542802187 0 -0.041925951687092615 -0.0013189712367814672 0 -0.041828073971002848 -0.0015696510377310121 0 -0.041574247784769341 -0.0013282465657122697 0 -0.041925951687092615 -0.0013189712367814672 0 -0.042204087569033745 -0.0010930036832483717 0 -0.042255249398928017 -0.0013853989001324928 0 -0.042542445792051596 -0.0010587906838376308 0 -0.042204087569033745 -0.0010930036832483717 0 -0.041925951687092615 -0.0013189712367814672 0 -0.042255249398928017 -0.0013853989001324928 0 -0.042775397317736059 -0.0013479501361110275 0 -0.042850488977359165 -0.0009716139867784855 0 -0.042542445792051596 -0.0010587906838376308 0 -0.042255249398928017 -0.0013853989001324928 0 -0.042775397317736059 -0.0013479501361110275 0 -0.042542445792051596 -0.0010587906838376308 0 -0.043615306356325351 -0.00081185771997855901 0 -0.043513583621624115 -0.00054613438670721636 0 -0.044243301010699516 0.00016595609415105138 0 -0.04407661482525807 5.9660744975773502e-05 0 -0.043865242066775403 -0.00018626993510249048 0 -0.043086403968774979 -0.0016107283089239572 0 -0.042775397317736059 -0.0013479501361110275 0 -0.043154438731088145 -0.0010351521994673388 0 -0.042775397317736059 -0.0013479501361110275 0 -0.043154438731088145 -0.0010351521994673388 0 -0.042850488977359165 -0.0009716139867784855 0 -0.04407661482525807 5.9660744975773502e-05 0 -0.043865242066775403 -0.00018626993510249048 0 -0.04376999070738205 -3.6278232114963393e-05 0 -0.043865242066775403 -0.00018626993510249048 0 -0.043617526671809383 -0.00026258861410936954 0 -0.043696013041630261 -0.0002400689223070837 0 -0.043154438731088145 -0.0010351521994673388 0 -0.042850488977359165 -0.0009716139867784855 0 -0.043022230534454801 -0.00062502659151539872 0 -0.042850488977359165 -0.0009716139867784855 0 -0.042713640273126692 -0.00071573736740999482 0 -0.043022230534454801 -0.00062502659151539872 0 -0.042295856163549646 -0.00077682560347405532 0 -0.042542445792051596 -0.0010587906838376308 0 -0.042713640273126692 -0.00071573736740999482 0 -0.042850488977359165 -0.0009716139867784855 0 -0.042542445792051596 -0.0010587906838376308 0 -0.042713640273126692 -0.00071573736740999482 0 -0.042713640273126692 -0.00071573736740999482 0 -0.042905542639772781 -0.00041125692490844479 0 -0.04255309669738213 -0.00046469806716959621 0 -0.042295856163549646 -0.00077682560347405532 0 -0.042713640273126692 -0.00071573736740999482 0 -0.04255309669738213 -0.00046469806716959621 0 -0.042713640273126692 -0.00071573736740999482 0 -0.042905542639772781 -0.00041125692490844479 0 -0.043022230534454801 -0.00062502659151539872 0 -0.042905542639772781 -0.00041125692490844479 0 -0.043104508857544556 -0.00036453041310530805 0 -0.043022230534454801 -0.00062502659151539872 0 -0.042905542639772781 -0.00041125692490844479 0 -0.042733593789939649 -0.00021806602435565551 0 -0.043102697500597462 -0.00017288645378961851 0 -0.042905542639772781 -0.00041125692490844479 0 -0.043102697500597462 -0.00017288645378961851 0 -0.043104508857544556 -0.00036453041310530805 0 -0.042478324109927822 -0.00023267416450523538 0 -0.04255309669738213 -0.00046469806716959621 0 -0.042733593789939649 -0.00021806602435565551 0 -0.042905542639772781 -0.00041125692490844479 0 -0.04255309669738213 -0.00046469806716959621 0 -0.042733593789939649 -0.00021806602435565551 0 -0.042733593789939649 -0.00021806602435565551 0 -0.042846905414716703 4.2524711620382048e-05 0 -0.042614942175526735 1.6943354839158155e-05 0 -0.042478324109927822 -0.00023267416450523538 0 -0.042733593789939649 -0.00021806602435565551 0 -0.042614942175526735 1.6943354839158155e-05 0 -0.042846905414716703 4.2524711620382048e-05 0 -0.043102697500597462 -0.00017288645378961851 0 -0.042889724688860091 0.00046758906778327088 0 -0.042733593789939649 -0.00021806602435565551 0 -0.042846905414716703 4.2524711620382048e-05 0 -0.043102697500597462 -0.00017288645378961851 0 -0.042846905414716703 4.2524711620382048e-05 0 -0.042690366912394744 0.00026920283980660459 0 -0.042889724688860091 0.00046758906778327088 0 -0.042690366912394744 0.00026920283980660459 0 -0.042614942175526735 1.6943354839158155e-05 0 -0.042494156936503505 0.0002611521128257403 0 -0.042846905414716703 4.2524711620382048e-05 0 -0.042690366912394744 0.00026920283980660459 0 -0.042614942175526735 1.6943354839158155e-05 0 -0.043129322454374529 7.1939516983294597e-05 0 -0.043229199059998114 0.00016590473190589928 0 -0.042889724688860091 0.00046758906778327088 0 -0.043318338322449711 -7.8305894749363091e-05 0 -0.04292242020833556 0.00043083430871700357 0 -0.043102697500597462 -0.00017288645378961851 0 -0.043520906234082342 -0.00025001447794810563 0 -0.042889724688860091 0.00046758906778327088 0 -0.043513583621624115 -0.00054613438670721636 0 -0.043394956685464177 -0.00027717360790380891 0 -0.043865242066775403 -0.00018626993510249048 0 -0.0433749938944974 -0.00028420326691510608 0 -0.043617526671809383 -0.00026258861410936954 0 -0.043154438731088145 -0.0010351521994673388 0 -0.0433749938944974 -0.00028420326691510608 0 -0.043022230534454801 -0.00062502659151539872 0 -0.043520906234082342 -0.00025001447794810563 0 -0.0433749938944974 -0.00028420326691510608 0 -0.043617526671809383 -0.00026258861410936954 0 -0.043102697500597462 -0.00017288645378961851 0 -0.043520906234082342 -0.00025001447794810563 0 -0.0433749938944974 -0.00028420326691510608 0 -0.0433749938944974 -0.00028420326691510608 0 -0.043104508857544556 -0.00036453041310530805 0 -0.043022230534454801 -0.00062502659151539872 0 -0.043102697500597462 -0.00017288645378961851 0 -0.0433749938944974 -0.00028420326691510608 0 -0.043104508857544556 -0.00036453041310530805 0 -0.041742451206771398 0.0002204328992650347 0 -0.042186647740308315 0.00017695753662176722 0 -0.042446510392223087 -6.4513691907382555e-05 0 -0.043129322454374529 7.1939516983294597e-05 0 -0.04321334876162862 -4.7054365990796035e-06 0 -0.043244565839073559 -0.00011626163645622273 0 -0.043520906234082342 -0.00025001447794810563 0 -0.043617526671809383 -0.00026258861410936954 0 -0.043633700686660656 -0.00029378267372870485 0 -0.042370273929105383 0.00026281550503369088 0 -0.042850121016769681 -7.0421788043322026e-05 0 -0.04321334876162862 -4.7054365990796035e-06 0 -0.043229199059998114 0.00016590473190589928 0 -0.043251858708618161 -0.00011806507482382491 0 -0.043318338322449711 -7.8305894749363091e-05 0 -0.043415311729640964 -0.00019851978685247603 0 -0.043129322454374529 7.1939516983294597e-05 0 -0.04321334876162862 -4.7054365990796035e-06 0 -0.043229199059998114 0.00016590473190589928 0 -0.041742451206771398 0.0002204328992650347 0 -0.042045981187287876 0.00038475132532432219 0 -0.042186647740308315 0.00017695753662176722 0 -0.041742451206771398 0.0002204328992650347 0 -0.042045981187287876 0.00038475132532432219 0 -0.041782251704237806 0.00054077068988235522 0 -0.042045981187287876 0.00038475132532432219 0 -0.041782251704237806 0.00054077068988235522 0 -0.041962289411779104 0.00064722731096191919 0 -0.042045981187287876 0.00038475132532432219 0 -0.042193241730751341 0.00061942720935998863 0 -0.041962289411779104 0.00064722731096191919 0 -0.041742451206771398 0.0002204328992650347 0 -0.041782251704237806 0.00054077068988235522 0 -0.041401437793888392 0.00075733529803204353 0 -0.04232534263165371 0.00043776074557715772 0 -0.042193241730751341 0.00061942720935998863 0 -0.04247354603026883 0.00054914595006301222 0 -0.04232534263165371 0.00043776074557715772 0 -0.04247354603026883 0.00054914595006301222 0 -0.042625607126753687 0.00034326927037295243 0 -0.042045981187287876 0.00038475132532432219 0 -0.04232534263165371 0.00043776074557715772 0 -0.042193241730751341 0.00061942720935998863 0 -0.042045981187287876 0.00038475132532432219 0 -0.04232534263165371 0.00043776074557715772 0 -0.042237667067248644 0.00031742935739576835 0 -0.042045981187287876 0.00038475132532432219 0 -0.042237667067248644 0.00031742935739576835 0 -0.042186647740308315 0.00017695753662176722 0 -0.04232534263165371 0.00043776074557715772 0 -0.042237667067248644 0.00031742935739576835 0 -0.042383374841569982 0.00022681586313261793 0 -0.042237667067248644 0.00031742935739576835 0 -0.042383374841569982 0.00022681586313261793 0 -0.042186647740308315 0.00017695753662176722 0 -0.04232534263165371 0.00043776074557715772 0 -0.042383374841569982 0.00022681586313261793 0 -0.042625607126753687 0.00034326927037295243 0 -0.042383374841569982 0.00022681586313261793 0 -0.042553925312061237 7.8965640038279063e-05 0 -0.042632087904217346 0.00017363333502082217 0 -0.042186647740308315 0.00017695753662176722 0 -0.042403874233639123 8.2201347659792035e-05 0 -0.042446510392223087 -6.4513691907382555e-05 0 -0.042383374841569982 0.00022681586313261793 0 -0.042403874233639123 8.2201347659792035e-05 0 -0.042553925312061237 7.8965640038279063e-05 0 -0.042383374841569982 0.00022681586313261793 0 -0.042186647740308315 0.00017695753662176722 0 -0.042403874233639123 8.2201347659792035e-05 0 -0.042403874233639123 8.2201347659792035e-05 0 -0.042504729149881772 2.4504207568686449e-05 0 -0.042446510392223087 -6.4513691907382555e-05 0 -0.042553925312061237 7.8965640038279063e-05 0 -0.042504729149881772 2.4504207568686449e-05 0 -0.042606173839485992 7.3276173648809844e-06 0 -0.042403874233639123 8.2201347659792035e-05 0 -0.042553925312061237 7.8965640038279063e-05 0 -0.042504729149881772 2.4504207568686449e-05 0 -0.042606173839485992 7.3276173648809844e-06 0 -0.042446510392223087 -6.4513691907382555e-05 0 -0.042742063539976997 -1.2490618788947801e-05 0 -0.043251858708618161 -0.00011806507482382491 0 -0.043144324916944636 -4.1099879313940719e-05 0 -0.042972852298350392 1.4943309578147891e-05 0 -0.042504729149881772 2.4504207568686449e-05 0 -0.042606173839485992 7.3276173648809844e-06 0 -0.042446510392223087 -6.4513691907382555e-05 0 -0.042766245584233011 -1.8066180497183216e-05 0 -0.042446510392223087 -6.4513691907382555e-05 0 -0.042972852298350392 1.4943309578147891e-05 0 -0.042850121016769681 -7.0421788043322026e-05 0 -0.042930485873849462 2.8446954070495555e-05 0 -0.042766245584233011 -1.8066180497183216e-05 0 -0.042446510392223087 -6.4513691907382555e-05 0 -0.042742063539976997 -1.2490618788947801e-05 0 -0.043251858708618161 -0.00011806507482382491 0 -0.043244565839073559 -0.00011626163645622273 0 -0.043144324916944636 -4.1099879313940719e-05 0 -0.04321334876162862 -4.7054365990796035e-06 0 -0.043251858708618161 -0.00011806507482382491 0 -0.043244565839073559 -0.00011626163645622273 0 -0.043617526671809383 -0.00026258861410936954 0 -0.043633700686660656 -0.00029378267372870485 0 -0.043696013041630261 -0.0002400689223070837 0 -0.043633700686660656 -0.00029378267372870485 0 -0.043696013041630261 -0.0002400689223070837 0 -0.043706114858810187 -0.00017545424466639399 0 -0.043865242066775403 -0.00018626993510249048 0 -0.043696013041630261 -0.0002400689223070837 0 -0.043706114858810187 -0.00017545424466639399 0 -0.043633700686660656 -0.00029378267372870485 0 -0.043706114858810187 -0.00017545424466639399 0 -0.043504979428272479 -0.00010477082192141458 0 -0.04330560251257512 0.00031434731533404097 0 -0.04407661482525807 5.9660744975773502e-05 0 -0.04376999070738205 -3.6278232114963393e-05 0 -0.043706114858810187 -0.00017545424466639399 0 -0.04376999070738205 -3.6278232114963393e-05 0 -0.043520585141518013 -1.3340686623202201e-05 0 -0.043706114858810187 -0.00017545424466639399 0 -0.043504979428272479 -0.00010477082192141458 0 -0.043520585141518013 -1.3340686623202201e-05 0 -0.043865242066775403 -0.00018626993510249048 0 -0.043706114858810187 -0.00017545424466639399 0 -0.04376999070738205 -3.6278232114963393e-05 0 -0.04330560251257512 0.00031434731533404097 0 -0.04376999070738205 -3.6278232114963393e-05 0 -0.043520585141518013 -1.3340686623202201e-05 0 -0.043415311729640964 -0.00019851978685247603 0 -0.04312515767788911 6.9915056220536578e-05 0 -0.043244565839073559 -0.00011626163645622273 0 -0.043096658087354849 6.7628205100331775e-05 0 -0.043144324916944636 -4.1099879313940719e-05 0 -0.04330560251257512 0.00031434731533404097 0 -0.043520585141518013 -1.3340686623202201e-05 0 -0.043096658087354849 6.7628205100331775e-05 0 -0.043633700686660656 -0.00029378267372870485 0 -0.043504979428272479 -0.00010477082192141458 0 -0.043096658087354849 6.7628205100331775e-05 0 -0.043504979428272479 -0.00010477082192141458 0 -0.043520585141518013 -1.3340686623202201e-05 0 -0.043096658087354849 6.7628205100331775e-05 0 -0.043096658087354849 6.7628205100331775e-05 0 -0.043144324916944636 -4.1099879313940719e-05 0 -0.042972852298350392 1.4943309578147891e-05 0 -0.022869680565515613 0.0014650670409434307 0 -0.021882129961509875 0.0017934163384032639 0 -0.021091674080376977 0.0020808962270803663 0 -0.021289582016883832 0.0013950626456936308 0 -0.020820066902059679 0.0016322707385501526 0 -0.021746789366665659 0.0017647672391158757 0 -0.021091674080376977 0.0020808962270803663 0 -0.021289582016883832 0.0013950626456936308 0 -0.024049490313110423 0.0011512188431859888 0 -0.024034340508361805 0.00159797928116282 0 -0.023831483179160499 0.0018860286490291615 0 -0.024049490313110423 0.0011512188431859888 0 -0.024034340508361805 0.00159797928116282 0 -0.024235867811971852 0.0014104439391490157 0 -0.024034340508361805 0.00159797928116282 0 -0.023942441262993965 0.0016959089665999968 0 -0.02407536988408028 0.0017562071362650362 0 -0.024034340508361805 0.00159797928116282 0 -0.023942441262993965 0.0016959089665999968 0 -0.023831483179160499 0.0018860286490291615 0 -0.023942441262993965 0.0016959089665999968 0 -0.023831483179160499 0.0018860286490291615 0 -0.024124568747878015 0.0015606079524436512 0 -0.024049490313110423 0.0011512188431859888 0 -0.023831483179160499 0.0018860286490291615 0 -0.022697477913445618 0.0014518007461448584 0 -0.023764346151230402 0.0019706940320068328 0 -0.02413055701166775 0.0020836884212115606 0 -0.023831483179160499 0.0018860286490291615 0 -0.024760337885201277 0.001569599247638443 0 -0.025839245035557724 0.0019932829445595849 0 -0.023831483179160499 0.0018860286490291615 0 -0.022697477913445618 0.0014518007461448584 0 -0.02188669436896962 0.0023700472006146643 0 -0.024760337885201277 0.001569599247638443 0 -0.02451478036180995 0.0013570289901242785 0 -0.025741331632238278 0.0008554095012369028 0 -0.02451478036180995 0.0013570289901242785 0 -0.02396318197944337 0.001254545243549926 0 -0.025741331632238278 0.0008554095012369028 0 -0.035080869573862763 0.0011519564533359504 0 -0.032897708361871877 0.00089644301780444251 0 -0.024760337885201277 0.001569599247638443 0 -0.024124568747878015 0.0015606079524436512 0 -0.02451478036180995 0.0013570289901242785 0 -0.023831483179160499 0.0018860286490291615 0 -0.024760337885201277 0.001569599247638443 0 -0.024124568747878015 0.0015606079524436512 0 -0.024124568747878015 0.0015606079524436512 0 -0.02451478036180995 0.0013570289901242785 0 -0.024083874703811778 0.0014316557568157008 0 -0.02451478036180995 0.0013570289901242785 0 -0.02396318197944337 0.001254545243549926 0 -0.024083874703811778 0.0014316557568157008 0 -0.040256723576488199 0.00097988307028500196 0 -0.041655982683097913 0.00029330586897531889 0 -0.041754761246551246 0.00095190774966688737 0 -0.035080869573862763 0.0011519564533359504 0 -0.043306265842867939 0.00019135000987739593 0 -0.042248115137644073 0.00084405739960528652 0 -0.04200220581690265 0.0013808886919605592 0 -0.042649252030420408 0.00063952725485815008 0 -0.042248115137644073 0.00084405739960528652 0 -0.041986958275487672 0.00114088316778634 0 -0.04200220581690265 0.0013808886919605592 0 -0.042248115137644073 0.00084405739960528652 0 -0.042099665487606769 0.00083296857842691553 0 -0.041986958275487672 0.00114088316778634 0 -0.042248115137644073 0.00084405739960528652 0 -0.042193241730751341 0.00061942720935998863 0 -0.04247354603026883 0.00054914595006301222 0 -0.042248115137644073 0.00084405739960528652 0 -0.042099665487606769 0.00083296857842691553 0 -0.042193241730751341 0.00061942720935998863 0 -0.042099665487606769 0.00083296857842691553 0 -0.042193241730751341 0.00061942720935998863 0 -0.041962289411779104 0.00064722731096191919 0 -0.042248115137644073 0.00084405739960528652 0 -0.04247354603026883 0.00054914595006301222 0 -0.042649252030420408 0.00063952725485815008 0 -0.041688342861316986 0.00078492499072505125 0 -0.041401437793888392 0.00075733529803204353 0 -0.041430690647116783 0.00094508577438091228 0 -0.041782251704237806 0.00054077068988235522 0 -0.041688342861316986 0.00078492499072505125 0 -0.041401437793888392 0.00075733529803204353 0 -0.041782251704237806 0.00054077068988235522 0 -0.041688342861316986 0.00078492499072505125 0 -0.041962289411779104 0.00064722731096191919 0 -0.042099665487606769 0.00083296857842691553 0 -0.041962289411779104 0.00064722731096191919 0 -0.04186663745674226 0.00085729209193362548 0 -0.041688342861316986 0.00078492499072505125 0 -0.04186663745674226 0.00085729209193362548 0 -0.041635918271198752 0.00098701381033923443 0 -0.041688342861316986 0.00078492499072505125 0 -0.041962289411779104 0.00064722731096191919 0 -0.04186663745674226 0.00085729209193362548 0 -0.04186663745674226 0.00085729209193362548 0 -0.041945106739953268 0.00099443955076762027 0 -0.041803534991913811 0.0011140821442762862 0 -0.04186663745674226 0.00085729209193362548 0 -0.041803534991913811 0.0011140821442762862 0 -0.041635918271198752 0.00098701381033923443 0 -0.042099665487606769 0.00083296857842691553 0 -0.04186663745674226 0.00085729209193362548 0 -0.041945106739953268 0.00099443955076762027 0 -0.042099665487606769 0.00083296857842691553 0 -0.041945106739953268 0.00099443955076762027 0 -0.041986958275487672 0.00114088316778634 0 -0.041945106739953268 0.00099443955076762027 0 -0.041986958275487672 0.00114088316778634 0 -0.041803534991913811 0.0011140821442762862 0 -0.041986958275487672 0.00114088316778634 0 -0.041803534991913811 0.0011140821442762862 0 -0.041812483879750194 0.0012370241951332186 0 -0.041803534991913811 0.0011140821442762862 0 -0.04163006275267947 0.0012427553937252151 0 -0.041812483879750194 0.0012370241951332186 0 -0.041803534991913811 0.0011140821442762862 0 -0.041635918271198752 0.00098701381033923443 0 -0.04163006275267947 0.0012427553937252151 0 -0.041401437793888392 0.00075733529803204353 0 -0.041430690647116783 0.00094508577438091228 0 -0.041169388824220797 0.0010914426787784336 0 -0.041635918271198752 0.00098701381033923443 0 -0.041344039312583687 0.0012149976789126993 0 -0.04163006275267947 0.0012427553937252151 0 -0.041688342861316986 0.00078492499072505125 0 -0.041635918271198752 0.00098701381033923443 0 -0.041430690647116783 0.00094508577438091228 0 -0.041635918271198752 0.00098701381033923443 0 -0.041430690647116783 0.00094508577438091228 0 -0.041344039312583687 0.0012149976789126993 0 -0.041430690647116783 0.00094508577438091228 0 -0.041344039312583687 0.0012149976789126993 0 -0.041169388824220797 0.0010914426787784336 0 -0.02396318197944337 0.001254545243549926 0 -0.023983944467641637 0.001524653742538126 0 -0.02407536988408028 0.0017562071362650362 0 -0.041344039312583687 0.0012149976789126993 0 -0.04163006275267947 0.0012427553937252151 0 -0.041369596497881536 0.0016108767420253607 0 -0.035080869573862763 0.0011519564533359504 0 -0.032409245458454097 0.0020094790547591388 0 -0.041369596497881536 0.0016108767420253607 0 -0.04200220581690265 0.0013808886919605592 0 -0.041062544993835673 0.0021028581825701794 0 -0.04163006275267947 0.0012427553937252151 0 -0.041369596497881536 0.0016108767420253607 0 -0.041726745694891078 0.0013588105871433756 0 -0.041369596497881536 0.0016108767420253607 0 -0.04200220581690265 0.0013808886919605592 0 -0.041726745694891078 0.0013588105871433756 0 -0.041986958275487672 0.00114088316778634 0 -0.04200220581690265 0.0013808886919605592 0 -0.041959102804831859 0.0012970544287449011 0 -0.041986958275487672 0.00114088316778634 0 -0.041959102804831859 0.0012970544287449011 0 -0.041878087948888178 0.0013237961955276708 0 -0.041986958275487672 0.00114088316778634 0 -0.041878087948888178 0.0013237961955276708 0 -0.041812483879750194 0.0012370241951332186 0 -0.04200220581690265 0.0013808886919605592 0 -0.041959102804831859 0.0012970544287449011 0 -0.041878087948888178 0.0013237961955276708 0 -0.04200220581690265 0.0013808886919605592 0 -0.041878087948888178 0.0013237961955276708 0 -0.041726745694891078 0.0013588105871433756 0 -0.041878087948888178 0.0013237961955276708 0 -0.041812483879750194 0.0012370241951332186 0 -0.041726745694891078 0.0013588105871433756 0 -0.04163006275267947 0.0012427553937252151 0 -0.041812483879750194 0.0012370241951332186 0 -0.041726745694891078 0.0013588105871433756 0 -0.02396318197944337 0.001254545243549926 0 -0.024083874703811778 0.0014316557568157008 0 -0.023983944467641637 0.001524653742538126 0 -0.023942441262993965 0.0016959089665999968 0 -0.024124568747878015 0.0015606079524436512 0 -0.023983944467641637 0.001524653742538126 0 -0.024124568747878015 0.0015606079524436512 0 -0.024083874703811778 0.0014316557568157008 0 -0.023983944467641637 0.001524653742538126 0 -0.023942441262993965 0.0016959089665999968 0 -0.023983944467641637 0.001524653742538126 0 -0.02407536988408028 0.0017562071362650362 0 -0.041369596497881536 0.0016108767420253607 0 -0.041062544993835673 0.0021028581825701794 0 -0.040983318879488806 0.0015169105959845644 0 -0.041062544993835673 0.0021028581825701794 0 -0.040343112195486766 0.0020845350982860336 0 -0.040983318879488806 0.0015169105959845644 0 -0.040343112195486766 0.0020845350982860336 0 -0.040983318879488806 0.0015169105959845644 0 -0.040679036898564759 0.0011146134914994869 0 -0.040983318879488806 0.0015169105959845644 0 -0.041169388824220797 0.0010914426787784336 0 -0.040679036898564759 0.0011146134914994869 0 -0.041344039312583687 0.0012149976789126993 0 -0.041369596497881536 0.0016108767420253607 0 -0.040983318879488806 0.0015169105959845644 0 -0.041344039312583687 0.0012149976789126993 0 -0.040983318879488806 0.0015169105959845644 0 -0.041169388824220797 0.0010914426787784336 0 -0.043229199059998114 0.00016590473190589928 0 -0.043045496275248188 0.00065231369753885628 0 -0.042889724688860091 0.00046758906778327088 0 -0.041401437793888392 0.00075733529803204353 0 -0.041169388824220797 0.0010914426787784336 0 -0.040679036898564759 0.0011146134914994869 0 -0.041742451206771398 0.0002204328992650347 0 -0.041401437793888392 0.00075733529803204353 0 -0.040679036898564759 0.0011146134914994869 0 -0.042370273929105383 0.00026281550503369088 0 -0.04244485724621111 0.00082397024121486919 0 -0.042690366912394744 0.00026920283980660459 0 -0.042889724688860091 0.00046758906778327088 0 -0.042583082597001096 0.00054156462176108274 0 -0.042690366912394744 0.00026920283980660459 0 -0.042583082597001096 0.00054156462176108274 0 -0.042494156936503505 0.0002611521128257403 0 -0.043045496275248188 0.00065231369753885628 0 -0.042889724688860091 0.00046758906778327088 0 -0.042754011741168926 0.00069574608960996226 0 -0.042889724688860091 0.00046758906778327088 0 -0.042754011741168926 0.00069574608960996226 0 -0.042583082597001096 0.00054156462176108274 0 -0.042754011741168926 0.00069574608960996226 0 -0.042583082597001096 0.00054156462176108274 0 -0.042581910252796729 0.00084103312366205849 0 -0.040343112195486766 0.0020845350982860336 0 -0.040679036898564759 0.0011146134914994869 0 -0.039481831392690805 0.0026994484025832477 0 -0.043045496275248188 0.00065231369753885628 0 -0.04264732117603303 0.00098522365942205117 0 -0.042633816260191103 0.0013496229097997529 0 -0.042754011741168926 0.00069574608960996226 0 -0.042581910252796729 0.00084103312366205849 0 -0.04264732117603303 0.00098522365942205117 0 -0.04244485724621111 0.00082397024121486919 0 -0.03718125128234373 0.0016323290336986256 0 -0.042581910252796729 0.00084103312366205849 0 -0.04264732117603303 0.00098522365942205117 0 -0.042486492730643831 0.00095642144943783541 0 -0.043045496275248188 0.00065231369753885628 0 -0.042754011741168926 0.00069574608960996226 0 -0.04264732117603303 0.00098522365942205117 0 -0.04264732117603303 0.00098522365942205117 0 -0.042396650572928782 0.0010973177341185288 0 -0.042486492730643831 0.00095642144943783541 0 -0.04264732117603303 0.00098522365942205117 0 -0.042633816260191103 0.0013496229097997529 0 -0.042396650572928782 0.0010973177341185288 0 -0.030256242114286947 0.0018417879562244641 0 -0.030817395778240702 0.0012307256192167311 0 -0.024349482092676095 0.0013395212959465275 0 -0.024321900462963175 0.0013704324814919266 0 -0.024311807139400361 0.0013247414252502002 0 -0.032806754899027346 0.0003101406058459771 0 -0.031871872041918499 0.0018373945198712053 0 -0.03391083617500748 0.00064884722060768536 0 -0.034359730042458403 0.0023574912554306755 0 -0.034409902554493638 0.0023822638277121284 0 -0.034305981899019483 0.0023804613202351782 0 -0.03718125128234373 0.0016323290336986256 0 -0.030256242114286947 0.0018417879562244641 0 -0.024321900462963175 0.0013704324814919266 0 -0.024280400977647203 0.0013566779719209592 0 -0.024311807139400361 0.0013247414252502002 0 -0.040343112195486766 0.0020845350982860336 0 -0.039481831392690805 0.0026994484025832477 0 -0.039819254751594882 0.0028157298884362056 0 -0.03718125128234373 0.0016323290336986256 0 -0.030817395778240702 0.0012307256192167311 0 -0.041062544993835673 0.0021028581825701794 0 -0.040343112195486766 0.0020845350982860336 0 -0.039819254751594882 0.0028157298884362056 0 -0.02407536988408028 0.0017562071362650362 0 -0.024679018466240227 0.0015270065557219214 0 -0.024235867811971852 0.0014104439391490157 0 -0.032409245458454097 0.0020094790547591388 0 -0.030817395778240702 0.0012307256192167311 0 -0.024034340508361805 0.00159797928116282 0 -0.02407536988408028 0.0017562071362650362 0 -0.024235867811971852 0.0014104439391490157 0 -0.030817395778240702 0.0012307256192167311 0 -0.023036559477459768 0.00061474777312715996 0 -0.024321900462963175 0.0013704324814919266 0 -0.024235867811971852 0.0014104439391490157 0 -0.024280400977647203 0.0013566779719209592 0 -0.024049490313110423 0.0011512188431859888 0 -0.024271428865457995 0.0012793748539370411 0 -0.024221617111753812 0.001157221170808404 0 -0.022869680565515613 0.0014650670409434307 0 -0.023424151392495166 0.0013052438255346597 0 -0.024235867811971852 0.0014104439391490157 0 -0.024280400977647203 0.0013566779719209592 0 -0.024271428865457995 0.0012793748539370411 0 -0.024049490313110423 0.0011512188431859888 0 -0.024235867811971852 0.0014104439391490157 0 -0.024271428865457995 0.0012793748539370411 0 -0.024311393981342765 0.0012590635421588826 0 -0.024271428865457995 0.0012793748539370411 0 -0.024221617111753812 0.001157221170808404 0 -0.024349482092676095 0.0013395212959465275 0 -0.024311393981342765 0.0012590635421588826 0 -0.024311807139400361 0.0013247414252502002 0 -0.024311393981342765 0.0012590635421588826 0 -0.024311807139400361 0.0013247414252502002 0 -0.024271428865457995 0.0012793748539370411 0 -0.024280400977647203 0.0013566779719209592 0 -0.024311807139400361 0.0013247414252502002 0 -0.024271428865457995 0.0012793748539370411 0 -0.028062207405563082 0.00045011153387759534 0 -0.02776883563694264 0.00059228660906721184 0 -0.027901677651315925 0.00064344652194957557 0 -0.030256242114286947 0.0018417879562244641 0 -0.031210123037099687 0.0015135369109515648 0 -0.030256242114286947 0.0018417879562244641 0 -0.025774648695867312 0.0010386373843917027 0 -0.034409902554493638 0.0023822638277121284 0 -0.033943983219291783 0.0026554726768270327 0 -0.034305981899019483 0.0023804613202351782 0 -0.024349482092676095 0.0013395212959465275 0 -0.024311393981342765 0.0012590635421588826 0 -0.024385660918831292 0.0012253140366606243 0 -0.033943983219291783 0.0026554726768270327 0 -0.033761468828651081 0.0024141988694528754 0 -0.032877667890810015 0.002659414262359707 0 -0.03413089245916804 0.0023439750113237231 0 -0.034309205012613399 0.0023487712178177178 0 -0.033943983219291783 0.0026554726768270327 0 -0.033761468828651081 0.0024141988694528754 0 -0.034305981899019483 0.0023804613202351782 0 -0.034641273743230061 0.0022033473800523564 0 -0.034523669870835716 0.0023870259397956086 0 -0.034305981899019483 0.0023804613202351782 0 -0.034641273743230061 0.0022033473800523564 0 -0.034523669870835716 0.0023870259397956086 0 -0.034705210896066041 0.0024290857942356075 0 -0.034523669870835716 0.0023870259397956086 0 -0.034705210896066041 0.0024290857942356075 0 -0.034455255740866567 0.0025517470460238688 0 -0.034523669870835716 0.0023870259397956086 0 -0.034305981899019483 0.0023804613202351782 0 -0.034455255740866567 0.0025517470460238688 0 -0.03718125128234373 0.0016323290336986256 0 -0.03852868005302762 0.0019324855436871154 0 -0.034359730042458403 0.0023574912554306755 0 -0.034305981899019483 0.0023804613202351782 0 -0.034455255740866567 0.0025517470460238688 0 -0.042633816260191103 0.0013496229097997529 0 -0.042396650572928782 0.0010973177341185288 0 -0.042007821710673882 0.001169524950973271 0 -0.042396650572928782 0.0010973177341185288 0 -0.042486492730643831 0.00095642144943783541 0 -0.042319932978364484 0.00085343094629355596 0 -0.042396650572928782 0.0010973177341185288 0 -0.042319932978364484 0.00085343094629355596 0 -0.042007821710673882 0.001169524950973271 0 -0.042319932978364484 0.00085343094629355596 0 -0.041928869643725379 0.00082029772576970225 0 -0.042007821710673882 0.001169524950973271 0 -0.042581910252796729 0.00084103312366205849 0 -0.042486492730643831 0.00095642144943783541 0 -0.042319932978364484 0.00085343094629355596 0 -0.042583082597001096 0.00054156462176108274 0 -0.042581910252796729 0.00084103312366205849 0 -0.042319932978364484 0.00085343094629355596 0 -0.042583082597001096 0.00054156462176108274 0 -0.042319932978364484 0.00085343094629355596 0 -0.042196136320626972 0.00047593049425533989 0 -0.042319932978364484 0.00085343094629355596 0 -0.042196136320626972 0.00047593049425533989 0 -0.041928869643725379 0.00082029772576970225 0 -0.042583082597001096 0.00054156462176108274 0 -0.042196136320626972 0.00047593049425533989 0 -0.042494156936503505 0.0002611521128257403 0 -0.041608862929746269 0.00011932187945058778 0 -0.041943695008788084 0.00016095827783742893 0 -0.041748852080688986 0.00057318738630993636 0 -0.041943695008788084 0.00016095827783742893 0 -0.042196136320626972 0.00047593049425533989 0 -0.041748852080688986 0.00057318738630993636 0 -0.042196136320626972 0.00047593049425533989 0 -0.041748852080688986 0.00057318738630993636 0 -0.041928869643725379 0.00082029772576970225 0 -0.03852868005302762 0.0019324855436871154 0 -0.038037941000907592 0.0018371618863939529 0 -0.041928869643725379 0.00082029772576970225 0 -0.042007821710673882 0.001169524950973271 0 -0.041354715563672678 0.0010331717646641894 0 -0.034705210896066041 0.0024290857942356075 0 -0.034455255740866567 0.0025517470460238688 0 -0.034952177456475803 0.0027432306870565451 0 -0.041748852080688986 0.00057318738630993636 0 -0.041928869643725379 0.00082029772576970225 0 -0.041354715563672678 0.0010331717646641894 0 -0.041748852080688986 0.00057318738630993636 0 -0.041354715563672678 0.0010331717646641894 0 -0.041400833231028361 0.0005541229199900428 0 -0.041354715563672678 0.0010331717646641894 0 -0.041400833231028361 0.0005541229199900428 0 -0.041052624341911544 0.00069357431365549131 0 -0.041215687933233915 0.00027181101582493002 0 -0.041400833231028361 0.0005541229199900428 0 -0.041052624341911544 0.00069357431365549131 0 -0.041608862929746269 0.00011932187945058778 0 -0.041215687933233915 0.00027181101582493002 0 -0.041400833231028361 0.0005541229199900428 0 -0.041608862929746269 0.00011932187945058778 0 -0.041748852080688986 0.00057318738630993636 0 -0.041400833231028361 0.0005541229199900428 0 -0.040863906696331879 0.00036850280091615197 0 -0.041052624341911544 0.00069357431365549131 0 -0.040752756218534351 0.00082445516401489485 0 -0.040863906696331879 0.00036850280091615197 0 -0.040752756218534351 0.00082445516401489485 0 -0.040194837038587811 0.00040896788098984617 0 -0.041215687933233915 0.00027181101582493002 0 -0.040863906696331879 0.00036850280091615197 0 -0.041052624341911544 0.00069357431365549131 0 -0.039668205908897039 0.00080901967939016556 0 -0.038273167900806447 0.0021691224500150872 0 -0.041052624341911544 0.00069357431365549131 0 -0.040752756218534351 0.00082445516401489485 0 -0.040686600692365973 0.00096245969523078791 0 -0.038037941000907592 0.0018371618863939529 0 -0.038273167900806447 0.0021691224500150872 0 -0.03520469006655938 0.0025112058388245722 0 -0.035433930661492162 0.0028836150780311575 0 -0.035498769291345982 0.002534229004707139 0 -0.041354715563672678 0.0010331717646641894 0 -0.041052624341911544 0.00069357431365549131 0 -0.040686600692365973 0.00096245969523078791 0 -0.034952177456475803 0.0027432306870565451 0 -0.03520469006655938 0.0025112058388245722 0 -0.035433930661492162 0.0028836150780311575 0 -0.03520469006655938 0.0025112058388245722 0 -0.035295204590301332 0.0022587662651962583 0 -0.035498769291345982 0.002534229004707139 0 -0.03520469006655938 0.0025112058388245722 0 -0.035295204590301332 0.0022587662651962583 0 -0.035105523940162163 0.0022658246323517027 0 -0.03520469006655938 0.0025112058388245722 0 -0.034943671913670642 0.0023931589916027117 0 -0.035105523940162163 0.0022658246323517027 0 -0.034705210896066041 0.0024290857942356075 0 -0.034952177456475803 0.0027432306870565451 0 -0.034943671913670642 0.0023931589916027117 0 -0.034952177456475803 0.0027432306870565451 0 -0.03520469006655938 0.0025112058388245722 0 -0.034943671913670642 0.0023931589916027117 0 -0.034641273743230061 0.0022033473800523564 0 -0.034705210896066041 0.0024290857942356075 0 -0.034943671913670642 0.0023931589916027117 0 -0.033943983219291783 0.0026554726768270327 0 -0.032877667890810015 0.002659414262359707 0 -0.032871448758237949 0.0032478281850486261 0 -0.03413089245916804 0.0023439750113237231 0 -0.034271083232574176 0.0023006486162865784 0 -0.034943671913670642 0.0023931589916027117 0 -0.035030288504815398 0.0020722713925839758 0 -0.035105523940162163 0.0022658246323517027 0 -0.034641273743230061 0.0022033473800523564 0 -0.034943671913670642 0.0023931589916027117 0 -0.035030288504815398 0.0020722713925839758 0 -0.034271083232574176 0.0023006486162865784 0 -0.031800202055663994 0.0021592379941863357 0 -0.035030288504815398 0.0020722713925839758 0 -0.035295204590301332 0.0022587662651962583 0 -0.035384250723753979 0.0019538793785274428 0 -0.035030288504815398 0.0020722713925839758 0 -0.035295204590301332 0.0022587662651962583 0 -0.035105523940162163 0.0022658246323517027 0 -0.032813502118432696 0.0031132176005367381 0 -0.03276114018113882 0.0033105487396521303 0 -0.031992559985608307 0.0029625923045110678 0 -0.029167396482470256 0.0016054969906883591 0 -0.031800202055663994 0.0021592379941863357 0 -0.032877667890810015 0.002659414262359707 0 -0.032813502118432696 0.0031132176005367381 0 -0.031992559985608307 0.0029625923045110678 0 -0.027875345149967909 0.0011574423979150634 0 -0.027991299388784276 0.0011563388392046101 0 -0.027576324242340584 0.0012358368731879936 0 -0.027875345149967909 0.0011574423979150634 0 -0.027749612889585579 0.0011356336639392309 0 -0.027576324242340584 0.0012358368731879936 0 -0.026654809601703973 0.00050932544465101255 0 -0.023356590300712816 0.00026542422929879073 0 -0.027749612889585579 0.0011356336639392309 0 -0.027933658078660061 0.001126553516734739 0 -0.027700457737122902 0.0010250049323453372 0 -0.027875345149967909 0.0011574423979150634 0 -0.027749612889585579 0.0011356336639392309 0 -0.027933658078660061 0.001126553516734739 0 -0.028681355952617078 0.0016748929218307316 0 -0.029167396482470256 0.0016054969906883591 0 -0.027565696954854547 0.00072390970072610833 0 -0.027577734638754604 0.00075214106208786047 0 -0.027726246898833636 0.00071997966165741434 0 -0.031210123037099687 0.0015135369109515648 0 -0.029368028362173199 0.0018483896011796618 0 -0.032877667890810015 0.002659414262359707 0 -0.032813502118432696 0.0031132176005367381 0 -0.032871448758237949 0.0032478281850486261 0 -0.026654809601703973 0.00050932544465101255 0 -0.027986940651593017 0.00070094839381466812 0 -0.027395650025494982 0.00074575090138737543 0 -0.027624707483787213 0.00083980256536494015 0 -0.027726246898833636 0.00071997966165741434 0 -0.029979665268125486 0.0025492728362765714 0 -0.029368028362173199 0.0018483896011796618 0 -0.026654809601703973 0.00050932544465101255 0 -0.027797574693337424 0.00091603094166274341 0 -0.027875345149967909 0.0011574423979150634 0 -0.027932723235327316 0.0011223934109481312 0 -0.027991299388784276 0.0011563388392046101 0 -0.032813502118432696 0.0031132176005367381 0 -0.03276114018113882 0.0033105487396521303 0 -0.032867127688172848 0.0032468389203449987 0 -0.0286664790101076 0.0015761114540041373 0 -0.028415772516776152 0.0017202321902935792 0 -0.028232551412121967 0.0013219157991967252 0 -0.029167396482470256 0.0016054969906883591 0 -0.026654809601703973 0.00050932544465101255 0 -0.029368028362173199 0.0018483896011796618 0 -0.026654809601703973 0.00050932544465101255 0 -0.029167396482470256 0.0016054969906883591 0 -0.029368028362173199 0.0018483896011796618 0 -0.026654809601703973 0.00050932544465101255 0 -0.024338240168078472 -0.0001332414184820685 0 -0.027362853483061417 0.00073316801496387017 0 -0.027547192377895748 0.001149706981485572 0 -0.027624707483787213 0.00083980256536494015 0 -0.021744844265765655 -0.00050953951030216222 0 -0.021468551346351845 0.00043644142201843591 0 -0.022148339725925829 0.00041275143316357309 0 -0.021744844265765655 -0.00050953951030216222 0 -0.021033400109173938 0.00019784552824153741 0 -0.020894311946560717 -0.00015227977436734112 0 -0.021744844265765655 -0.00050953951030216222 0 -0.021033400109173938 0.00019784552824153741 0 -0.021468551346351845 0.00043644142201843591 0 -0.021744844265765655 -0.00050953951030216222 0 -0.020651221100528947 -0.00031360783612265259 0 -0.020894311946560717 -0.00015227977436734112 0 -0.021033400109173938 0.00019784552824153741 0 -0.021468551346351845 0.00043644142201843591 0 -0.020843439794698406 0.00059691624386111258 0 -0.021468551346351845 0.00043644142201843591 0 -0.021096337360416179 0.00096250075502088135 0 -0.020843439794698406 0.00059691624386111258 0 -0.021096337360416179 0.00096250075502088135 0 -0.021783922853823603 0.00097785479243614297 0 -0.021413782327343329 0.0015852880760266045 0 -0.020877216608495563 0.0013540496154824078 0 -0.020038099062362806 0.00050750812462763291 0 -0.021468551346351845 0.00043644142201843591 0 -0.021096337360416179 0.00096250075502088135 0 -0.021783922853823603 0.00097785479243614297 0 -0.021096337360416179 0.00096250075502088135 0 -0.020382042015778128 0.00098945616632127326 0 -0.021413782327343329 0.0015852880760266045 0 -0.021261052057049833 -0.00054525119190815957 0 -0.020730370027659543 0.00028698764732402467 0 -0.020964999022845206 0.00041118450533585366 0 -0.021261052057049833 -0.00054525119190815957 0 -0.022347985944311286 -0.00011521232980501257 0 -0.020964999022845206 0.00041118450533585366 0 -0.021454213371492326 0.00032848147132520026 0 -0.020038099062362806 0.00050750812462763291 0 -0.021468551346351845 0.00043644142201843591 0 -0.021783922853823603 0.00097785479243614297 0 -0.022148339725925829 0.00041275143316357309 0 -0.021454213371492326 0.00032848147132520026 0 -0.024338240168078472 -0.0001332414184820685 0 -0.025891185534423315 -0.00068706240225396647 0 -0.025149100901972008 -0.0023780316215834059 0 -0.024508694668362238 -0.00049632385582825799 0 -0.024338240168078472 -0.0001332414184820685 0 -0.022676662636676722 -0.0016654109818637056 0 -0.021261052057049833 -0.00054525119190815957 0 -0.021786294752607363 -0.0013665803124441774 0 -0.022347985944311286 -0.00011521232980501257 0 -0.021493515456798645 -0.0016491470581926277 0 -0.021006725715578912 -0.0014299246454800235 0 -0.021216655045748149 -0.0018356280684906814 0 -0.022676662636676722 -0.0016654109818637056 0 -0.022228227637630965 -0.0016304843805835085 0 -0.025149100901972008 -0.0023780316215834059 0 -0.024508694668362238 -0.00049632385582825799 0 -0.023193466056326269 -0.0017169089204158272 0 -0.024508694668362238 -0.00049632385582825799 0 -0.023368056178282488 -0.00023366906773459017 0 -0.023193466056326269 -0.0017169089204158272 0 -0.024508694668362238 -0.00049632385582825799 0 -0.02499725670371622 0.00066881109266068734 0 -0.024260972980221829 0.00086828376354993202 0 -0.024508694668362238 -0.00049632385582825799 0 -0.024260972980221829 0.00086828376354993202 0 -0.023368056178282488 -0.00023366906773459017 0 -0.024338240168078472 -0.0001332414184820685 0 -0.026646681881953158 0.00061335955556077659 0 -0.025891185534423315 -0.00068706240225396647 0 -0.024508694668362238 -0.00049632385582825799 0 -0.02499725670371622 0.00066881109266068734 0 -0.027547192377895748 0.001149706981485572 0 -0.027624707483787213 0.00083980256536494015 0 -0.027754920475711341 0.00084047580570577654 0 -0.02776883563694264 0.00059228660906721184 0 -0.027565696954854547 0.00072390970072610833 0 -0.027726246898833636 0.00071997966165741434 0 -0.027754920475711341 0.00084047580570577654 0 -0.027726246898833636 0.00071997966165741434 0 -0.027786321738374017 0.00069427434898310548 0 -0.027754920475711341 0.00084047580570577654 0 -0.027786321738374017 0.00069427434898310548 0 -0.027901677651315925 0.00064344652194957557 0 -0.027624707483787213 0.00083980256536494015 0 -0.027754920475711341 0.00084047580570577654 0 -0.027726246898833636 0.00071997966165741434 0 -0.02776883563694264 0.00059228660906721184 0 -0.027726246898833636 0.00071997966165741434 0 -0.027786321738374017 0.00069427434898310548 0 -0.02776883563694264 0.00059228660906721184 0 -0.027786321738374017 0.00069427434898310548 0 -0.027901677651315925 0.00064344652194957557 0 -0.02499725670371622 0.00066881109266068734 0 -0.024385660918831292 0.0012253140366606243 0 -0.024260972980221829 0.00086828376354993202 0 -0.024311393981342765 0.0012590635421588826 0 -0.024385660918831292 0.0012253140366606243 0 -0.024260972980221829 0.00086828376354993202 0 -0.026646681881953158 0.00061335955556077659 0 -0.025774648695867312 0.0010386373843917027 0 -0.024226062736060101 0.00089443820472716459 0 -0.023424151392495166 0.0013052438255346597 0 -0.024260972980221829 0.00086828376354993202 0 -0.022557280400690143 0.0015178470857407423 0 -0.022583053312610481 0.00060455251943165606 0 -0.024311393981342765 0.0012590635421588826 0 -0.024260972980221829 0.00086828376354993202 0 -0.024221617111753812 0.001157221170808404 0 -0.021746789366665659 0.0017647672391158757 0 -0.022557280400690143 0.0015178470857407423 0 -0.022108285078473351 0.001206598388499801 0 -0.022557280400690143 0.0015178470857407423 0 -0.022108285078473351 0.001206598388499801 0 -0.022583053312610481 0.00060455251943165606 0 -0.022583053312610481 0.00060455251943165606 0 -0.022118176185620522 -0.00049614428979858878 0 -0.020443630320459094 -0.00054443036003189833 0 -0.022486436538119516 0.00057583665331162196 0 -0.021178464359720383 -2.9918003063089754e-05 0 -0.022021312942961436 0.00080131113027670259 0 -0.022583053312610481 0.00060455251943165606 0 -0.021815884031974962 0.00042732657671648436 0 -0.022108285078473351 0.001206598388499801 0 -0.022021312942961436 0.00080131113027670259 0 -0.022583053312610481 0.00060455251943165606 0 -0.022583053312610481 0.00060455251943165606 0 -0.023368056178282488 -0.00023366906773459017 0 -0.022118176185620522 -0.00049614428979858878 0 -0.024260972980221829 0.00086828376354993202 0 -0.022583053312610481 0.00060455251943165606 0 -0.023368056178282488 -0.00023366906773459017 0 -0.023368056178282488 -0.00023366906773459017 0 -0.023193466056326269 -0.0017169089204158272 0 -0.022118176185620522 -0.00049614428979858878 0 -0.021006725715578912 -0.0014299246454800235 0 -0.02082579678371814 -0.0016327803683396595 0 -0.020944632927631407 -0.0018550730910949357 0 -0.021006725715578912 -0.0014299246454800235 0 -0.02082579678371814 -0.0016327803683396595 0 -0.020719797359431105 -0.0014066509770931342 0 -0.021006725715578912 -0.0014299246454800235 0 -0.020719797359431105 -0.0014066509770931342 0 -0.020711089208092569 -0.0010056344877001451 0 -0.020719797359431105 -0.0014066509770931342 0 -0.020510241486923753 -0.0015388048152056822 0 -0.020573493576520614 -0.0017385361629080804 0 -0.02082579678371814 -0.0016327803683396595 0 -0.020719797359431105 -0.0014066509770931342 0 -0.020573493576520614 -0.0017385361629080804 0 -0.020719797359431105 -0.0014066509770931342 0 -0.020711089208092569 -0.0010056344877001451 0 -0.020520224488991556 -0.0013170358441343148 0 -0.020719797359431105 -0.0014066509770931342 0 -0.020520224488991556 -0.0013170358441343148 0 -0.020510241486923753 -0.0015388048152056822 0 -0.022118176185620522 -0.00049614428979858878 0 -0.020443630320459094 -0.00054443036003189833 0 -0.020711089208092569 -0.0010056344877001451 0 -0.022228227637630965 -0.0016304843805835085 0 -0.020684354007351125 -0.00099947354362385781 0 -0.023193466056326269 -0.0017169089204158272 0 -0.022118176185620522 -0.00049614428979858878 0 -0.020711089208092569 -0.0010056344877001451 0 -0.020443630320459094 -0.00054443036003189833 0 -0.02026884160998739 -0.0011438531631451393 0 -0.01967525390111587 -0.0011582896245125773 0 -0.020443630320459094 -0.00054443036003189833 0 -0.02026884160998739 -0.0011438531631451393 0 -0.020711089208092569 -0.0010056344877001451 0 -0.021815884031974962 0.00042732657671648436 0 -0.021125519938379116 5.5569632434050248e-05 0 -0.021533748710861594 0.00050873543308256142 0 -0.02026884160998739 -0.0011438531631451393 0 -0.020711089208092569 -0.0010056344877001451 0 -0.020520224488991556 -0.0013170358441343148 0 -0.02026884160998739 -0.0011438531631451393 0 -0.020520224488991556 -0.0013170358441343148 0 -0.020282681456122335 -0.0014441566999776158 0 -0.020520224488991556 -0.0013170358441343148 0 -0.020282681456122335 -0.0014441566999776158 0 -0.020510241486923753 -0.0015388048152056822 0 -0.02026884160998739 -0.0011438531631451393 0 -0.020282681456122335 -0.0014441566999776158 0 -0.020029020785699209 -0.001334022071899407 0 -0.020282681456122335 -0.0014441566999776158 0 -0.019879697248964014 -0.0015900329437515401 0 -0.020234260846685569 -0.0018105459869323976 0 -0.020282681456122335 -0.0014441566999776158 0 -0.020510241486923753 -0.0015388048152056822 0 -0.020234260846685569 -0.0018105459869323976 0 -0.019879697248964014 -0.0015900329437515401 0 -0.020029020785699209 -0.001334022071899407 0 -0.01967525390111587 -0.0011582896245125773 0 -0.020282681456122335 -0.0014441566999776158 0 -0.019879697248964014 -0.0015900329437515401 0 -0.020029020785699209 -0.001334022071899407 0 -0.019930590656178297 -0.0015536012563466682 0 -0.020491540236743169 -0.00074672809330901806 0 -0.021178464359720383 -2.9918003063089754e-05 0 -0.020491540236743169 -0.00074672809330901806 0 -0.020491540236743169 -0.00074672809330901806 0 -0.021140465258810765 0.00065126671673645595 0 -0.02026884160998739 -0.0011438531631451393 0 -0.020029020785699209 -0.001334022071899407 0 -0.01967525390111587 -0.0011582896245125773 0 -0.021125519938379116 5.5569632434050248e-05 0 -0.021413178907325994 0.00079033183226556269 0 -0.021533748710861594 0.00050873543308256142 0 -0.021125519938379116 5.5569632434050248e-05 0 -0.021413178907325994 0.00079033183226556269 0 -0.020927719806202158 0.0008285006894834054 0 -0.021413178907325994 0.00079033183226556269 0 -0.021289582016883832 0.0013950626456936308 0 -0.020927719806202158 0.0008285006894834054 0 -0.021413178907325994 0.00079033183226556269 0 -0.021533748710861594 0.00050873543308256142 0 -0.021774185766607293 0.00074959663928327036 0 -0.021815884031974962 0.00042732657671648436 0 -0.021533748710861594 0.00050873543308256142 0 -0.021774185766607293 0.00074959663928327036 0 -0.022021312942961436 0.00080131113027670259 0 -0.021815884031974962 0.00042732657671648436 0 -0.021774185766607293 0.00074959663928327036 0 -0.022021312942961436 0.00080131113027670259 0 -0.021774185766607293 0.00074959663928327036 0 -0.021763221605808007 0.0011268097266141908 0 -0.021413178907325994 0.00079033183226556269 0 -0.021774185766607293 0.00074959663928327036 0 -0.021763221605808007 0.0011268097266141908 0 -0.021746789366665659 0.0017647672391158757 0 -0.021763221605808007 0.0011268097266141908 0 -0.021289582016883832 0.0013950626456936308 0 -0.021746789366665659 0.0017647672391158757 0 -0.022108285078473351 0.001206598388499801 0 -0.021763221605808007 0.0011268097266141908 0 -0.022108285078473351 0.001206598388499801 0 -0.022021312942961436 0.00080131113027670259 0 -0.021763221605808007 0.0011268097266141908 0 -0.021413178907325994 0.00079033183226556269 0 -0.021763221605808007 0.0011268097266141908 0 -0.021289582016883832 0.0013950626456936308 0 -0.029895778364258999 0.0003097566977891792 0 -0.030063146124967112 0.00039887985645699608 0 -0.029775548234373627 0.00016613079146935686 0 -0.029895778364258999 0.0003097566977891792 0 -0.030063146124967112 0.00039887985645699608 0 -0.030209067588966992 0.0006303795064566824 0 -0.030063146124967112 0.00039887985645699608 0 -0.029775548234373627 0.00016613079146935686 0 -0.030119780889216023 0.0002738951071317565 0 -0.030063146124967112 0.00039887985645699608 0 -0.030119780889216023 0.0002738951071317565 0 -0.030361987110648869 0.00080173944792757328 0 -0.030209067588966992 0.0006303795064566824 0 -0.030539632529225882 0.0010752161561581024 0 -0.030361987110648869 0.00080173944792757328 0 -0.030063146124967112 0.00039887985645699608 0 -0.030209067588966992 0.0006303795064566824 0 -0.030361987110648869 0.00080173944792757328 0 -0.030158132635290599 0.00068774339879680438 0 -0.029799289425016185 0.00033734666868667171 0 -0.02949100571096179 0.00028405207597257022 0 -0.030158132635290599 0.00068774339879680438 0 -0.029515671158970101 0.00069134443259447954 0 -0.029356660240541517 0.00033341824177347698 0 -0.030155414859484912 0.00071856471274270881 0 -0.029267295175478238 0.0001613433375986081 0 -0.030209067588966992 0.0006303795064566824 0 -0.030539632529225882 0.0010752161561581024 0 -0.030158132635290599 0.00068774339879680438 0 -0.030539632529225882 0.0010752161561581024 0 -0.031870600948055931 0.001220545271857572 0 -0.032076410439583196 0.0020232236252394533 0 -0.030539632529225882 0.0010752161561581024 0 -0.030158132635290599 0.00068774339879680438 0 -0.029515671158970101 0.00069134443259447954 0 -0.030655919761672149 0.0011898954137283342 0 -0.030529684332555221 0.0012254494942328725 0 -0.029895778364258999 0.0003097566977891792 0 -0.030209067588966992 0.0006303795064566824 0 -0.029952748726983718 0.00044061695731525952 0 -0.029895778364258999 0.0003097566977891792 0 -0.029952748726983718 0.00044061695731525952 0 -0.029799289425016185 0.00033734666868667171 0 -0.030158132635290599 0.00068774339879680438 0 -0.029952748726983718 0.00044061695731525952 0 -0.029799289425016185 0.00033734666868667171 0 -0.030209067588966992 0.0006303795064566824 0 -0.030158132635290599 0.00068774339879680438 0 -0.029952748726983718 0.00044061695731525952 0 -0.029895778364258999 0.0003097566977891792 0 -0.029799289425016185 0.00033734666868667171 0 -0.029634869055327705 0.0001654245677838741 0 -0.029799289425016185 0.00033734666868667171 0 -0.029595752081228843 0.00019017801800002055 0 -0.029634869055327705 0.0001654245677838741 0 -0.029595752081228843 0.00019017801800002055 0 -0.029634869055327705 0.0001654245677838741 0 -0.02946360773629245 0.00022511545275215019 0 -0.029634869055327705 0.0001654245677838741 0 -0.029540342907449543 0.00010371027833259004 0 -0.029393857965643391 0.00011971256822210973 0 -0.029540342907449543 0.00010371027833259004 0 -0.029345133176679514 1.0506870826835381e-05 0 -0.029002072790760277 0.00011491069606578709 0 -0.029540342907449543 0.00010371027833259004 0 -0.029002072790760277 0.00011491069606578709 0 -0.029393857965643391 0.00011971256822210973 0 -0.029895778364258999 0.0003097566977891792 0 -0.029634869055327705 0.0001654245677838741 0 -0.029540342907449543 0.00010371027833259004 0 -0.029895778364258999 0.0003097566977891792 0 -0.029775548234373627 0.00016613079146935686 0 -0.029540342907449543 0.00010371027833259004 0 -0.029775548234373627 0.00016613079146935686 0 -0.029540342907449543 0.00010371027833259004 0 -0.029345133176679514 1.0506870826835381e-05 0 -0.028667844643347099 -2.3404562778005744e-05 0 -0.029345133176679514 1.0506870826835381e-05 0 -0.029002072790760277 0.00011491069606578709 0 -0.028667844643347099 -2.3404562778005744e-05 0 -0.029345133176679514 1.0506870826835381e-05 0 -0.029465309077848733 -5.8844701374513942e-05 0 -0.029345133176679514 1.0506870826835381e-05 0 -0.029465309077848733 -5.8844701374513942e-05 0 -0.029880788618751274 6.1500277586093072e-05 0 -0.029775548234373627 0.00016613079146935686 0 -0.029345133176679514 1.0506870826835381e-05 0 -0.029880788618751274 6.1500277586093072e-05 0 -0.028667844643347099 -2.3404562778005744e-05 0 -0.029465309077848733 -5.8844701374513942e-05 0 -0.028083142938309796 -3.7766697462692397e-07 0 -0.029465309077848733 -5.8844701374513942e-05 0 -0.030755365499939562 4.8548569308734925e-07 0 -0.028083142938309796 -3.7766697462692397e-07 0 -0.029465309077848733 -5.8844701374513942e-05 0 -0.030447343894710557 2.9409754789745014e-05 0 -0.030755365499939562 4.8548569308734925e-07 0 -0.029775548234373627 0.00016613079146935686 0 -0.029880788618751274 6.1500277586093072e-05 0 -0.030119780889216023 0.0002738951071317565 0 -0.029465309077848733 -5.8844701374513942e-05 0 -0.030447343894710557 2.9409754789745014e-05 0 -0.029880788618751274 6.1500277586093072e-05 0 -0.030447343894710557 2.9409754789745014e-05 0 -0.029880788618751274 6.1500277586093072e-05 0 -0.030473713082164795 0.00020911315144624801 0 -0.029880788618751274 6.1500277586093072e-05 0 -0.030119780889216023 0.0002738951071317565 0 -0.030473713082164795 0.00020911315144624801 0 -0.030473713082164795 0.00020911315144624801 0 -0.031966965087020113 0.00037722333996692754 0 -0.030181752844890192 0.0006309233494086378 0 -0.030119780889216023 0.0002738951071317565 0 -0.030473713082164795 0.00020911315144624801 0 -0.030269582359365301 0.00058955519538653591 0 -0.030473713082164795 0.00020911315144624801 0 -0.030181752844890192 0.0006309233494086378 0 -0.030269582359365301 0.00058955519538653591 0 -0.030755365499939562 4.8548569308734925e-07 0 -0.031966965087020113 0.00037722333996692754 0 -0.033428255591139225 8.223886878016774e-07 0 -0.030447343894710557 2.9409754789745014e-05 0 -0.030755365499939562 4.8548569308734925e-07 0 -0.031966965087020113 0.00037722333996692754 0 -0.030447343894710557 2.9409754789745014e-05 0 -0.030473713082164795 0.00020911315144624801 0 -0.031966965087020113 0.00037722333996692754 0 -0.034883181328951365 -0.00025085824611288887 0 -0.033428255591139225 8.223886878016774e-07 0 -0.033835605112765954 0.00014920582250188316 0 -0.031966965087020113 0.00037722333996692754 0 -0.033428255591139225 8.223886878016774e-07 0 -0.033835605112765954 0.00014920582250188316 0 -0.034883181328951365 -0.00025085824611288887 0 -0.033835605112765954 0.00014920582250188316 0 -0.035345372828839684 0.00067273752321262553 0 -0.032164263224857895 0.00043289393551851162 0 -0.032823954816100447 0.00053507518286495059 0 -0.031966965087020113 0.00037722333996692754 0 -0.033835605112765954 0.00014920582250188316 0 -0.035345372828839684 0.00067273752321262553 0 -0.031439685675049844 -0.00049964582633535383 0 -0.030181752844890192 0.0006309233494086378 0 -0.030931456832020282 0.00067373543021372073 0 -0.034243544798437997 -5.1127863882961728e-05 0 -0.032823954816100447 0.00053507518286495059 0 -0.030181752844890192 0.0006309233494086378 0 -0.030269582359365301 0.00058955519538653591 0 -0.030931456832020282 0.00067373543021372073 0 -0.030361987110648869 0.00080173944792757328 0 -0.030269582359365301 0.00058955519538653591 0 -0.030931456832020282 0.00067373543021372073 0 -0.030119780889216023 0.0002738951071317565 0 -0.030361987110648869 0.00080173944792757328 0 -0.030269582359365301 0.00058955519538653591 0 -0.03119546791009855 0.0009764060915760655 0 -0.030931456832020282 0.00067373543021372073 0 -0.032837958734618006 0.0010092666557088533 0 -0.030539632529225882 0.0010752161561581024 0 -0.031870600948055931 0.001220545271857572 0 -0.03119546791009855 0.0009764060915760655 0 -0.030539632529225882 0.0010752161561581024 0 -0.030361987110648869 0.00080173944792757328 0 -0.03119546791009855 0.0009764060915760655 0 -0.030361987110648869 0.00080173944792757328 0 -0.03119546791009855 0.0009764060915760655 0 -0.030931456832020282 0.00067373543021372073 0 -0.031870600948055931 0.001220545271857572 0 -0.03119546791009855 0.0009764060915760655 0 -0.032837958734618006 0.0010092666557088533 0 -0.031439685675049844 -0.00049964582633535383 0 -0.030931456832020282 0.00067373543021372073 0 -0.032837958734618006 0.0010092666557088533 0 -0.031439685675049844 -0.00049964582633535383 0 -0.032837958734618006 0.0010092666557088533 0 -0.034783993285985255 0.0002342140942541908 0 -0.032837958734618006 0.0010092666557088533 0 -0.034783993285985255 0.0002342140942541908 0 -0.035329078409799854 0.0018303855179864163 0 -0.037402386247771632 -0.00019634605213514526 0 -0.034783993285985255 0.0002342140942541908 0 -0.036906508998775435 0.0011286564476245379 0 -0.037402386247771632 -0.00019634605213514526 0 -0.036906508998775435 0.0011286564476245379 0 -0.038337468543432139 0.00080202640877374723 0 -0.036906508998775435 0.0011286564476245379 0 -0.036924366449318187 0.0024637676874435807 0 -0.037983435213107618 0.0017635070668495071 0 -0.034783993285985255 0.0002342140942541908 0 -0.036906508998775435 0.0011286564476245379 0 -0.035329078409799854 0.0018303855179864163 0 -0.035329078409799854 0.0018303855179864163 0 -0.036924366449318187 0.0024637676874435807 0 -0.035715897242634319 0.0031014164938723715 0 -0.036906508998775435 0.0011286564476245379 0 -0.035329078409799854 0.0018303855179864163 0 -0.036924366449318187 0.0024637676874435807 0 -0.036924366449318187 0.0024637676874435807 0 -0.036865546196464358 0.0036950719231776371 0 -0.035715897242634319 0.0031014164938723715 0 -0.036865546196464358 0.0036950719231776371 0 -0.035715897242634319 0.0031014164938723715 0 -0.035771735258438568 0.0041307854856594273 0 -0.035715897242634319 0.0031014164938723715 0 -0.034348721182057812 0.0035831625568105265 0 -0.035771735258438568 0.0041307854856594273 0 -0.035329078409799854 0.0018303855179864163 0 -0.035715897242634319 0.0031014164938723715 0 -0.034348721182057812 0.0035831625568105265 0 -0.032837225967285326 0.0010454280920954029 0 -0.033548309864004894 0.0026803910584868567 0 -0.031870600948055931 0.001220545271857572 0 -0.032837958734618006 0.0010092666557088533 0 -0.03252549697333712 0.0013846488376896067 0 -0.032837958734618006 0.0010092666557088533 0 -0.035329078409799854 0.0018303855179864163 0 -0.034348721182057812 0.0035831625568105265 0 -0.040752756218534351 0.00082445516401489485 0 -0.039822665593299875 0.0021768955178965038 0 -0.040711134913679205 0.0018358702589518906 0 -0.040752756218534351 0.00082445516401489485 0 -0.039857306767225743 0.0011249324371945286 0 -0.039822665593299875 0.0021768955178965038 0 -0.040752756218534351 0.00082445516401489485 0 -0.040194837038587811 0.00040896788098984617 0 -0.039857306767225743 0.0011249324371945286 0 -0.040194837038587811 0.00040896788098984617 0 -0.039379814544800537 0.00074115645009881746 0 -0.039857306767225743 0.0011249324371945286 0 -0.039121617707827835 -0.00011312493848994057 0 -0.040194837038587811 0.00040896788098984617 0 -0.039379814544800537 0.00074115645009881746 0 -0.039857306767225743 0.0011249324371945286 0 -0.039013078836278879 0.0016553103000135766 0 -0.039822665593299875 0.0021768955178965038 0 -0.039379814544800537 0.00074115645009881746 0 -0.039857306767225743 0.0011249324371945286 0 -0.039013078836278879 0.0016553103000135766 0 -0.039013078836278879 0.0016553103000135766 0 -0.038337468543432139 0.00080202640877374723 0 -0.037983435213107618 0.0017635070668495071 0 -0.039379814544800537 0.00074115645009881746 0 -0.039013078836278879 0.0016553103000135766 0 -0.038337468543432139 0.00080202640877374723 0 -0.039121617707827835 -0.00011312493848994057 0 -0.039379814544800537 0.00074115645009881746 0 -0.038337468543432139 0.00080202640877374723 0 -0.036906508998775435 0.0011286564476245379 0 -0.038337468543432139 0.00080202640877374723 0 -0.037983435213107618 0.0017635070668495071 0 -0.036924366449318187 0.0024637676874435807 0 -0.037983435213107618 0.0017635070668495071 0 -0.038530619684657978 0.0032552598481282087 0 -0.036924366449318187 0.0024637676874435807 0 -0.036865546196464358 0.0036950719231776371 0 -0.038530619684657978 0.0032552598481282087 0 -0.039013078836278879 0.0016553103000135766 0 -0.037983435213107618 0.0017635070668495071 0 -0.038530619684657978 0.0032552598481282087 0 -0.039013078836278879 0.0016553103000135766 0 -0.038530619684657978 0.0032552598481282087 0 -0.039822665593299875 0.0021768955178965038 0 -0.039822665593299875 0.0021768955178965038 0 -0.040711134913679205 0.0018358702589518906 0 -0.040339194613758865 0.0039603698810576271 0 -0.038530619684657978 0.0032552598481282087 0 -0.039822665593299875 0.0021768955178965038 0 -0.040339194613758865 0.0039603698810576271 0 -0.038273167900806447 0.0021691224500150872 0 -0.038257225072912203 0.0035089179438350911 0 -0.038530619684657978 0.0032552598481282087 0 -0.040339194613758865 0.0039603698810576271 0 -0.038734492545773914 0.0049477122059814402 0 -0.035295204590301332 0.0022587662651962583 0 -0.035498769291345982 0.002534229004707139 0 -0.035440000101874938 0.0021971895716636062 0 -0.040339194613758865 0.0039603698810576271 0 -0.038734492545773914 0.0049477122059814402 0 -0.039524715688967274 0.0070350870376971091 0 -0.037777190652610947 0.0043072114242061798 0 -0.037500489488539894 0.0061679762744738737 0 -0.03666417620379496 0.0047377678440080331 0 -0.038734492545773914 0.0049477122059814402 0 -0.037777190652610947 0.0043072114242061798 0 -0.037500489488539894 0.0061679762744738737 0 -0.038530619684657978 0.0032552598481282087 0 -0.038734492545773914 0.0049477122059814402 0 -0.037777190652610947 0.0043072114242061798 0 -0.036865546196464358 0.0036950719231776371 0 -0.038530619684657978 0.0032552598481282087 0 -0.037777190652610947 0.0043072114242061798 0 -0.032017185445314074 0.0029260719361963337 0 -0.031909953402596676 0.0027845246427635147 0 -0.032179880068130745 0.0028188312273931663 0 -0.032017185445314074 0.0029260719361963337 0 -0.031909953402596676 0.0027845246427635147 0 -0.031746870870142323 0.0028017182350423687 0 -0.038734492545773914 0.0049477122059814402 0 -0.037500489488539894 0.0061679762744738737 0 -0.039524715688967274 0.0070350870376971091 0 -0.035276345531734934 0.0048454990676855747 0 -0.034676589084507901 0.0032730277263296218 0 -0.035295204590301332 0.0022587662651962583 0 -0.035440000101874938 0.0021971895716636062 0 -0.035384250723753979 0.0019538793785274428 0 -0.038257225072912203 0.0035089179438350911 0 -0.034676589084507901 0.0032730277263296218 0 -0.035498769291345982 0.002534229004707139 0 -0.035584519165520787 0.0020457558130952424 0 -0.035440000101874938 0.0021971895716636062 0 -0.035584519165520787 0.0020457558130952424 0 -0.035440000101874938 0.0021971895716636062 0 -0.035384250723753979 0.0019538793785274428 0 -0.030529684332555221 0.0012254494942328725 0 -0.032491551595537516 0.0027791508041093331 0 -0.029515671158970101 0.00069134443259447954 0 -0.029108261772783674 0.00044074200994868786 0 -0.029356660240541517 0.00033341824177347698 0 -0.031870600948055931 0.001220545271857572 0 -0.03252549697333712 0.0013846488376896067 0 -0.032076410439583196 0.0020232236252394533 0 -0.03252549697333712 0.0013846488376896067 0 -0.032076410439583196 0.0020232236252394533 0 -0.033000264988094802 0.0024342596992544575 0 -0.033548309864004894 0.0026803910584868567 0 -0.032491551595537516 0.0027791508041093331 0 -0.034348721182057812 0.0035831625568105265 0 -0.035771735258438568 0.0041307854856594273 0 -0.035396743048322903 0.0053507723629191732 0 -0.037500489488539894 0.0061679762744738737 0 -0.03666417620379496 0.0047377678440080331 0 -0.035396743048322903 0.0053507723629191732 0 -0.036865546196464358 0.0036950719231776371 0 -0.037777190652610947 0.0043072114242061798 0 -0.03666417620379496 0.0047377678440080331 0 -0.036865546196464358 0.0036950719231776371 0 -0.035771735258438568 0.0041307854856594273 0 -0.03666417620379496 0.0047377678440080331 0 -0.035771735258438568 0.0041307854856594273 0 -0.03666417620379496 0.0047377678440080331 0 -0.035396743048322903 0.0053507723629191732 0 -0.032491551595537516 0.0027791508041093331 0 -0.030134545798652924 0.0013511359228987798 0 -0.032017185445314074 0.0029260719361963337 0 -0.03228215123865591 0.0030451555469050849 0 -0.032179880068130745 0.0028188312273931663 0 -0.035276345531734934 0.0048454990676855747 0 -0.032491551595537516 0.0027791508041093331 0 -0.029108261772783674 0.00044074200994868786 0 -0.028985903419177037 0.00013130741099731799 0 -0.029356660240541517 0.00033341824177347698 0 -0.029582740460956342 0.00023688961562737308 0 -0.029548058013231571 0.00023263416516695429 0 -0.02949100571096179 0.00028405207597257022 0 -0.030134545798652924 0.0013511359228987798 0 -0.029267295175478238 0.0001613433375986081 0 -0.029799289425016185 0.00033734666868667171 0 -0.029595752081228843 0.00019017801800002055 0 -0.02949100571096179 0.00028405207597257022 0 -0.029595752081228843 0.00019017801800002055 0 -0.029548058013231571 0.00023263416516695429 0 -0.02949100571096179 0.00028405207597257022 0 -0.029595752081228843 0.00019017801800002055 0 -0.029548058013231571 0.00023263416516695429 0 -0.02955730127581184 0.00023985706868141315 0 -0.02955730127581184 0.00023985706868141315 0 -0.029581136253824795 0.00027270224055351059 0 -0.029570564937931205 0.00037772203149456107 0 -0.02955730127581184 0.00023985706868141315 0 -0.029570564937931205 0.00037772203149456107 0 -0.02946360773629245 0.00022511545275215019 0 -0.029548058013231571 0.00023263416516695429 0 -0.02955730127581184 0.00023985706868141315 0 -0.029581136253824795 0.00027270224055351059 0 -0.029582740460956342 0.00023688961562737308 0 -0.029548058013231571 0.00023263416516695429 0 -0.029581136253824795 0.00027270224055351059 0 -0.030134545798652924 0.0013511359228987798 0 -0.026705731645711824 0.00077600570068590987 0 -0.029616379850506934 0.00029665086128793477 0 -0.029581136253824795 0.00027270224055351059 0 -0.029570564937931205 0.00037772203149456107 0 -0.029582740460956342 0.00023688961562737308 0 -0.029616379850506934 0.00029665086128793477 0 -0.029581136253824795 0.00027270224055351059 0 -0.024655944565390487 0.00042872090474825749 0 -0.024599364560170305 0.00046923953279634544 0 -0.024658314512922042 0.00044982908112442972 0 -0.021617197322575481 0.0004908451362589444 0 -0.02271944731822587 0.00019477632361132821 0 -0.026705731645711824 0.00077600570068590987 0 -0.027456139342200744 0.00021893017722745826 0 -0.019801569121787887 0.00037297504948572883 0 -0.019550960427149384 0.00037556326419814788 0 -0.019933709795303779 0.00022623284489014465 0 -0.024655944565390487 0.00042872090474825749 0 -0.024599364560170305 0.00046923953279634544 0 -0.024585439571038897 0.00046534119979633147 0 -0.019801569121787887 0.00037297504948572883 0 -0.019933709795303779 0.00022623284489014465 0 -0.019902786805571043 0.00044701699095699577 0 -0.019801569121787887 0.00037297504948572883 0 -0.019677330326671433 0.00043309615889281536 0 -0.019767467767233881 0.00049970245618267148 0 -0.019677330326671433 0.00043309615889281536 0 -0.019550960427149384 0.00037556326419814788 0 -0.019570796592826567 0.00050724284626786837 0 -0.019801569121787887 0.00037297504948572883 0 -0.019677330326671433 0.00043309615889281536 0 -0.019550960427149384 0.00037556326419814788 0 -0.019550960427149384 0.00037556326419814788 0 -0.019468850428140026 0.00052449634865365819 0 -0.01947584396214997 0.0006244708419850249 0 -0.021617197322575481 0.0004908451362589444 0 -0.024245705457142115 0.00053879757768593645 0 -0.019550960427149384 0.00037556326419814788 0 -0.019468850428140026 0.00052449634865365819 0 -0.019570796592826567 0.00050724284626786837 0 -0.024599364560170305 0.00046923953279634544 0 -0.024585439571038897 0.00046534119979633147 0 -0.024539444778946335 0.00050058973170132211 0 -0.027456139342200744 0.00021893017722745826 0 -0.024245705457142115 0.00053879757768593645 0 -0.027749612889585579 0.0011356336639392309 0 -0.027616198925783118 0.0011239800349344808 0 -0.027576324242340584 0.0012358368731879936 0 -0.031800202055663994 0.0021592379941863357 0 -0.029571331338545927 0.0019845975070192775 0 -0.034676589084507901 0.0032730277263296218 0 -0.031800202055663994 0.0021592379941863357 0 -0.027749612889585579 0.0011356336639392309 0 -0.027616198925783118 0.0011239800349344808 0 -0.027700457737122902 0.0010250049323453372 0 -0.027616198925783118 0.0011239800349344808 0 -0.027700457737122902 0.0010250049323453372 0 -0.027505321208538221 0.0010927954981716232 0 -0.031902540872146473 0.0020981283655216016 0 -0.032121335062114231 0.0021944962679400189 0 -0.031841653457683028 0.0022983548210266554 0 -0.034676589084507901 0.0032730277263296218 0 -0.029571331338545927 0.0019845975070192775 0 -0.027616198925783118 0.0011239800349344808 0 -0.027505321208538221 0.0010927954981716232 0 -0.027478723181675078 0.0011700851843508724 0 -0.027616198925783118 0.0011239800349344808 0 -0.027478723181675078 0.0011700851843508724 0 -0.027576324242340584 0.0012358368731879936 0 -0.029571331338545927 0.0019845975070192775 0 -0.026586401203585158 0.0011635454461676302 0 -0.026586401203585158 0.0011635454461676302 0 -0.023356590300712816 0.00026542422929879073 0 -0.030134545798652924 0.0013511359228987798 0 -0.02877099634045845 0.0019068496756601578 0 -0.028955947567743862 0.0017136739933254167 0 -0.028650248153372197 0.0010409257107280136 0 -0.028187900676379721 0.0012152029120412774 0 -0.031909953402596676 0.0027845246427635147 0 -0.032179880068130745 0.0028188312273931663 0 -0.031863226283444498 0.0026136545305132852 0 -0.025713511102815195 0.00075807361171121668 0 -0.025617910613820731 0.00080260624738810629 0 -0.025599116393885808 0.00068133481889354739 0 -0.026586401203585158 0.0011635454461676302 0 -0.023160750241530484 0.0003114983216537587 0 -0.025713511102815195 0.00075807361171121668 0 -0.025617910613820731 0.00080260624738810629 0 -0.025666733543246951 0.00091193710711559312 0 -0.025617910613820731 0.00080260624738810629 0 -0.025599116393885808 0.00068133481889354739 0 -0.025500557232110654 0.00083966881556684779 0 -0.026586401203585158 0.0011635454461676302 0 -0.02877099634045845 0.0019068496756601578 0 -0.029571331338545927 0.0019845975070192775 0 -0.02877099634045845 0.0019068496756601578 0 -0.028327030467831554 0.0019649958844004463 0 -0.028276397964175738 0.0021469300331820778 0 -0.028118183061496552 0.002043014955384519 0 -0.031909953402596676 0.0027845246427635147 0 -0.031771918682789439 0.0026510753093611106 0 -0.031863226283444498 0.0026136545305132852 0 -0.031909953402596676 0.0027845246427635147 0 -0.031746870870142323 0.0028017182350423687 0 -0.031771918682789439 0.0026510753093611106 0 -0.026705731645711824 0.00077600570068590987 0 -0.02877099634045845 0.0019068496756601578 0 -0.025290782169760707 0.00079185741794152945 0 -0.025599116393885808 0.00068133481889354739 0 -0.025500557232110654 0.00083966881556684779 0 -0.019933709795303779 0.00022623284489014465 0 -0.020118216818310049 0.00051089920902300516 0 -0.019902786805571043 0.00044701699095699577 0 -0.02271944731822587 0.00019477632361132821 0 -0.019806832802498533 0.0001060036129859814 0 -0.019864078004588562 -0.00015405175700925755 0 -0.020222547849887633 9.9642636794214519e-05 0 -0.020118216818310049 0.00051089920902300516 0 -0.025290782169760707 0.00079185741794152945 0 -0.025500557232110654 0.00083966881556684779 0 -0.025359857106323425 0.00096328538330105369 0 -0.026705731645711824 0.00077600570068590987 0 -0.02271944731822587 0.00019477632361132821 0 -0.021568206338020715 0.00033818279927710795 0 -0.023160750241530484 0.0003114983216537587 0 -0.02271944731822587 0.00019477632361132821 0 -0.023160750241530484 0.0003114983216537587 0 -0.019864078004588562 -0.00015405175700925755 0 -0.020222547849887633 9.9642636794214519e-05 0 -0.020323533286625037 -0.00022945257615124376 0 -0.025500557232110654 0.00083966881556684779 0 -0.025359857106323425 0.00096328538330105369 0 -0.025666733543246951 0.00091193710711559312 0 -0.025617910613820731 0.00080260624738810629 0 -0.025500557232110654 0.00083966881556684779 0 -0.025666733543246951 0.00091193710711559312 0 -0.023160750241530484 0.0003114983216537587 0 -0.023356590300712816 0.00026542422929879073 0 -0.020313357764843436 -0.00024181423536467371 0 -0.020643175330859794 -0.00030789798122181914 0 -0.020584495205145478 5.0463907760601166e-05 0 -0.024570123538154187 0.00048828588896705034 0 -0.02466060107692845 0.00012180160193316916 0 -0.024143906119036603 0.00020854852759148238 0 -0.020222547849887633 9.9642636794214519e-05 0 -0.020313357764843436 -0.00024181423536467371 0 -0.020584495205145478 5.0463907760601166e-05 0 -0.020222547849887633 9.9642636794214519e-05 0 -0.020584495205145478 5.0463907760601166e-05 0 -0.020396593439027916 0.00034329049035408134 0 -0.021033400109173938 0.00019784552824153741 0 -0.020584495205145478 5.0463907760601166e-05 0 -0.020894311946560717 -0.00015227977436734112 0 -0.021033400109173938 0.00019784552824153741 0 -0.020584495205145478 5.0463907760601166e-05 0 -0.020674716996737636 0.0003659245762488517 0 -0.020643175330859794 -0.00030789798122181914 0 -0.020584495205145478 5.0463907760601166e-05 0 -0.020894311946560717 -0.00015227977436734112 0 -0.023356590300712816 0.00026542422929879073 0 -0.021262174989159433 -0.00058784332081706942 0 -0.020843439794698406 0.00059691624386111258 0 -0.020674716996737636 0.0003659245762488517 0 -0.02041490854883787 0.0006223847129102467 0 -0.021033400109173938 0.00019784552824153741 0 -0.020843439794698406 0.00059691624386111258 0 -0.020674716996737636 0.0003659245762488517 0 -0.020584495205145478 5.0463907760601166e-05 0 -0.020674716996737636 0.0003659245762488517 0 -0.020396593439027916 0.00034329049035408134 0 -0.020674716996737636 0.0003659245762488517 0 -0.020396593439027916 0.00034329049035408134 0 -0.02041490854883787 0.0006223847129102467 0 -0.020843439794698406 0.00059691624386111258 0 -0.02041490854883787 0.0006223847129102467 0 -0.020382042015778128 0.00098945616632127326 0 -0.02041490854883787 0.0006223847129102467 0 -0.020118216818310049 0.00051089920902300516 0 -0.020109884966927141 0.00085085255997175541 0 -0.020222547849887633 9.9642636794214519e-05 0 -0.020396593439027916 0.00034329049035408134 0 -0.020118216818310049 0.00051089920902300516 0 -0.020396593439027916 0.00034329049035408134 0 -0.02041490854883787 0.0006223847129102467 0 -0.020118216818310049 0.00051089920902300516 0 -0.020118216818310049 0.00051089920902300516 0 -0.019902786805571043 0.00044701699095699577 0 -0.019892746391357193 0.00065180972605401156 0 -0.020118216818310049 0.00051089920902300516 0 -0.019892746391357193 0.00065180972605401156 0 -0.020109884966927141 0.00085085255997175541 0 -0.020109884966927141 0.00085085255997175541 0 -0.019832642437663934 0.00098357615323569551 0 -0.02011086111868975 0.0012137655764176089 0 -0.020109884966927141 0.00085085255997175541 0 -0.020382042015778128 0.00098945616632127326 0 -0.02011086111868975 0.0012137655764176089 0 -0.019892746391357193 0.00065180972605401156 0 -0.020109884966927141 0.00085085255997175541 0 -0.019832642437663934 0.00098357615323569551 0 -0.020382042015778128 0.00098945616632127326 0 -0.02011086111868975 0.0012137655764176089 0 -0.020421618362688281 0.0012537955233307804 0 -0.021096337360416179 0.00096250075502088135 0 -0.020843439794698406 0.00059691624386111258 0 -0.020382042015778128 0.00098945616632127326 0 -0.02041490854883787 0.0006223847129102467 0 -0.020109884966927141 0.00085085255997175541 0 -0.020382042015778128 0.00098945616632127326 0 -0.019378415309420249 0.00057537910387923268 0 -0.019570796592826567 0.00050724284626786837 0 -0.019643194613709902 0.00069744145340726478 0 -0.019378415309420249 0.00057537910387923268 0 -0.019468850428140026 0.00052449634865365819 0 -0.019472443737932246 0.00054919166347854433 0 -0.019378415309420249 0.00057537910387923268 0 -0.019468850428140026 0.00052449634865365819 0 -0.019570796592826567 0.00050724284626786837 0 -0.019677330326671433 0.00043309615889281536 0 -0.019570796592826567 0.00050724284626786837 0 -0.019767467767233881 0.00049970245618267148 0 -0.019570796592826567 0.00050724284626786837 0 -0.019767467767233881 0.00049970245618267148 0 -0.019643194613709902 0.00069744145340726478 0 -0.019902786805571043 0.00044701699095699577 0 -0.019892746391357193 0.00065180972605401156 0 -0.019767467767233881 0.00049970245618267148 0 -0.019801569121787887 0.00037297504948572883 0 -0.019902786805571043 0.00044701699095699577 0 -0.019767467767233881 0.00049970245618267148 0 -0.019892746391357193 0.00065180972605401156 0 -0.019767467767233881 0.00049970245618267148 0 -0.019643194613709902 0.00069744145340726478 0 -0.019643194613709902 0.00069744145340726478 0 -0.019832642437663934 0.00098357615323569551 0 -0.019410435389081597 0.0010049844609323216 0 -0.019892746391357193 0.00065180972605401156 0 -0.019643194613709902 0.00069744145340726478 0 -0.019832642437663934 0.00098357615323569551 0 -0.019378415309420249 0.00057537910387923268 0 -0.019410435389081597 0.0010049844609323216 0 -0.018944143584499442 0.00091823060581481338 0 -0.019378415309420249 0.00057537910387923268 0 -0.019643194613709902 0.00069744145340726478 0 -0.019410435389081597 0.0010049844609323216 0 -0.019216424449795811 0.00064507322055389678 0 -0.019366383666981162 0.00029433900343420839 0 -0.019410435389081597 0.0010049844609323216 0 -0.018944143584499442 0.00091823060581481338 0 -0.018900960755376364 0.0014194746933320975 0 -0.018944143584499442 0.00091823060581481338 0 -0.018420503555745271 0.00073198337718335428 0 -0.018900960755376364 0.0014194746933320975 0 -0.019378415309420249 0.00057537910387923268 0 -0.018944143584499442 0.00091823060581481338 0 -0.018420503555745271 0.00073198337718335428 0 -0.019366383666981162 0.00029433900343420839 0 -0.016296812535082396 0.0020547808672219344 0 -0.024300854596201082 0.00065439335969532829 0 -0.025657147298532967 0.00065624447386278923 0 -0.01958580992636735 0.00052341767039052335 0 -0.019683110042050818 0.0007377112466681135 0 -0.021045201059591418 0.00034197777621203522 0 -0.020212667547973438 -0.00043084226874712998 0 -0.01958580992636735 0.00052341767039052335 0 -0.021045201059591418 0.00034197777621203522 0 -0.019366383666981162 0.00029433900343420839 0 -0.019739269460904207 0.00030754168381975916 0 -0.019378415309420249 0.00057537910387923268 0 -0.019658826563074067 0.00038488518415580374 0 -0.019472443737932246 0.00054919166347854433 0 -0.019658826563074067 0.00038488518415580374 0 -0.01958580992636735 0.00052341767039052335 0 -0.019472443737932246 0.00054919166347854433 0 -0.019468850428140026 0.00052449634865365819 0 -0.019472443737932246 0.00054919166347854433 0 -0.01947584396214997 0.0006244708419850249 0 -0.01958580992636735 0.00052341767039052335 0 -0.019472443737932246 0.00054919166347854433 0 -0.01947584396214997 0.0006244708419850249 0 -0.029425429919776251 0.00052260422991725871 0 -0.0292731002653807 0.00061753673937821199 0 -0.02946360773629245 0.00022511545275215019 0 -0.0292731002653807 0.00061753673937821199 0 -0.029161321868456668 0.00037337780553999786 0 -0.02946360773629245 0.00022511545275215019 0 -0.029570564937931205 0.00037772203149456107 0 -0.029425429919776251 0.00052260422991725871 0 -0.02946360773629245 0.00022511545275215019 0 -0.01958580992636735 0.00052341767039052335 0 -0.01947584396214997 0.0006244708419850249 0 -0.019683110042050818 0.0007377112466681135 0 -0.024245705457142115 0.00053879757768593645 0 -0.024300854596201082 0.00065439335969532829 0 -0.0292731002653807 0.00061753673937821199 0 -0.028889415179035888 0.00048902523946203335 0 -0.028735335845938948 0.00084917774030465916 0 -0.0292731002653807 0.00061753673937821199 0 -0.028889415179035888 0.00048902523946203335 0 -0.029161321868456668 0.00037337780553999786 0 -0.028889415179035888 0.00048902523946203335 0 -0.029161321868456668 0.00037337780553999786 0 -0.029002072790760277 0.00011491069606578709 0 -0.029161321868456668 0.00037337780553999786 0 -0.029002072790760277 0.00011491069606578709 0 -0.02946360773629245 0.00022511545275215019 0 -0.02842851510533086 9.2056705728710308e-05 0 -0.028822203472260634 5.8776135066847966e-05 0 -0.029002072790760277 0.00011491069606578709 0 -0.029393857965643391 0.00011971256822210973 0 -0.02946360773629245 0.00022511545275215019 0 -0.029634869055327705 0.0001654245677838741 0 -0.029393857965643391 0.00011971256822210973 0 -0.02946360773629245 0.00022511545275215019 0 -0.029595752081228843 0.00019017801800002055 0 -0.02955730127581184 0.00023985706868141315 0 -0.02946360773629245 0.00022511545275215019 0 -0.028083142938309796 -3.7766697462692397e-07 0 -0.027993163611589888 1.4053145056177324e-06 0 -0.026792286367301889 -4.4979173705107124e-06 0 -0.028667844643347099 -2.3404562778005744e-05 0 -0.028083142938309796 -3.7766697462692397e-07 0 -0.027993163611589888 1.4053145056177324e-06 0 -0.028667844643347099 -2.3404562778005744e-05 0 -0.029002072790760277 0.00011491069606578709 0 -0.027993163611589888 1.4053145056177324e-06 0 -0.027924596643688623 0.00011228752012234595 0 -0.029002072790760277 0.00011491069606578709 0 -0.027993163611589888 1.4053145056177324e-06 0 -0.027924596643688623 0.00011228752012234595 0 -0.026792286367301889 -4.4979173705107124e-06 0 -0.026960251534434074 0.00035278249942679907 0 -0.027924596643688623 0.00011228752012234595 0 -0.027993163611589888 1.4053145056177324e-06 0 -0.026792286367301889 -4.4979173705107124e-06 0 -0.02842851510533086 9.2056705728710308e-05 0 -0.025657147298532967 0.00065624447386278923 0 -0.028083142938309796 -3.7766697462692397e-07 0 -0.026792286367301889 -4.4979173705107124e-06 0 -0.025410359445228372 -5.4865777053831628e-07 0 -0.025410359445228372 -5.4865777053831628e-07 0 -0.025663926426887342 0.00016973805280129909 0 -0.022741415300625043 2.6901666688035618e-06 0 -0.026792286367301889 -4.4979173705107124e-06 0 -0.025410359445228372 -5.4865777053831628e-07 0 -0.025663926426887342 0.00016973805280129909 0 -0.025657147298532967 0.00065624447386278923 0 -0.022161985393332015 4.9255909813498515e-05 0 -0.026126403366404607 3.7317826891539886e-07 0 -0.025663926426887342 0.00016973805280129909 0 -0.025769355413608957 0.00077024552463492548 0 -0.026792286367301889 -4.4979173705107124e-06 0 -0.026960251534434074 0.00035278249942679907 0 -0.025663926426887342 0.00016973805280129909 0 -0.025657147298532967 0.00065624447386278923 0 -0.026142301867064798 0.00019923222504189992 0 -0.020212667547973438 -0.00043084226874712998 0 -0.021045201059591418 0.00034197777621203522 0 -0.021405392101826941 -0.00069717140675089144 0 -0.019366383666981162 0.00029433900343420839 0 -0.022161985393332015 4.9255909813498515e-05 0 -0.019285390900283871 0.00084909983049544723 0 -0.019465561863294397 0.00081368427750498271 0 -0.019378060096914364 0.00070647417378206471 0 -0.019465561863294397 0.00081368427750498271 0 -0.019494195221630716 0.00072482381928376104 0 -0.019378060096914364 0.00070647417378206471 0 -0.022161985393332015 4.9255909813498515e-05 0 -0.020527500630360223 0.00078692321797756224 0 -0.025663926426887342 0.00016973805280129909 0 -0.025769355413608957 0.00077024552463492548 0 -0.022741415300625043 2.6901666688035618e-06 0 -0.022732739796163897 3.8876739037239366e-07 0 -0.022595262458264848 -3.8129816821822118e-07 0 -0.022112312421259776 -0.0001397004354143019 0 -0.021997529388719524 0.00019874453006382101 0 -0.022732739796163897 3.8876739037239366e-07 0 -0.022112312421259776 -0.0001397004354143019 0 -0.022161985393332015 4.9255909813498515e-05 0 -0.02273994309501999 -1.9776099683288286e-08 0 -0.020527500630360223 0.00078692321797756224 0 -0.019815450367317515 0.00041283734078656454 0 -0.022587952430297986 1.1615743516057646e-06 0 -0.021416051830389391 -7.6540157599431697e-05 0 -0.020700071568959765 -1.1230471512354651e-06 0 -0.021416051830389391 -7.6540157599431697e-05 0 -0.021031527448818234 0.00017030618216913886 0 -0.020888157203942746 -0.00016815808332295163 0 -0.022591147065252705 1.1713877458682906e-07 0 -0.020527500630360223 0.00078692321797756224 0 -0.022587952430297986 1.1615743516057646e-06 0 -0.021416051830389391 -7.6540157599431697e-05 0 -0.021031527448818234 0.00017030618216913886 0 -0.018670737998326092 0.0018562126407151542 0 -0.01810547060347327 0.0017533209772787803 0 -0.01870377408202567 0.00086383356265987219 0 -0.016296812535082396 0.0020547808672219344 0 -0.015487884057934593 0.0021094869810313632 0 -0.020527500630360223 0.00078692321797756224 0 -0.016296812535082396 0.0020547808672219344 0 -0.018670737998326092 0.0018562126407151542 0 -0.01870377408202567 0.00086383356265987219 0 -0.018981103663504559 0.0009508226881082629 0 -0.011799142523611934 0.004236983793066613 0 -0.012803973465686133 0.0027136274899452555 0 -0.010984744575431868 0.0027891682929725992 0 -0.020003322545710352 -4.2735996892701604e-05 0 -0.020888157203942746 -0.00016815808332295163 0 -0.019350830207037192 0.00013668182730311443 0 -0.020003322545710352 -4.2735996892701604e-05 0 -0.020700071568959765 -1.1230471512354651e-06 0 -0.018810003226781051 1.116672115601281e-06 0 -0.01870377408202567 0.00086383356265987219 0 -0.018981103663504559 0.0009508226881082629 0 -0.019350830207037192 0.00013668182730311443 0 -0.020003322545710352 -4.2735996892701604e-05 0 -0.020527942766221472 -7.482373281116361e-05 0 -0.020888157203942746 -0.00016815808332295163 0 -0.020003322545710352 -4.2735996892701604e-05 0 -0.020527942766221472 -7.482373281116361e-05 0 -0.020700071568959765 -1.1230471512354651e-06 0 -0.020527942766221472 -7.482373281116361e-05 0 -0.020700071568959765 -1.1230471512354651e-06 0 -0.020871514633806515 -8.5787978407238404e-05 0 -0.021416051830389391 -7.6540157599431697e-05 0 -0.020700071568959765 -1.1230471512354651e-06 0 -0.020871514633806515 -8.5787978407238404e-05 0 -0.021416051830389391 -7.6540157599431697e-05 0 -0.020871514633806515 -8.5787978407238404e-05 0 -0.020888157203942746 -0.00016815808332295163 0 -0.020527942766221472 -7.482373281116361e-05 0 -0.020871514633806515 -8.5787978407238404e-05 0 -0.020888157203942746 -0.00016815808332295163 0 -0.016296812535082396 0.0020547808672219344 0 -0.013963079981365714 0.002636877737374547 0 -0.011799142523611934 0.004236983793066613 0 -0.0096677347178254613 0.0037883905925791693 0 -0.010984744575431868 0.0027891682929725992 0 -0.018420503555745271 0.00073198337718335428 0 -0.01803692661892083 0.0012844007877779546 0 -0.018900960755376364 0.0014194746933320975 0 -0.012803973465686133 0.0027136274899452555 0 -0.010984744575431868 0.0027891682929725992 0 -0.011193084393342325 0.0016769680974172453 0 -0.0096677347178254613 0.0037883905925791693 0 -0.0096412191462865778 0.0018211155734265338 0 -0.0085067580058640225 0.0023711971131434931 0 -0.0096677347178254613 0.0037883905925791693 0 -0.010984744575431868 0.0027891682929725992 0 -0.0096412191462865778 0.0018211155734265338 0 -0.0096412191462865778 0.0018211155734265338 0 -0.010422950890894419 0.0003558946199766612 0 -0.00873802803553397 0.00074417213025267592 0 -0.0096412191462865778 0.0018211155734265338 0 -0.011193084393342325 0.0016769680974172453 0 -0.010422950890894419 0.0003558946199766612 0 -0.011193084393342325 0.0016769680974172453 0 -0.010422950890894419 0.0003558946199766612 0 -0.012129836966408446 0.00072606188915115652 0 -0.010984744575431868 0.0027891682929725992 0 -0.0096412191462865778 0.0018211155734265338 0 -0.011193084393342325 0.0016769680974172453 0 -0.013655277745872668 0.00066594056222336287 0 -0.014963209347545591 0.0009087456582021334 0 -0.01465868083265184 -0.00013242086510079019 0 -0.012398908716975646 0.00054169645671418105 0 -0.013267250683728183 0.0007224345756153838 0 -0.010422950890894419 0.0003558946199766612 0 -0.00873802803553397 0.00074417213025267592 0 -0.0086950219753009692 -1.1497709434502377e-05 0 -0.013655277745872668 0.00066594056222336287 0 -0.01350982794186871 -0.00014276799093288802 0 -0.012925928290117081 0.0004030995560227628 0 -0.012398908716975646 0.00054169645671418105 0 -0.0091415442308069757 0.00069436143341314175 0 -0.01870377408202567 0.00086383356265987219 0 -0.019350830207037192 0.00013668182730311443 0 -0.019357183519836292 9.578647561597478e-05 0 -0.019815450367317515 0.00041283734078656454 0 -0.019566008157399301 6.136722654313043e-05 0 -0.015487884057934593 0.0021094869810313632 0 -0.016983225065733305 0.00021706098457106849 0 -0.016983225065733305 0.00021706098457106849 0 -0.013267250683728183 0.0007224345756153838 0 -0.018810003226781051 1.116672115601281e-06 0 -0.019350830207037192 0.00013668182730311443 0 -0.019357183519836292 9.578647561597478e-05 0 -0.018807042552072079 7.9241678156204439e-07 0 -0.016983225065733305 0.00021706098457106849 0 -0.020003322545710352 -4.2735996892701604e-05 0 -0.018810003226781051 1.116672115601281e-06 0 -0.019350830207037192 0.00013668182730311443 0 -0.012803973465686133 0.0027136274899452555 0 -0.013850336933787542 0.0011478687714581986 0 -0.012129836966408446 0.00072606188915115652 0 -0.012803973465686133 0.0027136274899452555 0 -0.011193084393342325 0.0016769680974172453 0 -0.012129836966408446 0.00072606188915115652 0 -0.014963209347545591 0.0009087456582021334 0 -0.016346474467155345 0.00025578477175306104 0 -0.01465868083265184 -0.00013242086510079019 0 -0.018804631535754672 3.3379853328099314e-06 0 -0.017695581012901671 0.00032089308656895962 0 -0.016538968599292336 -1.1001504438231235e-06 0 -0.017695581012901671 0.00032089308656895962 0 -0.016346474467155345 0.00025578477175306104 0 -0.016538968599292336 -1.1001504438231235e-06 0 -0.017695581012901671 0.00032089308656895962 0 -0.014963209347545591 0.0009087456582021334 0 -0.016346474467155345 0.00025578477175306104 0 -0.016538968599292336 -1.1001504438231235e-06 0 -0.014106293227505314 -0.00030574315520248355 0 -0.01465868083265184 -0.00013242086510079019 0 -0.016346474467155345 0.00025578477175306104 0 -0.016538968599292336 -1.1001504438231235e-06 0 -0.01465868083265184 -0.00013242086510079019 0 -0.016538968599292336 -1.1001504438231235e-06 0 -0.014269566296392923 -5.2248125746494047e-07 0 -0.014106293227505314 -0.00030574315520248355 0 -0.014106293227505314 -0.00030574315520248355 0 -0.01465868083265184 -0.00013242086510079019 0 -0.013511765540092362 -0.00047235910512647284 0 -0.013655277745872668 0.00066594056222336287 0 -0.01465868083265184 -0.00013242086510079019 0 -0.01350982794186871 -0.00014276799093288802 0 -0.01350982794186871 -0.00014276799093288802 0 -0.012981511178335693 -0.00023297095823691466 0 -0.012925928290117081 0.0004030995560227628 0 -0.01350982794186871 -0.00014276799093288802 0 -0.013246147337262263 -0.00041407451209912608 0 -0.012981511178335693 -0.00023297095823691466 0 -0.01350982794186871 -0.00014276799093288802 0 -0.013246147337262263 -0.00041407451209912608 0 -0.013511765540092362 -0.00047235910512647284 0 -0.01465868083265184 -0.00013242086510079019 0 -0.01350982794186871 -0.00014276799093288802 0 -0.013511765540092362 -0.00047235910512647284 0 -0.013246147337262263 -0.00041407451209912608 0 -0.013511765540092362 -0.00047235910512647284 0 -0.013131487411601042 -0.00046426864054326962 0 -0.013511765540092362 -0.00047235910512647284 0 -0.013131487411601042 -0.00046426864054326962 0 -0.012847364577886241 -0.00047127324795299968 0 -0.013246147337262263 -0.00041407451209912608 0 -0.013131487411601042 -0.00046426864054326962 0 -0.013121355191723387 -0.00046980457144514716 0 -0.013131487411601042 -0.00046426864054326962 0 -0.01318220633300065 -0.00034366512283728347 0 -0.012799326924394595 -7.5165176917496403e-05 0 -0.013131487411601042 -0.00046426864054326962 0 -0.012847364577886241 -0.00047127324795299968 0 -0.012799326924394595 -7.5165176917496403e-05 0 -0.012001750939842532 -6.6528858360389531e-07 0 -0.012847364577886241 -0.00047127324795299968 0 -0.011624555071072205 -0.0001531165129333004 0 -0.014269566296392923 -5.2248125746494047e-07 0 -0.012001750939842532 -6.6528858360389531e-07 0 -0.012847364577886241 -0.00047127324795299968 0 -0.014269566296392923 -5.2248125746494047e-07 0 -0.014106293227505314 -0.00030574315520248355 0 -0.012847364577886241 -0.00047127324795299968 0 -0.014106293227505314 -0.00030574315520248355 0 -0.013511765540092362 -0.00047235910512647284 0 -0.012847364577886241 -0.00047127324795299968 0 -0.0053559073504059933 -0.0001825658445961471 0 -0.0051224354392397642 -0.00016560476886218653 0 -0.005035596973290337 -9.719972654863468e-05 0 -0.0053559073504059933 -0.0001825658445961471 0 -0.0051224354392397642 -0.00016560476886218653 0 -0.0054665724904050094 1.582534651024796e-05 0 -0.0051224354392397642 -0.00016560476886218653 0 -0.0049336088594644761 -0.00013824125673199937 0 -0.005035596973290337 -9.719972654863468e-05 0 -0.0049336088594644761 -0.00013824125673199937 0 -0.005035596973290337 -9.719972654863468e-05 0 -0.0047024895129835539 -0.00012194282849243295 0 -0.0051224354392397642 -0.00016560476886218653 0 -0.0049336088594644761 -0.00013824125673199937 0 -0.0049324507091734566 -0.00017388021380583047 0 -0.0049336088594644761 -0.00013824125673199937 0 -0.0049324507091734566 -0.00017388021380583047 0 -0.0048101061262956265 -0.00013165946599414476 0 -0.0053559073504059933 -0.0001825658445961471 0 -0.005035596973290337 -9.719972654863468e-05 0 -0.0050328408565679505 -4.3707386236390601e-05 0 -0.005035596973290337 -9.719972654863468e-05 0 -0.0050328408565679505 -4.3707386236390601e-05 0 -0.0049278603286549904 -4.1968506714934764e-05 0 -0.0053559073504059933 -0.0001825658445961471 0 -0.0050328408565679505 -4.3707386236390601e-05 0 -0.0049945684160943157 -9.4523883846478918e-05 0 -0.0050328408565679505 -4.3707386236390601e-05 0 -0.0049799886145548058 6.5870856009775136e-06 0 -0.0049945684160943157 -9.4523883846478918e-05 0 -0.0050328408565679505 -4.3707386236390601e-05 0 -0.0049799886145548058 6.5870856009775136e-06 0 -0.00497392307384786 -5.5655117864010698e-06 0 -0.0049799886145548058 6.5870856009775136e-06 0 -0.0049945684160943157 -9.4523883846478918e-05 0 -0.0049578463821550933 1.8676273022891515e-05 0 -0.0074953225897406847 -0.00057678419539207849 0 -0.0097970225518881401 -0.00030738820169254398 0 -0.013131487411601042 -0.00046426864054326962 0 -0.01318220633300065 -0.00034366512283728347 0 -0.013121355191723387 -0.00046980457144514716 0 -0.0058416320241319623 -0.00050366958005379893 0 -0.0062188254593676384 -0.00074102625733671529 0 -0.0062311543886512024 -0.00023294452150710612 0 -0.0074953225897406847 -0.00057678419539207849 0 -0.0069173250579093728 -0.00023771320511637283 0 -0.0049799886145548058 6.5870856009775136e-06 0 -0.0049578463821550933 1.8676273022891515e-05 0 -0.0049722269266989959 6.6556605749718687e-05 0 -0.0051520214186335407 -0.00012394418070557075 0 -0.0074953225897406847 -0.00057678419539207849 0 -0.0058416320241319623 -0.00050366958005379893 0 -0.0062311543886512024 -0.00023294452150710612 0 -0.0059315507117941703 -0.00011913660972388926 0 -0.0053559073504059933 -0.0001825658445961471 0 -0.0058416320241319623 -0.00050366958005379893 0 -0.0059315507117941703 -0.00011913660972388926 0 -0.0054384815296811663 -0.00026020062526109418 0 -0.0051520214186335407 -0.00012394418070557075 0 -0.0059315507117941703 -0.00011913660972388926 0 -0.0058329129192520417 0.00010342738484072332 0 -0.0062064734490908657 0.00012601873379961836 0 -0.0053559073504059933 -0.0001825658445961471 0 -0.0059315507117941703 -0.00011913660972388926 0 -0.0058329129192520417 0.00010342738484072332 0 -0.013246147337262263 -0.00041407451209912608 0 -0.013121355191723387 -0.00046980457144514716 0 -0.012981511178335693 -0.00023297095823691466 0 -0.0097970225518881401 -0.00030738820169254398 0 -0.0096182273295282415 -0.00010285561636879284 0 -0.0062311543886512024 -0.00023294452150710612 0 -0.0059315507117941703 -0.00011913660972388926 0 -0.0062064734490908657 0.00012601873379961836 0 -0.0096182273295282415 -0.00010285561636879284 0 -0.0091415442308069757 0.00069436143341314175 0 -0.0062064734490908657 0.00012601873379961836 0 -0.0059823342298363658 0.00029973021232843365 0 -0.0062338264349095377 0.00037707189688728935 0 -0.0063654566116308226 0.00013075582881427511 0 -0.0061958930266689284 0.00020772636856166259 0 -0.0058329129192520417 0.00010342738484072332 0 -0.0062064734490908657 0.00012601873379961836 0 -0.0059823342298363658 0.00029973021232843365 0 -0.0058329129192520417 0.00010342738484072332 0 -0.0059823342298363658 0.00029973021232843365 0 -0.005965162146974754 0.00021242870357916335 0 -0.0058329129192520417 0.00010342738484072332 0 -0.005965162146974754 0.00021242870357916335 0 -0.0054665724904050094 1.582534651024796e-05 0 -0.005965162146974754 0.00021242870357916335 0 -0.0054665724904050094 1.582534651024796e-05 0 -0.0056056053283276425 0.00047960377966790836 0 -0.0053559073504059933 -0.0001825658445961471 0 -0.0058329129192520417 0.00010342738484072332 0 -0.0054665724904050094 1.582534651024796e-05 0 -0.0054665724904050094 1.582534651024796e-05 0 -0.0050724554831730927 -7.0602004766504085e-05 0 -0.0052398293526596876 0.00015039741387526051 0 -0.0051224354392397642 -0.00016560476886218653 0 -0.0054665724904050094 1.582534651024796e-05 0 -0.0050724554831730927 -7.0602004766504085e-05 0 -0.0054665724904050094 1.582534651024796e-05 0 -0.0056056053283276425 0.00047960377966790836 0 -0.0052398293526596876 0.00015039741387526051 0 -0.0056056053283276425 0.00047960377966790836 0 -0.0052398293526596876 0.00015039741387526051 0 -0.0052017288906564176 0.00044019315446025423 0 -0.0056056053283276425 0.00047960377966790836 0 -0.0058630391686567383 0.0011906912879099125 0 -0.0052027172778436014 0.0011393996076346307 0 -0.0056056053283276425 0.00047960377966790836 0 -0.0052027172778436014 0.0011393996076346307 0 -0.0052017288906564176 0.00044019315446025423 0 -0.005965162146974754 0.00021242870357916335 0 -0.0056056053283276425 0.00047960377966790836 0 -0.0064332039006742107 0.00082435619256435362 0 -0.0056056053283276425 0.00047960377966790836 0 -0.0064332039006742107 0.00082435619256435362 0 -0.0058630391686567383 0.0011906912879099125 0 -0.0064332039006742107 0.00082435619256435362 0 -0.0064519809345650212 0.0016334395451393737 0 -0.0058630391686567383 0.0011906912879099125 0 -0.0064332039006742107 0.00082435619256435362 0 -0.0064519809345650212 0.0016334395451393737 0 -0.0072508147040826511 0.0014195568303220719 0 -0.0064519809345650212 0.0016334395451393737 0 -0.0058892039301288359 0.0018286177144953343 0 -0.0058630391686567383 0.0011906912879099125 0 -0.0058892039301288359 0.0018286177144953343 0 -0.0052915862032250358 0.0020615904879177547 0 -0.0052027172778436014 0.0011393996076346307 0 -0.0058892039301288359 0.0018286177144953343 0 -0.0058630391686567383 0.0011906912879099125 0 -0.0052027172778436014 0.0011393996076346307 0 -0.0073238190183349452 8.0917668084699065e-05 0 -0.008644539645628101 0.00020149642439417961 0 -0.0078567459193667304 0.00078489219508693145 0 -0.0063654566116308226 0.00013075582881427511 0 -0.0091415442308069757 0.00069436143341314175 0 -0.00873802803553397 0.00074417213025267592 0 -0.008644539645628101 0.00020149642439417961 0 -0.0078567459193667304 0.00078489219508693145 0 -0.0089186787422251071 0.00052248093788134081 0 -0.0091415442308069757 0.00069436143341314175 0 -0.0073238190183349452 8.0917668084699065e-05 0 -0.005965162146974754 0.00021242870357916335 0 -0.0064332039006742107 0.00082435619256435362 0 -0.0078567459193667304 0.00078489219508693145 0 -0.0072143295739472754 0.00077770262124656885 0 -0.0072508147040826511 0.0014195568303220719 0 -0.0073238190183349452 8.0917668084699065e-05 0 -0.0078567459193667304 0.00078489219508693145 0 -0.0072143295739472754 0.00077770262124656885 0 -0.0073238190183349452 8.0917668084699065e-05 0 -0.0064332039006742107 0.00082435619256435362 0 -0.0072143295739472754 0.00077770262124656885 0 -0.0064332039006742107 0.00082435619256435362 0 -0.0072143295739472754 0.00077770262124656885 0 -0.0072508147040826511 0.0014195568303220719 0 -0.0064519809345650212 0.0016334395451393737 0 -0.0072508147040826511 0.0014195568303220719 0 -0.0073552927658393106 0.0022235225781147869 0 -0.0072508147040826511 0.0014195568303220719 0 -0.0081872151677285631 0.0015157270290701561 0 -0.0073552927658393106 0.0022235225781147869 0 -0.0078567459193667304 0.00078489219508693145 0 -0.0072508147040826511 0.0014195568303220719 0 -0.0081872151677285631 0.0015157270290701561 0 -0.0096412191462865778 0.0018211155734265338 0 -0.0081872151677285631 0.0015157270290701561 0 -0.0085067580058640225 0.0023711971131434931 0 -0.0096412191462865778 0.0018211155734265338 0 -0.00873802803553397 0.00074417213025267592 0 -0.0081872151677285631 0.0015157270290701561 0 -0.00873802803553397 0.00074417213025267592 0 -0.0078567459193667304 0.00078489219508693145 0 -0.0081872151677285631 0.0015157270290701561 0 -0.0081872151677285631 0.0015157270290701561 0 -0.0085067580058640225 0.0023711971131434931 0 -0.0073552927658393106 0.0022235225781147869 0 -0.0096677347178254613 0.0037883905925791693 0 -0.0085067580058640225 0.0023711971131434931 0 -0.0076770026522050561 0.0032274980237686278 0 -0.0073552927658393106 0.0022235225781147869 0 -0.0076770026522050561 0.0032274980237686278 0 -0.0065468392083793308 0.0024529059910551577 0 -0.0085067580058640225 0.0023711971131434931 0 -0.0073552927658393106 0.0022235225781147869 0 -0.0076770026522050561 0.0032274980237686278 0 -0.019832642437663934 0.00098357615323569551 0 -0.019586036646160692 0.0014755131834984759 0 -0.02011086111868975 0.0012137655764176089 0 -0.019832642437663934 0.00098357615323569551 0 -0.019410435389081597 0.0010049844609323216 0 -0.019586036646160692 0.0014755131834984759 0 -0.019410435389081597 0.0010049844609323216 0 -0.018900960755376364 0.0014194746933320975 0 -0.019586036646160692 0.0014755131834984759 0 -0.013963079981365714 0.002636877737374547 0 -0.013872408712095914 0.0024699486958383423 0 -0.0058892039301288359 0.0018286177144953343 0 -0.0061288289865391891 0.0024667648760819359 0 -0.0052915862032250358 0.0020615904879177547 0 -0.012374406458146747 0.0011878284004803944 0 -0.0084440456373343232 0.00082720868305901469 0 -0.012657247297282171 -0.00030443663173866008 0 -0.012796347535280177 -0.00035842508501776258 0 -0.012756604833451238 -0.00031301519596559394 0 -0.0064519809345650212 0.0016334395451393737 0 -0.0058892039301288359 0.0018286177144953343 0 -0.0065468392083793308 0.0024529059910551577 0 -0.013872408712095914 0.0024699486958383423 0 -0.012374406458146747 0.0011878284004803944 0 -0.0076770026522050561 0.0032274980237686278 0 -0.0065468392083793308 0.0024529059910551577 0 -0.0059947769283142209 0.0026056487253498799 0 -0.0058892039301288359 0.0018286177144953343 0 -0.0065468392083793308 0.0024529059910551577 0 -0.0061288289865391891 0.0024667648760819359 0 -0.0064519809345650212 0.0016334395451393737 0 -0.0073552927658393106 0.0022235225781147869 0 -0.0065468392083793308 0.0024529059910551577 0 -0.006323901130018259 0.0029543295557169788 0 -0.012374406458146747 0.0011878284004803944 0 -0.019586036646160692 0.0014755131834984759 0 -0.020143801734767788 0.0015477504915778185 0 -0.02011086111868975 0.0012137655764176089 0 -0.020143801734767788 0.0015477504915778185 0 -0.020421618362688281 0.0012537955233307804 0 -0.020669776019186771 0.0013095660885822531 0 -0.012657247297282171 -0.00030443663173866008 0 -0.012813804582496041 -0.0003799014342854644 0 -0.012796347535280177 -0.00035842508501776258 0 -0.020382042015778128 0.00098945616632127326 0 -0.020421618362688281 0.0012537955233307804 0 -0.02071421898597893 0.001231523724076547 0 -0.012374406458146747 0.0011878284004803944 0 -0.017640393856828248 8.8671264598949839e-05 0 -0.020143801734767788 0.0015477504915778185 0 -0.02011086111868975 0.0012137655764176089 0 -0.020421618362688281 0.0012537955233307804 0 -0.020421618362688281 0.0012537955233307804 0 -0.02071421898597893 0.001231523724076547 0 -0.020669776019186771 0.0013095660885822531 0 -0.020038099062362806 0.00050750812462763291 0 -0.017640393856828248 8.8671264598949839e-05 0 -0.018656044179582432 -0.00079278809523130895 0 -0.018288808033469509 -0.00019523446982659047 0 -0.019153299104591365 -0.00052687528211761573 0 -0.017640393856828248 8.8671264598949839e-05 0 -0.018247640895121171 -0.00088800483503898291 0 -0.020038099062362806 0.00050750812462763291 0 -0.018247640895121171 -0.00088800483503898291 0 -0.012812952178332898 -0.00035848706065901297 0 -0.012796347535280177 -0.00035842508501776258 0 -0.012806214011799072 -0.00037029735810610332 0 -0.012812952178332898 -0.00035848706065901297 0 -0.012806214011799072 -0.00037029735810610332 0 -0.012826818123223062 -0.00034205510340813407 0 -0.017640393856828248 8.8671264598949839e-05 0 -0.016404466016022277 0.00063990038828471069 0 -0.0084440456373343232 0.00082720868305901469 0 -0.0089705784231857901 0.00024635037171389371 0 -0.012796347535280177 -0.00035842508501776258 0 -0.012756604833451238 -0.00031301519596559394 0 -0.01278748288386642 -0.00033037294322746472 0 -0.012768312487434591 -0.00047445957878714933 0 -0.012806214011799072 -0.00037029735810610332 0 -0.012700933654796161 -0.00040965198899550748 0 -0.0089705784231857901 0.00024635037171389371 0 -0.012388368469879065 -0.0002236406534070915 0 -0.012796347535280177 -0.00035842508501776258 0 -0.01278748288386642 -0.00033037294322746472 0 -0.012806214011799072 -0.00037029735810610332 0 -0.012806214011799072 -0.00037029735810610332 0 -0.012826818123223062 -0.00034205510340813407 0 -0.012700933654796161 -0.00040965198899550748 0 -0.022676662636676722 -0.0016654109818637056 0 -0.018247640895121171 -0.00088800483503898291 0 -0.018247640895121171 -0.00088800483503898291 0 -0.016345742801494957 -0.0015102158636587113 0 -0.020947205140955667 -0.0025740455781544831 0 -0.020428797755474397 -0.0023916410404501549 0 -0.020850067126752459 -0.0022070982868950717 0 -0.020947205140955667 -0.0025740455781544831 0 -0.021166599516521275 -0.0021588775415195367 0 -0.020850067126752459 -0.0022070982868950717 0 -0.021216655045748149 -0.0018356280684906814 0 -0.021117397265084936 -0.0019931692559925994 0 -0.021166599516521275 -0.0021588775415195367 0 -0.021493515456798645 -0.0016491470581926277 0 -0.021216655045748149 -0.0018356280684906814 0 -0.021166599516521275 -0.0021588775415195367 0 -0.022676662636676722 -0.0016654109818637056 0 -0.020728605894756325 -0.0024256190889876792 0 -0.021216655045748149 -0.0018356280684906814 0 -0.021117397265084936 -0.0019931692559925994 0 -0.020944632927631407 -0.0018550730910949357 0 -0.021166599516521275 -0.0021588775415195367 0 -0.021201602441170773 -0.002143901763347663 0 -0.020850067126752459 -0.0022070982868950717 0 -0.021166599516521275 -0.0021588775415195367 0 -0.021201602441170773 -0.002143901763347663 0 -0.021053613290763145 -0.0020904554315962693 0 -0.021117397265084936 -0.0019931692559925994 0 -0.021166599516521275 -0.0021588775415195367 0 -0.021053613290763145 -0.0020904554315962693 0 -0.010447284013618942 -0.00039255286841255818 0 -0.0081870725048739171 -0.0010831695270978456 0 -0.012634673004178502 -0.0004768345773284158 0 -0.012587138453165119 -0.00051891433193635046 0 -0.012620671253365549 -0.00054268948515871415 0 -0.012634673004178502 -0.0004768345773284158 0 -0.012587138453165119 -0.00051891433193635046 0 -0.012700933654796161 -0.00040965198899550748 0 -0.012768312487434591 -0.00047445957878714933 0 -0.012700933654796161 -0.00040965198899550748 0 -0.012609828843157513 -0.00052822810554645 0 -0.017588671513566367 -0.0010770082422127973 0 -0.016345742801494957 -0.0015102158636587113 0 -0.0089705784231857901 0.00024635037171389371 0 -0.0081870725048739171 -0.0010831695270978456 0 -0.012634673004178502 -0.0004768345773284158 0 -0.012700933654796161 -0.00040965198899550748 0 -0.012609828843157513 -0.00052822810554645 0 -0.0052001246512612988 -6.0193135561295544e-05 0 -0.0050732470386022355 -9.4232679430521625e-05 0 -0.0051229338929342635 -0.00016707112290052358 0 -0.0081870725048739171 -0.0010831695270978456 0 -0.013021045265616479 -0.0019872474393797094 0 -0.0054090155626594942 -0.0026651696898917438 0 -0.0060685969997149748 -0.002561717163017084 0 -0.0057623267148650594 -0.0022127311000575867 0 -0.012587138453165119 -0.00051891433193635046 0 -0.012620671253365549 -0.00054268948515871415 0 -0.012497300266883534 -0.00062063561889036086 0 -0.0081870725048739171 -0.0010831695270978456 0 -0.0047744927042170865 -0.001175879123337656 0 -0.0053643404094135781 -0.0019836832337089077 0 -0.0057623267148650594 -0.0022127311000575867 0 -0.005705366605756588 -0.0018123581960741663 0 -0.0054090155626594942 -0.0026651696898917438 0 -0.0053643404094135781 -0.0019836832337089077 0 -0.0057623267148650594 -0.0022127311000575867 0 -0.0050732470386022355 -9.4232679430521625e-05 0 -0.0050211649121530925 -0.00021050892373532452 0 -0.0051229338929342635 -0.00016707112290052358 0 -0.0050211649121530925 -0.00021050892373532452 0 -0.0051229338929342635 -0.00016707112290052358 0 -0.0050245236206153182 -0.0002266148707042532 0 -0.0045068689087383344 0.00092331844220351655 0 -0.0048742321458628965 0.0005703907959585013 0 -0.0046156903591661634 0.00020182724540528652 0 -0.0045068689087383344 0.00092331844220351655 0 -0.0048742321458628965 0.0005703907959585013 0 -0.0052027172778436014 0.0011393996076346307 0 -0.0044429068062444409 0.00041666850397158276 0 -0.0048707401176784019 1.8096931113007708e-05 0 -0.0048742321458628965 0.0005703907959585013 0 -0.0052027172778436014 0.0011393996076346307 0 -0.0052017288906564176 0.00044019315446025423 0 -0.0052915862032250358 0.0020615904879177547 0 -0.0046019561197077827 0.0018014075509037383 0 -0.0052027172778436014 0.0011393996076346307 0 -0.0089705784231857901 0.00024635037171389371 0 -0.0044429068062444409 0.00041666850397158276 0 -0.0046019561197077827 0.0018014075509037383 0 -0.0045068689087383344 0.00092331844220351655 0 -0.0052027172778436014 0.0011393996076346307 0 -0.019887940848407018 -0.0022481846247299508 0 -0.019109193292936064 -0.0022384481354675075 0 -0.01964801993282091 -0.0022232006041362196 0 -0.019338437964047148 -0.0025284142630774479 0 -0.018936770743198526 -0.0022382043444398813 0 -0.019802802746526866 -0.0019433615540047412 0 -0.020105336693594527 -0.0022665487181505795 0 -0.019300056129038928 -0.0022528411476873079 0 -0.019802802746526866 -0.0019433615540047412 0 -0.020234260846685569 -0.0018105459869323976 0 -0.020105336693594527 -0.0022665487181505795 0 -0.019879697248964014 -0.0015900329437515401 0 -0.019802802746526866 -0.0019433615540047412 0 -0.020234260846685569 -0.0018105459869323976 0 -0.019879697248964014 -0.0015900329437515401 0 -0.019802802746526866 -0.0019433615540047412 0 -0.01943047123812992 -0.0018269050547286552 0 -0.020234260846685569 -0.0018105459869323976 0 -0.020105336693594527 -0.0022665487181505795 0 -0.020448400072630993 -0.0020237112387698408 0 -0.020234260846685569 -0.0018105459869323976 0 -0.020448400072630993 -0.0020237112387698408 0 -0.020573493576520614 -0.0017385361629080804 0 -0.020510241486923753 -0.0015388048152056822 0 -0.020234260846685569 -0.0018105459869323976 0 -0.020573493576520614 -0.0017385361629080804 0 -0.020105336693594527 -0.0022665487181505795 0 -0.020630287011720833 -0.0022751889262307042 0 -0.020448400072630993 -0.0020237112387698408 0 -0.01964801993282091 -0.0022232006041362196 0 -0.020630287011720833 -0.0022751889262307042 0 -0.019911700273540164 -0.0028016371775937718 0 -0.019887940848407018 -0.0022481846247299508 0 -0.020590893208238616 -0.0022823084721686968 0 -0.020630287011720833 -0.0022751889262307042 0 -0.020448400072630993 -0.0020237112387698408 0 -0.020676697454049243 -0.0019784525540256976 0 -0.020630287011720833 -0.0022751889262307042 0 -0.020676697454049243 -0.0019784525540256976 0 -0.020834996246361127 -0.002091203963520943 0 -0.020448400072630993 -0.0020237112387698408 0 -0.020573493576520614 -0.0017385361629080804 0 -0.020676697454049243 -0.0019784525540256976 0 -0.020573493576520614 -0.0017385361629080804 0 -0.020743520085738699 -0.0017994463896835139 0 -0.020676697454049243 -0.0019784525540256976 0 -0.02082579678371814 -0.0016327803683396595 0 -0.020573493576520614 -0.0017385361629080804 0 -0.020743520085738699 -0.0017994463896835139 0 -0.020743520085738699 -0.0017994463896835139 0 -0.020676697454049243 -0.0019784525540256976 0 -0.020944632927631407 -0.0018550730910949357 0 -0.020676697454049243 -0.0019784525540256976 0 -0.020944632927631407 -0.0018550730910949357 0 -0.020834996246361127 -0.002091203963520943 0 -0.021006725715578912 -0.0014299246454800235 0 -0.021216655045748149 -0.0018356280684906814 0 -0.020944632927631407 -0.0018550730910949357 0 -0.02082579678371814 -0.0016327803683396595 0 -0.020743520085738699 -0.0017994463896835139 0 -0.020944632927631407 -0.0018550730910949357 0 -0.021117397265084936 -0.0019931692559925994 0 -0.020944632927631407 -0.0018550730910949357 0 -0.021053613290763145 -0.0020904554315962693 0 -0.021053613290763145 -0.0020904554315962693 0 -0.020834996246361127 -0.002091203963520943 0 -0.020915262446253243 -0.0022301461883114811 0 -0.020944632927631407 -0.0018550730910949357 0 -0.021053613290763145 -0.0020904554315962693 0 -0.020834996246361127 -0.002091203963520943 0 -0.021201602441170773 -0.002143901763347663 0 -0.020915262446253243 -0.0022301461883114811 0 -0.02079065430708444 -0.0025596133526636375 0 -0.020630287011720833 -0.0022751889262307042 0 -0.020915262446253243 -0.0022301461883114811 0 -0.02079065430708444 -0.0025596133526636375 0 -0.020630287011720833 -0.0022751889262307042 0 -0.020834996246361127 -0.002091203963520943 0 -0.020915262446253243 -0.0022301461883114811 0 -0.021201602441170773 -0.002143901763347663 0 -0.021053613290763145 -0.0020904554315962693 0 -0.020915262446253243 -0.0022301461883114811 0 -0.017588671513566367 -0.0010770082422127973 0 -0.013021045265616479 -0.0019872474393797094 0 -0.0060685969997149748 -0.002561717163017084 0 -0.0057623267148650594 -0.0022127311000575867 0 -0.0061329642783856369 -0.0022477463243265119 0 -0.0057623267148650594 -0.0022127311000575867 0 -0.0061067219106754238 -0.0018998145437328323 0 -0.005705366605756588 -0.0018123581960741663 0 -0.0057623267148650594 -0.0022127311000575867 0 -0.0061329642783856369 -0.0022477463243265119 0 -0.0061067219106754238 -0.0018998145437328323 0 -0.0061329642783856369 -0.0022477463243265119 0 -0.0065959561681445331 -0.0023130085435578989 0 -0.0061067219106754238 -0.0018998145437328323 0 -0.0065959561681445331 -0.0023130085435578989 0 -0.0066553151148478892 -0.0017997011022725521 0 -0.0061067219106754238 -0.0018998145437328323 0 -0.0060685969997149748 -0.002561717163017084 0 -0.0061329642783856369 -0.0022477463243265119 0 -0.0065959561681445331 -0.0023130085435578989 0 -0.020630287011720833 -0.0022751889262307042 0 -0.02079065430708444 -0.0025596133526636375 0 -0.019911700273540164 -0.0028016371775937718 0 -0.013021045265616479 -0.0019872474393797094 0 -0.017239644697731423 -0.0024859143025130937 0 -0.013021045265616479 -0.0019872474393797094 0 -0.0091398204677198263 -0.0025364521237047303 0 -0.013278880365606528 -0.0021794208099492948 0 -0.012989316569311652 -0.0022527685488160586 0 -0.013030933683023181 -0.0023355602410441308 0 -0.0065959561681445331 -0.0023130085435578989 0 -0.0071631748580882225 -0.0020540353839408041 0 -0.0066553151148478892 -0.0017997011022725521 0 -0.0091398204677198263 -0.0025364521237047303 0 -0.010203565736377604 -0.0022199349084431317 0 -0.012989316569311652 -0.0022527685488160586 0 -0.013030933683023181 -0.0023355602410441308 0 -0.012741229040859343 -0.0024970381655201267 0 -0.012989316569311652 -0.0022527685488160586 0 -0.012741229040859343 -0.0024970381655201267 0 -0.012642462166368419 -0.0023133778504884064 0 -0.019911700273540164 -0.0028016371775937718 0 -0.019246003816320172 -0.0028478556736411236 0 -0.019338437964047148 -0.0025284142630774479 0 -0.01964801993282091 -0.0022232006041362196 0 -0.019911700273540164 -0.0028016371775937718 0 -0.019338437964047148 -0.0025284142630774479 0 -0.017384314654231514 -0.0022895914921697924 0 -0.016075691690414406 -0.0027223341976190369 0 -0.017239644697731423 -0.0024859143025130937 0 -0.016075691690414406 -0.0027223341976190369 0 -0.019911700273540164 -0.0028016371775937718 0 -0.019246003816320172 -0.0028478556736411236 0 -0.019128376883586297 -0.0029095481417936871 0 -0.0071644251844340361 -0.0015327205441815197 0 -0.0067077209582151456 -0.0013382002640880421 0 -0.0070023865558184774 -0.0011167034531130947 0 -0.0071644251844340361 -0.0015327205441815197 0 -0.0070023865558184774 -0.0011167034531130947 0 -0.0073944822811003114 -0.0012319633978764609 0 -0.0071631748580882225 -0.0020540353839408041 0 -0.0071644251844340361 -0.0015327205441815197 0 -0.0076249016779794164 -0.0016608475023410889 0 -0.0071631748580882225 -0.0020540353839408041 0 -0.0071644251844340361 -0.0015327205441815197 0 -0.0066553151148478892 -0.0017997011022725521 0 -0.0067077209582151456 -0.0013382002640880421 0 -0.0062688836706329245 -0.0013724729555383381 0 -0.0064524590180632174 -0.00086081499345714403 0 -0.0066553151148478892 -0.0017997011022725521 0 -0.0067077209582151456 -0.0013382002640880421 0 -0.0062688836706329245 -0.0013724729555383381 0 -0.0071644251844340361 -0.0015327205441815197 0 -0.0066553151148478892 -0.0017997011022725521 0 -0.0067077209582151456 -0.0013382002640880421 0 -0.0066553151148478892 -0.0017997011022725521 0 -0.0062688836706329245 -0.0013724729555383381 0 -0.0061067219106754238 -0.0018998145437328323 0 -0.0062688836706329245 -0.0013724729555383381 0 -0.0061067219106754238 -0.0018998145437328323 0 -0.0058278338241792155 -0.0014374582395985716 0 -0.0061067219106754238 -0.0018998145437328323 0 -0.005705366605756588 -0.0018123581960741663 0 -0.0058278338241792155 -0.0014374582395985716 0 -0.005705366605756588 -0.0018123581960741663 0 -0.0058278338241792155 -0.0014374582395985716 0 -0.0055460141051868108 -0.0015291382631901337 0 -0.0058278338241792155 -0.0014374582395985716 0 -0.0058643145969231297 -0.00087031848321599502 0 -0.0055964229698519464 -0.0011401309616289068 0 -0.0062688836706329245 -0.0013724729555383381 0 -0.0058278338241792155 -0.0014374582395985716 0 -0.0058643145969231297 -0.00087031848321599502 0 -0.0058278338241792155 -0.0014374582395985716 0 -0.0055460141051868108 -0.0015291382631901337 0 -0.0055964229698519464 -0.0011401309616289068 0 -0.0058643145969231297 -0.00087031848321599502 0 -0.0055964229698519464 -0.0011401309616289068 0 -0.0054909800333473157 -0.00078337605357942856 0 -0.0058643145969231297 -0.00087031848321599502 0 -0.0055414819120391647 -0.00038723216164836564 0 -0.0054909800333473157 -0.00078337605357942856 0 -0.0058643145969231297 -0.00087031848321599502 0 -0.0055414819120391647 -0.00038723216164836564 0 -0.0059743126747036019 -0.00018818191137309181 0 -0.0064524590180632174 -0.00086081499345714403 0 -0.0066557293269214699 -0.00046867494218094576 0 -0.0059743126747036019 -0.00018818191137309181 0 -0.0058643145969231297 -0.00087031848321599502 0 -0.0064524590180632174 -0.00086081499345714403 0 -0.0059743126747036019 -0.00018818191137309181 0 -0.0066072828291104243 -0.00045108334956956201 0 -0.0059530578968262152 -0.00028791973144248664 0 -0.0062688836706329245 -0.0013724729555383381 0 -0.0058643145969231297 -0.00087031848321599502 0 -0.0064524590180632174 -0.00086081499345714403 0 -0.0067077209582151456 -0.0013382002640880421 0 -0.0064524590180632174 -0.00086081499345714403 0 -0.0070023865558184774 -0.0011167034531130947 0 -0.0064524590180632174 -0.00086081499345714403 0 -0.0069499588514194324 -0.00074275737463847674 0 -0.0070023865558184774 -0.0011167034531130947 0 -0.0064524590180632174 -0.00086081499345714403 0 -0.0066557293269214699 -0.00046867494218094576 0 -0.0069499588514194324 -0.00074275737463847674 0 -0.0066557293269214699 -0.00046867494218094576 0 -0.0069499588514194324 -0.00074275737463847674 0 -0.0072190281395670625 -0.000528303502188358 0 -0.0066557293269214699 -0.00046867494218094576 0 -0.0072190281395670625 -0.000528303502188358 0 -0.0070675096933657342 -0.00014376682454980211 0 -0.0069499588514194324 -0.00074275737463847674 0 -0.0072190281395670625 -0.000528303502188358 0 -0.0073786206642933961 -0.00089341611899351541 0 -0.0069499588514194324 -0.00074275737463847674 0 -0.0070023865558184774 -0.0011167034531130947 0 -0.0073786206642933961 -0.00089341611899351541 0 -0.0070023865558184774 -0.0011167034531130947 0 -0.0073786206642933961 -0.00089341611899351541 0 -0.0073944822811003114 -0.0012319633978764609 0 -0.0048813706464282888 -4.8161450994046729e-05 0 -0.0049606665682386322 0.00016141991991125128 0 -0.0046156903591661634 0.00020182724540528652 0 -0.0048813706464282888 -4.8161450994046729e-05 0 -0.0050724554831730927 -7.0602004766504085e-05 0 -0.0049309487716137938 -0.00016867933671939629 0 -0.0048813706464282888 -4.8161450994046729e-05 0 -0.0050724554831730927 -7.0602004766504085e-05 0 -0.0049606665682386322 0.00016141991991125128 0 -0.0050724554831730927 -7.0602004766504085e-05 0 -0.0049606665682386322 0.00016141991991125128 0 -0.0052398293526596876 0.00015039741387526051 0 -0.0049606665682386322 0.00016141991991125128 0 -0.0052398293526596876 0.00015039741387526051 0 -0.0052017288906564176 0.00044019315446025423 0 -0.0048742321458628965 0.0005703907959585013 0 -0.0049606665682386322 0.00016141991991125128 0 -0.0052017288906564176 0.00044019315446025423 0 -0.0048742321458628965 0.0005703907959585013 0 -0.0049606665682386322 0.00016141991991125128 0 -0.0046156903591661634 0.00020182724540528652 0 -0.0050211649121530925 -0.00021050892373532452 0 -0.0050245236206153182 -0.0002266148707042532 0 -0.0049634957098871595 -0.00022572710726855312 0 -0.0053643404094135781 -0.0019836832337089077 0 -0.005705366605756588 -0.0018123581960741663 0 -0.0055460141051868108 -0.0015291382631901337 0 -0.0047744927042170865 -0.001175879123337656 0 -0.0051836952589177096 -0.00069282700633545313 0 -0.0053643404094135781 -0.0019836832337089077 0 -0.0055460141051868108 -0.0015291382631901337 0 -0.0052621647672532251 -0.0012335413158476457 0 -0.0055460141051868108 -0.0015291382631901337 0 -0.0052621647672532251 -0.0012335413158476457 0 -0.0055964229698519464 -0.0011401309616289068 0 -0.0048707401176784019 1.8096931113007708e-05 0 -0.0048920170007775493 -0.00016581836374805206 0 -0.0048813706464282888 -4.8161450994046729e-05 0 -0.0046156903591661634 0.00020182724540528652 0 -0.0049221800595405018 -0.00020382435053952492 0 -0.0050245236206153182 -0.0002266148707042532 0 -0.0049634957098871595 -0.00022572710726855312 0 -0.0049221800595405018 -0.00020382435053952492 0 -0.0049221800595405018 -0.00020382435053952492 0 -0.0050158825307281239 -0.00022792608817670795 0 -0.0049697006805092415 -0.00019460808640075388 0 -0.0049634957098871595 -0.00022572710726855312 0 -0.0049221800595405018 -0.00020382435053952492 0 -0.0050158825307281239 -0.00022792608817670795 0 -0.0051836952589177096 -0.00069282700633545313 0 -0.0051354375885957169 -0.00028411470804314167 0 -0.0052621647672532251 -0.0012335413158476457 0 -0.0054909800333473157 -0.00078337605357942856 0 -0.0051587860754335243 -0.0002694278870784138 0 -0.0049634957098871595 -0.00022572710726855312 0 -0.0051587860754335243 -0.0002694278870784138 0 -0.0050158825307281239 -0.00022792608817670795 0 -0.0052621647672532251 -0.0012335413158476457 0 -0.0055964229698519464 -0.0011401309616289068 0 -0.0054909800333473157 -0.00078337605357942856 0 -0.0055414819120391647 -0.00038723216164836564 0 -0.0054909800333473157 -0.00078337605357942856 0 -0.0051587860754335243 -0.0002694278870784138 0 -0.0051587860754335243 -0.0002694278870784138 0 -0.005033899718685818 -0.00016482030606750002 0 -0.0051568194904327742 -2.1695276803754551e-05 0 -0.0055414819120391647 -0.00038723216164836564 0 -0.0051587860754335243 -0.0002694278870784138 0 -0.0051568194904327742 -2.1695276803754551e-05 0 -0.0050158825307281239 -0.00022792608817670795 0 -0.005033899718685818 -0.00016482030606750002 0 -0.0049697006805092415 -0.00019460808640075388 0 -0.0051587860754335243 -0.0002694278870784138 0 -0.0050158825307281239 -0.00022792608817670795 0 -0.005033899718685818 -0.00016482030606750002 0 -0.0049355229435847515 -0.00018339435002024339 0 -0.0049697006805092415 -0.00019460808640075388 0 -0.0048851664152948799 -0.00014957801367669122 0 -0.0049355229435847515 -0.00018339435002024339 0 -0.0049697006805092415 -0.00019460808640075388 0 -0.0049309487716137938 -0.00016867933671939629 0 -0.0049221800595405018 -0.00020382435053952492 0 -0.0049697006805092415 -0.00019460808640075388 0 -0.0049309487716137938 -0.00016867933671939629 0 -0.0048813706464282888 -4.8161450994046729e-05 0 -0.0049221800595405018 -0.00020382435053952492 0 -0.0049309487716137938 -0.00016867933671939629 0 -0.0051224354392397642 -0.00016560476886218653 0 -0.0050724554831730927 -7.0602004766504085e-05 0 -0.0049956530424460398 -0.00016209562372158717 0 -0.0050724554831730927 -7.0602004766504085e-05 0 -0.0049309487716137938 -0.00016867933671939629 0 -0.0049956530424460398 -0.00016209562372158717 0 -0.0049355229435847515 -0.00018339435002024339 0 -0.0049309487716137938 -0.00016867933671939629 0 -0.0049956530424460398 -0.00016209562372158717 0 -0.0051224354392397642 -0.00016560476886218653 0 -0.0049956530424460398 -0.00016209562372158717 0 -0.0049324507091734566 -0.00017388021380583047 0 -0.0049355229435847515 -0.00018339435002024339 0 -0.0049956530424460398 -0.00016209562372158717 0 -0.0049324507091734566 -0.00017388021380583047 0 -0.0049355229435847515 -0.00018339435002024339 0 -0.0049324507091734566 -0.00017388021380583047 0 -0.0048851664152948799 -0.00014957801367669122 0 -0.0049324507091734566 -0.00017388021380583047 0 -0.0048851664152948799 -0.00014957801367669122 0 -0.0048101061262956265 -0.00013165946599414476 0 -0.0048851664152948799 -0.00014957801367669122 0 -0.0049547536100274896 -6.8010319608161315e-05 0 -0.0046615958911101841 -3.7026975580476898e-05 0 -0.0049017821014404293 -7.8987547352070875e-05 0 -0.0046756092122955395 -3.8630731481201946e-05 0 -0.0048851664152948799 -0.00014957801367669122 0 -0.0048101061262956265 -0.00013165946599414476 0 -0.0046615958911101841 -3.7026975580476898e-05 0 -0.0044875282928003458 0.00022760299743766253 0 -0.00472853082083386 0.00023387443762558385 0 -0.0046615958911101841 -3.7026975580476898e-05 0 -0.0048425321830672776 -8.9831852031338713e-05 0 -0.00472853082083386 0.00023387443762558385 0 -0.0046615958911101841 -3.7026975580476898e-05 0 -0.0048425321830672776 -8.9831852031338713e-05 0 -0.0050975256150274763 5.8214505658796873e-05 0 -0.00472853082083386 0.00023387443762558385 0 -0.0049697006805092415 -0.00019460808640075388 0 -0.0048851664152948799 -0.00014957801367669122 0 -0.0049547536100274896 -6.8010319608161315e-05 0 -0.005033899718685818 -0.00016482030606750002 0 -0.0049697006805092415 -0.00019460808640075388 0 -0.0049547536100274896 -6.8010319608161315e-05 0 -0.005033899718685818 -0.00016482030606750002 0 -0.0049547536100274896 -6.8010319608161315e-05 0 -0.0051568194904327742 -2.1695276803754551e-05 0 -0.0048425321830672776 -8.9831852031338713e-05 0 -0.0053217050593204768 -0.00024872482353035104 0 -0.0050975256150274763 5.8214505658796873e-05 0 -0.0049017821014404293 -7.8987547352070875e-05 0 -0.0052527769024705564 -0.00013880004935140725 0 -0.0053217050593204768 -0.00024872482353035104 0 -0.0054618951723000263 3.5404902735951308e-05 0 -0.0059306776072970881 -0.00037898263623457396 0 -0.0054618951723000263 3.5404902735951308e-05 0 -0.0052258257778188821 0.00039080680358718827 0 -0.005804891025983458 0.00028276140619899108 0 -0.0054618951723000263 3.5404902735951308e-05 0 -0.0050975256150274763 5.8214505658796873e-05 0 -0.0052258257778188821 0.00039080680358718827 0 -0.0053217050593204768 -0.00024872482353035104 0 -0.0054618951723000263 3.5404902735951308e-05 0 -0.0050975256150274763 5.8214505658796873e-05 0 -0.0052258257778188821 0.00039080680358718827 0 -0.0048578866237270644 0.00059629040867085342 0 -0.00472853082083386 0.00023387443762558385 0 -0.0050975256150274763 5.8214505658796873e-05 0 -0.0052258257778188821 0.00039080680358718827 0 -0.00472853082083386 0.00023387443762558385 0 -0.0052258257778188821 0.00039080680358718827 0 -0.0057161693410527886 0.00077484898616399234 0 -0.0051646864461343334 0.0009235549015639159 0 -0.0055021874222763861 0.00084202637100529371 0 -0.0048723457771808259 0.0010327717201573808 0 -0.0052258257778188821 0.00039080680358718827 0 -0.0048578866237270644 0.00059629040867085342 0 -0.0051646864461343334 0.0009235549015639159 0 -0.0048578866237270644 0.00059629040867085342 0 -0.0044671473312668459 0.00062359360262820675 0 -0.0044078922161997942 0.0011244308579111257 0 -0.0048578866237270644 0.00059629040867085342 0 -0.0044671473312668459 0.00062359360262820675 0 -0.00472853082083386 0.00023387443762558385 0 -0.0044671473312668459 0.00062359360262820675 0 -0.0044875282928003458 0.00022760299743766253 0 -0.0042247822818798015 0.00047653038757397651 0 -0.0044671473312668459 0.00062359360262820675 0 -0.0044875282928003458 0.00022760299743766253 0 -0.00472853082083386 0.00023387443762558385 0 -0.0069933397548519885 0.00034404749259232169 0 -0.0070675096933657342 -0.00014376682454980211 0 -0.0075370242275308811 -1.9843078767681589e-05 0 -0.0069933397548519885 0.00034404749259232169 0 -0.0070675096933657342 -0.00014376682454980211 0 -0.0064604813917449426 0.00013186019842503655 0 -0.0066557293269214699 -0.00046867494218094576 0 -0.0070675096933657342 -0.00014376682454980211 0 -0.0064604813917449426 0.00013186019842503655 0 -0.0064604813917449426 0.00013186019842503655 0 -0.0059306776072970881 -0.00037898263623457396 0 -0.005804891025983458 0.00028276140619899108 0 -0.0066557293269214699 -0.00046867494218094576 0 -0.0064604813917449426 0.00013186019842503655 0 -0.0059306776072970881 -0.00037898263623457396 0 -0.0055414819120391647 -0.00038723216164836564 0 -0.0051568194904327742 -2.1695276803754551e-05 0 -0.0059743126747036019 -0.00018818191137309181 0 -0.0052527769024705564 -0.00013880004935140725 0 -0.0059530578968262152 -0.00028791973144248664 0 -0.0054618951723000263 3.5404902735951308e-05 0 -0.0059306776072970881 -0.00037898263623457396 0 -0.005804891025983458 0.00028276140619899108 0 -0.0052258257778188821 0.00039080680358718827 0 -0.005804891025983458 0.00028276140619899108 0 -0.0057161693410527886 0.00077484898616399234 0 -0.0052548573282109722 0.00089947867949377233 0 -0.0062588990411178965 0.00065806398195925747 0 -0.0057007241446528616 0.0013213693728702975 0 -0.0055021874222763861 0.00084202637100529371 0 -0.0062080567546438439 0.00065419774194151931 0 -0.005804891025983458 0.00028276140619899108 0 -0.0057161693410527886 0.00077484898616399234 0 -0.0062588990411178965 0.00065806398195925747 0 -0.0064604813917449426 0.00013186019842503655 0 -0.005804891025983458 0.00028276140619899108 0 -0.0062588990411178965 0.00065806398195925747 0 -0.0069933397548519885 0.00034404749259232169 0 -0.0064604813917449426 0.00013186019842503655 0 -0.0067098306273527704 0.00065365881619932308 0 -0.0064604813917449426 0.00013186019842503655 0 -0.0062588990411178965 0.00065806398195925747 0 -0.0067098306273527704 0.00065365881619932308 0 -0.0062588990411178965 0.00065806398195925747 0 -0.0067098306273527704 0.00065365881619932308 0 -0.0064697603561639496 0.001312836571185311 0 -0.0062588990411178965 0.00065806398195925747 0 -0.0064697603561639496 0.001312836571185311 0 -0.0057007241446528616 0.0013213693728702975 0 -0.0070375317762044996 0.0010671487895419576 0 -0.0067098306273527704 0.00065365881619932308 0 -0.0064697603561639496 0.001312836571185311 0 -0.0070375317762044996 0.0010671487895419576 0 -0.0071615989274203783 0.00068962755131891018 0 -0.0067098306273527704 0.00065365881619932308 0 -0.0069933397548519885 0.00034404749259232169 0 -0.0071615989274203783 0.00068962755131891018 0 -0.0067098306273527704 0.00065365881619932308 0 -0.0069933397548519885 0.00034404749259232169 0 -0.0071615989274203783 0.00068962755131891018 0 -0.0075211752535854701 0.0004524014645003039 0 -0.0065331008229503025 0.0019742765129263122 0 -0.0070256022438561268 0.0025493853155680681 0 -0.0073177689656687235 0.0016730664374307389 0 -0.0070375317762044996 0.0010671487895419576 0 -0.0064697603561639496 0.001312836571185311 0 -0.0073177689656687235 0.0016730664374307389 0 -0.0064697603561639496 0.001312836571185311 0 -0.0065331008229503025 0.0019742765129263122 0 -0.0073177689656687235 0.0016730664374307389 0 -0.0064697603561639496 0.001312836571185311 0 -0.0065331008229503025 0.0019742765129263122 0 -0.0057971861140651039 0.0018759309018477777 0 -0.0057971861140651039 0.0018759309018477777 0 -0.0057007241446528616 0.0013213693728702975 0 -0.0050008989409617366 0.0015903758365310374 0 -0.0064697603561639496 0.001312836571185311 0 -0.0057971861140651039 0.0018759309018477777 0 -0.0057007241446528616 0.0013213693728702975 0 -0.0052548573282109722 0.00089947867949377233 0 -0.0057007241446528616 0.0013213693728702975 0 -0.0050008989409617366 0.0015903758365310374 0 -0.0057971861140651039 0.0018759309018477777 0 -0.0050008989409617366 0.0015903758365310374 0 -0.0052386566391908872 0.0022208043604990801 0 -0.0052386566391908872 0.0022208043604990801 0 -0.0048762680556763884 0.0027965218507896039 0 -0.0054830089090274932 0.0030082857829754248 0 -0.0052386566391908872 0.0022208043604990801 0 -0.0060355714890081274 0.0024592147704796345 0 -0.0054830089090274932 0.0030082857829754248 0 -0.0057971861140651039 0.0018759309018477777 0 -0.0052386566391908872 0.0022208043604990801 0 -0.0060355714890081274 0.0024592147704796345 0 -0.0065331008229503025 0.0019742765129263122 0 -0.0057971861140651039 0.0018759309018477777 0 -0.0060355714890081274 0.0024592147704796345 0 -0.0060355714890081274 0.0024592147704796345 0 -0.0054830089090274932 0.0030082857829754248 0 -0.0062725732384053918 0.003208421705601862 0 -0.0070256022438561268 0.0025493853155680681 0 -0.0062725732384053918 0.003208421705601862 0 -0.0072418053369036305 0.0034595924701053154 0 -0.0060355714890081274 0.0024592147704796345 0 -0.0070256022438561268 0.0025493853155680681 0 -0.0062725732384053918 0.003208421705601862 0 -0.0065331008229503025 0.0019742765129263122 0 -0.0060355714890081274 0.0024592147704796345 0 -0.0070256022438561268 0.0025493853155680681 0 -0.0044078922161997942 0.0011244308579111257 0 -0.0044897429684297909 0.0015071281331205735 0 -0.0042932380954939352 0.0016430460752671204 0 -0.0044078922161997942 0.0011244308579111257 0 -0.004013656920327081 0.0013884484408892453 0 -0.0040490471199818275 0.00091647781211345435 0 -0.0044671473312668459 0.00062359360262820675 0 -0.0044078922161997942 0.0011244308579111257 0 -0.0040490471199818275 0.00091647781211345435 0 -0.0048578866237270644 0.00059629040867085342 0 -0.0044078922161997942 0.0011244308579111257 0 -0.0051646864461343334 0.0009235549015639159 0 -0.0044352225709133452 0.0011326045791617469 0 -0.0048723457771808259 0.0010327717201573808 0 -0.0044078922161997942 0.0011244308579111257 0 -0.0045898413517558283 0.0011560210963365526 0 -0.0044897429684297909 0.0015071281331205735 0 -0.0052548573282109722 0.00089947867949377233 0 -0.0050008989409617366 0.0015903758365310374 0 -0.0045898413517558283 0.0011560210963365526 0 -0.0050008989409617366 0.0015903758365310374 0 -0.0045898413517558283 0.0011560210963365526 0 -0.0044897429684297909 0.0015071281331205735 0 -0.0044897429684297909 0.0015071281331205735 0 -0.0043980596612104425 0.00205373760377877 0 -0.0042932380954939352 0.0016430460752671204 0 -0.0050008989409617366 0.0015903758365310374 0 -0.0052386566391908872 0.0022208043604990801 0 -0.0043980596612104425 0.00205373760377877 0 -0.0050008989409617366 0.0015903758365310374 0 -0.0044897429684297909 0.0015071281331205735 0 -0.0043980596612104425 0.00205373760377877 0 -0.0048762680556763884 0.0027965218507896039 0 -0.0043980596612104425 0.00205373760377877 0 -0.0042800398400461648 0.0033256853445626133 0 -0.0043580460331950266 0.0020968646792244527 0 -0.0043895319469389885 0.0026937221367552512 0 -0.0052386566391908872 0.0022208043604990801 0 -0.0048762680556763884 0.0027965218507896039 0 -0.0043980596612104425 0.00205373760377877 0 -0.0043980596612104425 0.00205373760377877 0 -0.0042932380954939352 0.0016430460752671204 0 -0.0043518302381548007 0.0019134697120966316 0 -0.0042932380954939352 0.0016430460752671204 0 -0.0041469299308658 0.0017104325265472251 0 -0.0043518302381548007 0.0019134697120966316 0 -0.0044078922161997942 0.0011244308579111257 0 -0.0042932380954939352 0.0016430460752671204 0 -0.004013656920327081 0.0013884484408892453 0 -0.0041469299308658 0.0017104325265472251 0 -0.004013656920327081 0.0013884484408892453 0 -0.0038079776843920375 0.0016931771995004931 0 -0.0042932380954939352 0.0016430460752671204 0 -0.0041469299308658 0.0017104325265472251 0 -0.004013656920327081 0.0013884484408892453 0 -0.0036851943084920723 0.0014319735767556324 0 -0.004013656920327081 0.0013884484408892453 0 -0.0038079776843920375 0.0016931771995004931 0 -0.0036851943084920723 0.0014319735767556324 0 -0.0034516687451387313 0.0011191755335738735 0 -0.0035155390004527861 0.0015204660213737782 0 -0.0036851943084920723 0.0014319735767556324 0 -0.0036876426586774994 0.0009963762036697243 0 -0.0034516687451387313 0.0011191755335738735 0 -0.0036851943084920723 0.0014319735767556324 0 -0.004013656920327081 0.0013884484408892453 0 -0.0036876426586774994 0.0009963762036697243 0 -0.004013656920327081 0.0013884484408892453 0 -0.0036876426586774994 0.0009963762036697243 0 -0.0040490471199818275 0.00091647781211345435 0 -0.0036876426586774994 0.0009963762036697243 0 -0.0040490471199818275 0.00091647781211345435 0 -0.003768951120614331 0.00053475839556851206 0 -0.003220097059199224 0.00070811652356694886 0 -0.003768951120614331 0.00053475839556851206 0 -0.003250391208729816 0.00026871137347983916 0 -0.003220097059199224 0.00070811652356694886 0 -0.0027662348630254165 0.00037540937948443264 0 -0.003250391208729816 0.00026871137347983916 0 -0.0036876426586774994 0.0009963762036697243 0 -0.003220097059199224 0.00070811652356694886 0 -0.003768951120614331 0.00053475839556851206 0 -0.0036876426586774994 0.0009963762036697243 0 -0.003220097059199224 0.00070811652356694886 0 -0.0034516687451387313 0.0011191755335738735 0 -0.003220097059199224 0.00070811652356694886 0 -0.0031030885508235885 0.00096952533347151337 0 -0.0026475528006099347 0.00065724421460666281 0 -0.003220097059199224 0.00070811652356694886 0 -0.0031030885508235885 0.00096952533347151337 0 -0.0034516687451387313 0.0011191755335738735 0 -0.0034516687451387313 0.0011191755335738735 0 -0.0032078595041791337 0.001245604974344688 0 -0.0035155390004527861 0.0015204660213737782 0 -0.0031030885508235885 0.00096952533347151337 0 -0.0034516687451387313 0.0011191755335738735 0 -0.0032078595041791337 0.001245604974344688 0 -0.0031030885508235885 0.00096952533347151337 0 -0.0032078595041791337 0.001245604974344688 0 -0.0028233123935772239 0.0010906426166735228 0 -0.0028233123935772239 0.0010906426166735228 0 -0.0023298406907067398 0.00089234799924248318 0 -0.0026475528006099347 0.00065724421460666281 0 -0.0031030885508235885 0.00096952533347151337 0 -0.0028233123935772239 0.0010906426166735228 0 -0.0026475528006099347 0.00065724421460666281 0 -0.0023298406907067398 0.00089234799924248318 0 -0.0026475528006099347 0.00065724421460666281 0 -0.002083299253681952 0.00046729737462156135 0 -0.0026475528006099347 0.00065724421460666281 0 -0.002083299253681952 0.00046729737462156135 0 -0.0022144868230040602 0.00039348995601546489 0 -0.001747382533446926 0.00010815557012316425 0 -0.002316326962054859 -5.771342313002352e-07 0 0.00025160004990304214 3.1039439272148032e-06 0 -0.001747382533446926 0.00010815557012316425 0 -0.0017480369938952208 0.00045556618129955948 0 -0.0011387712773648353 0.00055007950916989546 0 -0.001747382533446926 0.00010815557012316425 0 -0.0011387712773648353 0.00055007950916989546 0 0.00025160004990304214 3.1039439272148032e-06 0 -0.0023298406907067398 0.00089234799924248318 0 -0.0017480369938952208 0.00045556618129955948 0 -0.002083299253681952 0.00046729737462156135 0 -0.001747382533446926 0.00010815557012316425 0 -0.0017480369938952208 0.00045556618129955948 0 -0.002083299253681952 0.00046729737462156135 0 -0.001747382533446926 0.00010815557012316425 0 -0.0038161825620685198 -0.00014352313619305995 0 -0.0045317020347759559 -2.1312701130497754e-05 0 -0.0019846191359053499 0.00016680370665165159 0 -0.0033013388716410502 0.00011797054256534867 0 -0.001747382533446926 0.00010815557012316425 0 -0.002083299253681952 0.00046729737462156135 0 -0.0022144868230040602 0.00039348995601546489 0 -0.001747382533446926 0.00010815557012316425 0 -0.002316326962054859 -5.771342313002352e-07 0 -0.0038161825620685198 -0.00014352313619305995 0 -0.002316326962054859 -5.771342313002352e-07 0 -0.0038161825620685198 -0.00014352313619305995 0 -0.0048915607231641836 -1.0201515203915089e-06 0 -0.0038161825620685198 -0.00014352313619305995 0 -0.0045317020347759559 -2.1312701130497754e-05 0 -0.0051472773255125046 -0.00036123003151433317 0 -0.0038161825620685198 -0.00014352313619305995 0 -0.0048915607231641836 -1.0201515203915089e-06 0 -0.0051472773255125046 -0.00036123003151433317 0 -0.003220097059199224 0.00070811652356694886 0 -0.0026475528006099347 0.00065724421460666281 0 -0.0027662348630254165 0.00037540937948443264 0 -0.0026475528006099347 0.00065724421460666281 0 -0.0022144868230040602 0.00039348995601546489 0 -0.0027662348630254165 0.00037540937948443264 0 -0.0033013388716410502 0.00011797054256534867 0 -0.0038806302385199832 7.4288345737371638e-05 0 -0.0045317020347759559 -2.1312701130497754e-05 0 -0.0050115481632938517 -0.00026333657330894548 0 -0.0051472773255125046 -0.00036123003151433317 0 -0.0050115481632938517 -0.00026333657330894548 0 -0.0050200372471750094 6.1601243445161323e-05 0 -0.0051472773255125046 -0.00036123003151433317 0 -0.0050200372471750094 6.1601243445161323e-05 0 -0.0051472773255125046 -0.00036123003151433317 0 -0.0055418706528379859 0.00048737354728577132 0 -0.0038806302385199832 7.4288345737371638e-05 0 -0.0040776543091287053 0.00010985123009939802 0 -0.0050115481632938517 -0.00026333657330894548 0 -0.0050200372471750094 6.1601243445161323e-05 0 -0.00491151247561325 -4.0521867953158998e-05 0 -0.0051472773255125046 -0.00036123003151433317 0 -0.0074570437682035078 9.8745830680732746e-07 0 -0.0055418706528379859 0.00048737354728577132 0 -0.0048915607231641836 -1.0201515203915089e-06 0 -0.0051472773255125046 -0.00036123003151433317 0 -0.0074570437682035078 9.8745830680732746e-07 0 -0.0074636790230511148 -8.2184405321666191e-08 0 -0.0084184687778452675 0.0003711890079412301 0 -0.0074667609748591919 2.437825647694693e-06 0 -0.0097319056217926025 -5.9278116089539791e-07 0 -0.011274054794572014 0.00050641562196637767 0 -0.0097319056217926025 -5.9278116089539791e-07 0 -0.011274054794572014 0.00050641562196637767 0 -0.011624555071072205 -0.0001531165129333004 0 -0.012847364577886241 -0.00047127324795299968 0 -0.011624555071072205 -0.0001531165129333004 0 -0.012799326924394595 -7.5165176917496403e-05 0 -0.011274054794572014 0.00050641562196637767 0 -0.011624555071072205 -0.0001531165129333004 0 -0.012799326924394595 -7.5165176917496403e-05 0 -0.012001750939842532 -6.6528858360389531e-07 0 -0.0097319056217926025 -5.9278116089539791e-07 0 -0.011624555071072205 -0.0001531165129333004 0 -0.0050200372471750094 6.1601243445161323e-05 0 -0.0051183824011817973 0.00026063300880557673 0 -0.0049956661366037944 0.00011066206023226299 0 -0.0050200372471750094 6.1601243445161323e-05 0 -0.0049500178040606168 3.2054223344043355e-05 0 -0.0049956661366037944 0.00011066206023226299 0 -0.0084184687778452675 0.0003711890079412301 0 -0.0092483073965214761 9.8918373991896321e-05 0 -0.0050200372471750094 6.1601243445161323e-05 0 -0.0055418706528379859 0.00048737354728577132 0 -0.0051183824011817973 0.00026063300880557673 0 -0.0051183824011817973 0.00026063300880557673 0 -0.0049722269266989959 6.6556605749718687e-05 0 -0.0049956661366037944 0.00011066206023226299 0 -0.0049727241392597283 6.1036968927039367e-05 0 -0.0051183824011817973 0.00026063300880557673 0 -0.0049722269266989959 6.6556605749718687e-05 0 -0.0074953225897406847 -0.00057678419539207849 0 -0.0092483073965214761 9.8918373991896321e-05 0 -0.0049722269266989959 6.6556605749718687e-05 0 -0.0049663896723154436 4.0903351554930347e-05 0 -0.0049956661366037944 0.00011066206023226299 0 -0.0049799886145548058 6.5870856009775136e-06 0 -0.0049722269266989959 6.6556605749718687e-05 0 -0.0049663896723154436 4.0903351554930347e-05 0 -0.0049663896723154436 4.0903351554930347e-05 0 -0.0049500178040606168 3.2054223344043355e-05 0 -0.0049956661366037944 0.00011066206023226299 0 -0.0049663896723154436 4.0903351554930347e-05 0 -0.0049500178040606168 3.2054223344043355e-05 0 -0.0049495924471178333 -1.5844512158443933e-05 0 -0.0049500178040606168 3.2054223344043355e-05 0 -0.0049393989466354959 -2.1353305524064656e-05 0 -0.0049495924471178333 -1.5844512158443933e-05 0 -0.0049495924471178333 -1.5844512158443933e-05 0 -0.00497392307384786 -5.5655117864010698e-06 0 -0.0049278603286549904 -4.1968506714934764e-05 0 -0.0049663896723154436 4.0903351554930347e-05 0 -0.0049495924471178333 -1.5844512158443933e-05 0 -0.00497392307384786 -5.5655117864010698e-06 0 -0.0049799886145548058 6.5870856009775136e-06 0 -0.0049663896723154436 4.0903351554930347e-05 0 -0.00497392307384786 -5.5655117864010698e-06 0 -0.0049495924471178333 -1.5844512158443933e-05 0 -0.0049278603286549904 -4.1968506714934764e-05 0 -0.0047024895129835539 -0.00012194282849243295 0 -0.005035596973290337 -9.719972654863468e-05 0 -0.0049278603286549904 -4.1968506714934764e-05 0 -0.0047024895129835539 -0.00012194282849243295 0 -0.0050328408565679505 -4.3707386236390601e-05 0 -0.00497392307384786 -5.5655117864010698e-06 0 -0.0049278603286549904 -4.1968506714934764e-05 0 -0.0049336088594644761 -0.00013824125673199937 0 -0.0048101061262956265 -0.00013165946599414476 0 -0.0047024895129835539 -0.00012194282849243295 0 -0.0048101061262956265 -0.00013165946599414476 0 -0.0047024895129835539 -0.00012194282849243295 0 -0.0046615958911101841 -3.7026975580476898e-05 0 -0.0044875282928003458 0.00022760299743766253 0 -0.0046615958911101841 -3.7026975580476898e-05 0 -0.0042678986730051776 0.0001700807415060252 0 -0.0047024895129835539 -0.00012194282849243295 0 -0.0046615958911101841 -3.7026975580476898e-05 0 -0.0042678986730051776 0.0001700807415060252 0 -0.0049393989466354959 -2.1353305524064656e-05 0 -0.0049495924471178333 -1.5844512158443933e-05 0 -0.0047024895129835539 -0.00012194282849243295 0 -0.0043605361685456617 2.619722390751216e-05 0 -0.0046491768939924899 -0.00010066706213648951 0 -0.0037989686440603179 4.5452326440622998e-05 0 -0.0047024895129835539 -0.00012194282849243295 0 -0.0042678986730051776 0.0001700807415060252 0 -0.0037989686440603179 4.5452326440622998e-05 0 -0.0042678986730051776 0.0001700807415060252 0 -0.003768951120614331 0.00053475839556851206 0 -0.0044875282928003458 0.00022760299743766253 0 -0.0042678986730051776 0.0001700807415060252 0 -0.0042247822818798015 0.00047653038757397651 0 -0.0044671473312668459 0.00062359360262820675 0 -0.0040490471199818275 0.00091647781211345435 0 -0.0042247822818798015 0.00047653038757397651 0 -0.0040490471199818275 0.00091647781211345435 0 -0.0042247822818798015 0.00047653038757397651 0 -0.003768951120614331 0.00053475839556851206 0 -0.0042678986730051776 0.0001700807415060252 0 -0.0042247822818798015 0.00047653038757397651 0 -0.003768951120614331 0.00053475839556851206 0 -0.0050200372471750094 6.1601243445161323e-05 0 -0.0049500178040606168 3.2054223344043355e-05 0 -0.00491151247561325 -4.0521867953158998e-05 0 -0.0037989686440603179 4.5452326440622998e-05 0 -0.003768951120614331 0.00053475839556851206 0 -0.003250391208729816 0.00026871137347983916 0 -0.0049500178040606168 3.2054223344043355e-05 0 -0.0049393989466354959 -2.1353305524064656e-05 0 -0.00491151247561325 -4.0521867953158998e-05 0 -0.0043605361685456617 2.619722390751216e-05 0 -0.0040776543091287053 0.00010985123009939802 0 -0.01349410676838146 0.0020010290018923644 0 -0.01300376502096477 0.002353740420061385 0 -0.012702444396399596 0.0017511882017304148 0 -0.01349410676838146 0.0020010290018923644 0 -0.012702444396399596 0.0017511882017304148 0 -0.013249412807622422 0.0014324920225603421 0 -0.01349410676838146 0.0020010290018923644 0 -0.014011043527266275 0.0016452402516541952 0 -0.014153189140608141 0.002258753138309335 0 -0.01349410676838146 0.0020010290018923644 0 -0.013530872501083806 0.0024587209296931022 0 -0.014153189140608141 0.002258753138309335 0 -0.013530872501083806 0.0024587209296931022 0 -0.014153189140608141 0.002258753138309335 0 -0.013913335242619843 0.0027704019431597044 0 -0.013530872501083806 0.0024587209296931022 0 -0.01300376502096477 0.002353740420061385 0 -0.012965725987316119 0.0029409253995893981 0 -0.01349410676838146 0.0020010290018923644 0 -0.013530872501083806 0.0024587209296931022 0 -0.01300376502096477 0.002353740420061385 0 -0.011947825778471475 0.0020693258711966017 0 -0.012581305364394191 0.0023401481228321336 0 -0.01300376502096477 0.002353740420061385 0 -0.012294026410451121 0.002376005240224409 0 -0.012965725987316119 0.0029409253995893981 0 -0.0116325622866986 0.0017617094812598425 0 -0.01152133224475402 0.0015366578121338232 0 -0.011414679159451029 0.0018198923422537746 0 -0.0116325622866986 0.0017617094812598425 0 -0.011648477025072764 0.0020603430576253759 0 -0.011414679159451029 0.0018198923422537746 0 -0.012294026410451121 0.002376005240224409 0 -0.012702444396399596 0.0017511882017304148 0 -0.01152133224475402 0.0015366578121338232 0 -0.011947825778471475 0.0020693258711966017 0 -0.011545337618907218 0.0015667292121416499 0 -0.01300376502096477 0.002353740420061385 0 -0.012294026410451121 0.002376005240224409 0 -0.012702444396399596 0.0017511882017304148 0 -0.012702444396399596 0.0017511882017304148 0 -0.012384490881749441 0.00079558011672856014 0 -0.013249412807622422 0.0014324920225603421 0 -0.012702444396399596 0.0017511882017304148 0 -0.012384490881749441 0.00079558011672856014 0 -0.01152133224475402 0.0015366578121338232 0 -0.013218277578764908 0.0010245340149756365 0 -0.01214415059863223 0.0011644219678438722 0 -0.013218277578764908 0.0010245340149756365 0 -0.014014307549283568 0.0010216979584337794 0 -0.014082937516595083 0.0012272095423699187 0 -0.014496986212797339 0.0010984471019664932 0 -0.014238457333414691 0.00090927434736494568 0 -0.012384490881749441 0.00079558011672856014 0 -0.013551948031772022 0.00091146845727897003 0 -0.013249412807622422 0.0014324920225603421 0 -0.01349410676838146 0.0020010290018923644 0 -0.013249412807622422 0.0014324920225603421 0 -0.014011043527266275 0.0016452402516541952 0 -0.013551948031772022 0.00091146845727897003 0 -0.013249412807622422 0.0014324920225603421 0 -0.014011043527266275 0.0016452402516541952 0 -0.014014307549283568 0.0010216979584337794 0 -0.014560479652025471 0.0011472898094302747 0 -0.013551948031772022 0.00091146845727897003 0 -0.014011043527266275 0.0016452402516541952 0 -0.014598903356879248 0.0011823269258310269 0 -0.014598903356879248 0.0011823269258310269 0 -0.015115689536911251 0.0016154241050202948 0 -0.014685142049590313 0.0019391574781525756 0 -0.014011043527266275 0.0016452402516541952 0 -0.014598903356879248 0.0011823269258310269 0 -0.014685142049590313 0.0019391574781525756 0 -0.015850778140519051 0.0017367245693095806 0 -0.015115689536911251 0.0016154241050202948 0 -0.01527794608421152 0.0020116301038786252 0 -0.015115689536911251 0.0016154241050202948 0 -0.01527794608421152 0.0020116301038786252 0 -0.014685142049590313 0.0019391574781525756 0 -0.015850778140519051 0.0017367245693095806 0 -0.01527794608421152 0.0020116301038786252 0 -0.015731182608932963 0.0018801678415433086 0 -0.01527794608421152 0.0020116301038786252 0 -0.015030538204757658 0.0023301556228824353 0 -0.015272974465698877 0.0021815947312065183 0 -0.01527794608421152 0.0020116301038786252 0 -0.014756337094276047 0.0022862236138017807 0 -0.014685142049590313 0.0019391574781525756 0 -0.01527794608421152 0.0020116301038786252 0 -0.014756337094276047 0.0022862236138017807 0 -0.015030538204757658 0.0023301556228824353 0 -0.014756337094276047 0.0022862236138017807 0 -0.015030538204757658 0.0023301556228824353 0 -0.014840452291253536 0.0025553072906865158 0 -0.014756337094276047 0.0022862236138017807 0 -0.014153189140608141 0.002258753138309335 0 -0.014423298241578852 0.0025329388097503069 0 -0.014756337094276047 0.0022862236138017807 0 -0.014685142049590313 0.0019391574781525756 0 -0.014153189140608141 0.002258753138309335 0 -0.014011043527266275 0.0016452402516541952 0 -0.014685142049590313 0.0019391574781525756 0 -0.014153189140608141 0.002258753138309335 0 -0.014423298241578852 0.0025329388097503069 0 -0.013887762751791183 0.0027148114920072224 0 -0.013710129667719629 0.0023898872919122724 0 -0.014153189140608141 0.002258753138309335 0 -0.014423298241578852 0.0025329388097503069 0 -0.013913335242619843 0.0027704019431597044 0 -0.01432869983213313 0.0025276264737248326 0 -0.01391603468209285 0.0026275431743091496 0 -0.014423298241578852 0.0025329388097503069 0 -0.014474433491925903 0.0027557036634407476 0 -0.014048253974094748 0.0028590585524442195 0 -0.014423298241578852 0.0025329388097503069 0 -0.013887762751791183 0.0027148114920072224 0 -0.014048253974094748 0.0028590585524442195 0 -0.015030538204757658 0.0023301556228824353 0 -0.014840452291253536 0.0025553072906865158 0 -0.015057064209782034 0.0024960983177554331 0 -0.014840452291253536 0.0025553072906865158 0 -0.014941024209213923 0.0026292166354178513 0 -0.015057064209782034 0.0024960983177554331 0 -0.014756337094276047 0.0022862236138017807 0 -0.014423298241578852 0.0025329388097503069 0 -0.014840452291253536 0.0025553072906865158 0 -0.014423298241578852 0.0025329388097503069 0 -0.014840452291253536 0.0025553072906865158 0 -0.014474433491925903 0.0027557036634407476 0 -0.014840452291253536 0.0025553072906865158 0 -0.014941024209213923 0.0026292166354178513 0 -0.014772531887967701 0.0027471351127744082 0 -0.014840452291253536 0.0025553072906865158 0 -0.014772531887967701 0.0027471351127744082 0 -0.014474433491925903 0.0027557036634407476 0 -0.014941024209213923 0.0026292166354178513 0 -0.014772531887967701 0.0027471351127744082 0 -0.01495870260479867 0.0027203323388442203 0 -0.014772531887967701 0.0027471351127744082 0 -0.014666838115291037 0.0029234696033385204 0 -0.014871169083263584 0.0028495529154470294 0 -0.014772531887967701 0.0027471351127744082 0 -0.014871169083263584 0.0028495529154470294 0 -0.01495870260479867 0.0027203323388442203 0 -0.014772531887967701 0.0027471351127744082 0 -0.014588305078415201 0.0028360701033253062 0 -0.014666838115291037 0.0029234696033385204 0 -0.014474433491925903 0.0027557036634407476 0 -0.014588305078415201 0.0028360701033253062 0 -0.014442871097662445 0.0029756831072264033 0 -0.014772531887967701 0.0027471351127744082 0 -0.014474433491925903 0.0027557036634407476 0 -0.014588305078415201 0.0028360701033253062 0 -0.014474433491925903 0.0027557036634407476 0 -0.014442871097662445 0.0029756831072264033 0 -0.014143170763115002 0.0029969530436619782 0 -0.014588305078415201 0.0028360701033253062 0 -0.014442871097662445 0.0029756831072264033 0 -0.014666838115291037 0.0029234696033385204 0 -0.01432403083520712 0.0031409173489801833 0 -0.014442871097662445 0.0029756831072264033 0 -0.014143170763115002 0.0029969530436619782 0 -0.01432403083520712 0.0031409173489801833 0 -0.01453568800779783 0.0031219463631055122 0 -0.014399268583198779 0.0033313035717572985 0 -0.01432403083520712 0.0031409173489801833 0 -0.01453568800779783 0.0031219463631055122 0 -0.014442871097662445 0.0029756831072264033 0 -0.01453568800779783 0.0031219463631055122 0 -0.014442871097662445 0.0029756831072264033 0 -0.014666838115291037 0.0029234696033385204 0 -0.014666838115291037 0.0029234696033385204 0 -0.014761129151058308 0.003091746808415678 0 -0.014871169083263584 0.0028495529154470294 0 -0.01453568800779783 0.0031219463631055122 0 -0.014666838115291037 0.0029234696033385204 0 -0.014761129151058308 0.003091746808415678 0 -0.013887762751791183 0.0027148114920072224 0 -0.014048253974094748 0.0028590585524442195 0 -0.013707416740194933 0.0029721082294199576 0 -0.014474433491925903 0.0027557036634407476 0 -0.014048253974094748 0.0028590585524442195 0 -0.014143170763115002 0.0029969530436619782 0 -0.01432403083520712 0.0031409173489801833 0 -0.014143170763115002 0.0029969530436619782 0 -0.014084214028788027 0.0033183199892067652 0 -0.014048253974094748 0.0028590585524442195 0 -0.014143170763115002 0.0029969530436619782 0 -0.013606852709882905 0.0031945090135251136 0 -0.014143170763115002 0.0029969530436619782 0 -0.013606852709882905 0.0031945090135251136 0 -0.014084214028788027 0.0033183199892067652 0 -0.013600790087018965 0.0031863517346924857 0 -0.013281672566837469 0.0028481957128537877 0 -0.013606852709882905 0.0031945090135251136 0 -0.012862662910345853 0.0031983617681829854 0 -0.012830708905190086 0.0026663827700786008 0 -0.014048253974094748 0.0028590585524442195 0 -0.013606852709882905 0.0031945090135251136 0 -0.013707416740194933 0.0029721082294199576 0 -0.012862662910345853 0.0031983617681829854 0 -0.012435219291791179 0.0030156952026598157 0 -0.012540783483938958 0.003495681331958816 0 -0.012862662910345853 0.0031983617681829854 0 -0.012435219291791179 0.0030156952026598157 0 -0.012830708905190086 0.0026663827700786008 0 -0.012435219291791179 0.0030156952026598157 0 -0.012080487853611811 0.0029135099970709613 0 -0.01217117099765379 0.0032825139379628215 0 -0.012080487853611811 0.0029135099970709613 0 -0.011865651986614561 0.0032158023221190196 0 -0.01217117099765379 0.0032825139379628215 0 -0.012435219291791179 0.0030156952026598157 0 -0.012080487853611811 0.0029135099970709613 0 -0.012336997901566069 0.0026927770715860504 0 -0.012336997901566069 0.0026927770715860504 0 -0.012337947068980533 0.0023426554175038587 0 -0.012038307883530447 0.0025784199517069318 0 -0.012080487853611811 0.0029135099970709613 0 -0.012336997901566069 0.0026927770715860504 0 -0.012038307883530447 0.0025784199517069318 0 -0.012336997901566069 0.0026927770715860504 0 -0.012830708905190086 0.0026663827700786008 0 -0.012337947068980533 0.0023426554175038587 0 -0.012435219291791179 0.0030156952026598157 0 -0.012336997901566069 0.0026927770715860504 0 -0.012830708905190086 0.0026663827700786008 0 -0.013281672566837469 0.0028481957128537877 0 -0.012890762459375692 0.0024989798198552797 0 -0.013887762751791183 0.0027148114920072224 0 -0.013707416740194933 0.0029721082294199576 0 -0.013454720401707932 0.0027079145930976648 0 -0.013887762751791183 0.0027148114920072224 0 -0.013454720401707932 0.0027079145930976648 0 -0.013710129667719629 0.0023898872919122724 0 -0.012890762459375692 0.0024989798198552797 0 -0.012581305364394191 0.0023401481228321336 0 -0.012337947068980533 0.0023426554175038587 0 -0.011973658260715128 0.0020269166372542708 0 -0.011955309936926497 0.0022924254878569118 0 -0.012337947068980533 0.0023426554175038587 0 -0.011955309936926497 0.0022924254878569118 0 -0.012038307883530447 0.0025784199517069318 0 -0.01391603468209285 0.0026275431743091496 0 -0.012581305364394191 0.0023401481228321336 0 -0.013454720401707932 0.0027079145930976648 0 -0.013710129667719629 0.0023898872919122724 0 -0.013145563376038919 0.0023685883459172688 0 -0.013530872501083806 0.0024587209296931022 0 -0.013913335242619843 0.0027704019431597044 0 -0.012965725987316119 0.0029409253995893981 0 -0.011643769870729756 0.0020388317636758791 0 -0.01146217989005518 0.0022454419459424419 0 -0.011357975915126143 0.0020574686181483687 0 -0.011542005401191425 0.0020572410634444515 0 -0.011429855930386602 0.0020540861519997393 0 -0.011648477025072764 0.0020603430576253759 0 -0.011357975915126143 0.0020574686181483687 0 -0.011414679159451029 0.0018198923422537746 0 -0.0116325622866986 0.0017617094812598425 0 -0.011648477025072764 0.0020603430576253759 0 -0.01192137933224981 0.0020710839098501913 0 -0.011542005401191425 0.0020572410634444515 0 -0.012581305364394191 0.0023401481228321336 0 -0.011643769870729756 0.0020388317636758791 0 -0.011973658260715128 0.0020269166372542708 0 -0.011955309936926497 0.0022924254878569118 0 -0.011643769870729756 0.0020388317636758791 0 -0.011955309936926497 0.0022924254878569118 0 -0.011734220378110031 0.0024722260463007264 0 -0.011955309936926497 0.0022924254878569118 0 -0.011734220378110031 0.0024722260463007264 0 -0.012038307883530447 0.0025784199517069318 0 -0.011643769870729756 0.0020388317636758791 0 -0.011734220378110031 0.0024722260463007264 0 -0.01146217989005518 0.0022454419459424419 0 -0.011734220378110031 0.0024722260463007264 0 -0.01146217989005518 0.0022454419459424419 0 -0.011341532767286612 0.0024849883338345425 0 -0.011734220378110031 0.0024722260463007264 0 -0.011381001190400039 0.0027898304777342333 0 -0.011736558172181515 0.0029357645154754479 0 -0.011734220378110031 0.0024722260463007264 0 -0.011381001190400039 0.0027898304777342333 0 -0.011341532767286612 0.0024849883338345425 0 -0.011734220378110031 0.0024722260463007264 0 -0.012038307883530447 0.0025784199517069318 0 -0.011730867679957124 0.0028496083899868319 0 -0.011716372389785484 0.0024532300057802086 0 -0.011843502799191753 0.003056471474261174 0 -0.012080487853611811 0.0029135099970709613 0 -0.012038307883530447 0.0025784199517069318 0 -0.011730867679957124 0.0028496083899868319 0 -0.011730867679957124 0.0028496083899868319 0 -0.011865651986614561 0.0032158023221190196 0 -0.011712906248291424 0.0033138721133874945 0 -0.011843502799191753 0.003056471474261174 0 -0.0075643567683359664 0.0027641781730177476 0 -0.012080487853611811 0.0029135099970709613 0 -0.011730867679957124 0.0028496083899868319 0 -0.011865651986614561 0.0032158023221190196 0 -0.011381001190400039 0.0027898304777342333 0 -0.011736558172181515 0.0029357645154754479 0 -0.01137920403559947 0.0031852595537813994 0 -0.011736558172181515 0.0029357645154754479 0 -0.01137920403559947 0.0031852595537813994 0 -0.011729303478140479 0.0033652524298212983 0 -0.01137920403559947 0.0031852595537813994 0 -0.011085093170217943 0.0030063887498901535 0 -0.010998958544218106 0.00333492784420393 0 -0.011381001190400039 0.0027898304777342333 0 -0.01137920403559947 0.0031852595537813994 0 -0.011085093170217943 0.0030063887498901535 0 -0.011381001190400039 0.0027898304777342333 0 -0.011085093170217943 0.0030063887498901535 0 -0.01099081032676108 0.0026541867817611313 0 -0.011381001190400039 0.0027898304777342333 0 -0.01099081032676108 0.0026541867817611313 0 -0.011341532767286612 0.0024849883338345425 0 -0.011085093170217943 0.0030063887498901535 0 -0.01099081032676108 0.0026541867817611313 0 -0.010683837050308244 0.0030740951401304522 0 -0.01099081032676108 0.0026541867817611313 0 -0.010683837050308244 0.0030740951401304522 0 -0.010515416273727537 0.0025822219011275953 0 -0.011085093170217943 0.0030063887498901535 0 -0.010683837050308244 0.0030740951401304522 0 -0.010998958544218106 0.00333492784420393 0 -0.010683837050308244 0.0030740951401304522 0 -0.010640686080249878 0.0034748550728932533 0 -0.010998958544218106 0.00333492784420393 0 -0.010683837050308244 0.0030740951401304522 0 -0.010187531606955041 0.0029362329388956218 0 -0.010310944140982792 0.00343536285569365 0 -0.0092384569462552989 0.0031868378459309469 0 -0.0095177671029896081 0.0027223279980450937 0 -0.0089407684039060683 0.0028245749516726212 0 -0.0098153150133903008 0.002783095891128851 0 -0.010256303899020108 0.0035818773612403261 0 -0.0092384569462552989 0.0031868378459309469 0 -0.0095177671029896081 0.0027223279980450937 0 -0.0096761973742317854 0.0033545214888039041 0 -0.0095177671029896081 0.0027223279980450937 0 -0.0094383682990842009 0.0021400565090192759 0 -0.0089407684039060683 0.0028245749516726212 0 -0.010187531606955041 0.0029362329388956218 0 -0.010515416273727537 0.0025822219011275953 0 -0.00998446117696568 0.0024315542160721839 0 -0.0098153150133903008 0.002783095891128851 0 -0.0097167363552523606 0.0022709007754348918 0 -0.010683837050308244 0.0030740951401304522 0 -0.010187531606955041 0.0029362329388956218 0 -0.010515416273727537 0.0025822219011275953 0 -0.010515416273727537 0.0025822219011275953 0 -0.010386141543791935 0.0020404860042363654 0 -0.010793249792654749 0.0022597971271941923 0 -0.010515416273727537 0.0025822219011275953 0 -0.00998446117696568 0.0024315542160721839 0 -0.010386141543791935 0.0020404860042363654 0 -0.00998446117696568 0.0024315542160721839 0 -0.010386141543791935 0.0020404860042363654 0 -0.0096060853638213171 0.0016721857302612597 0 -0.010386141543791935 0.0020404860042363654 0 -0.010793249792654749 0.0022597971271941923 0 -0.010759828988618703 0.001680583552047119 0 -0.011129107548968278 0.0019595168507468312 0 -0.011167089557399796 0.0022713177010027005 0 -0.010793249792654749 0.0022597971271941923 0 -0.011129107548968278 0.0019595168507468312 0 -0.010793249792654749 0.0022597971271941923 0 -0.010759828988618703 0.001680583552047119 0 -0.011129107548968278 0.0019595168507468312 0 -0.011357975915126143 0.0020574686181483687 0 -0.011414679159451029 0.0018198923422537746 0 -0.01146217989005518 0.0022454419459424419 0 -0.011357975915126143 0.0020574686181483687 0 -0.011167089557399796 0.0022713177010027005 0 -0.011129107548968278 0.0019595168507468312 0 -0.011357975915126143 0.0020574686181483687 0 -0.011167089557399796 0.0022713177010027005 0 -0.01099081032676108 0.0026541867817611313 0 -0.011167089557399796 0.0022713177010027005 0 -0.011341532767286612 0.0024849883338345425 0 -0.01146217989005518 0.0022454419459424419 0 -0.011167089557399796 0.0022713177010027005 0 -0.011341532767286612 0.0024849883338345425 0 -0.01099081032676108 0.0026541867817611313 0 -0.011167089557399796 0.0022713177010027005 0 -0.010793249792654749 0.0022597971271941923 0 -0.01099081032676108 0.0026541867817611313 0 -0.010515416273727537 0.0025822219011275953 0 -0.010793249792654749 0.0022597971271941923 0 -0.0070256022438561268 0.0025493853155680681 0 -0.0079315149577047078 0.0028868761983612801 0 -0.00781323970359858 0.0022611511856069789 0 -0.0070256022438561268 0.0025493853155680681 0 -0.0079315149577047078 0.0028868761983612801 0 -0.0072418053369036305 0.0034595924701053154 0 -0.0080069905920986239 0.0028505977671883713 0 -0.0072743844447488732 0.0034574770017053382 0 -0.0079315149577047078 0.0028868761983612801 0 -0.0086386925193028714 0.0023513659217953317 0 -0.00781323970359858 0.0022611511856069789 0 -0.0080598628866221794 0.002829610191116359 0 -0.0089407684039060683 0.0028245749516726212 0 -0.0086386925193028714 0.0023513659217953317 0 -0.0080069905920986239 0.0028505977671883713 0 -0.0085833196139127755 0.0023626026567384094 0 -0.0080598628866221794 0.002829610191116359 0 -0.0089407684039060683 0.0028245749516726212 0 -0.0085616192395377901 0.0033254596339087695 0 -0.0092384569462552989 0.0031868378459309469 0 -0.0089407684039060683 0.0028245749516726212 0 -0.0085616192395377901 0.0033254596339087695 0 -0.0094383682990842009 0.0021400565090192759 0 -0.0089407684039060683 0.0028245749516726212 0 -0.0086386925193028714 0.0023513659217953317 0 -0.0094383682990842009 0.0021400565090192759 0 -0.0088608751650365771 0.0018496968672836831 0 -0.0086386925193028714 0.0023513659217953317 0 -0.0094383682990842009 0.0021400565090192759 0 -0.0088608751650365771 0.0018496968672836831 0 -0.0096060853638213171 0.0016721857302612597 0 -0.0097167363552523606 0.0022709007754348918 0 -0.0095916278532681195 0.0016868657481850687 0 -0.0088608751650365771 0.0018496968672836831 0 -0.0086386925193028714 0.0023513659217953317 0 -0.0081533521195157332 0.0018805112666827758 0 -0.0070256022438561268 0.0025493853155680681 0 -0.00781323970359858 0.0022611511856069789 0 -0.0073177689656687235 0.0016730664374307389 0 -0.0086386925193028714 0.0023513659217953317 0 -0.00781323970359858 0.0022611511856069789 0 -0.0081533521195157332 0.0018805112666827758 0 -0.0088608751650365771 0.0018496968672836831 0 -0.0081533521195157332 0.0018805112666827758 0 -0.0082374684411841738 0.0013903786321741659 0 -0.0081533521195157332 0.0018805112666827758 0 -0.0073177689656687235 0.0016730664374307389 0 -0.0082374684411841738 0.0013903786321741659 0 -0.00781323970359858 0.0022611511856069789 0 -0.0081533521195157332 0.0018805112666827758 0 -0.0073177689656687235 0.0016730664374307389 0 -0.0075211752535854701 0.0004524014645003039 0 -0.0076339330219880172 0.00099786628138454677 0 -0.0084129955564478977 0.00080945582693467053 0 -0.0071615989274203783 0.00068962755131891018 0 -0.0075211752535854701 0.0004524014645003039 0 -0.0076339330219880172 0.00099786628138454677 0 -0.0070375317762044996 0.0010671487895419576 0 -0.0071615989274203783 0.00068962755131891018 0 -0.0076339330219880172 0.00099786628138454677 0 -0.0073177689656687235 0.0016730664374307389 0 -0.0076339330219880172 0.00099786628138454677 0 -0.0082374684411841738 0.0013903786321741659 0 -0.0070375317762044996 0.0010671487895419576 0 -0.0073177689656687235 0.0016730664374307389 0 -0.0076339330219880172 0.00099786628138454677 0 -0.0076339330219880172 0.00099786628138454677 0 -0.0082374684411841738 0.0013903786321741659 0 -0.0084129955564478977 0.00080945582693467053 0 -0.0075211752535854701 0.0004524014645003039 0 -0.0084129955564478977 0.00080945582693467053 0 -0.0082434534510339285 4.4800247683651995e-05 0 -0.0084129955564478977 0.00080945582693467053 0 -0.0094929579763582354 0.00097975429391744073 0 -0.0089669410684810567 0.00025042496630649111 0 -0.0084129955564478977 0.00080945582693467053 0 -0.0089442646656703144 0.0013685929121366382 0 -0.0094929579763582354 0.00097975429391744073 0 -0.0088608751650365771 0.0018496968672836831 0 -0.0082374684411841738 0.0013903786321741659 0 -0.0089442646656703144 0.0013685929121366382 0 -0.0082374684411841738 0.0013903786321741659 0 -0.0084129955564478977 0.00080945582693467053 0 -0.0089442646656703144 0.0013685929121366382 0 -0.0089442646656703144 0.0013685929121366382 0 -0.0096060853638213171 0.0016721857302612597 0 -0.0094929579763582354 0.00097975429391744073 0 -0.0096060853638213171 0.0016721857302612597 0 -0.0094929579763582354 0.00097975429391744073 0 -0.010251423058661949 0.0015330231141942963 0 -0.0088608751650365771 0.0018496968672836831 0 -0.0089442646656703144 0.0013685929121366382 0 -0.0096060853638213171 0.0016721857302612597 0 -0.0094929579763582354 0.00097975429391744073 0 -0.0097395055147685879 -0.00011437208661983549 0 -0.0089669410684810567 0.00025042496630649111 0 -0.009554036149086835 0.00098602289587272542 0 -0.0098219135376926038 0.00040613467123022055 0 -0.0094929579763582354 0.00097975429391744073 0 -0.0099646249808704006 0.00096255234973239125 0 -0.01043561183499885 0.0011927051735530403 0 -0.009062804858701928 -0.00050230615431746831 0 -0.010247382434038173 -4.6155332696137778e-05 0 -0.0098219135376926038 0.00040613467123022055 0 -0.010247382434038173 -4.6155332696137778e-05 0 -0.0097395055147685879 -0.00011437208661983549 0 -0.0090915983040522706 -0.0005130962209014035 0 -0.0099879322599498218 -0.0010811040950540821 0 -0.0090127634203037675 -0.0003552310361156477 0 -0.0090787569651326373 -0.00099702698448778473 0 -0.0098063411337408184 -0.00081968997610900967 0 -0.0099646249808704006 0.00096255234973239125 0 -0.010405676834124177 0.00094312707259744128 0 -0.0101766322567676 0.000538135761620235 0 -0.0090127634203037675 -0.0003552310361156477 0 -0.008238158284891264 7.3134624078371766e-05 0 -0.0084039103112247878 -0.00047215040885077698 0 -0.0090127634203037675 -0.0003552310361156477 0 -0.0084039103112247878 -0.00047215040885077698 0 -0.0090787569651326373 -0.00099702698448778473 0 -0.009062804858701928 -0.00050230615431746831 0 -0.0082281274914545923 6.4225275621726969e-05 0 -0.0090915983040522706 -0.0005130962209014035 0 -0.0089669410684810567 0.00025042496630649111 0 -0.0082434534510339285 4.4800247683651995e-05 0 -0.0097395055147685879 -0.00011437208661983549 0 -0.0090915983040522706 -0.0005130962209014035 0 -0.0089669410684810567 0.00025042496630649111 0 -0.0075916439036277095 0.00042637576822692147 0 -0.0082281274914545923 6.4225275621726969e-05 0 -0.0084129955564478977 0.00080945582693467053 0 -0.0089669410684810567 0.00025042496630649111 0 -0.0082434534510339285 4.4800247683651995e-05 0 -0.0075836933214265554 -0.00015674539771251301 0 -0.0083560073694528402 -0.00080820438422060897 0 -0.008238158284891264 7.3134624078371766e-05 0 -0.0084039103112247878 -0.00047215040885077698 0 -0.0076669134431286675 -0.00031988784274943272 0 -0.0084039103112247878 -0.00047215040885077698 0 -0.0076669134431286675 -0.00031988784274943272 0 -0.0084136082043110468 -0.0010620502230141587 0 -0.0075370242275308811 -1.9843078767681589e-05 0 -0.0075247279229603229 -0.00036159365263333811 0 -0.0081348059313694505 -0.00044225854748950627 0 -0.0072190281395670625 -0.000528303502188358 0 -0.0070675096933657342 -0.00014376682454980211 0 -0.0075247279229603229 -0.00036159365263333811 0 -0.0070675096933657342 -0.00014376682454980211 0 -0.0075370242275308811 -1.9843078767681589e-05 0 -0.0075247279229603229 -0.00036159365263333811 0 -0.0075211752535854701 0.0004524014645003039 0 -0.008238158284891264 7.3134624078371766e-05 0 -0.0076669134431286675 -0.00031988784274943272 0 -0.0069933397548519885 0.00034404749259232169 0 -0.0075211752535854701 0.0004524014645003039 0 -0.0076669134431286675 -0.00031988784274943272 0 -0.0070477301084730147 0.0003100902506386998 0 -0.0075836933214265554 -0.00015674539771251301 0 -0.01152133224475402 0.0015366578121338232 0 -0.011196503424095247 0.0016879775882453407 0 -0.010998602810626755 0.0013029908580851788 0 -0.011196503424095247 0.0016879775882453407 0 -0.010759828988618703 0.001680583552047119 0 -0.010998602810626755 0.0013029908580851788 0 -0.01152133224475402 0.0015366578121338232 0 -0.011414679159451029 0.0018198923422537746 0 -0.011196503424095247 0.0016879775882453407 0 -0.011129107548968278 0.0019595168507468312 0 -0.011414679159451029 0.0018198923422537746 0 -0.011196503424095247 0.0016879775882453407 0 -0.011129107548968278 0.0019595168507468312 0 -0.011196503424095247 0.0016879775882453407 0 -0.010759828988618703 0.001680583552047119 0 -0.010386141543791935 0.0020404860042363654 0 -0.010759828988618703 0.001680583552047119 0 -0.010251423058661949 0.0015330231141942963 0 -0.010386141543791935 0.0020404860042363654 0 -0.0096060853638213171 0.0016721857302612597 0 -0.010251423058661949 0.0015330231141942963 0 -0.0094929579763582354 0.00097975429391744073 0 -0.010251423058661949 0.0015330231141942963 0 -0.01043561183499885 0.0011927051735530403 0 -0.010759828988618703 0.001680583552047119 0 -0.010251423058661949 0.0015330231141942963 0 -0.01043561183499885 0.0011927051735530403 0 -0.010759828988618703 0.001680583552047119 0 -0.01043561183499885 0.0011927051735530403 0 -0.010998602810626755 0.0013029908580851788 0 -0.01043561183499885 0.0011927051735530403 0 -0.010931476717550808 0.0011305312106469196 0 -0.010998602810626755 0.0013029908580851788 0 -0.01043561183499885 0.0011927051735530403 0 -0.010405676834124177 0.00094312707259744128 0 -0.010931476717550808 0.0011305312106469196 0 -0.0099646249808704006 0.00096255234973239125 0 -0.01043561183499885 0.0011927051735530403 0 -0.010405676834124177 0.00094312707259744128 0 -0.010405676834124177 0.00094312707259744128 0 -0.010931476717550808 0.0011305312106469196 0 -0.011314519173560564 0.00011732966185923359 0 -0.011027261101068614 0.0011541807763650331 0 -0.01214415059863223 0.0011644219678438722 0 -0.010931476717550808 0.0011305312106469196 0 -0.013016174815684546 0.0014565313261856018 0 -0.012330320429698359 0.00065422936179740311 0 -0.010931476717550808 0.0011305312106469196 0 -0.010998602810626755 0.0013029908580851788 0 -0.011278294673427013 0.00092068378729439401 0 -0.01152133224475402 0.0015366578121338232 0 -0.010998602810626755 0.0013029908580851788 0 -0.011278294673427013 0.00092068378729439401 0 -0.012384490881749441 0.00079558011672856014 0 -0.01152133224475402 0.0015366578121338232 0 -0.011278294673427013 0.00092068378729439401 0 -0.014082937516595083 0.0012272095423699187 0 -0.013016174815684546 0.0014565313261856018 0 -0.013367740767884603 0.00074849989457324536 0 -0.013367740767884603 0.00074849989457324536 0 -0.013548410938452151 0.00045153333668919172 0 -0.013896874754992726 0.00061260643470996857 0 -0.013367740767884603 0.00074849989457324536 0 -0.013548410938452151 0.00045153333668919172 0 -0.01317811980529269 0.00012902106187960259 0 -0.013548410938452151 0.00045153333668919172 0 -0.013687891947206324 0.00033980510738385045 0 -0.01317811980529269 0.00012902106187960259 0 -0.013687891947206324 0.00033980510738385045 0 -0.01317811980529269 0.00012902106187960259 0 -0.013632916150578149 0.00024167330334552546 0 -0.013011955469651924 -0.00027416587293907735 0 -0.01317811980529269 0.00012902106187960259 0 -0.011314519173560564 0.00011732966185923359 0 -0.01317811980529269 0.00012902106187960259 0 -0.012330320429698359 0.00065422936179740311 0 -0.011314519173560564 0.00011732966185923359 0 -0.013016174815684546 0.0014565313261856018 0 -0.013367740767884603 0.00074849989457324536 0 -0.012330320429698359 0.00065422936179740311 0 -0.013367740767884603 0.00074849989457324536 0 -0.01317811980529269 0.00012902106187960259 0 -0.012330320429698359 0.00065422936179740311 0 -0.010931476717550808 0.0011305312106469196 0 -0.012330320429698359 0.00065422936179740311 0 -0.011314519173560564 0.00011732966185923359 0 -0.011914724974873081 0.00034398161862890866 0 -0.011153091157113777 -0.00011570922154152612 0 -0.010854171822533858 0.001005749368134887 0 -0.010405676834124177 0.00094312707259744128 0 -0.011314519173560564 0.00011732966185923359 0 -0.0101766322567676 0.000538135761620235 0 -0.011644891571378355 0.00036772587319648675 0 -0.010247382434038173 -4.6155332696137778e-05 0 -0.011914724974873081 0.00034398161862890866 0 -0.0116985013702942 -0.00029669821484415616 0 -0.011153091157113777 -0.00011570922154152612 0 -0.011914724974873081 0.00034398161862890866 0 -0.0116985013702942 -0.00029669821484415616 0 -0.012147956478107963 -0.00050587334626807454 0 -0.012895153186985836 -0.00030466626054387547 0 -0.011644891571378355 0.00036772587319648675 0 -0.013011955469651924 -0.00027416587293907735 0 -0.011914724974873081 0.00034398161862890866 0 -0.012147956478107963 -0.00050587334626807454 0 -0.0116985013702942 -0.00029669821484415616 0 -0.012147956478107963 -0.00050587334626807454 0 -0.011707601643692403 -0.0008241583174311885 0 -0.012147956478107963 -0.00050587334626807454 0 -0.012107333591337088 -0.0011065534012869537 0 -0.011707601643692403 -0.0008241583174311885 0 -0.012107333591337088 -0.0011065534012869537 0 -0.011707601643692403 -0.0008241583174311885 0 -0.011460824910744778 -0.001287804854846173 0 -0.012147956478107963 -0.00050587334626807454 0 -0.012107333591337088 -0.0011065534012869537 0 -0.012519675332208467 -0.00077626724726537796 0 -0.01014129505628686 -0.0019284752762447474 0 -0.010151254051298336 -0.0026205786417822061 0 -0.010503870960371028 -0.0030857689199186933 0 -0.011153091157113777 -0.00011570922154152612 0 -0.011707601643692403 -0.0008241583174311885 0 -0.011460824910744778 -0.001287804854846173 0 -0.01014129505628686 -0.0019284752762447474 0 -0.010151254051298336 -0.0026205786417822061 0 -0.01006110954003576 -0.0026722522127427483 0 -0.010347641819599336 -0.00087007737555743522 0 -0.013545047357143356 -0.0025240911563438181 0 -0.0116985013702942 -0.00029669821484415616 0 -0.011153091157113777 -0.00011570922154152612 0 -0.011707601643692403 -0.0008241583174311885 0 -0.012290417881625272 -0.0022023572928292988 0 -0.013545047357143356 -0.0025240911563438181 0 -0.010151254051298336 -0.0026205786417822061 0 -0.010064304296049818 -0.0026733830219106123 0 -0.010503870960371028 -0.0030857689199186933 0 -0.011971669267135882 -0.0023529555363178281 0 -0.012290417881625272 -0.0022023572928292988 0 -0.013545047357143356 -0.0025240911563438181 0 -0.016374459693336646 -0.0025613322725655629 0 -0.016315046662124195 -0.0031468286924966763 0 -0.015867896686182083 -0.0026816530043954618 0 -0.016177602524782116 -0.0024336283971512708 0 -0.016707286478325506 -0.0027394846848936933 0 -0.016853236056335697 -0.0025425382464996449 0 -0.016495336565911647 -0.0024065308262163575 0 -0.016871389796404436 -0.0026964655466738922 0 -0.016707286478325506 -0.0027394846848936933 0 -0.016853236056335697 -0.0025425382464996449 0 -0.016897833095662104 -0.0029105478287019702 0 -0.016871389796404436 -0.0026964655466738922 0 -0.016707286478325506 -0.0027394846848936933 0 -0.013545047357143356 -0.0025240911563438181 0 -0.013982000583250734 -0.0022925252998467183 0 -0.016871389796404436 -0.0026964655466738922 0 -0.016853236056335697 -0.0025425382464996449 0 -0.017031356294272011 -0.0026035834671191008 0 -0.012107333591337088 -0.0011065534012869537 0 -0.011995487764745032 -0.0018210017101635827 0 -0.012831962247101087 -0.0012055232421592621 0 -0.011995487764745032 -0.0018210017101635827 0 -0.012831962247101087 -0.0012055232421592621 0 -0.012516725635810473 -0.0023329214299124025 0 -0.012107333591337088 -0.0011065534012869537 0 -0.011460824910744778 -0.001287804854846173 0 -0.011995487764745032 -0.0018210017101635827 0 -0.013175631650072047 -0.0004180826614387265 0 -0.014191130656392744 -0.001314941909291119 0 -0.013807723675288004 0.00028413964966438163 0 -0.013968154902853738 0.00021220716700816588 0 -0.01383195643882326 0.00014235839032845628 0 -0.013807723675288004 0.00028413964966438163 0 -0.013869212668597711 0.00027634860724883216 0 -0.013968154902853738 0.00021220716700816588 0 -0.013869212668597711 0.00027634860724883216 0 -0.013968154902853738 0.00021220716700816588 0 -0.014189560817163776 0.00021781165691655064 0 -0.013807723675288004 0.00028413964966438163 0 -0.013869212668597711 0.00027634860724883216 0 -0.013632916150578149 0.00024167330334552546 0 -0.013869212668597711 0.00027634860724883216 0 -0.013632916150578149 0.00024167330334552546 0 -0.013867757206237211 0.00031299639121408349 0 -0.013687891947206324 0.00033980510738385045 0 -0.013632916150578149 0.00024167330334552546 0 -0.013867757206237211 0.00031299639121408349 0 -0.013011955469651924 -0.00027416587293907735 0 -0.012147956478107963 -0.00050587334626807454 0 -0.012519675332208467 -0.00077626724726537796 0 -0.013011955469651924 -0.00027416587293907735 0 -0.012831962247101087 -0.0012055232421592621 0 -0.012519675332208467 -0.00077626724726537796 0 -0.01317811980529269 0.00012902106187960259 0 -0.013807723675288004 0.00028413964966438163 0 -0.013632916150578149 0.00024167330334552546 0 -0.013011955469651924 -0.00027416587293907735 0 -0.01317811980529269 0.00012902106187960259 0 -0.012831962247101087 -0.0012055232421592621 0 -0.013265224830909741 0.00011240506547120419 0 -0.013175631650072047 -0.0004180826614387265 0 -0.012107333591337088 -0.0011065534012869537 0 -0.012831962247101087 -0.0012055232421592621 0 -0.012519675332208467 -0.00077626724726537796 0 -0.0073786206642933961 -0.00089341611899351541 0 -0.0078040431255958108 -0.0010958010205337953 0 -0.0073944822811003114 -0.0012319633978764609 0 -0.0073786206642933961 -0.00089341611899351541 0 -0.0077080814045934441 -0.00068723601994546816 0 -0.0078040431255958108 -0.0010958010205337953 0 -0.0072190281395670625 -0.000528303502188358 0 -0.0075247279229603229 -0.00036159365263333811 0 -0.0077080814045934441 -0.00068723601994546816 0 -0.0072190281395670625 -0.000528303502188358 0 -0.0073786206642933961 -0.00089341611899351541 0 -0.0077080814045934441 -0.00068723601994546816 0 -0.0075247279229603229 -0.00036159365263333811 0 -0.0077080814045934441 -0.00068723601994546816 0 -0.0081348059313694505 -0.00044225854748950627 0 -0.0077080814045934441 -0.00068723601994546816 0 -0.0081348059313694505 -0.00044225854748950627 0 -0.008141814816942013 -0.00088377060443606324 0 -0.0077080814045934441 -0.00068723601994546816 0 -0.008141814816942013 -0.00088377060443606324 0 -0.0078040431255958108 -0.0010958010205337953 0 -0.008141814816942013 -0.00088377060443606324 0 -0.0078040431255958108 -0.0010958010205337953 0 -0.0083209674018815943 -0.0012580044871917382 0 -0.008141814816942013 -0.00088377060443606324 0 -0.008772683085308439 -0.00094603823536413081 0 -0.0083209674018815943 -0.0012580044871917382 0 -0.0081348059313694505 -0.00044225854748950627 0 -0.008141814816942013 -0.00088377060443606324 0 -0.008772683085308439 -0.00094603823536413081 0 -0.0084136082043110468 -0.0010620502230141587 0 -0.009209265813206538 -0.0018476560065897785 0 -0.0090787569651326373 -0.00099702698448778473 0 -0.0083560073694528402 -0.00080820438422060897 0 -0.008575400435496764 -0.0012423549517197744 0 -0.0084039103112247878 -0.00047215040885077698 0 -0.0084136082043110468 -0.0010620502230141587 0 -0.0090787569651326373 -0.00099702698448778473 0 -0.009209265813206538 -0.0018476560065897785 0 -0.0090787569651326373 -0.00099702698448778473 0 -0.0098063411337408184 -0.00081968997610900967 0 -0.010347641819599336 -0.00087007737555743522 0 -0.010247382434038173 -4.6155332696137778e-05 0 -0.01014129505628686 -0.0019284752762447474 0 -0.009209265813206538 -0.0018476560065897785 0 -0.0098063411337408184 -0.00081968997610900967 0 -0.01014129505628686 -0.0019284752762447474 0 -0.01006110954003576 -0.0026722522127427483 0 -0.009209265813206538 -0.0018476560065897785 0 -0.012290417881625272 -0.0022023572928292988 0 -0.013174313918032386 -0.002201566445048285 0 -0.012290417881625272 -0.0022023572928292988 0 -0.008575400435496764 -0.0012423549517197744 0 -0.0094133349778642676 -0.0015302955299987648 0 -0.0087558213150997159 -0.0018926966024280251 0 -0.0087979941536808753 -0.0014298497355300292 0 -0.0094133349778642676 -0.0015302955299987648 0 -0.008772683085308439 -0.00094603823536413081 0 -0.0087979941536808753 -0.0014298497355300292 0 -0.016897833095662104 -0.0029105478287019702 0 -0.017031356294272011 -0.0026035834671191008 0 -0.017298798319827554 -0.0025986535327519674 0 -0.016897833095662104 -0.0029105478287019702 0 -0.016871389796404436 -0.0026964655466738922 0 -0.017031356294272011 -0.0026035834671191008 0 -0.017031356294272011 -0.0026035834671191008 0 -0.017298798319827554 -0.0025986535327519674 0 -0.017271248230483 -0.0022981627904885313 0 -0.016853236056335697 -0.0025425382464996449 0 -0.017031356294272011 -0.0026035834671191008 0 -0.017057033673561497 -0.0023731691355969864 0 -0.0087558213150997159 -0.0018926966024280251 0 -0.0081870465993970683 -0.0016848388947300918 0 -0.0082008867074531561 -0.0019279578345972909 0 -0.0087558213150997159 -0.0018926966024280251 0 -0.0082008867074531561 -0.0019279578345972909 0 -0.0081633361590996763 -0.0022207711577501461 0 -0.013174313918032386 -0.002201566445048285 0 -0.012793036294611926 -0.0023116995983249932 0 -0.0087558213150997159 -0.0018926966024280251 0 -0.0085260507532232271 -0.0015608207711954899 0 -0.0081870465993970683 -0.0016848388947300918 0 -0.0085260507532232271 -0.0015608207711954899 0 -0.0083209674018815943 -0.0012580044871917382 0 -0.0081870465993970683 -0.0016848388947300918 0 -0.0087558213150997159 -0.0018926966024280251 0 -0.0085260507532232271 -0.0015608207711954899 0 -0.0087979941536808753 -0.0014298497355300292 0 -0.008772683085308439 -0.00094603823536413081 0 -0.0087979941536808753 -0.0014298497355300292 0 -0.0083209674018815943 -0.0012580044871917382 0 -0.0085260507532232271 -0.0015608207711954899 0 -0.0087979941536808753 -0.0014298497355300292 0 -0.0083209674018815943 -0.0012580044871917382 0 -0.0078040431255958108 -0.0010958010205337953 0 -0.0083209674018815943 -0.0012580044871917382 0 -0.0078902928717593419 -0.0014883630570516567 0 -0.0078902928717593419 -0.0014883630570516567 0 -0.0081870465993970683 -0.0016848388947300918 0 -0.0077813460478675898 -0.0018553619517233094 0 -0.0083209674018815943 -0.0012580044871917382 0 -0.0078902928717593419 -0.0014883630570516567 0 -0.0081870465993970683 -0.0016848388947300918 0 -0.012423502250954902 -0.002661979447533575 0 -0.012526013110543214 -0.0024933580467110853 0 -0.012292715924525908 -0.0025004268103955155 0 -0.0093833885512846511 -0.001963759113052323 0 -0.012793036294611926 -0.0023116995983249932 0 -0.0082008867074531561 -0.0019279578345972909 0 -0.0078712137070313208 -0.001885746595924193 0 -0.0081633361590996763 -0.0022207711577501461 0 -0.0081870465993970683 -0.0016848388947300918 0 -0.0082008867074531561 -0.0019279578345972909 0 -0.0078712137070313208 -0.001885746595924193 0 -0.0079187437464618097 -0.0019939448417328983 0 -0.0093833885512846511 -0.001963759113052323 0 -0.0078902928717593419 -0.0014883630570516567 0 -0.0076249016779794164 -0.0016608475023410889 0 -0.0077813460478675898 -0.0018553619517233094 0 -0.012741229040859343 -0.0024970381655201267 0 -0.012423502250954902 -0.002661979447533575 0 -0.012526013110543214 -0.0024933580467110853 0 -0.0071631748580882225 -0.0020540353839408041 0 -0.0076249016779794164 -0.0016608475023410889 0 -0.007750451530373118 -0.001797248220983714 0 -0.010203565736377604 -0.0022199349084431317 0 -0.0093833885512846511 -0.001963759113052323 0 -0.0083261053762353175 -0.0013957109598196082 0 -0.0093833885512846511 -0.001963759113052323 0 -0.0071644251844340361 -0.0015327205441815197 0 -0.0076249016779794164 -0.0016608475023410889 0 -0.0075675516438123208 -0.0014046241953901697 0 -0.0078902928717593419 -0.0014883630570516567 0 -0.0076249016779794164 -0.0016608475023410889 0 -0.0075675516438123208 -0.0014046241953901697 0 -0.0078040431255958108 -0.0010958010205337953 0 -0.0075675516438123208 -0.0014046241953901697 0 -0.0073944822811003114 -0.0012319633978764609 0 -0.0078040431255958108 -0.0010958010205337953 0 -0.0078902928717593419 -0.0014883630570516567 0 -0.0075675516438123208 -0.0014046241953901697 0 -0.0071644251844340361 -0.0015327205441815197 0 -0.0075675516438123208 -0.0014046241953901697 0 -0.0073944822811003114 -0.0012319633978764609 0 -0.019019604634876779 -0.0026729907939464686 0 -0.018656612438236849 -0.0026340661772697276 0 -0.018936770743198526 -0.0022382043444398813 0 -0.019246003816320172 -0.0028478556736411236 0 -0.019338437964047148 -0.0025284142630774479 0 -0.019019604634876779 -0.0026729907939464686 0 -0.019019604634876779 -0.0026729907939464686 0 -0.019154821729832936 -0.0028885662192170186 0 -0.018823560178739478 -0.0029291723380372482 0 -0.019246003816320172 -0.0028478556736411236 0 -0.019019604634876779 -0.0026729907939464686 0 -0.019154821729832936 -0.0028885662192170186 0 -0.012642462166368419 -0.0023133778504884064 0 -0.012526013110543214 -0.0024933580467110853 0 -0.012292715924525908 -0.0025004268103955155 0 -0.016075691690414406 -0.0027223341976190369 0 -0.012793036294611926 -0.0023116995983249932 0 -0.015880977947835061 -0.0025517363209720378 0 -0.015608984415149015 -0.0026061515638612131 0 -0.015457589927292509 -0.0028028786176574321 0 -0.012741229040859343 -0.0024970381655201267 0 -0.012642462166368419 -0.0023133778504884064 0 -0.012526013110543214 -0.0024933580467110853 0 -0.016075691690414406 -0.0027223341976190369 0 -0.017392141731272785 -0.0027367912894858382 0 -0.012793036294611926 -0.0023116995983249932 0 -0.017189299124544428 -0.0030670944708886469 0 -0.015608984415149015 -0.0026061515638612131 0 -0.015457589927292509 -0.0028028786176574321 0 -0.01534375564526114 -0.0026636560206447757 0 -0.017392141731272785 -0.0027367912894858382 0 -0.017189299124544428 -0.0030670944708886469 0 -0.018823560178739478 -0.0029291723380372482 0 -0.018656612438236849 -0.0026340661772697276 0 -0.018516142499952166 -0.0029822570337587726 0 -0.019019604634876779 -0.0026729907939464686 0 -0.018823560178739478 -0.0029291723380372482 0 -0.018656612438236849 -0.0026340661772697276 0 -0.017189299124544428 -0.0030670944708886469 0 -0.017834763493975846 -0.0023626966130021283 0 -0.018656612438236849 -0.0026340661772697276 0 -0.018214192717819939 -0.0026467859145336307 0 -0.018435563981570695 -0.0024329287490165836 0 -0.018656612438236849 -0.0026340661772697276 0 -0.018516142499952166 -0.0029822570337587726 0 -0.018214192717819939 -0.0026467859145336307 0 -0.017298798319827554 -0.0025986535327519674 0 -0.017441362280032506 -0.0022734161913847734 0 -0.017271248230483 -0.0022981627904885313 0 -0.017298798319827554 -0.0025986535327519674 0 -0.01752202642226915 -0.0023918823126075177 0 -0.017441362280032506 -0.0022734161913847734 0 -0.017441362280032506 -0.0022734161913847734 0 -0.017271248230483 -0.0022981627904885313 0 -0.017269223323506472 -0.0021375761259711762 0 -0.017031356294272011 -0.0026035834671191008 0 -0.017271248230483 -0.0022981627904885313 0 -0.017057033673561497 -0.0023731691355969864 0 -0.017271248230483 -0.0022981627904885313 0 -0.017057033673561497 -0.0023731691355969864 0 -0.017199963250024045 -0.0020692557964138709 0 -0.017271248230483 -0.0022981627904885313 0 -0.017199963250024045 -0.0020692557964138709 0 -0.017269223323506472 -0.0021375761259711762 0 -0.017199963250024045 -0.0020692557964138709 0 -0.017269223323506472 -0.0021375761259711762 0 -0.017405686937374105 -0.0022115593915388995 0 -0.018214192717819939 -0.0026467859145336307 0 -0.018180288605955067 -0.0023518760524496177 0 -0.017685334100138353 -0.0022627032957668624 0 -0.017269223323506472 -0.0021375761259711762 0 -0.017405686937374105 -0.0022115593915388995 0 -0.017685334100138353 -0.0022627032957668624 0 -0.017834763493975846 -0.0023626966130021283 0 -0.017643006356021815 -0.0022526992045787016 0 -0.018180288605955067 -0.0023518760524496177 0 -0.017963121877543363 -0.0022097781219683177 0 -0.018257596736352272 -0.0021511833905238538 0 -0.018180288605955067 -0.0023518760524496177 0 -0.017685334100138353 -0.0022627032957668624 0 -0.017963121877543363 -0.0022097781219683177 0 -0.017963121877543363 -0.0022097781219683177 0 -0.017787487434406873 -0.002025895966553668 0 -0.018212226243001006 -0.001882221475561039 0 -0.017963121877543363 -0.0022097781219683177 0 -0.018212226243001006 -0.001882221475561039 0 -0.019313588384319142 -0.0019099394630367908 0 -0.017685334100138353 -0.0022627032957668624 0 -0.017963121877543363 -0.0022097781219683177 0 -0.017787487434406873 -0.002025895966553668 0 -0.018449002998028537 -0.0016299218231423409 0 -0.018212226243001006 -0.001882221475561039 0 -0.019313588384319142 -0.0019099394630367908 0 -0.018449002998028537 -0.0016299218231423409 0 -0.018212226243001006 -0.001882221475561039 0 -0.017771529690541115 -0.0016967606592576507 0 -0.017787487434406873 -0.002025895966553668 0 -0.018212226243001006 -0.001882221475561039 0 -0.017771529690541115 -0.0016967606592576507 0 -0.018257596736352272 -0.0021511833905238538 0 -0.01849384543369487 -0.0018253842038255326 0 -0.0184006231186498 -0.0021767341950175846 0 -0.018068457903047268 -0.0021932343375818046 0 -0.018895850774862125 -0.0018516108022025976 0 -0.01849384543369487 -0.0018253842038255326 0 -0.0184006231186498 -0.0021767341950175846 0 -0.018965296805625729 -0.0019049501132035601 0 -0.017963121877543363 -0.0022097781219683177 0 -0.018257596736352272 -0.0021511833905238538 0 -0.01849384543369487 -0.0018253842038255326 0 -0.018449002998028537 -0.0016299218231423409 0 -0.019313588384319142 -0.0019099394630367908 0 -0.018994877616729838 -0.0014643947247568374 0 -0.018180288605955067 -0.0023518760524496177 0 -0.018257596736352272 -0.0021511833905238538 0 -0.0184006231186498 -0.0021767341950175846 0 -0.018180288605955067 -0.0023518760524496177 0 -0.0184006231186498 -0.0021767341950175846 0 -0.018435563981570695 -0.0024329287490165836 0 -0.018214192717819939 -0.0026467859145336307 0 -0.018180288605955067 -0.0023518760524496177 0 -0.018435563981570695 -0.0024329287490165836 0 -0.018656612438236849 -0.0026340661772697276 0 -0.018435563981570695 -0.0024329287490165836 0 -0.018936770743198526 -0.0022382043444398813 0 -0.018435932138098736 -0.0021771439430986611 0 -0.019109193292936064 -0.0022384481354675075 0 -0.0184006231186498 -0.0021767341950175846 0 -0.018435563981570695 -0.0024329287490165836 0 -0.018936770743198526 -0.0022382043444398813 0 -0.0184006231186498 -0.0021767341950175846 0 -0.018965296805625729 -0.0019049501132035601 0 -0.019300056129038928 -0.0022528411476873079 0 -0.01849384543369487 -0.0018253842038255326 0 -0.018965296805625729 -0.0019049501132035601 0 -0.019161692220630484 -0.0014609164877633024 0 -0.019802802746526866 -0.0019433615540047412 0 -0.01943047123812992 -0.0018269050547286552 0 -0.019300056129038928 -0.0022528411476873079 0 -0.018965296805625729 -0.0019049501132035601 0 -0.01943047123812992 -0.0018269050547286552 0 -0.019300056129038928 -0.0022528411476873079 0 -0.018965296805625729 -0.0019049501132035601 0 -0.01943047123812992 -0.0018269050547286552 0 -0.019161692220630484 -0.0014609164877633024 0 -0.019338437964047148 -0.0025284142630774479 0 -0.019019604634876779 -0.0026729907939464686 0 -0.018936770743198526 -0.0022382043444398813 0 -0.015055815310221574 -0.0008852940377987418 0 -0.015460224603080193 -0.0013155989870437138 0 -0.015685005779433228 -0.00070781803469177639 0 -0.014576168899132729 -0.0003628841798160201 0 -0.014191130656392744 -0.001314941909291119 0 -0.014044236832650813 -1.8387423104257558e-05 0 -0.014305704983295135 6.2890626876934222e-05 0 -0.013968154902853738 0.00021220716700816588 0 -0.014044236832650813 -1.8387423104257558e-05 0 -0.014305704983295135 6.2890626876934222e-05 0 -0.014618993327196197 -0.00024386468307702975 0 -0.014305704983295135 6.2890626876934222e-05 0 -0.013968154902853738 0.00021220716700816588 0 -0.014189560817163776 0.00021781165691655064 0 -0.014044236832650813 -1.8387423104257558e-05 0 -0.013968154902853738 0.00021220716700816588 0 -0.01383195643882326 0.00014235839032845628 0 -0.015867896686182083 -0.0026816530043954618 0 -0.015279267551884327 -0.0021617294429873818 0 -0.015766628340393798 -0.002250890817730374 0 -0.015766628340393798 -0.002250890817730374 0 -0.016177602524782116 -0.0024336283971512708 0 -0.016042309053132222 -0.0015525821303199563 0 -0.016374459693336646 -0.0025613322725655629 0 -0.016069043237455154 -0.0015675110525836798 0 -0.013982000583250734 -0.0022925252998467183 0 -0.014191130656392744 -0.001314941909291119 0 -0.015867896686182083 -0.0026816530043954618 0 -0.015766628340393798 -0.002250890817730374 0 -0.016177602524782116 -0.0024336283971512708 0 -0.015279267551884327 -0.0021617294429873818 0 -0.015766628340393798 -0.002250890817730374 0 -0.016042309053132222 -0.0015525821303199563 0 -0.016495336565911647 -0.0024065308262163575 0 -0.016586715332428593 -0.0019711796697866346 0 -0.016042309053132222 -0.0015525821303199563 0 -0.016853236056335697 -0.0025425382464996449 0 -0.017057033673561497 -0.0023731691355969864 0 -0.016829760505748359 -0.0023071933403311256 0 -0.016853236056335697 -0.0025425382464996449 0 -0.016829760505748359 -0.0023071933403311256 0 -0.016495336565911647 -0.0024065308262163575 0 -0.016829760505748359 -0.0023071933403311256 0 -0.016495336565911647 -0.0024065308262163575 0 -0.016586715332428593 -0.0019711796697866346 0 -0.017057033673561497 -0.0023731691355969864 0 -0.017199963250024045 -0.0020692557964138709 0 -0.016829760505748359 -0.0023071933403311256 0 -0.017199963250024045 -0.0020692557964138709 0 -0.016829760505748359 -0.0023071933403311256 0 -0.016586715332428593 -0.0019711796697866346 0 -0.017199963250024045 -0.0020692557964138709 0 -0.017405686937374105 -0.0022115593915388995 0 -0.017486559976877841 -0.0023345803858430209 0 -0.017197942031621186 -0.0020422358088030956 0 -0.01683340233711891 -0.001488770452269982 0 -0.016586715332428593 -0.0019711796697866346 0 -0.016042309053132222 -0.0015525821303199563 0 -0.016232480502800205 -0.00060519630320843602 0 -0.017199963250024045 -0.0020692557964138709 0 -0.016586715332428593 -0.0019711796697866346 0 -0.016232480502800205 -0.00060519630320843602 0 -0.016042309053132222 -0.0015525821303199563 0 -0.015685005779433228 -0.00070781803469177639 0 -0.016232480502800205 -0.00060519630320843602 0 -0.015279267551884327 -0.0021617294429873818 0 -0.016042309053132222 -0.0015525821303199563 0 -0.015685005779433228 -0.00070781803469177639 0 -0.014191130656392744 -0.001314941909291119 0 -0.015930569285825369 -0.00087010746870626397 0 -0.015685005779433228 -0.00070781803469177639 0 -0.016232480502800205 -0.00060519630320843602 0 -0.015488684354039861 3.4251405691667856e-05 0 -0.017405686937374105 -0.0022115593915388995 0 -0.017685334100138353 -0.0022627032957668624 0 -0.017520727887305711 -0.0022724793347516179 0 -0.017405686937374105 -0.0022115593915388995 0 -0.017520727887305711 -0.0022724793347516179 0 -0.017486559976877841 -0.0023345803858430209 0 -0.017486559976877841 -0.0023345803858430209 0 -0.017555976876247256 -0.0022128017388149215 0 -0.017406489880443198 -0.002000597081863867 0 -0.017520727887305711 -0.0022724793347516179 0 -0.017486559976877841 -0.0023345803858430209 0 -0.017555976876247256 -0.0022128017388149215 0 -0.017685334100138353 -0.0022627032957668624 0 -0.017520727887305711 -0.0022724793347516179 0 -0.017555976876247256 -0.0022128017388149215 0 -0.017787487434406873 -0.002025895966553668 0 -0.017555976876247256 -0.0022128017388149215 0 -0.017406489880443198 -0.002000597081863867 0 -0.017685334100138353 -0.0022627032957668624 0 -0.017787487434406873 -0.002025895966553668 0 -0.017555976876247256 -0.0022128017388149215 0 -0.017406489880443198 -0.002000597081863867 0 -0.017771529690541115 -0.0016967606592576507 0 -0.017274556100061032 -0.0016017497149464252 0 -0.017787487434406873 -0.002025895966553668 0 -0.017406489880443198 -0.002000597081863867 0 -0.017771529690541115 -0.0016967606592576507 0 -0.017486559976877841 -0.0023345803858430209 0 -0.017406489880443198 -0.002000597081863867 0 -0.016709459370089833 -0.0017302453775254886 0 -0.01683340233711891 -0.001488770452269982 0 -0.016111950587531457 -0.00084312594768562964 0 -0.017406489880443198 -0.002000597081863867 0 -0.016709459370089833 -0.0017302453775254886 0 -0.017274556100061032 -0.0016017497149464252 0 -0.015685005779433228 -0.00070781803469177639 0 -0.015488684354039861 3.4251405691667856e-05 0 -0.015144566637612029 -0.00021200665996485223 0 -0.015488684354039861 3.4251405691667856e-05 0 -0.015144566637612029 -0.00021200665996485223 0 -0.01518675759369115 2.460045931940198e-05 0 -0.015055815310221574 -0.0008852940377987418 0 -0.015685005779433228 -0.00070781803469177639 0 -0.015144566637612029 -0.00021200665996485223 0 -0.015055815310221574 -0.0008852940377987418 0 -0.015144566637612029 -0.00021200665996485223 0 -0.014618993327196197 -0.00024386468307702975 0 -0.014576168899132729 -0.0003628841798160201 0 -0.014588530145999708 -0.00029614053735823936 0 -0.015144566637612029 -0.00021200665996485223 0 -0.01518675759369115 2.460045931940198e-05 0 -0.014992111233775505 -9.8340775459395397e-06 0 -0.015144566637612029 -0.00021200665996485223 0 -0.014618993327196197 -0.00024386468307702975 0 -0.014992111233775505 -9.8340775459395397e-06 0 -0.014618993327196197 -0.00024386468307702975 0 -0.014785311795515102 -8.7368091837628086e-05 0 -0.014992111233775505 -9.8340775459395397e-06 0 -0.014785311795515102 -8.7368091837628086e-05 0 -0.01470242155792165 -1.7413842772146721e-05 0 -0.014845574805712454 -4.6437820545389159e-05 0 -0.014618993327196197 -0.00024386468307702975 0 -0.014785311795515102 -8.7368091837628086e-05 0 -0.01470242155792165 -1.7413842772146721e-05 0 -0.014618993327196197 -0.00024386468307702975 0 -0.01470242155792165 -1.7413842772146721e-05 0 -0.014507865888559755 9.1656494797538125e-05 0 -0.014989426211265167 3.8544925274782332e-05 0 -0.014820641146010989 3.8177872546238513e-05 0 -0.014935956116716062 -4.1190136139806856e-05 0 -0.014845574805712454 -4.6437820545389159e-05 0 -0.014820641146010989 3.8177872546238513e-05 0 -0.014935956116716062 -4.1190136139806856e-05 0 -0.01470242155792165 -1.7413842772146721e-05 0 -0.014845574805712454 -4.6437820545389159e-05 0 -0.014820641146010989 3.8177872546238513e-05 0 -0.014820641146010989 3.8177872546238513e-05 0 -0.014855622514029217 0.00026067629133515977 0 -0.014693234495246775 0.00016753544603174316 0 -0.01470242155792165 -1.7413842772146721e-05 0 -0.014820641146010989 3.8177872546238513e-05 0 -0.014693234495246775 0.00016753544603174316 0 -0.014989426211265167 3.8544925274782332e-05 0 -0.014820641146010989 3.8177872546238513e-05 0 -0.014855622514029217 0.00026067629133515977 0 -0.014855622514029217 0.00026067629133515977 0 -0.014693234495246775 0.00016753544603174316 0 -0.014730895679258822 0.00045696327758033118 0 -0.014855622514029217 0.00026067629133515977 0 -0.014730895679258822 0.00045696327758033118 0 -0.014936268524815955 0.00077883327542030336 0 -0.014693234495246775 0.00016753544603174316 0 -0.014587687051624889 0.00031643699401306876 0 -0.014730895679258822 0.00045696327758033118 0 -0.014587687051624889 0.00031643699401306876 0 -0.014392411142154983 0.00031902627351487539 0 -0.014647378792366005 0.00053775689927071792 0 -0.014587687051624889 0.00031643699401306876 0 -0.014730895679258822 0.00045696327758033118 0 -0.014647378792366005 0.00053775689927071792 0 -0.014730895679258822 0.00045696327758033118 0 -0.014647378792366005 0.00053775689927071792 0 -0.014936268524815955 0.00077883327542030336 0 -0.014305704983295135 6.2890626876934222e-05 0 -0.014507865888559755 9.1656494797538125e-05 0 -0.014189560817163776 0.00021781165691655064 0 -0.014305704983295135 6.2890626876934222e-05 0 -0.014618993327196197 -0.00024386468307702975 0 -0.014507865888559755 9.1656494797538125e-05 0 -0.01470242155792165 -1.7413842772146721e-05 0 -0.014693234495246775 0.00016753544603174316 0 -0.014507865888559755 9.1656494797538125e-05 0 -0.014693234495246775 0.00016753544603174316 0 -0.014587687051624889 0.00031643699401306876 0 -0.014507865888559755 9.1656494797538125e-05 0 -0.014587687051624889 0.00031643699401306876 0 -0.014507865888559755 9.1656494797538125e-05 0 -0.014392411142154983 0.00031902627351487539 0 -0.014507865888559755 9.1656494797538125e-05 0 -0.014392411142154983 0.00031902627351487539 0 -0.014189560817163776 0.00021781165691655064 0 -0.013869212668597711 0.00027634860724883216 0 -0.014125894440385013 0.00032114928358538338 0 -0.013867757206237211 0.00031299639121408349 0 -0.013869212668597711 0.00027634860724883216 0 -0.014189560817163776 0.00021781165691655064 0 -0.014125894440385013 0.00032114928358538338 0 -0.014392411142154983 0.00031902627351487539 0 -0.014189560817163776 0.00021781165691655064 0 -0.014125894440385013 0.00032114928358538338 0 -0.014125894440385013 0.00032114928358538338 0 -0.014076944031514445 0.00045302928416159728 0 -0.013867757206237211 0.00031299639121408349 0 -0.013687891947206324 0.00033980510738385045 0 -0.014076944031514445 0.00045302928416159728 0 -0.013867757206237211 0.00031299639121408349 0 -0.014076944031514445 0.00045302928416159728 0 -0.014345503841787842 0.00045439950522199816 0 -0.014344258401929414 0.00067657671590304249 0 -0.014125894440385013 0.00032114928358538338 0 -0.014076944031514445 0.00045302928416159728 0 -0.014345503841787842 0.00045439950522199816 0 -0.014392411142154983 0.00031902627351487539 0 -0.014345503841787842 0.00045439950522199816 0 -0.014647378792366005 0.00053775689927071792 0 -0.014392411142154983 0.00031902627351487539 0 -0.014125894440385013 0.00032114928358538338 0 -0.014345503841787842 0.00045439950522199816 0 -0.014345503841787842 0.00045439950522199816 0 -0.014647378792366005 0.00053775689927071792 0 -0.014552552359239896 0.00061989757574825485 0 -0.014647378792366005 0.00053775689927071792 0 -0.014746862689938578 0.00065844146780813398 0 -0.014936268524815955 0.00077883327542030336 0 -0.014647378792366005 0.00053775689927071792 0 -0.014746862689938578 0.00065844146780813398 0 -0.014552552359239896 0.00061989757574825485 0 -0.014746862689938578 0.00065844146780813398 0 -0.014552552359239896 0.00061989757574825485 0 -0.014600725986125475 0.00081098159008103775 0 -0.014345503841787842 0.00045439950522199816 0 -0.014552552359239896 0.00061989757574825485 0 -0.014344258401929414 0.00067657671590304249 0 -0.014552552359239896 0.00061989757574825485 0 -0.014600725986125475 0.00081098159008103775 0 -0.014344258401929414 0.00067657671590304249 0 -0.014496986212797339 0.0010984471019664932 0 -0.014598903356879248 0.0011823269258310269 0 -0.014600725986125475 0.00081098159008103775 0 -0.014496986212797339 0.0010984471019664932 0 -0.014238457333414691 0.00090927434736494568 0 -0.014344258401929414 0.00067657671590304249 0 -0.014496986212797339 0.0010984471019664932 0 -0.014600725986125475 0.00081098159008103775 0 -0.014344258401929414 0.00067657671590304249 0 -0.014082937516595083 0.0012272095423699187 0 -0.014238457333414691 0.00090927434736494568 0 -0.013896874754992726 0.00061260643470996857 0 -0.014082937516595083 0.0012272095423699187 0 -0.013367740767884603 0.00074849989457324536 0 -0.013896874754992726 0.00061260643470996857 0 -0.013687891947206324 0.00033980510738385045 0 -0.014076944031514445 0.00045302928416159728 0 -0.013896874754992726 0.00061260643470996857 0 -0.013548410938452151 0.00045153333668919172 0 -0.013687891947206324 0.00033980510738385045 0 -0.013896874754992726 0.00061260643470996857 0 -0.014238457333414691 0.00090927434736494568 0 -0.013896874754992726 0.00061260643470996857 0 -0.014344258401929414 0.00067657671590304249 0 -0.014076944031514445 0.00045302928416159728 0 -0.013896874754992726 0.00061260643470996857 0 -0.014344258401929414 0.00067657671590304249 0 -0.015850778140519051 0.0017367245693095806 0 -0.015115689536911251 0.0016154241050202948 0 -0.015177824690751015 0.00086952331453595075 0 -0.016361885078764113 0.0023637430494587853 0 -0.016388108012895544 0.0022999483805595661 0 -0.016625795883013588 0.0021476911770431494 0 -0.015850778140519051 0.0017367245693095806 0 -0.016361885078764113 0.0023637430494587853 0 -0.016388108012895544 0.0022999483805595661 0 -0.015856560815673326 0.0017339159204656986 0 -0.015749761152825722 0.0016222975436755455 0 -0.014598903356879248 0.0011823269258310269 0 -0.015177824690751015 0.00086952331453595075 0 -0.014765571620199841 0.00083604467078080046 0 -0.014598903356879248 0.0011823269258310269 0 -0.015115689536911251 0.0016154241050202948 0 -0.015177824690751015 0.00086952331453595075 0 -0.014598903356879248 0.0011823269258310269 0 -0.014600725986125475 0.00081098159008103775 0 -0.014765571620199841 0.00083604467078080046 0 -0.014746862689938578 0.00065844146780813398 0 -0.014600725986125475 0.00081098159008103775 0 -0.014765571620199841 0.00083604467078080046 0 -0.015177824690751015 0.00086952331453595075 0 -0.014765571620199841 0.00083604467078080046 0 -0.014844568019987054 0.00064565767305871044 0 -0.015749761152825722 0.0016222975436755455 0 -0.015316977407819326 0.0013099501330593032 0 -0.014746862689938578 0.00065844146780813398 0 -0.014765571620199841 0.00083604467078080046 0 -0.014844568019987054 0.00064565767305871044 0 -0.014746862689938578 0.00065844146780813398 0 -0.014844568019987054 0.00064565767305871044 0 -0.014936268524815955 0.00077883327542030336 0 -0.015316977407819326 0.0013099501330593032 0 -0.014950095129632449 0.00081534884111391455 0 -0.016361885078764113 0.0023637430494587853 0 -0.015768808611758684 0.0020192782332659758 0 -0.016625795883013588 0.0021476911770431494 0 -0.015768808611758684 0.0020192782332659758 0 -0.016625795883013588 0.0021476911770431494 0 -0.016400813318747078 0.001301232668733814 0 -0.016625795883013588 0.0021476911770431494 0 -0.016400813318747078 0.001301232668733814 0 -0.017293536675170394 0.0014987438343026141 0 -0.016400813318747078 0.001301232668733814 0 -0.01613418276780116 0.00052837835099921659 0 -0.015630441573946854 0.00081105742997923376 0 -0.016400813318747078 0.001301232668733814 0 -0.01613418276780116 0.00052837835099921659 0 -0.017237734357189602 0.00059070803546876975 0 -0.016400813318747078 0.001301232668733814 0 -0.017237734357189602 0.00059070803546876975 0 -0.017293536675170394 0.0014987438343026141 0 -0.015768808611758684 0.0020192782332659758 0 -0.014936268524815955 0.00077883327542030336 0 -0.015630441573946854 0.00081105742997923376 0 -0.015768808611758684 0.0020192782332659758 0 -0.016400813318747078 0.001301232668733814 0 -0.015630441573946854 0.00081105742997923376 0 -0.014936268524815955 0.00077883327542030336 0 -0.015630441573946854 0.00081105742997923376 0 -0.01520847781698286 0.00049246952083021375 0 -0.015630441573946854 0.00081105742997923376 0 -0.01520847781698286 0.00049246952083021375 0 -0.015515330099702771 0.00014466842381124091 0 -0.01613418276780116 0.00052837835099921659 0 -0.015630441573946854 0.00081105742997923376 0 -0.015515330099702771 0.00014466842381124091 0 -0.014855622514029217 0.00026067629133515977 0 -0.01520847781698286 0.00049246952083021375 0 -0.015515330099702771 0.00014466842381124091 0 -0.014855622514029217 0.00026067629133515977 0 -0.014936268524815955 0.00077883327542030336 0 -0.01520847781698286 0.00049246952083021375 0 -0.014855622514029217 0.00026067629133515977 0 -0.01524161950326168 0.00013484632251610732 0 -0.01545692286453418 0.00040647410394090421 0 -0.014989426211265167 3.8544925274782332e-05 0 -0.014855622514029217 0.00026067629133515977 0 -0.01524161950326168 0.00013484632251610732 0 -0.01489605038525523 0.00027716915555460811 0 -0.015505991741369319 0.00027535950192188039 0 -0.01524161950326168 0.00013484632251610732 0 -0.01545692286453418 0.00040647410394090421 0 -0.016045397802972056 -0.00017966893590803745 0 -0.01524161950326168 0.00013484632251610732 0 -0.016045397802972056 -0.00017966893590803745 0 -0.015256084592726199 -0.0010953269148009886 0 -0.014989426211265167 3.8544925274782332e-05 0 -0.015033273009503408 -7.2295064754323741e-05 0 -0.014935956116716062 -4.1190136139806856e-05 0 -0.015224444704985232 0.00010255559836364243 0 -0.015145772183963563 -0.00055781484403857147 0 -0.014989426211265167 3.8544925274782332e-05 0 -0.01524161950326168 0.00013484632251610732 0 -0.015033273009503408 -7.2295064754323741e-05 0 -0.01613418276780116 0.00052837835099921659 0 -0.017237734357189602 0.00059070803546876975 0 -0.016550076878639214 -5.6351864610695339e-05 0 -0.017237734357189602 0.00059070803546876975 0 -0.016550076878639214 -5.6351864610695339e-05 0 -0.017972595966874942 -0.00045522859397226841 0 -0.016686881965325098 5.3561212427046976e-06 0 -0.018303271177452476 0.00034335867614990488 0 -0.015505991741369319 0.00027535950192188039 0 -0.016686881965325098 5.3561212427046976e-06 0 -0.01613418276780116 0.00052837835099921659 0 -0.015515330099702771 0.00014466842381124091 0 -0.016550076878639214 -5.6351864610695339e-05 0 -0.01545692286453418 0.00040647410394090421 0 -0.016873073622143721 0.00024448807208315689 0 -0.016045397802972056 -0.00017966893590803745 0 -0.016873073622143721 0.00024448807208315689 0 -0.016045397802972056 -0.00017966893590803745 0 -0.017344867464073672 -0.00055212269418498461 0 -0.016873073622143721 0.00024448807208315689 0 -0.017344867464073672 -0.00055212269418498461 0 -0.018242081597986119 -6.6157984454674759e-05 0 -0.017344867464073672 -0.00055212269418498461 0 -0.016601598907673373 -0.0015776334096673417 0 -0.01797153916623697 -0.0013104742641742576 0 -0.016045397802972056 -0.00017966893590803745 0 -0.017344867464073672 -0.00055212269418498461 0 -0.016601598907673373 -0.0015776334096673417 0 -0.016601598907673373 -0.0015776334096673417 0 -0.01797153916623697 -0.0013104742641742576 0 -0.017788659679249013 -0.0025307228306431419 0 -0.016601598907673373 -0.0015776334096673417 0 -0.016436681048458128 -0.0032176534957997238 0 -0.017788659679249013 -0.0025307228306431419 0 -0.016436681048458128 -0.0032176534957997238 0 -0.017531031687431021 -0.0042881394749497564 0 -0.017788659679249013 -0.0025307228306431419 0 -0.016601598907673373 -0.0015776334096673417 0 -0.016436681048458128 -0.0032176534957997238 0 -0.015238520063807276 -0.0024323176055167255 0 -0.014932170905859353 0.0001281135373618147 0 -0.014936890980416883 -6.7542666531229535e-06 0 -0.014997495289784939 7.1784247277350034e-05 0 -0.014800431529470283 -0.0017182474300486529 0 -0.01512525967884055 -0.0012520206358894953 0 -0.014932170905859353 0.0001281135373618147 0 -0.014997495289784939 7.1784247277350034e-05 0 -0.015028034685541744 0.00020157501438389198 0 -0.016436681048458128 -0.0032176534957997238 0 -0.015230030120971271 -0.0038428554014195188 0 -0.016359584767714049 -0.0047515914035090043 0 -0.016436681048458128 -0.0032176534957997238 0 -0.015230030120971271 -0.0038428554014195188 0 -0.015238520063807276 -0.0024323176055167255 0 -0.014936890980416883 -6.7542666531229535e-06 0 -0.014974147903942598 -3.8872549620441048e-05 0 -0.014997495289784939 7.1784247277350034e-05 0 -0.014936890980416883 -6.7542666531229535e-06 0 -0.015033273009503408 -7.2295064754323741e-05 0 -0.014974147903942598 -3.8872549620441048e-05 0 -0.01512525967884055 -0.0012520206358894953 0 -0.015145772183963563 -0.00055781484403857147 0 -0.016601598907673373 -0.0015776334096673417 0 -0.015238520063807276 -0.0024323176055167255 0 -0.015256084592726199 -0.0010953269148009886 0 -0.016045397802972056 -0.00017966893590803745 0 -0.016601598907673373 -0.0015776334096673417 0 -0.015256084592726199 -0.0010953269148009886 0 -0.015033273009503408 -7.2295064754323741e-05 0 -0.014935956116716062 -4.1190136139806856e-05 0 -0.014974147903942598 -3.8872549620441048e-05 0 -0.014935956116716062 -4.1190136139806856e-05 0 -0.014979567114313147 -2.4727638698677055e-05 0 -0.014974147903942598 -3.8872549620441048e-05 0 -0.014845574805712454 -4.6437820545389159e-05 0 -0.014935956116716062 -4.1190136139806856e-05 0 -0.014979567114313147 -2.4727638698677055e-05 0 -0.014979567114313147 -2.4727638698677055e-05 0 -0.014974147903942598 -3.8872549620441048e-05 0 -0.014997495289784939 7.1784247277350034e-05 0 -0.014785311795515102 -8.7368091837628086e-05 0 -0.014957279564043111 -2.301973397219103e-05 0 -0.014992111233775505 -9.8340775459395397e-06 0 -0.014957279564043111 -2.301973397219103e-05 0 -0.014992111233775505 -9.8340775459395397e-06 0 -0.015150920048108179 4.0045279257746241e-05 0 -0.014785311795515102 -8.7368091837628086e-05 0 -0.014845574805712454 -4.6437820545389159e-05 0 -0.014957279564043111 -2.301973397219103e-05 0 -0.014845574805712454 -4.6437820545389159e-05 0 -0.014979567114313147 -2.4727638698677055e-05 0 -0.014957279564043111 -2.301973397219103e-05 0 -0.014979567114313147 -2.4727638698677055e-05 0 -0.014957279564043111 -2.301973397219103e-05 0 -0.01512140695675546 3.3225453418030181e-05 0 -0.014957279564043111 -2.301973397219103e-05 0 -0.01512140695675546 3.3225453418030181e-05 0 -0.015150920048108179 4.0045279257746241e-05 0 -0.01512140695675546 3.3225453418030181e-05 0 -0.015150920048108179 4.0045279257746241e-05 0 -0.015430416939958749 7.1714655711713616e-05 0 -0.01512140695675546 3.3225453418030181e-05 0 -0.015235542570925839 0.00013882978922449328 0 -0.015430416939958749 7.1714655711713616e-05 0 -0.01512140695675546 3.3225453418030181e-05 0 -0.015235542570925839 0.00013882978922449328 0 -0.015074906098868683 9.219719959244824e-05 0 -0.014979567114313147 -2.4727638698677055e-05 0 -0.01512140695675546 3.3225453418030181e-05 0 -0.015074906098868683 9.219719959244824e-05 0 -0.015235542570925839 0.00013882978922449328 0 -0.015074906098868683 9.219719959244824e-05 0 -0.015144223036506536 0.00021040413769810428 0 -0.015235542570925839 0.00013882978922449328 0 -0.015259038813506284 0.00027051236308285576 0 -0.015144223036506536 0.00021040413769810428 0 -0.015235542570925839 0.00013882978922449328 0 -0.015438692066786127 0.00022722674330159095 0 -0.015430416939958749 7.1714655711713616e-05 0 -0.015235542570925839 0.00013882978922449328 0 -0.015438692066786127 0.00022722674330159095 0 -0.015259038813506284 0.00027051236308285576 0 -0.014979567114313147 -2.4727638698677055e-05 0 -0.015074906098868683 9.219719959244824e-05 0 -0.014997495289784939 7.1784247277350034e-05 0 -0.015074906098868683 9.219719959244824e-05 0 -0.015061383683520077 0.00016452125965295635 0 -0.015144223036506536 0.00021040413769810428 0 -0.015074906098868683 9.219719959244824e-05 0 -0.015061383683520077 0.00016452125965295635 0 -0.014997495289784939 7.1784247277350034e-05 0 -0.015061383683520077 0.00016452125965295635 0 -0.014997495289784939 7.1784247277350034e-05 0 -0.015028034685541744 0.00020157501438389198 0 -0.015061383683520077 0.00016452125965295635 0 -0.015028034685541744 0.00020157501438389198 0 -0.015102401936028713 0.00024887652876085621 0 -0.015028034685541744 0.00020157501438389198 0 -0.015102401936028713 0.00024887652876085621 0 -0.015106875484380293 0.00031885264607895564 0 -0.015061383683520077 0.00016452125965295635 0 -0.015102401936028713 0.00024887652876085621 0 -0.015144223036506536 0.00021040413769810428 0 -0.015102401936028713 0.00024887652876085621 0 -0.015106875484380293 0.00031885264607895564 0 -0.015174589907974106 0.00030617657788226848 0 -0.017532679946323629 0.00015078657898703453 0 -0.020104491445265056 -0.0009646373957253948 0 -0.020409074216926129 -0.00023137708663325176 0 -0.021751772052491472 -0.0015992167120307569 0 -0.023224368074752869 -0.00087560079459745449 0 -0.015106875484380293 0.00031885264607895564 0 -0.015014566413021546 0.00023166143482546874 0 -0.015025513435008601 0.0002705563872819419 0 -0.015028034685541744 0.00020157501438389198 0 -0.015106875484380293 0.00031885264607895564 0 -0.015014566413021546 0.00023166143482546874 0 -0.015438692066786127 0.00022722674330159095 0 -0.015307139933023467 0.00045876873216002767 0 -0.01571917841186048 0.00027585933723123804 0 -0.015438692066786127 0.00022722674330159095 0 -0.015259038813506284 0.00027051236308285576 0 -0.015307139933023467 0.00045876873216002767 0 -0.015259038813506284 0.00027051236308285576 0 -0.015174589907974106 0.00030617657788226848 0 -0.015307139933023467 0.00045876873216002767 0 -0.015102401936028713 0.00024887652876085621 0 -0.015144223036506536 0.00021040413769810428 0 -0.015174589907974106 0.00030617657788226848 0 -0.015259038813506284 0.00027051236308285576 0 -0.015144223036506536 0.00021040413769810428 0 -0.015174589907974106 0.00030617657788226848 0 -0.015106875484380293 0.00031885264607895564 0 -0.015174589907974106 0.00030617657788226848 0 -0.015307139933023467 0.00045876873216002767 0 -0.020409074216926129 -0.00023137708663325176 0 -0.018006308290314105 -0.00069557586350977088 0 -0.020365475277738552 -0.0018120851662864767 0 -0.020409074216926129 -0.00023137708663325176 0 -0.018006308290314105 -0.00069557586350977088 0 -0.017634757834913702 0.00023791379278401739 0 -0.017532679946323629 0.00015078657898703453 0 -0.01655938513954015 0.00031416015087132939 0 -0.029915132746781068 0.0011749782400340004 0 -0.029570894277446382 0.00046692772864168145 0 -0.028451001794413844 0.0018987845539751675 0 -0.018006308290314105 -0.00069557586350977088 0 -0.017634757834913702 0.00023791379278401739 0 -0.016422818682616993 0.00017203041144063356 0 -0.022993148584771063 0.00051647936964883197 0 -0.02265309431782964 0.00095553824379882317 0 -0.029915132746781068 0.0011749782400340004 0 -0.029570894277446382 0.00046692772864168145 0 -0.03132416826976539 0.00046553048004589152 0 -0.022993148584771063 0.00051647936964883197 0 -0.030704756372576778 -0.0012147295133957067 0 -0.036340044776392418 -0.00043113928884538308 0 -0.030704756372576778 -0.0012147295133957067 0 -0.041159098904452823 -0.0015645533742911148 0 -0.040437556880650927 -0.0011386995966769222 0 -0.039826598924626817 -0.0017003506382950648 0 -0.040437556880650927 -0.0011386995966769222 0 -0.041204883355419525 -0.00082859829291682409 0 -0.040486142495138641 -0.00044615203398547677 0 -0.040437556880650927 -0.0011386995966769222 0 -0.040119499459126989 -0.00079918911250671874 0 -0.040486142495138641 -0.00044615203398547677 0 -0.041159098904452823 -0.0015645533742911148 0 -0.040437556880650927 -0.0011386995966769222 0 -0.041204883355419525 -0.00082859829291682409 0 -0.041159098904452823 -0.0015645533742911148 0 -0.041204883355419525 -0.00082859829291682409 0 -0.041949657543304625 -0.001038338857809973 0 -0.022381712329229739 -0.0017836437108378488 0 -0.021751772052491472 -0.0015992167120307569 0 -0.020365475277738552 -0.0018120851662864767 0 -0.029687610438577702 -0.0025744965743791609 0 -0.030021489117144914 -0.0025375046833429026 0 -0.029679995055707301 -0.0024207995083936808 0 -0.030704756372576778 -0.0012147295133957067 0 -0.035128583577923873 -0.0021417601864394823 0 -0.024940308449931874 -0.0022166859030139409 0 -0.030704756372576778 -0.0012147295133957067 0 -0.039826598924626817 -0.0017003506382950648 0 -0.039495682232921533 -0.0011767004309616257 0 -0.038927600082484436 -0.0012683327221756672 0 -0.029687610438577702 -0.0025744965743791609 0 -0.029679995055707301 -0.0024207995083936808 0 -0.02957054259391325 -0.0025107371145995064 0 -0.022381712329229739 -0.0017836437108378488 0 -0.021751772052491472 -0.0015992167120307569 0 -0.023272924526625102 -0.00086448153700730555 0 -0.022714087624663884 -0.0010609413264908844 0 -0.020104491445265056 -0.0009646373957253948 0 -0.020409074216926129 -0.00023137708663325176 0 -0.021751772052491472 -0.0015992167120307569 0 -0.020365475277738552 -0.0018120851662864767 0 -0.039495682232921533 -0.0011767004309616257 0 -0.039922950361271865 -0.0011237915523429291 0 -0.039683834381515931 -0.00083298400438652407 0 -0.039826598924626817 -0.0017003506382950648 0 -0.039495682232921533 -0.0011767004309616257 0 -0.039922950361271865 -0.0011237915523429291 0 -0.040437556880650927 -0.0011386995966769222 0 -0.039922950361271865 -0.0011237915523429291 0 -0.040119499459126989 -0.00079918911250671874 0 -0.040437556880650927 -0.0011386995966769222 0 -0.039826598924626817 -0.0017003506382950648 0 -0.039922950361271865 -0.0011237915523429291 0 -0.040119499459126989 -0.00079918911250671874 0 -0.039683834381515931 -0.00083298400438652407 0 -0.039943493791324496 -0.00049101171462803315 0 -0.039922950361271865 -0.0011237915523429291 0 -0.040119499459126989 -0.00079918911250671874 0 -0.039683834381515931 -0.00083298400438652407 0 -0.039683834381515931 -0.00083298400438652407 0 -0.039213643509894786 -0.00083579359058775517 0 -0.039515205688983 -0.00045772512923642812 0 -0.039495682232921533 -0.0011767004309616257 0 -0.039683834381515931 -0.00083298400438652407 0 -0.039213643509894786 -0.00083579359058775517 0 -0.039495682232921533 -0.0011767004309616257 0 -0.039213643509894786 -0.00083579359058775517 0 -0.038927600082484436 -0.0012683327221756672 0 -0.039213643509894786 -0.00083579359058775517 0 -0.038927600082484436 -0.0012683327221756672 0 -0.038735514560400516 -0.0010753938116466024 0 -0.029424663457599327 -0.0023521712572705457 0 -0.029514786388676207 -0.0024601421520862028 0 -0.029404459294757712 -0.0025815164386777008 0 -0.038927600082484436 -0.0012683327221756672 0 -0.038735514560400516 -0.0010753938116466024 0 -0.03817693056578339 -0.00092106309260992219 0 -0.035128583577923873 -0.0021417601864394823 0 -0.033679691328926072 -0.0015717257136628978 0 -0.029679995055707301 -0.0024207995083936808 0 -0.029424663457599327 -0.0023521712572705457 0 -0.029395980529816991 -0.0023307199764411868 0 -0.029679995055707301 -0.0024207995083936808 0 -0.029424663457599327 -0.0023521712572705457 0 -0.029514786388676207 -0.0024601421520862028 0 -0.029444748853503105 -0.0023025299850861361 0 -0.027408537088565322 -0.0025840945730525671 0 -0.038735514560400516 -0.0010753938116466024 0 -0.03817693056578339 -0.00092106309260992219 0 -0.038501956356229335 -0.00053633273693887975 0 -0.024940308449931874 -0.0022166859030139409 0 -0.027408537088565322 -0.0025840945730525671 0 -0.029687610438577702 -0.0025744965743791609 0 -0.02957054259391325 -0.0025107371145995064 0 -0.029404459294757712 -0.0025815164386777008 0 -0.029679995055707301 -0.0024207995083936808 0 -0.029514786388676207 -0.0024601421520862028 0 -0.02957054259391325 -0.0025107371145995064 0 -0.022381712329229739 -0.0017836437108378488 0 -0.024462496827945057 -0.0017602537343080601 0 -0.023272924526625102 -0.00086448153700730555 0 -0.029514786388676207 -0.0024601421520862028 0 -0.02957054259391325 -0.0025107371145995064 0 -0.029404459294757712 -0.0025815164386777008 0 -0.023299741703717059 -0.0022537655091732275 0 -0.020104491445265056 -0.0009646373957253948 0 -0.024462496827945057 -0.0017602537343080601 0 -0.024457539927435244 -0.0011324816153088072 0 -0.023272924526625102 -0.00086448153700730555 0 -0.027408537088565322 -0.0025840945730525671 0 -0.023299741703717059 -0.0022537655091732275 0 -0.029305607924222963 -0.0022487389478275548 0 -0.029354282172815101 -0.0022795408076623511 0 -0.02946361004624392 -0.0022775781225710325 0 -0.029354282172815101 -0.0022795408076623511 0 -0.029398352807648614 -0.0023199241611465311 0 -0.02946361004624392 -0.0022775781225710325 0 -0.029424663457599327 -0.0023521712572705457 0 -0.029340402434712001 -0.002284224448958145 0 -0.029379012336962836 -0.0023097090656785837 0 -0.023299741703717059 -0.0022537655091732275 0 -0.024129224945920215 -0.0040305598310141112 0 -0.027408537088565322 -0.0025840945730525671 0 -0.028875960165685444 -0.0024735492057711894 0 -0.029303936920938696 -0.0022858258379802902 0 -0.029305607924222963 -0.0022487389478275548 0 -0.029354282172815101 -0.0022795408076623511 0 -0.029354282172815101 -0.0022795408076623511 0 -0.029379012336962836 -0.0023097090656785837 0 -0.029398352807648614 -0.0023199241611465311 0 -0.029340402434712001 -0.002284224448958145 0 -0.029354282172815101 -0.0022795408076623511 0 -0.029379012336962836 -0.0023097090656785837 0 -0.029398352807648614 -0.0023199241611465311 0 -0.029395980529816991 -0.0023307199764411868 0 -0.029497311882941978 -0.0023853549755839488 0 -0.029424663457599327 -0.0023521712572705457 0 -0.029379012336962836 -0.0023097090656785837 0 -0.029398352807648614 -0.0023199241611465311 0 -0.029424663457599327 -0.0023521712572705457 0 -0.029398352807648614 -0.0023199241611465311 0 -0.029395980529816991 -0.0023307199764411868 0 -0.029398352807648614 -0.0023199241611465311 0 -0.029513170739728117 -0.0023377638165975774 0 -0.02946361004624392 -0.0022775781225710325 0 -0.029398352807648614 -0.0023199241611465311 0 -0.029513170739728117 -0.0023377638165975774 0 -0.029497311882941978 -0.0023853549755839488 0 -0.029579158244360203 -0.0023523534813417717 0 -0.029513170739728117 -0.0023377638165975774 0 -0.029607207868836381 -0.0023391854325038458 0 -0.029579158244360203 -0.0023523534813417717 0 -0.029513170739728117 -0.0023377638165975774 0 -0.029554522278509146 -0.0023691261103176769 0 -0.029513170739728117 -0.0023377638165975774 0 -0.02946361004624392 -0.0022775781225710325 0 -0.029607207868836381 -0.0023391854325038458 0 -0.018306383197461234 -0.0053240429438503739 0 -0.018639103454933994 -0.004929604605791834 0 -0.01917119840938307 -0.0056861572708003846 0 -0.024129224945920215 -0.0040305598310141112 0 -0.023576819005440681 -0.003968421526142781 0 -0.018306383197461234 -0.0053240429438503739 0 -0.018639103454933994 -0.004929604605791834 0 -0.018093703948263883 -0.0046576856125254053 0 -0.018639103454933994 -0.004929604605791834 0 -0.018603899079263228 -0.0042748347471862468 0 -0.019162611299101222 -0.0047905700102574972 0 -0.018639103454933994 -0.004929604605791834 0 -0.018603899079263228 -0.0042748347471862468 0 -0.018093703948263883 -0.0046576856125254053 0 -0.016436681048458128 -0.0032176534957997238 0 -0.017531031687431021 -0.0042881394749497564 0 -0.016359584767714049 -0.0047515914035090043 0 -0.01817238205536233 -0.0042160091484822774 0 -0.016942777530874177 -0.0049724368467348934 0 -0.015230030120971271 -0.0038428554014195188 0 -0.016359584767714049 -0.0047515914035090043 0 -0.015258132031590937 -0.0052502760287408872 0 -0.014932170905859353 0.0001281135373618147 0 -0.015028034685541744 0.00020157501438389198 0 -0.015014566413021546 0.00023166143482546874 0 -0.014932170905859353 0.0001281135373618147 0 -0.015014566413021546 0.00023166143482546874 0 -0.014975813703599013 0.00024244257323228423 0 -0.014800431529470283 -0.0017182474300486529 0 -0.017478234153589869 -0.0031316518123717658 0 -0.015014566413021546 0.00023166143482546874 0 -0.015025513435008601 0.0002705563872819419 0 -0.014975813703599013 0.00024244257323228423 0 -0.020133342043992666 -0.0015802975383248418 0 -0.020412209779837705 -0.0016364837159791484 0 -0.020125215008052203 -0.0017835918213099588 0 -0.020104491445265056 -0.0009646373957253948 0 -0.017478234153589869 -0.0031316518123717658 0 -0.023299741703717059 -0.0022537655091732275 0 -0.017478234153589869 -0.0031316518123717658 0 -0.017641499194092441 -0.0051028319849452108 0 -0.018093703948263883 -0.0046576856125254053 0 -0.017634817314965332 -0.0049137189932939697 0 -0.017641499194092441 -0.0051028319849452108 0 -0.018306383197461234 -0.0053240429438503739 0 -0.018093703948263883 -0.0046576856125254053 0 -0.016942777530874177 -0.0049724368467348934 0 -0.017478234153589869 -0.0031316518123717658 0 -0.020490184819619318 0.00086214013383045633 0 -0.021187299580457591 0.00036975952237542947 0 -0.020942307756053029 0.0014246559061569734 0 -0.021140465258810765 0.00065126671673645595 0 -0.020896904038343444 0.0015208910724999985 0 -0.021289582016883832 0.0013950626456936308 0 -0.020927719806202158 0.0008285006894834054 0 -0.020820066902059679 0.0016322707385501526 0 -0.020154177712874886 0.0012916543895974831 0 -0.020490184819619318 0.00086214013383045633 0 -0.020942307756053029 0.0014246559061569734 0 -0.020154177712874886 0.0012916543895974831 0 -0.01988984303353741 0.00081042419404209751 0 -0.020490184819619318 0.00086214013383045633 0 -0.01988984303353741 0.00081042419404209751 0 -0.020490184819619318 0.00086214013383045633 0 -0.02016857932085556 0.00026028353486183585 0 -0.02016857932085556 0.00026028353486183585 0 -0.021187299580457591 0.00036975952237542947 0 -0.020455993564228111 -0.00043556137170059191 0 -0.020490184819619318 0.00086214013383045633 0 -0.02016857932085556 0.00026028353486183585 0 -0.021187299580457591 0.00036975952237542947 0 -0.021502071164542037 -0.00078416731030987589 0 -0.021187299580457591 0.00036975952237542947 0 -0.020455993564228111 -0.00043556137170059191 0 -0.021502071164542037 -0.00078416731030987589 0 -0.020478245287383057 -0.0013460882689766028 0 -0.020455993564228111 -0.00043556137170059191 0 -0.020491540236743169 -0.00074672809330901806 0 -0.019831430534089596 -0.0014205462292774362 0 -0.019879697248964014 -0.0015900329437515401 0 -0.01943047123812992 -0.0018269050547286552 0 -0.019161692220630484 -0.0014609164877633024 0 -0.019879697248964014 -0.0015900329437515401 0 -0.01976100273142611 -0.0011465174642206922 0 -0.019161692220630484 -0.0014609164877633024 0 -0.020478245287383057 -0.0013460882689766028 0 -0.019861521595222694 -0.00086656439191189888 0 -0.019560675249725885 -0.0013251532726361319 0 -0.018895850774862125 -0.0018516108022025976 0 -0.019831430534089596 -0.0014205462292774362 0 -0.019313588384319142 -0.0019099394630367908 0 -0.020478245287383057 -0.0013460882689766028 0 -0.019560675249725885 -0.0013251532726361319 0 -0.020478245287383057 -0.0013460882689766028 0 -0.019861521595222694 -0.00086656439191189888 0 -0.020455993564228111 -0.00043556137170059191 0 -0.02016857932085556 0.00026028353486183585 0 -0.020455993564228111 -0.00043556137170059191 0 -0.019491787634045601 -0.0003033080025356386 0 -0.019861521595222694 -0.00086656439191189888 0 -0.020455993564228111 -0.00043556137170059191 0 -0.019491787634045601 -0.0003033080025356386 0 -0.019491787634045601 -0.0003033080025356386 0 -0.018669329604923731 -0.00072056022732489228 0 -0.018573626514301333 2.7851403827243043e-05 0 -0.019491787634045601 -0.0003033080025356386 0 -0.019149716184949723 -0.0010512930901930106 0 -0.018669329604923731 -0.00072056022732489228 0 -0.019861521595222694 -0.00086656439191189888 0 -0.019491787634045601 -0.0003033080025356386 0 -0.019149716184949723 -0.0010512930901930106 0 -0.019861521595222694 -0.00086656439191189888 0 -0.019149716184949723 -0.0010512930901930106 0 -0.019560675249725885 -0.0013251532726361319 0 -0.019149716184949723 -0.0010512930901930106 0 -0.018672684717829204 -0.0012119680622540872 0 -0.018669329604923731 -0.00072056022732489228 0 -0.019149716184949723 -0.0010512930901930106 0 -0.018994877616729838 -0.0014643947247568374 0 -0.018672684717829204 -0.0012119680622540872 0 -0.019313588384319142 -0.0019099394630367908 0 -0.018994877616729838 -0.0014643947247568374 0 -0.019560675249725885 -0.0013251532726361319 0 -0.019149716184949723 -0.0010512930901930106 0 -0.018994877616729838 -0.0014643947247568374 0 -0.019560675249725885 -0.0013251532726361319 0 -0.018449002998028537 -0.0016299218231423409 0 -0.017771529690541115 -0.0016967606592576507 0 -0.018133066678450639 -0.0011943402262545935 0 -0.018449002998028537 -0.0016299218231423409 0 -0.018994877616729838 -0.0014643947247568374 0 -0.018672684717829204 -0.0012119680622540872 0 -0.018449002998028537 -0.0016299218231423409 0 -0.018672684717829204 -0.0012119680622540872 0 -0.018133066678450639 -0.0011943402262545935 0 -0.018672684717829204 -0.0012119680622540872 0 -0.018133066678450639 -0.0011943402262545935 0 -0.018669329604923731 -0.00072056022732489228 0 -0.018133066678450639 -0.0011943402262545935 0 -0.018060994029663449 -0.00061574610673227116 0 -0.018669329604923731 -0.00072056022732489228 0 -0.018060994029663449 -0.00061574610673227116 0 -0.018573626514301333 2.7851403827243043e-05 0 -0.017671558157302727 -9.8260287600633573e-05 0 -0.018060994029663449 -0.00061574610673227116 0 -0.018669329604923731 -0.00072056022732489228 0 -0.018573626514301333 2.7851403827243043e-05 0 -0.018573626514301333 2.7851403827243043e-05 0 -0.01811524442865806 0.00054545510369085519 0 -0.017671558157302727 -9.8260287600633573e-05 0 -0.018573626514301333 2.7851403827243043e-05 0 -0.018671329009337882 0.00084194920419937674 0 -0.01811524442865806 0.00054545510369085519 0 -0.018573626514301333 2.7851403827243043e-05 0 -0.019289589361136079 0.0004463960011928704 0 -0.018671329009337882 0.00084194920419937674 0 -0.01988984303353741 0.00081042419404209751 0 -0.02016857932085556 0.00026028353486183585 0 -0.019289589361136079 0.0004463960011928704 0 -0.02016857932085556 0.00026028353486183585 0 -0.019491787634045601 -0.0003033080025356386 0 -0.019289589361136079 0.0004463960011928704 0 -0.019491787634045601 -0.0003033080025356386 0 -0.018573626514301333 2.7851403827243043e-05 0 -0.019289589361136079 0.0004463960011928704 0 -0.019289589361136079 0.0004463960011928704 0 -0.019429916515280195 0.0010814768115821217 0 -0.018671329009337882 0.00084194920419937674 0 -0.019429916515280195 0.0010814768115821217 0 -0.018671329009337882 0.00084194920419937674 0 -0.019332180697169833 0.0018172435718513285 0 -0.01988984303353741 0.00081042419404209751 0 -0.019289589361136079 0.0004463960011928704 0 -0.019429916515280195 0.0010814768115821217 0 -0.020154177712874886 0.0012916543895974831 0 -0.01988984303353741 0.00081042419404209751 0 -0.019429916515280195 0.0010814768115821217 0 -0.018671329009337882 0.00084194920419937674 0 -0.018149011718484036 0.001095612641199074 0 -0.019332180697169833 0.0018172435718513285 0 -0.018495663079406772 0.0013566951253967988 0 -0.019854379371847902 0.0019554345356129505 0 -0.018671329009337882 0.00084194920419937674 0 -0.018021264254441022 0.0011599763039986035 0 -0.01811524442865806 0.00054545510369085519 0 -0.016479585553766506 0.00013971484163048407 0 -0.016479029445458759 0.00036493901725395976 0 -0.016300407279291128 0.00019284745085349045 0 -0.017627744389512919 0.00085177606803843063 0 -0.018021264254441022 0.0011599763039986035 0 -0.01811524442865806 0.00054545510369085519 0 -0.018217224738459235 0.00064126871282547276 0 -0.019854379371847902 0.0019554345356129505 0 -0.019743821645432185 0.0016704584942751519 0 -0.020015812666541358 0.001881331673026616 0 -0.019710844057242202 0.0020259840102002436 0 -0.019854379371847902 0.0019554345356129505 0 -0.021278552307073161 0.0025321852429155477 0 -0.018217224738459235 0.00064126871282547276 0 -0.021278552307073161 0.0025321852429155477 0 -0.016479029445458759 0.00036493901725395976 0 -0.01607044227250301 0.0002478876874933445 0 -0.015788938112895685 0.00050098506726095333 0 -0.016479029445458759 0.00036493901725395976 0 -0.01607044227250301 0.0002478876874933445 0 -0.016300407279291128 0.00019284745085349045 0 -0.01607044227250301 0.0002478876874933445 0 -0.016205115977793831 -4.8264652101561271e-05 0 -0.015950716435444177 7.9942655166646875e-05 0 -0.01607044227250301 0.0002478876874933445 0 -0.016300407279291128 0.00019284745085349045 0 -0.016205115977793831 -4.8264652101561271e-05 0 -0.016479585553766506 0.00013971484163048407 0 -0.016300407279291128 0.00019284745085349045 0 -0.016205115977793831 -4.8264652101561271e-05 0 -0.018217224738459235 0.00064126871282547276 0 -0.016394700880912428 2.9035004907614776e-05 0 -0.016394700880912428 2.9035004907614776e-05 0 -0.016169134833986472 -0.00016055759150671579 0 -0.016838496282902859 0.00036708222799496044 0 -0.016900911365251077 -0.00038001535993436377 0 -0.016082170501107239 -0.00025260043704986826 0 -0.016838496282902859 0.00036708222799496044 0 -0.017671558157302727 -9.8260287600633573e-05 0 -0.016900911365251077 -0.00038001535993436377 0 -0.017627744389512919 0.00085177606803843063 0 -0.01811524442865806 0.00054545510369085519 0 -0.017671558157302727 -9.8260287600633573e-05 0 -0.017560198255092228 0.00091826492203831377 0 -0.016838496282902859 0.00036708222799496044 0 -0.017671558157302727 -9.8260287600633573e-05 0 -0.018217224738459235 0.00064126871282547276 0 -0.017635364415851708 0.00010074291662243615 0 -0.018060994029663449 -0.00061574610673227116 0 -0.017671558157302727 -9.8260287600633573e-05 0 -0.017285893929883379 -0.0010570233238196055 0 -0.017671558157302727 -9.8260287600633573e-05 0 -0.017285893929883379 -0.0010570233238196055 0 -0.016900911365251077 -0.00038001535993436377 0 -0.017771529690541115 -0.0016967606592576507 0 -0.018133066678450639 -0.0011943402262545935 0 -0.017285893929883379 -0.0010570233238196055 0 -0.018133066678450639 -0.0011943402262545935 0 -0.018060994029663449 -0.00061574610673227116 0 -0.017285893929883379 -0.0010570233238196055 0 -0.017771529690541115 -0.0016967606592576507 0 -0.017285893929883379 -0.0010570233238196055 0 -0.017274556100061032 -0.0016017497149464252 0 -0.016709459370089833 -0.0017302453775254886 0 -0.017285893929883379 -0.0010570233238196055 0 -0.016591664685469926 -0.00078859454843723713 0 -0.016709459370089833 -0.0017302453775254886 0 -0.017285893929883379 -0.0010570233238196055 0 -0.017274556100061032 -0.0016017497149464252 0 -0.017285893929883379 -0.0010570233238196055 0 -0.016591664685469926 -0.00078859454843723713 0 -0.016900911365251077 -0.00038001535993436377 0 -0.016591664685469926 -0.00078859454843723713 0 -0.016900911365251077 -0.00038001535993436377 0 -0.016082170501107239 -0.00025260043704986826 0 -0.016591664685469926 -0.00078859454843723713 0 -0.016082170501107239 -0.00025260043704986826 0 -0.015867819311911432 -0.00059943222881528974 0 -0.016709459370089833 -0.0017302453775254886 0 -0.016591664685469926 -0.00078859454843723713 0 -0.015867819311911432 -0.00059943222881528974 0 -0.015488684354039861 3.4251405691667856e-05 0 -0.015187179275894852 9.6104317309221677e-05 0 -0.01518675759369115 2.460045931940198e-05 0 -0.015187179275894852 9.6104317309221677e-05 0 -0.01518675759369115 2.460045931940198e-05 0 -0.015130502150420848 5.5341185662949503e-05 0 -0.016111950587531457 -0.00084312594768562964 0 -0.015550820501912728 -0.0002464368078713738 0 -0.014992111233775505 -9.8340775459395397e-06 0 -0.015130502150420848 5.5341185662949503e-05 0 -0.015150920048108179 4.0045279257746241e-05 0 -0.01518675759369115 2.460045931940198e-05 0 -0.014992111233775505 -9.8340775459395397e-06 0 -0.015130502150420848 5.5341185662949503e-05 0 -0.015187179275894852 9.6104317309221677e-05 0 -0.015130502150420848 5.5341185662949503e-05 0 -0.015150920048108179 4.0045279257746241e-05 0 -0.015187179275894852 9.6104317309221677e-05 0 -0.015150920048108179 4.0045279257746241e-05 0 -0.015430416939958749 7.1714655711713616e-05 0 -0.015550820501912728 -0.0002464368078713738 0 -0.015412274096849452 6.226251136356512e-05 0 -0.016082170501107239 -0.00025260043704986826 0 -0.015430416939958749 7.1714655711713616e-05 0 -0.015950716435444177 7.9942655166646875e-05 0 -0.016082170501107239 -0.00025260043704986826 0 -0.015867819311911432 -0.00059943222881528974 0 -0.015430416939958749 7.1714655711713616e-05 0 -0.016205115977793831 -4.8264652101561271e-05 0 -0.016082170501107239 -0.00025260043704986826 0 -0.015950716435444177 7.9942655166646875e-05 0 -0.01607044227250301 0.0002478876874933445 0 -0.015836764464271048 0.00032659211703627927 0 -0.015788938112895685 0.00050098506726095333 0 -0.015430416939958749 7.1714655711713616e-05 0 -0.015950716435444177 7.9942655166646875e-05 0 -0.015836764464271048 0.00032659211703627927 0 -0.01607044227250301 0.0002478876874933445 0 -0.015950716435444177 7.9942655166646875e-05 0 -0.015836764464271048 0.00032659211703627927 0 -0.015438692066786127 0.00022722674330159095 0 -0.015430416939958749 7.1714655711713616e-05 0 -0.01571917841186048 0.00027585933723123804 0 -0.015430416939958749 7.1714655711713616e-05 0 -0.015836764464271048 0.00032659211703627927 0 -0.01571917841186048 0.00027585933723123804 0 -0.015307139933023467 0.00045876873216002767 0 -0.016059523111386108 0.00038846985946870086 0 -0.01571917841186048 0.00027585933723123804 0 -0.01655938513954015 0.00031416015087132939 0 -0.016059309197150973 0.00040057194913876575 0 -0.015836764464271048 0.00032659211703627927 0 -0.016059523111386108 0.00038846985946870086 0 -0.01571917841186048 0.00027585933723123804 0 -0.015836764464271048 0.00032659211703627927 0 -0.016059523111386108 0.00038846985946870086 0 -0.015788938112895685 0.00050098506726095333 0 -0.016059523111386108 0.00038846985946870086 0 -0.015788938112895685 0.00050098506726095333 0 -0.016422818682616993 0.00017203041144063356 0 -0.021302452575328958 0.0015115105821290056 0 -0.02265309431782964 0.00095553824379882317 0 -0.028451001794413844 0.0018987845539751675 0 -0.02773129247728617 0.00043215948381572028 0 -0.026808647040251637 0.0013530968439649067 0 -0.026932016846244796 0.0026326566631882558 0 -0.028451001794413844 0.0018987845539751675 0 -0.026808647040251637 0.0013530968439649067 0 -0.017634757834913702 0.00023791379278401739 0 -0.016059523111386108 0.00038846985946870086 0 -0.016422818682616993 0.00017203041144063356 0 -0.041159098904452823 -0.0015645533742911148 0 -0.041949657543304625 -0.001038338857809973 0 -0.041946592620200986 -0.0012166343837954397 0 -0.029570894277446382 0.00046692772864168145 0 -0.028451001794413844 0.0018987845539751675 0 -0.02773129247728617 0.00043215948381572028 0 -0.036340044776392418 -0.00043113928884538308 0 -0.035122253317453722 -0.00057107539873316594 0 -0.041204883355419525 -0.00082859829291682409 0 -0.041949657543304625 -0.001038338857809973 0 -0.041604751825567887 -0.00045138518201684561 0 -0.041949657543304625 -0.001038338857809973 0 -0.041745812988308942 -0.0013056742590629954 0 -0.041946592620200986 -0.0012166343837954397 0 -0.041949657543304625 -0.001038338857809973 0 -0.042612791402474155 -0.001106487929372457 0 -0.042651204096189818 -0.00050680524464262456 0 -0.041816956278109947 -0.0010487208193116647 0 -0.042529412411231343 -0.0012577801744133876 0 -0.041745812988308942 -0.0013056742590629954 0 -0.041946592620200986 -0.0012166343837954397 0 -0.041238936547935215 -0.0010455564367152599 0 -0.035122253317453722 -0.00057107539873316594 0 -0.031084062592829816 0.00087727278911951551 0 -0.041745812988308942 -0.0013056742590629954 0 -0.04125618908706008 -0.0012030960951382183 0 -0.041238936547935215 -0.0010455564367152599 0 -0.02773129247728617 0.00043215948381572028 0 -0.025827471145884337 0.00039006965180123229 0 -0.026808647040251637 0.0013530968439649067 0 -0.040077475061517168 -0.00090664964888529807 0 -0.031084062592829816 0.00087727278911951551 0 -0.043160124175464935 -0.0011888243328090394 0 -0.042935845129211433 -0.00092107803097727682 0 -0.043086504698359292 -0.00059476683285280391 0 -0.042529412411231343 -0.0012577801744133876 0 -0.040077475061517168 -0.00090664964888529807 0 -0.042612791402474155 -0.001106487929372457 0 -0.042935845129211433 -0.00092107803097727682 0 -0.042651204096189818 -0.00050680524464262456 0 -0.042612791402474155 -0.001106487929372457 0 -0.043160124175464935 -0.0011888243328090394 0 -0.042935845129211433 -0.00092107803097727682 0 -0.040077475061517168 -0.00090664964888529807 0 -0.043102537685839402 -0.00017645509655478742 0 -0.042935845129211433 -0.00092107803097727682 0 -0.043086504698359292 -0.00059476683285280391 0 -0.042651204096189818 -0.00050680524464262456 0 -0.043030468478763961 0.00035665734134531044 0 -0.042934309463523355 0.00024208200467664068 0 -0.043054734357645688 0.000173559687616246 0 -0.043030468478763961 0.00035665734134531044 0 -0.042934309463523355 0.00024208200467664068 0 -0.042828617758187845 0.00047337510428517192 0 -0.031084062592829816 0.00087727278911951551 0 -0.031864281797004214 0.0011121097750767461 0 -0.040077475061517168 -0.00090664964888529807 0 -0.031864281797004214 0.0011121097750767461 0 -0.035516981211582539 0.00039507184045303815 0 -0.035418738591578472 0.001212970220185579 0 -0.032026522083793162 0.001160354855057317 0 -0.022921549931346364 0.0017382050524352426 0 -0.022206708928021512 0.0023189739417619677 0 -0.021790169578573548 0.0017520227050866143 0 -0.022921549931346364 0.0017382050524352426 0 -0.022714530795688723 0.0027281776440610827 0 -0.022206708928021512 0.0023189739417619677 0 -0.022714530795688723 0.0027281776440610827 0 -0.022206708928021512 0.0023189739417619677 0 -0.022088038829661059 0.0031352279550951431 0 -0.031084062592829816 0.00087727278911951551 0 -0.023841016920305283 0.0025792471330761237 0 -0.026932016846244796 0.0026326566631882558 0 -0.025593008453470432 0.0018651251556297884 0 -0.026808647040251637 0.0013530968439649067 0 -0.025827471145884337 0.00039006965180123229 0 -0.025593008453470432 0.0018651251556297884 0 -0.026808647040251637 0.0013530968439649067 0 -0.0253687647945488 0.0033571590516207847 0 -0.026932016846244796 0.0026326566631882558 0 -0.025593008453470432 0.0018651251556297884 0 -0.021278552307073161 0.0025321852429155477 0 -0.021302452575328958 0.0015115105821290056 0 -0.022563000805955802 0.0036823362810700262 0 -0.022714530795688723 0.0027281776440610827 0 -0.022088038829661059 0.0031352279550951431 0 -0.021278552307073161 0.0025321852429155477 0 -0.023841016920305283 0.0025792471330761237 0 -0.022191278406056881 0.0038552478842879693 0 -0.022563000805955802 0.0036823362810700262 0 -0.022088038829661059 0.0031352279550951431 0 -0.019854379371847902 0.0019554345356129505 0 -0.020392429194700162 0.0025248926913656049 0 -0.022088038829661059 0.0031352279550951431 0 -0.021226738250480073 0.0030863769848488284 0 -0.021315999598625769 0.0024281005505625117 0 -0.022191278406056881 0.0038552478842879693 0 -0.022088038829661059 0.0031352279550951431 0 -0.021226738250480073 0.0030863769848488284 0 -0.020154177712874886 0.0012916543895974831 0 -0.019429916515280195 0.0010814768115821217 0 -0.019332180697169833 0.0018172435718513285 0 -0.020392429194700162 0.0025248926913656049 0 -0.020653295293174993 0.0023112200416471038 0 -0.021226738250480073 0.0030863769848488284 0 -0.020892137035713805 0.0024245368498527066 0 -0.021315999598625769 0.0024281005505625117 0 -0.021226738250480073 0.0030863769848488284 0 -0.020892137035713805 0.0024245368498527066 0 -0.020763473102811868 0.0023022040828161129 0 -0.020892137035713805 0.0024245368498527066 0 -0.021315999598625769 0.0024281005505625117 0 -0.020645053713913505 0.0022914245420993886 0 -0.022206708928021512 0.0023189739417619677 0 -0.022088038829661059 0.0031352279550951431 0 -0.021315999598625769 0.0024281005505625117 0 -0.022206708928021512 0.0023189739417619677 0 -0.021315999598625769 0.0024281005505625117 0 -0.021790169578573548 0.0017520227050866143 0 -0.042934309463523355 0.00024208200467664068 0 -0.042828617758187845 0.00047337510428517192 0 -0.042798093274691723 0.00032561565729615101 0 -0.042798093274691723 0.00032561565729615101 0 -0.04262968640445234 0.00040853945352004473 0 -0.04270218251199738 0.00020285632557840667 0 -0.042828617758187845 0.00047337510428517192 0 -0.042798093274691723 0.00032561565729615101 0 -0.042618879940966241 0.0006671930404207831 0 -0.042798093274691723 0.00032561565729615101 0 -0.042618879940966241 0.0006671930404207831 0 -0.04262968640445234 0.00040853945352004473 0 -0.031864281797004214 0.0011121097750767461 0 -0.023660008326797596 0.0020308813111638464 0 -0.021315999598625769 0.0024281005505625117 0 -0.021790169578573548 0.0017520227050866143 0 -0.020645053713913505 0.0022914245420993886 0 -0.031837412479884961 0.00081829296314548002 0 -0.028672425685439415 0.0015178270836924779 0 -0.028621431528765878 0.00079238667137636765 0 -0.031864281797004214 0.0011121097750767461 0 -0.036890127749556738 0.00071017492831742916 0 -0.023660008326797596 0.0020308813111638464 0 -0.02413055701166775 0.0020836884212115606 0 -0.036890127749556738 0.00071017492831742916 0 -0.032897708361871877 0.00089644301780444251 0 -0.028672425685439415 0.0015178270836924779 0 -0.027155621397357985 0.0012883374284689752 0 -0.025839245035557724 0.0019932829445595849 0 -0.020645053713913505 0.0022914245420993886 0 -0.02188669436896962 0.0023700472006146643 0 -0.020955686801099077 0.0022487873921546958 0 -0.042618879940966241 0.0006671930404207831 0 -0.042321309134791041 0.00048495435744877517 0 -0.041754761246551246 0.00095190774966688737 0 -0.027155621397357985 0.0012883374284689752 0 -0.028621431528765878 0.00079238667137636765 0 -0.025741331632238278 0.0008554095012369028 0 -0.028672425685439415 0.0015178270836924779 0 -0.027155621397357985 0.0012883374284689752 0 -0.028621431528765878 0.00079238667137636765 0 -0.042321309134791041 0.00048495435744877517 0 -0.041655982683097913 0.00029330586897531889 0 -0.04270218251199738 0.00020285632557840667 0 -0.042618879940966241 0.0006671930404207831 0 -0.042321309134791041 0.00048495435744877517 0 -0.04262968640445234 0.00040853945352004473 0 -0.042321309134791041 0.00048495435744877517 0 -0.04262968640445234 0.00040853945352004473 0 -0.04270218251199738 0.00020285632557840667 0 -0.043306265842867939 0.00019135000987739593 0 -0.042175757712358784 0.00041539585501812053 0 -0.04247354603026883 0.00054914595006301222 0 -0.042649252030420408 0.00063952725485815008 0 -0.042625607126753687 0.00034326927037295243 0 -0.042321309134791041 0.00048495435744877517 0 -0.041655982683097913 0.00029330586897531889 0 -0.041754761246551246 0.00095190774966688737 0 -0.027155621397357985 0.0012883374284689752 0 -0.025741331632238278 0.0008554095012369028 0 -0.025839245035557724 0.0019932829445595849 0 -0.024760337885201277 0.001569599247638443 0 -0.025741331632238278 0.0008554095012369028 0 -0.025839245035557724 0.0019932829445595849 0 -0.022697477913445618 0.0014518007461448584 0 -0.02188669436896962 0.0023700472006146643 0 -0.020955686801099077 0.0022487873921546958 0 -0.021091674080376977 0.0020808962270803663 0 -0.020955686801099077 0.0022487873921546958 0 -0.020951968495782562 0.0022074926977973387 0 -0.021882129961509875 0.0017934163384032639 0 -0.021003002392262146 0.0022189298532909957 0 -0.021091674080376977 0.0020808962270803663 0 -0.020951968495782562 0.0022074926977973387 0 -0.020820066902059679 0.0016322707385501526 0 -0.019332180697169833 0.0018172435718513285 0 -0.020763473102811868 0.0023022040828161129 0 -0.020542301908828421 0.0018092036810827669 0 -0.020955686801099077 0.0022487873921546958 0 -0.020763473102811868 0.0023022040828161129 0 -0.020951968495782562 0.0022074926977973387 0 -0.020892137035713805 0.0024245368498527066 0 -0.020645053713913505 0.0022914245420993886 0 -0.020955686801099077 0.0022487873921546958 0 -0.020892137035713805 0.0024245368498527066 0 -0.020955686801099077 0.0022487873921546958 0 -0.020763473102811868 0.0023022040828161129 0 -0.020763473102811868 0.0023022040828161129 0 -0.020951968495782562 0.0022074926977973387 0 -0.020542301908828421 0.0018092036810827669 0 -0.020951968495782562 0.0022074926977973387 0 -0.020542301908828421 0.0018092036810827669 0 -0.020942307756053029 0.0014246559061569734 0 -0.020154177712874886 0.0012916543895974831 0 -0.020542301908828421 0.0018092036810827669 0 -0.020942307756053029 0.0014246559061569734 0 -0.020154177712874886 0.0012916543895974831 0 -0.019332180697169833 0.0018172435718513285 0 -0.020542301908828421 0.0018092036810827669 0 -0.020910386153573657 0.0021569269977240752 0 -0.020896904038343444 0.0015208910724999985 0 -0.042972852298350392 1.4943309578147891e-05 0 -0.042894429959518622 -9.7305997782687461e-06 0 -0.042969216965120335 0.00017293375928370528 0 -0.042859449855591113 -1.3957718940304488e-05 0 -0.042972852298350392 1.4943309578147891e-05 0 -0.042894429959518622 -9.7305997782687461e-06 0 -0.042859449855591113 -1.3957718940304488e-05 0 -0.042894429959518622 -9.7305997782687461e-06 0 -0.042835762460287606 1.1523543487069932e-05 0 -0.042766245584233011 -1.8066180497183216e-05 0 -0.042859449855591113 -1.3957718940304488e-05 0 -0.042972852298350392 1.4943309578147891e-05 0 -0.043096658087354849 6.7628205100331775e-05 0 -0.042972852298350392 1.4943309578147891e-05 0 -0.042969216965120335 0.00017293375928370528 0 -0.042894429959518622 -9.7305997782687461e-06 0 -0.042925553532896073 6.1785216320596546e-05 0 -0.043252315226700318 1.3802613530034589e-06 0 -0.042925553532896073 6.1785216320596546e-05 0 -0.042835762460287606 1.1523543487069932e-05 0 -0.042752234139485326 7.3829352226655233e-05 0 -0.042894429959518622 -9.7305997782687461e-06 0 -0.042925553532896073 6.1785216320596546e-05 0 -0.042835762460287606 1.1523543487069932e-05 0 -0.042835762460287606 1.1523543487069932e-05 0 -0.042742063539976997 -1.2490618788947801e-05 0 -0.042752234139485326 7.3829352226655233e-05 0 -0.042766245584233011 -1.8066180497183216e-05 0 -0.042859449855591113 -1.3957718940304488e-05 0 -0.042742063539976997 -1.2490618788947801e-05 0 -0.042859449855591113 -1.3957718940304488e-05 0 -0.042835762460287606 1.1523543487069932e-05 0 -0.042742063539976997 -1.2490618788947801e-05 0 -0.042606173839485992 7.3276173648809844e-06 0 -0.042742063539976997 -1.2490618788947801e-05 0 -0.042752234139485326 7.3829352226655233e-05 0 -0.042553925312061237 7.8965640038279063e-05 0 -0.042606173839485992 7.3276173648809844e-06 0 -0.042752234139485326 7.3829352226655233e-05 0 -0.042553925312061237 7.8965640038279063e-05 0 -0.042752234139485326 7.3829352226655233e-05 0 -0.042632087904217346 0.00017363333502082217 0 -0.042752234139485326 7.3829352226655233e-05 0 -0.042632087904217346 0.00017363333502082217 0 -0.042752801247988304 0.0001657030631945861 0 -0.042649252030420408 0.00063952725485815008 0 -0.042625607126753687 0.00034326927037295243 0 -0.04270218251199738 0.00020285632557840667 0 -0.042383374841569982 0.00022681586313261793 0 -0.042632087904217346 0.00017363333502082217 0 -0.042625607126753687 0.00034326927037295243 0 -0.042632087904217346 0.00017363333502082217 0 -0.042625607126753687 0.00034326927037295243 0 -0.042752801247988304 0.0001657030631945861 0 -0.04270218251199738 0.00020285632557840667 0 -0.042752801247988304 0.0001657030631945861 0 -0.042860835498679993 0.0001274273496932262 0 -0.042625607126753687 0.00034326927037295243 0 -0.04270218251199738 0.00020285632557840667 0 -0.042752801247988304 0.0001657030631945861 0 -0.042925553532896073 6.1785216320596546e-05 0 -0.042752801247988304 0.0001657030631945861 0 -0.042860835498679993 0.0001274273496932262 0 -0.042925553532896073 6.1785216320596546e-05 0 -0.042752234139485326 7.3829352226655233e-05 0 -0.042752801247988304 0.0001657030631945861 0 -0.042925553532896073 6.1785216320596546e-05 0 -0.042860835498679993 0.0001274273496932262 0 -0.043053170658527755 3.0470832938221432e-05 0 -0.042798093274691723 0.00032561565729615101 0 -0.042860835498679993 0.0001274273496932262 0 -0.042947481775763345 0.00010739066955948658 0 -0.042798093274691723 0.00032561565729615101 0 -0.04270218251199738 0.00020285632557840667 0 -0.042860835498679993 0.0001274273496932262 0 -0.042934309463523355 0.00024208200467664068 0 -0.042798093274691723 0.00032561565729615101 0 -0.042947481775763345 0.00010739066955948658 0 -0.042860835498679993 0.0001274273496932262 0 -0.042947481775763345 0.00010739066955948658 0 -0.043053170658527755 3.0470832938221432e-05 0 -0.042947481775763345 0.00010739066955948658 0 -0.043053170658527755 3.0470832938221432e-05 0 -0.042983516078958187 8.4347489087367686e-06 0 -0.043053170658527755 3.0470832938221432e-05 0 -0.043252315226700318 1.3802613530034589e-06 0 -0.042976879688066176 0.00011674561461727443 0 -0.042925553532896073 6.1785216320596546e-05 0 -0.043053170658527755 3.0470832938221432e-05 0 -0.043252315226700318 1.3802613530034589e-06 0 -0.042894429959518622 -9.7305997782687461e-06 0 -0.043252315226700318 1.3802613530034589e-06 0 -0.043203348130595252 -0.00016468295709647023 0 -0.043241316563457935 -5.4053175451398572e-06 0 -0.043273262805488974 -2.9029793102554113e-05 0 -0.043252315226700318 1.3802613530034589e-06 0 -0.04361955819807431 -0.00016169961312143699 0 -0.043635374603422906 -0.00018821526432594146 0 -0.04361955819807431 -0.00016169961312143699 0 -0.043522723415871732 -0.00019049557238280397 0 -0.043635374603422906 -0.00018821526432594146 0 -0.04361955819807431 -0.00016169961312143699 0 -0.043522723415871732 -0.00019049557238280397 0 -0.043335129278219829 -0.00034091202804917796 0 -0.043273262805488974 -2.9029793102554113e-05 0 -0.042979185928505158 -0.0001455037879147156 0 -0.042976879688066176 0.00011674561461727443 0 -0.042846579237187134 1.1635348649204281e-05 0 -0.042595722282636785 4.4415551344136708e-05 0 -0.043053170658527755 3.0470832938221432e-05 0 -0.042976879688066176 0.00011674561461727443 0 -0.042983516078958187 8.4347489087367686e-06 0 -0.042976879688066176 0.00011674561461727443 0 -0.042846579237187134 1.1635348649204281e-05 0 -0.042983516078958187 8.4347489087367686e-06 0 -0.042983516078958187 8.4347489087367686e-06 0 -0.042970375983102743 7.2466197907680268e-05 0 -0.042955398948704621 -5.8672019964747706e-05 0 -0.042947481775763345 0.00010739066955948658 0 -0.042983516078958187 8.4347489087367686e-06 0 -0.042970375983102743 7.2466197907680268e-05 0 -0.042934309463523355 0.00024208200467664068 0 -0.042970375983102743 7.2466197907680268e-05 0 -0.043054734357645688 0.000173559687616246 0 -0.042934309463523355 0.00024208200467664068 0 -0.042947481775763345 0.00010739066955948658 0 -0.042970375983102743 7.2466197907680268e-05 0 -0.042970375983102743 7.2466197907680268e-05 0 -0.043054734357645688 0.000173559687616246 0 -0.042955398948704621 -5.8672019964747706e-05 0 -0.043102537685839402 -0.00017645509655478742 0 -0.042986899337140234 -7.7565317724385735e-05 0 -0.043086504698359292 -0.00059476683285280391 0 -0.042955398948704621 -5.8672019964747706e-05 0 -0.042651204096189818 -0.00050680524464262456 0 -0.042846579237187134 1.1635348649204281e-05 0 -0.042955398948704621 -5.8672019964747706e-05 0 -0.042615190101165948 -6.5705454631704863e-05 0 -0.042955398948704621 -5.8672019964747706e-05 0 -0.042615190101165948 -6.5705454631704863e-05 0 -0.042651204096189818 -0.00050680524464262456 0 -0.042846579237187134 1.1635348649204281e-05 0 -0.042983516078958187 8.4347489087367686e-06 0 -0.042955398948704621 -5.8672019964747706e-05 0 -0.042615190101165948 -6.5705454631704863e-05 0 -0.042239322856229986 -0.00012199623725710239 0 -0.042531595154254608 -6.5745807766817398e-05 0 -0.041949657543304625 -0.001038338857809973 0 -0.042651204096189818 -0.00050680524464262456 0 -0.042239322856229986 -0.00012199623725710239 0 -0.042615190101165948 -6.5705454631704863e-05 0 -0.042651204096189818 -0.00050680524464262456 0 -0.042239322856229986 -0.00012199623725710239 0 -0.041949657543304625 -0.001038338857809973 0 -0.042239322856229986 -0.00012199623725710239 0 -0.041604751825567887 -0.00045138518201684561 0 -0.042239322856229986 -0.00012199623725710239 0 -0.041604751825567887 -0.00045138518201684561 0 -0.041474110238307202 6.532761323598301e-05 0 -0.042239322856229986 -0.00012199623725710239 0 -0.041476317868321858 0.00067704447462832039 0 -0.041474110238307202 6.532761323598301e-05 0 -0.042262386874130677 -7.6847708675574568e-05 0 -0.042128093914229996 0.00022471423749702995 0 -0.042239322856229986 -0.00012199623725710239 0 -0.042531595154254608 -6.5745807766817398e-05 0 -0.042742021713429425 -0.00011186457070710992 0 -0.042979185928505158 -0.0001455037879147156 0 -0.042820456755649675 -0.00021843119579749527 0 -0.042531595154254608 -6.5745807766817398e-05 0 -0.042742021713429425 -0.00011186457070710992 0 -0.042787066113398421 -0.00023283346152096763 0 -0.042531595154254608 -6.5745807766817398e-05 0 -0.042595722282636785 4.4415551344136708e-05 0 -0.042787066113398421 -0.00023283346152096763 0 -0.042846579237187134 1.1635348649204281e-05 0 -0.042615190101165948 -6.5705454631704863e-05 0 -0.042595722282636785 4.4415551344136708e-05 0 -0.042615190101165948 -6.5705454631704863e-05 0 -0.042531595154254608 -6.5745807766817398e-05 0 -0.042595722282636785 4.4415551344136708e-05 0 -0.043522723415871732 -0.00019049557238280397 0 -0.043335129278219829 -0.00034091202804917796 0 -0.043336102710888481 -0.00013574549218952465 0 -0.043335129278219829 -0.00034091202804917796 0 -0.043004056320214985 -0.00019289619507261715 0 -0.042787066113398421 -0.00023283346152096763 0 -0.043335129278219829 -0.00034091202804917796 0 -0.043004056320214985 -0.00019289619507261715 0 -0.043336102710888481 -0.00013574549218952465 0 -0.043004056320214985 -0.00019289619507261715 0 -0.043336102710888481 -0.00013574549218952465 0 -0.042976038508303213 -3.5180643712233641e-05 0 -0.043336102710888481 -0.00013574549218952465 0 -0.043491261091955509 -9.6806532106283373e-05 0 -0.043580617161587246 -0.0001646140445124963 0 -0.043336102710888481 -0.00013574549218952465 0 -0.043347569257004323 1.2301939306294036e-06 0 -0.043491261091955509 -9.6806532106283373e-05 0 -0.043347569257004323 1.2301939306294036e-06 0 -0.043581659792934241 -9.4176027313049203e-05 0 -0.043491261091955509 -9.6806532106283373e-05 0 -0.044219424961923139 0.00022493408537026751 0 -0.044418719210648321 0.00017798986582939861 0 -0.04451664598452014 0.00040194004166300317 0 -0.043654860912307192 8.9071786145009918e-05 0 -0.043999272653522832 0.00014465611614473224 0 -0.043336102710888481 -0.00013574549218952465 0 -0.043347569257004323 1.2301939306294036e-06 0 -0.042976038508303213 -3.5180643712233641e-05 0 -0.04468687723478084 2.2348961238158735e-05 0 -0.044764761360219861 7.6204855837210733e-06 0 -0.044418719210648321 0.00017798986582939861 0 -0.044240776574793889 4.0271856088587709e-05 0 -0.044557454752213274 1.6015233439053449e-05 0 -0.044219424961923139 0.00022493408537026751 0 -0.044418719210648321 0.00017798986582939861 0 -0.044240776574793889 4.0271856088587709e-05 0 -0.044999968227995221 -4.0054339526958531e-09 0 -0.044997326791156256 -1.3914132172057105e-07 0 -0.044999349308060814 -5.5271762568726867e-06 0 -0.044999968227995221 -4.0054339526958531e-09 0 -0.04499845378045049 1.1004615957961648e-06 0 -0.044997326791156256 -1.3914132172057105e-07 0 -0.044999968227995221 -4.0054339526958531e-09 0 -0.04499845378045049 1.1004615957961648e-06 0 -0.04500015385842486 -1.5223026234605586e-08 0 -0.043654860912307192 8.9071786145009918e-05 0 -0.044161200717649896 -1.0886047679521264e-05 0 -0.04499845378045049 1.1004615957961648e-06 0 -0.044997326791156256 -1.3914132172057105e-07 0 -0.044997283829858535 5.6203670296194188e-07 0 -0.044219424961923139 0.00022493408537026751 0 -0.044240776574793889 4.0271856088587709e-05 0 -0.043938257544053096 5.7421490112123078e-05 0 -0.04468687723478084 2.2348961238158735e-05 0 -0.044161200717649896 -1.0886047679521264e-05 0 -0.043347569257004323 1.2301939306294036e-06 0 -0.043581659792934241 -9.4176027313049203e-05 0 -0.043662889242901057 -7.3743503065566596e-05 0 -0.043656288419610764 -0.00012569059010547129 0 -0.04373356431884997 -0.00015735202862705603 0 -0.043655907223256789 -0.00015889348042069483 0 -0.043581659792934241 -9.4176027313049203e-05 0 -0.043664722269836975 -0.00010829230326327449 0 -0.043662889242901057 -7.3743503065566596e-05 0 -0.043581659792934241 -9.4176027313049203e-05 0 -0.043656288419610764 -0.00012569059010547129 0 -0.043655907223256789 -0.00015889348042069483 0 -0.043581659792934241 -9.4176027313049203e-05 0 -0.043656288419610764 -0.00012569059010547129 0 -0.043664722269836975 -0.00010829230326327449 0 -0.043664722269836975 -0.00010829230326327449 0 -0.043695645651699692 -9.2132962975388467e-05 0 -0.04373356431884997 -0.00015735202862705603 0 -0.043656288419610764 -0.00012569059010547129 0 -0.043664722269836975 -0.00010829230326327449 0 -0.04373356431884997 -0.00015735202862705603 0 -0.043664722269836975 -0.00010829230326327449 0 -0.043695645651699692 -9.2132962975388467e-05 0 -0.043662889242901057 -7.3743503065566596e-05 0 -0.043997212267802961 -1.2295950189701806e-05 0 -0.044161200717649896 -1.0886047679521264e-05 0 -0.04499845378045049 1.1004615957961648e-06 0 -0.044997283829858535 5.6203670296194188e-07 0 -0.044999361273024875 3.3347308229689763e-06 0 -0.044997283829858535 5.6203670296194188e-07 0 -0.044999361273024875 3.3347308229689763e-06 0 -0.045004228633641861 8.8019021902787569e-06 0 -0.044999361273024875 3.3347308229689763e-06 0 -0.04500015385842486 -1.5223026234605586e-08 0 -0.045004228633641861 8.8019021902787569e-06 0 -0.04499845378045049 1.1004615957961648e-06 0 -0.044999361273024875 3.3347308229689763e-06 0 -0.04500015385842486 -1.5223026234605586e-08 0 -0.045004228633641861 8.8019021902787569e-06 0 -0.045010443911216336 1.7327081166110459e-05 0 -0.044999438936554698 1.1185811242454557e-07 0 -0.04500015385842486 -1.5223026234605586e-08 0 -0.045004228633641861 8.8019021902787569e-06 0 -0.044999438936554698 1.1185811242454557e-07 0 -0.044161200717649896 -1.0886047679521264e-05 0 -0.044518227366526983 1.242860354015094e-05 0 -0.044997283829858535 5.6203670296194188e-07 0 -0.045004228633641861 8.8019021902787569e-06 0 -0.045010443911216336 1.7327081166110459e-05 0 -0.043973929881263654 3.9323772004145563e-05 0 -0.043910507531854083 -0.00016194947618707617 0 -0.04441212501394199 -8.8998483221969888e-05 0 -0.043695645651699692 -9.2132962975388467e-05 0 -0.043973929881263654 3.9323772004145563e-05 0 -0.043910507531854083 -0.00016194947618707617 0 -0.043695645651699692 -9.2132962975388467e-05 0 -0.043910507531854083 -0.00016194947618707617 0 -0.04373356431884997 -0.00015735202862705603 0 -0.043695645651699692 -9.2132962975388467e-05 0 -0.043620982971335598 -7.9664550637127164e-05 0 -0.043973929881263654 3.9323772004145563e-05 0 -0.04373356431884997 -0.00015735202862705603 0 -0.043849012625388414 -0.00024573442306393003 0 -0.043655907223256789 -0.00015889348042069483 0 -0.043910507531854083 -0.00016194947618707617 0 -0.04373356431884997 -0.00015735202862705603 0 -0.043849012625388414 -0.00024573442306393003 0 -0.043910507531854083 -0.00016194947618707617 0 -0.043849012625388414 -0.00024573442306393003 0 -0.044127177089029128 -0.00032544113444515145 0 -0.043849012625388414 -0.00024573442306393003 0 -0.043702931564964659 -0.00020369992956760605 0 -0.043661200068743959 -0.00023397549297892156 0 -0.043849012625388414 -0.00024573442306393003 0 -0.043702931564964659 -0.00020369992956760605 0 -0.043655907223256789 -0.00015889348042069483 0 -0.043581659792934241 -9.4176027313049203e-05 0 -0.043655907223256789 -0.00015889348042069483 0 -0.043491261091955509 -9.6806532106283373e-05 0 -0.043655907223256789 -0.00015889348042069483 0 -0.043491261091955509 -9.6806532106283373e-05 0 -0.043580617161587246 -0.0001646140445124963 0 -0.043702931564964659 -0.00020369992956760605 0 -0.043655907223256789 -0.00015889348042069483 0 -0.043580617161587246 -0.0001646140445124963 0 -0.043522723415871732 -0.00019049557238280397 0 -0.043580617161587246 -0.0001646140445124963 0 -0.043635374603422906 -0.00018821526432594146 0 -0.043522723415871732 -0.00019049557238280397 0 -0.043336102710888481 -0.00013574549218952465 0 -0.043580617161587246 -0.0001646140445124963 0 -0.043702931564964659 -0.00020369992956760605 0 -0.043635374603422906 -0.00018821526432594146 0 -0.043661200068743959 -0.00023397549297892156 0 -0.043702931564964659 -0.00020369992956760605 0 -0.043580617161587246 -0.0001646140445124963 0 -0.043635374603422906 -0.00018821526432594146 0 -0.043252315226700318 1.3802613530034589e-06 0 -0.043635374603422906 -0.00018821526432594146 0 -0.043661200068743959 -0.00023397549297892156 0 -0.043252315226700318 1.3802613530034589e-06 0 -0.043203348130595252 -0.00016468295709647023 0 -0.043661200068743959 -0.00023397549297892156 0 -0.043203348130595252 -0.00016468295709647023 0 -0.0433288881111605 -0.00039359234357044115 0 -0.043661200068743959 -0.00023397549297892156 0 -0.043849012625388414 -0.00024573442306393003 0 -0.043661200068743959 -0.00023397549297892156 0 -0.044127177089029128 -0.00032544113444515145 0 -0.0433288881111605 -0.00039359234357044115 0 -0.043661200068743959 -0.00023397549297892156 0 -0.044127177089029128 -0.00032544113444515145 0 -0.044127177089029128 -0.00032544113444515145 0 -0.04441212501394199 -8.8998483221969888e-05 0 -0.044765243003757185 -7.0076869861342527e-05 0 -0.043910507531854083 -0.00016194947618707617 0 -0.044127177089029128 -0.00032544113444515145 0 -0.04441212501394199 -8.8998483221969888e-05 0 -0.043973929881263654 3.9323772004145563e-05 0 -0.04441212501394199 -8.8998483221969888e-05 0 -0.044903228578536916 4.0902532117541201e-05 0 -0.044903228578536916 4.0902532117541201e-05 0 -0.044999438936554698 1.1185811242454557e-07 0 -0.044999595849765234 3.5042866574753884e-08 0 -0.04441212501394199 -8.8998483221969888e-05 0 -0.044903228578536916 4.0902532117541201e-05 0 -0.044765243003757185 -7.0076869861342527e-05 0 -0.044518227366526983 1.242860354015094e-05 0 -0.044785757811566539 4.8756209008883394e-05 0 -0.045010443911216336 1.7327081166110459e-05 0 -0.044903228578536916 4.0902532117541201e-05 0 -0.044999438936554698 1.1185811242454557e-07 0 -0.044903228578536916 4.0902532117541201e-05 0 -0.044765243003757185 -7.0076869861342527e-05 0 -0.044999595849765234 3.5042866574753884e-08 0 -0.044765243003757185 -7.0076869861342527e-05 0 -0.044999595849765234 3.5042866574753884e-08 0 -0.044995238428814699 -0.00010393617003757778 0 -0.044876069885119517 -0.00041597942246690491 0 -0.044765243003757185 -7.0076869861342527e-05 0 -0.044995238428814699 -0.00010393617003757778 0 -0.044115715551616287 -0.00042350916949360462 0 -0.044070588419989336 -0.00031592446286885493 0 -0.044876069885119517 -0.00041597942246690491 0 -0.044127177089029128 -0.00032544113444515145 0 -0.044765243003757185 -7.0076869861342527e-05 0 -0.044876069885119517 -0.00041597942246690491 0 -0.044995238428814699 -0.00010393617003757778 0 -0.045113678452095594 -0.0001865488507755644 0 -0.044999595849765234 3.5042866574753884e-08 0 -0.044995238428814699 -0.00010393617003757778 0 -0.045000439102318879 -9.1018911063941204e-08 0 -0.044999969763805346 -9.4880613601791472e-08 0 -0.04509060501387286 -0.00013662510440868382 0 -0.044995238428814699 -0.00010393617003757778 0 -0.045000439102318879 -9.1018911063941204e-08 0 -0.045113678452095594 -0.0001865488507755644 0 -0.04509060501387286 -0.00013662510440868382 0 -0.043944525011928248 -7.5902889598391756e-05 0 -0.044785355267784425 -9.7221067136951461e-06 0 -0.044902871078895117 -7.2917364655452163e-05 0 -0.04493793795046136 3.9625795027680077e-05 0 -0.044115715551616287 -0.00042350916949360462 0 -0.043944525011928248 -7.5902889598391756e-05 0 -0.044876069885119517 -0.00041597942246690491 0 -0.045113678452095594 -0.0001865488507755644 0 -0.045072350715162322 -0.0004643965869996801 0 -0.043203348130595252 -0.00016468295709647023 0 -0.0433288881111605 -0.00039359234357044115 0 -0.042967632976400133 -0.00027681188804102951 0 -0.042894429959518622 -9.7305997782687461e-06 0 -0.043203348130595252 -0.00016468295709647023 0 -0.042967632976400133 -0.00027681188804102951 0 -0.043985503530771033 0.000253361800040158 0 -0.043944525011928248 -7.5902889598391756e-05 0 -0.04260279561614027 2.6316883363271379e-05 0 -0.043944525011928248 -7.5902889598391756e-05 0 -0.042894429959518622 -9.7305997782687461e-06 0 -0.042851619138075545 0.0003696789706766407 0 -0.042969216965120335 0.00017293375928370528 0 -0.04330560251257512 0.00031434731533404097 0 -0.042851619138075545 0.0003696789706766407 0 -0.042969216965120335 0.00017293375928370528 0 -0.038307144565656252 0.00074862744897289714 0 -0.038024247966584317 0.00051738842188110094 0 -0.038344802840711581 0.00016927551199943401 0 -0.038024247966584317 0.00051738842188110094 0 -0.037621175882194498 0.00064862391076274677 0 -0.037734278636003198 5.07198981704408e-05 0 -0.038307144565656252 0.00074862744897289714 0 -0.038024247966584317 0.00051738842188110094 0 -0.038105257064132779 0.000961840981581578 0 -0.038077120528123336 0.00094991505485004591 0 -0.037645604716881206 0.00056998765678012257 0 -0.038024247966584317 0.00051738842188110094 0 -0.038105257064132779 0.000961840981581578 0 -0.037621175882194498 0.00064862391076274677 0 -0.038307144565656252 0.00074862744897289714 0 -0.038630283375813063 0.00069222646281750903 0 -0.038344802840711581 0.00016927551199943401 0 -0.03884022408485948 0.00030394686648889618 0 -0.038630283375813063 0.00069222646281750903 0 -0.038981069863911255 0.00057430334881415385 0 -0.03884022408485948 0.00030394686648889618 0 -0.038630283375813063 0.00069222646281750903 0 -0.038344802840711581 0.00016927551199943401 0 -0.038630283375813063 0.00069222646281750903 0 -0.038599451396419002 0.0010663594933742195 0 -0.039158904032344483 0.00089242139712201411 0 -0.038307144565656252 0.00074862744897289714 0 -0.038599451396419002 0.0010663594933742195 0 -0.038105257064132779 0.000961840981581578 0 -0.038307144565656252 0.00074862744897289714 0 -0.038630283375813063 0.00069222646281750903 0 -0.038599451396419002 0.0010663594933742195 0 -0.038599451396419002 0.0010663594933742195 0 -0.038105257064132779 0.000961840981581578 0 -0.038424340239200765 0.0016663597524010534 0 -0.038105257064132779 0.000961840981581578 0 -0.037902078033266937 0.0010110120158070939 0 -0.038424340239200765 0.0016663597524010534 0 -0.038105257064132779 0.000961840981581578 0 -0.037902078033266937 0.0010110120158070939 0 -0.037823015440844418 0.00074613386954626979 0 -0.04176167348326533 2.1346896081489737e-06 0 -0.04134144318809007 -0.00021422324033557573 0 -0.041629726906115369 0.00021108599718419851 0 -0.043593593371445416 -0.00012301415309742833 0 -0.043271619138013778 -5.8410077346496576e-05 0 -0.044997282051107756 -0.00032447845881996781 0 -0.044993183066998149 -0.00019739531524261969 0 -0.045043735715090821 -0.00021410723826024858 0 -0.044997282051107756 -0.00032447845881996781 0 -0.044942249522780073 -0.00035069919968382302 0 -0.044928838389770187 -0.00039741402363713355 0 -0.04176167348326533 2.1346896081489737e-06 0 -0.04134144318809007 -0.00021422324033557573 0 -0.041430184880404446 -0.00040961103199418653 0 -0.037902078033266937 0.0010110120158070939 0 -0.037823015440844418 0.00074613386954626979 0 -0.03759007957415865 0.00051844567816415165 0 -0.039984897210498457 0.00051665665626747016 0 -0.038753230546621109 0.00023417547978601131 0 -0.037621175882194498 0.00064862391076274677 0 -0.037168484334564357 0.00031633531259316311 0 -0.037734278636003198 5.07198981704408e-05 0 -0.037645604716881206 0.00056998765678012257 0 -0.038753230546621109 0.00023417547978601131 0 -0.037338038994163249 -3.9294243692527712e-05 0 -0.036939522449230475 -0.00012674593384674965 0 -0.037451794838390895 -0.00059989023733784106 0 -0.037338038994163249 -3.9294243692527712e-05 0 -0.037451794838390895 -0.00059989023733784106 0 -0.037734278636003198 5.07198981704408e-05 0 -0.037168484334564357 0.00031633531259316311 0 -0.037338038994163249 -3.9294243692527712e-05 0 -0.036939522449230475 -0.00012674593384674965 0 -0.037168484334564357 0.00031633531259316311 0 -0.037338038994163249 -3.9294243692527712e-05 0 -0.037734278636003198 5.07198981704408e-05 0 -0.043593593371445416 -0.00012301415309742833 0 -0.040043017435547723 -0.00060663872595559821 0 -0.038610723137886285 0.00028036180542180073 0 -0.037983874534405999 -0.00053179968297407325 0 -0.037549185711920618 -0.00050088630972713595 0 -0.038753230546621109 0.00023417547978601131 0 -0.040043017435547723 -0.00060663872595559821 0 -0.04134144318809007 -0.00021422324033557573 0 -0.041430184880404446 -0.00040961103199418653 0 -0.041033948313066185 -0.00068573159226528345 0 -0.038753230546621109 0.00023417547978601131 0 -0.03619917831717287 -0.0001916522570511635 0 -0.037168484334564357 0.00031633531259316311 0 -0.036939522449230475 -0.00012674593384674965 0 -0.036757360356107299 -0.00018052458357887982 0 -0.036596622835902738 -0.00010497489053372631 0 -0.03619917831717287 -0.0001916522570511635 0 -0.036939522449230475 -0.00012674593384674965 0 -0.036757475004926661 -0.00018224993415077417 0 -0.036694481020487245 -0.00026216570008985899 0 -0.03619917831717287 -0.0001916522570511635 0 -0.034883914749674137 -0.00062132535563840766 0 -0.037983874534405999 -0.00053179968297407325 0 -0.037763598060777594 -0.00060175580961515686 0 -0.037549185711920618 -0.00050088630972713595 0 -0.03619917831717287 -0.0001916522570511635 0 -0.035825776137705989 -0.00058823753494876803 0 -0.03550306782054484 -0.00052957672047512522 0 -0.035394253499548931 -0.00067005712812272743 0 -0.035260488038525495 -0.00060669279926553097 0 -0.034883914749674137 -0.00062132535563840766 0 -0.035825776137705989 -0.00058823753494876803 0 -0.036939522449230475 -0.00012674593384674965 0 -0.036694481020487245 -0.00026216570008985899 0 -0.037451794838390895 -0.00059989023733784106 0 -0.02960872351081564 -0.0023981839191165553 0 -0.029554522278509146 -0.0023691261103176769 0 -0.029497311882941978 -0.0023853549755839488 0 -0.034883914749674137 -0.00062132535563840766 0 -0.033214927542498635 -0.0014960171778021943 0 -0.02960872351081564 -0.0023981839191165553 0 -0.029554522278509146 -0.0023691261103176769 0 -0.029599690432151684 -0.0023708181720810437 0 -0.02960872351081564 -0.0023981839191165553 0 -0.029614248781363851 -0.0023842868619721263 0 -0.029599690432151684 -0.0023708181720810437 0 -0.02960872351081564 -0.0023981839191165553 0 -0.029619115331592779 -0.0023982805770062206 0 -0.029614248781363851 -0.0023842868619721263 0 -0.029579158244360203 -0.0023523534813417717 0 -0.029554522278509146 -0.0023691261103176769 0 -0.029599690432151684 -0.0023708181720810437 0 -0.029513170739728117 -0.0023377638165975774 0 -0.029554522278509146 -0.0023691261103176769 0 -0.029497311882941978 -0.0023853549755839488 0 -0.03817693056578339 -0.00092106309260992219 0 -0.037451794838390895 -0.00059989023733784106 0 -0.038060170676631012 -0.00038265942991627325 0 -0.037451794838390895 -0.00059989023733784106 0 -0.038060170676631012 -0.00038265942991627325 0 -0.037734278636003198 5.07198981704408e-05 0 -0.033679691328926072 -0.0015717257136628978 0 -0.033214927542498635 -0.0014960171778021943 0 -0.03817693056578339 -0.00092106309260992219 0 -0.038060170676631012 -0.00038265942991627325 0 -0.038501956356229335 -0.00053633273693887975 0 -0.038060170676631012 -0.00038265942991627325 0 -0.037734278636003198 5.07198981704408e-05 0 -0.038344802840711581 0.00016927551199943401 0 -0.038024247966584317 0.00051738842188110094 0 -0.037734278636003198 5.07198981704408e-05 0 -0.038344802840711581 0.00016927551199943401 0 -0.038344802840711581 0.00016927551199943401 0 -0.038501956356229335 -0.00053633273693887975 0 -0.039018407522527755 -0.00033236128981657404 0 -0.03884022408485948 0.00030394686648889618 0 -0.038344802840711581 0.00016927551199943401 0 -0.039018407522527755 -0.00033236128981657404 0 -0.038735514560400516 -0.0010753938116466024 0 -0.038501956356229335 -0.00053633273693887975 0 -0.039018407522527755 -0.00033236128981657404 0 -0.038060170676631012 -0.00038265942991627325 0 -0.038344802840711581 0.00016927551199943401 0 -0.038501956356229335 -0.00053633273693887975 0 -0.039213643509894786 -0.00083579359058775517 0 -0.039058493421211281 -0.00012516745139506345 0 -0.039515205688983 -0.00045772512923642812 0 -0.039058493421211281 -0.00012516745139506345 0 -0.039515205688983 -0.00045772512923642812 0 -0.039874393597867888 7.9931004961476519e-05 0 -0.038760871911744411 -0.00100673367157549 0 -0.039036117913344472 -0.00025320121745886942 0 -0.039213643509894786 -0.00083579359058775517 0 -0.038735514560400516 -0.0010753938116466024 0 -0.039058493421211281 -0.00012516745139506345 0 -0.039683834381515931 -0.00083298400438652407 0 -0.039515205688983 -0.00045772512923642812 0 -0.039943493791324496 -0.00049101171462803315 0 -0.040119499459126989 -0.00079918911250671874 0 -0.039943493791324496 -0.00049101171462803315 0 -0.040486142495138641 -0.00044615203398547677 0 -0.039943493791324496 -0.00049101171462803315 0 -0.039874393597867888 7.9931004961476519e-05 0 -0.040486142495138641 -0.00044615203398547677 0 -0.039515205688983 -0.00045772512923642812 0 -0.039943493791324496 -0.00049101171462803315 0 -0.039874393597867888 7.9931004961476519e-05 0 -0.039874393597867888 7.9931004961476519e-05 0 -0.040054899619294558 0.00065244846172908869 0 -0.039408449753670353 0.00081215441057565674 0 -0.039874393597867888 7.9931004961476519e-05 0 -0.040054899619294558 0.00065244846172908869 0 -0.04051794697418782 0.00047548170899396926 0 -0.03884022408485948 0.00030394686648889618 0 -0.039018407522527755 -0.00033236128981657404 0 -0.039294022360566248 0.00040514419867517106 0 -0.039058493421211281 -0.00012516745139506345 0 -0.039874393597867888 7.9931004961476519e-05 0 -0.039408449753670353 0.00081215441057565674 0 -0.039036117913344472 -0.00025320121745886942 0 -0.039314777483786048 0.00067470659400587418 0 -0.041204883355419525 -0.00082859829291682409 0 -0.041091184746546244 -0.00017692152991285011 0 -0.040486142495138641 -0.00044615203398547677 0 -0.041604751825567887 -0.00045138518201684561 0 -0.041091184746546244 -0.00017692152991285011 0 -0.041474110238307202 6.532761323598301e-05 0 -0.041204883355419525 -0.00082859829291682409 0 -0.041604751825567887 -0.00045138518201684561 0 -0.041091184746546244 -0.00017692152991285011 0 -0.039874393597867888 7.9931004961476519e-05 0 -0.040486142495138641 -0.00044615203398547677 0 -0.040651009724962682 1.5501162203555291e-05 0 -0.041091184746546244 -0.00017692152991285011 0 -0.040486142495138641 -0.00044615203398547677 0 -0.040651009724962682 1.5501162203555291e-05 0 -0.039874393597867888 7.9931004961476519e-05 0 -0.04051794697418782 0.00047548170899396926 0 -0.040651009724962682 1.5501162203555291e-05 0 -0.04051794697418782 0.00047548170899396926 0 -0.04101412015315771 0.0003266736937827174 0 -0.040885768876128652 0.00076745045756751603 0 -0.04051794697418782 0.00047548170899396926 0 -0.040651009724962682 1.5501162203555291e-05 0 -0.04101412015315771 0.0003266736937827174 0 -0.041091184746546244 -0.00017692152991285011 0 -0.040651009724962682 1.5501162203555291e-05 0 -0.04101412015315771 0.0003266736937827174 0 -0.041091184746546244 -0.00017692152991285011 0 -0.04101412015315771 0.0003266736937827174 0 -0.041474110238307202 6.532761323598301e-05 0 -0.04101412015315771 0.0003266736937827174 0 -0.041476317868321858 0.00067704447462832039 0 -0.040885768876128652 0.00076745045756751603 0 -0.04101412015315771 0.0003266736937827174 0 -0.041476317868321858 0.00067704447462832039 0 -0.041474110238307202 6.532761323598301e-05 0 -0.041476317868321858 0.00067704447462832039 0 -0.04083061678366199 0.0013348960018226062 0 -0.040885768876128652 0.00076745045756751603 0 -0.042128093914229996 0.00022471423749702995 0 -0.041711987742227993 0.00064270294766910518 0 -0.042787066113398421 -0.00023283346152096763 0 -0.042877388975074184 -0.00025269862889029817 0 -0.042885031110068368 -0.0002270521868327255 0 -0.042742021713429425 -0.00011186457070710992 0 -0.042787066113398421 -0.00023283346152096763 0 -0.042877388975074184 -0.00025269862889029817 0 -0.04083061678366199 0.0013348960018226062 0 -0.040885768876128652 0.00076745045756751603 0 -0.040421605769019014 0.00096457292489072479 0 -0.04051794697418782 0.00047548170899396926 0 -0.040885768876128652 0.00076745045756751603 0 -0.040421605769019014 0.00096457292489072479 0 -0.040054899619294558 0.00065244846172908869 0 -0.04051794697418782 0.00047548170899396926 0 -0.040421605769019014 0.00096457292489072479 0 -0.040421605769019014 0.00096457292489072479 0 -0.040261884755388513 0.0014227925345432126 0 -0.039979356437168802 0.0011203463714151022 0 -0.04083061678366199 0.0013348960018226062 0 -0.040421605769019014 0.00096457292489072479 0 -0.040261884755388513 0.0014227925345432126 0 -0.042877388975074184 -0.00025269862889029817 0 -0.04288765860643564 -0.0001732642286073381 0 -0.042746934398001327 -0.00014178582267606286 0 -0.04083061678366199 0.0013348960018226062 0 -0.040261884755388513 0.0014227925345432126 0 -0.040224679390792308 0.0019961209828620115 0 -0.041711987742227993 0.00064270294766910518 0 -0.042509831463187792 0.00076517530874700072 0 -0.043004056320214985 -0.00019289619507261715 0 -0.042787066113398421 -0.00023283346152096763 0 -0.042885031110068368 -0.0002270521868327255 0 -0.042877388975074184 -0.00025269862889029817 0 -0.042885031110068368 -0.0002270521868327255 0 -0.04288765860643564 -0.0001732642286073381 0 -0.043004056320214985 -0.00019289619507261715 0 -0.042885031110068368 -0.0002270521868327255 0 -0.04288765860643564 -0.0001732642286073381 0 -0.039294022360566248 0.00040514419867517106 0 -0.039551528770875199 0.0011154001468060858 0 -0.039158904032344483 0.00089242139712201411 0 -0.038981069863911255 0.00057430334881415385 0 -0.039294022360566248 0.00040514419867517106 0 -0.039158904032344483 0.00089242139712201411 0 -0.038630283375813063 0.00069222646281750903 0 -0.038981069863911255 0.00057430334881415385 0 -0.039158904032344483 0.00089242139712201411 0 -0.03884022408485948 0.00030394686648889618 0 -0.038981069863911255 0.00057430334881415385 0 -0.039294022360566248 0.00040514419867517106 0 -0.039314777483786048 0.00067470659400587418 0 -0.04022691492635886 0.0009756502933053313 0 -0.040054899619294558 0.00065244846172908869 0 -0.039408449753670353 0.00081215441057565674 0 -0.039979356437168802 0.0011203463714151022 0 -0.039408449753670353 0.00081215441057565674 0 -0.039979356437168802 0.0011203463714151022 0 -0.039754407306466573 0.0017350656991513206 0 -0.040054899619294558 0.00065244846172908869 0 -0.040421605769019014 0.00096457292489072479 0 -0.039979356437168802 0.0011203463714151022 0 -0.040261884755388513 0.0014227925345432126 0 -0.039979356437168802 0.0011203463714151022 0 -0.039754407306466573 0.0017350656991513206 0 -0.042509831463187792 0.00076517530874700072 0 -0.04022691492635886 0.0009756502933053313 0 -0.040261884755388513 0.0014227925345432126 0 -0.040224679390792308 0.0019961209828620115 0 -0.039754407306466573 0.0017350656991513206 0 -0.042067381162940232 0.0009082524285668462 0 -0.0415221925060799 0.00059865882620890062 0 -0.041755617898467746 0.0012537026857136573 0 -0.04022691492635886 0.0009756502933053313 0 -0.042798945975032553 0.00093109757574245575 0 -0.038599451396419002 0.0010663594933742195 0 -0.039158904032344483 0.00089242139712201411 0 -0.038981944130930146 0.001417056770150241 0 -0.039158904032344483 0.00089242139712201411 0 -0.038981944130930146 0.001417056770150241 0 -0.039375941772528296 0.0013785353467218196 0 -0.039561615390832659 0.0011034312671611322 0 -0.039158904032344483 0.00089242139712201411 0 -0.039375941772528296 0.0013785353467218196 0 -0.04022691492635886 0.0009756502933053313 0 -0.03916372861168041 0.00079523583080500805 0 -0.038981944130930146 0.001417056770150241 0 -0.039350632246757271 0.0019303643168146695 0 -0.038424340239200765 0.0016663597524010534 0 -0.038981944130930146 0.001417056770150241 0 -0.039375941772528296 0.0013785353467218196 0 -0.039350632246757271 0.0019303643168146695 0 -0.039561615390832659 0.0011034312671611322 0 -0.039375941772528296 0.0013785353467218196 0 -0.039719437670089945 0.0015262565947036146 0 -0.044792754151937036 0.000568661815841709 0 -0.04486656078029385 0.00048988121262692546 0 -0.044834101761666002 0.00034998587556930876 0 -0.039375941772528296 0.0013785353467218196 0 -0.039719437670089945 0.0015262565947036146 0 -0.039350632246757271 0.0019303643168146695 0 -0.042509831463187792 0.00076517530874700072 0 -0.042798945975032553 0.00093109757574245575 0 -0.042798945975032553 0.00093109757574245575 0 -0.044411707685590246 0.00058325999556523033 0 -0.044867452068794875 0.00049531551454163247 0 -0.044834101761666002 0.00034998587556930876 0 -0.045006159282112351 0.0003408107088511955 0 -0.042798945975032553 0.00093109757574245575 0 -0.042053198638505762 0.0012772862546889287 0 -0.044874915932315546 0.00023926388319006788 0 -0.045006159282112351 0.0003408107088511955 0 -0.044966409384987034 0.00014999627045557325 0 -0.044834101761666002 0.00034998587556930876 0 -0.044874915932315546 0.00023926388319006788 0 -0.045006159282112351 0.0003408107088511955 0 -0.042053198638505762 0.0012772862546889287 0 -0.042575924207488167 0.00071543474572507905 0 -0.039350632246757271 0.0019303643168146695 0 -0.03899369421824133 0.0023313725644434984 0 -0.038424340239200765 0.0016663597524010534 0 -0.045006159282112351 0.0003408107088511955 0 -0.045121700364795507 0.00019554979968027544 0 -0.044966409384987034 0.00014999627045557325 0 -0.043004056320214985 -0.00019289619507261715 0 -0.04288765860643564 -0.0001732642286073381 0 -0.042976038508303213 -3.5180643712233641e-05 0 -0.042509831463187792 0.00076517530874700072 0 -0.043999272653522832 0.00014465611614473224 0 -0.044792754151937036 0.000568661815841709 0 -0.044834101761666002 0.00034998587556930876 0 -0.044689771593125871 0.00032718305639308236 0 -0.04288765860643564 -0.0001732642286073381 0 -0.042746934398001327 -0.00014178582267606286 0 -0.042976038508303213 -3.5180643712233641e-05 0 -0.044792754151937036 0.000568661815841709 0 -0.04451664598452014 0.00040194004166300317 0 -0.044689771593125871 0.00032718305639308236 0 -0.044834101761666002 0.00034998587556930876 0 -0.044874915932315546 0.00023926388319006788 0 -0.044689771593125871 0.00032718305639308236 0 -0.044874915932315546 0.00023926388319006788 0 -0.044689771593125871 0.00032718305639308236 0 -0.04474870757741712 0.00016059671530544643 0 -0.044689771593125871 0.00032718305639308236 0 -0.044585769495808739 0.00021962907917689504 0 -0.04474870757741712 0.00016059671530544643 0 -0.044418719210648321 0.00017798986582939861 0 -0.04451664598452014 0.00040194004166300317 0 -0.044585769495808739 0.00021962907917689504 0 -0.04451664598452014 0.00040194004166300317 0 -0.044689771593125871 0.00032718305639308236 0 -0.044585769495808739 0.00021962907917689504 0 -0.044418719210648321 0.00017798986582939861 0 -0.044585769495808739 0.00021962907917689504 0 -0.044557454752213274 1.6015233439053449e-05 0 -0.044585769495808739 0.00021962907917689504 0 -0.044557454752213274 1.6015233439053449e-05 0 -0.04474870757741712 0.00016059671530544643 0 -0.044764761360219861 7.6204855837210733e-06 0 -0.044939377177642639 9.2847192535742931e-06 0 -0.044557454752213274 1.6015233439053449e-05 0 -0.04474870757741712 0.00016059671530544643 0 -0.044942183857198253 1.2365933343933949e-05 0 -0.044999964304495384 2.1423780892456929e-08 0 -0.044942183857198253 1.2365933343933949e-05 0 -0.044977320422636843 1.7719619554573896e-06 0 -0.044999349308060814 -5.5271762568726867e-06 0 -0.044999964304495384 2.1423780892456929e-08 0 -0.044942183857198253 1.2365933343933949e-05 0 -0.044999968227995221 -4.0054339526958531e-09 0 -0.044999349308060814 -5.5271762568726867e-06 0 -0.044999964304495384 2.1423780892456929e-08 0 -0.045121700364795507 0.00019554979968027544 0 -0.044966409384987034 0.00014999627045557325 0 -0.044998336809318591 1.4374895976773511e-05 0 -0.044990693336378562 1.1447705237413993e-05 0 -0.04497824848290348 1.6535870640296359e-05 0 -0.044998336809318591 1.4374895976773511e-05 0 -0.042575924207488167 0.00071543474572507905 0 -0.045479110565969129 0.00015777123949993759 0 -0.044874915932315546 0.00023926388319006788 0 -0.044966409384987034 0.00014999627045557325 0 -0.044886434215063935 0.00014060035497809355 0 -0.044874915932315546 0.00023926388319006788 0 -0.04474870757741712 0.00016059671530544643 0 -0.044886434215063935 0.00014060035497809355 0 -0.044966409384987034 0.00014999627045557325 0 -0.044886434215063935 0.00014060035497809355 0 -0.044942183857198253 1.2365933343933949e-05 0 -0.04474870757741712 0.00016059671530544643 0 -0.044886434215063935 0.00014060035497809355 0 -0.044942183857198253 1.2365933343933949e-05 0 -0.044966409384987034 0.00014999627045557325 0 -0.044942183857198253 1.2365933343933949e-05 0 -0.044998336809318591 1.4374895976773511e-05 0 -0.044942183857198253 1.2365933343933949e-05 0 -0.044977320422636843 1.7719619554573896e-06 0 -0.044998336809318591 1.4374895976773511e-05 0 -0.044999964304495384 2.1423780892456929e-08 0 -0.044977320422636843 1.7719619554573896e-06 0 -0.044999937290047282 -8.8513154993147429e-10 0 -0.044977320422636843 1.7719619554573896e-06 0 -0.044999937290047282 -8.8513154993147429e-10 0 -0.044998336809318591 1.4374895976773511e-05 0 -0.044999937290047282 -8.8513154993147429e-10 0 -0.044997336944894113 5.0131715277037754e-06 0 -0.045000047413864583 -8.6053495468798761e-09 0 -0.044999937290047282 -8.8513154993147429e-10 0 -0.044998336809318591 1.4374895976773511e-05 0 -0.044997336944894113 5.0131715277037754e-06 0 -0.044990693336378562 1.1447705237413993e-05 0 -0.044998336809318591 1.4374895976773511e-05 0 -0.044997336944894113 5.0131715277037754e-06 0 -0.044997336944894113 5.0131715277037754e-06 0 -0.044997411349133092 1.9955115055794344e-06 0 -0.045000047413864583 -8.6053495468798761e-09 0 -0.044997411349133092 1.9955115055794344e-06 0 -0.045000047413864583 -8.6053495468798761e-09 0 -0.045015352860352457 -1.0224573055643224e-05 0 -0.044997411349133092 1.9955115055794344e-06 0 -0.045015352860352457 -1.0224573055643224e-05 0 -0.045002336128189824 6.8522167916591727e-06 0 -0.044788251012477402 0.00018774514666751305 0 -0.044091874405130224 0.00010718231181264507 0 -0.044906723150403817 -0.00022334531476725657 0 -0.044091874405130224 0.00010718231181264507 0 -0.044990693336378562 1.1447705237413993e-05 0 -0.044997411349133092 1.9955115055794344e-06 0 -0.044991991419742708 1.132878537115124e-05 0 -0.044990693336378562 1.1447705237413993e-05 0 -0.044997336944894113 5.0131715277037754e-06 0 -0.044997411349133092 1.9955115055794344e-06 0 -0.045000047413864583 -8.6053495468798761e-09 0 -0.045015352860352457 -1.0224573055643224e-05 0 -0.045000031549748416 -2.7895085188564873e-08 0 -0.045015352860352457 -1.0224573055643224e-05 0 -0.045029223378964624 -4.9812037350678191e-05 0 -0.045046702120618856 -3.5538273055852076e-05 0 -0.045029223378964624 -4.9812037350678191e-05 0 -0.04504948055134303 -0.00011249372369209053 0 -0.045018416972799499 -5.5730807110239852e-05 0 -0.044091874405130224 0.00010718231181264507 0 -0.043422027507588515 0.00029293791769929438 0 -0.045015352860352457 -1.0224573055643224e-05 0 -0.045029223378964624 -4.9812037350678191e-05 0 -0.045018416972799499 -5.5730807110239852e-05 0 -0.045029223378964624 -4.9812037350678191e-05 0 -0.045046702120618856 -3.5538273055852076e-05 0 -0.04504948055134303 -0.00011249372369209053 0 -0.042340956862530324 0.00071055074204796789 0 -0.042128304822160074 0.00095185802521031602 0 -0.041889855647351128 0.00059175603331268673 0 -0.042575924207488167 0.00071543474572507905 0 -0.044091874405130224 0.00010718231181264507 0 -0.044990693336378562 1.1447705237413993e-05 0 -0.04497824848290348 1.6535870640296359e-05 0 -0.044991991419742708 1.132878537115124e-05 0 -0.042575924207488167 0.00071543474572507905 0 -0.039964384058099482 0.0010622440704563035 0 -0.042340956862530324 0.00071055074204796789 0 -0.041889855647351128 0.00059175603331268673 0 -0.042059894231693359 0.00037065955367174817 0 -0.04176167348326533 2.1346896081489737e-06 0 -0.042059894231693359 0.00037065955367174817 0 -0.041629726906115369 0.00021108599718419851 0 -0.039984897210498457 0.00051665665626747016 0 -0.039964384058099482 0.0010622440704563035 0 -0.041889855647351128 0.00059175603331268673 0 -0.042059894231693359 0.00037065955367174817 0 -0.041629726906115369 0.00021108599718419851 0 -0.038599451396419002 0.0010663594933742195 0 -0.038981944130930146 0.001417056770150241 0 -0.038424340239200765 0.0016663597524010534 0 -0.044993183066998149 -0.00019739531524261969 0 -0.045043735715090821 -0.00021410723826024858 0 -0.045023624426100091 -0.00013669219597340672 0 -0.04504948055134303 -0.00011249372369209053 0 -0.045043735715090821 -0.00021410723826024858 0 -0.045023624426100091 -0.00013669219597340672 0 -0.043422027507588515 0.00029293791769929438 0 -0.043271619138013778 -5.8410077346496576e-05 0 -0.04504948055134303 -0.00011249372369209053 0 -0.045023624426100091 -0.00013669219597340672 0 -0.045018416972799499 -5.5730807110239852e-05 0 -0.044993183066998149 -0.00019739531524261969 0 -0.045023624426100091 -0.00013669219597340672 0 -0.045001714288339288 -8.2809921807788792e-05 0 -0.045023624426100091 -0.00013669219597340672 0 -0.045001714288339288 -8.2809921807788792e-05 0 -0.045018416972799499 -5.5730807110239852e-05 0 -0.045001714288339288 -8.2809921807788792e-05 0 -0.045018416972799499 -5.5730807110239852e-05 0 -0.045000031549748416 -2.7895085188564873e-08 0 -0.045015352860352457 -1.0224573055643224e-05 0 -0.045018416972799499 -5.5730807110239852e-05 0 -0.045000031549748416 -2.7895085188564873e-08 0 -0.045001714288339288 -8.2809921807788792e-05 0 -0.045000031549748416 -2.7895085188564873e-08 0 -0.044999989097526394 -4.2230577082074082e-08 0 -0.044999989097526394 -4.2230577082074082e-08 0 -0.044977812180584067 -7.2533909755935141e-05 0 -0.044999956083403819 -4.1464473853134908e-08 0 -0.045001714288339288 -8.2809921807788792e-05 0 -0.044999989097526394 -4.2230577082074082e-08 0 -0.044977812180584067 -7.2533909755935141e-05 0 -0.045001714288339288 -8.2809921807788792e-05 0 -0.044977812180584067 -7.2533909755935141e-05 0 -0.044955783461928564 -0.00017474170799006852 0 -0.044999956083403819 -4.1464473853134908e-08 0 -0.044960191675157864 -7.3267281953325123e-05 0 -0.044999945854230193 -7.397539263009094e-08 0 -0.044977812180584067 -7.2533909755935141e-05 0 -0.044999956083403819 -4.1464473853134908e-08 0 -0.044960191675157864 -7.3267281953325123e-05 0 -0.044977812180584067 -7.2533909755935141e-05 0 -0.044960191675157864 -7.3267281953325123e-05 0 -0.044911237101671872 -0.00016958926912853699 0 -0.044960191675157864 -7.3267281953325123e-05 0 -0.044911237101671872 -0.00016958926912853699 0 -0.044901677498956884 -0.00016447942213679761 0 -0.044911237101671872 -0.00016958926912853699 0 -0.044835398741860606 -0.00024299403291413229 0 -0.044901677498956884 -0.00016447942213679761 0 -0.044911237101671872 -0.00016958926912853699 0 -0.044955783461928564 -0.00017474170799006852 0 -0.044887557423836981 -0.00028093536238500146 0 -0.044911237101671872 -0.00016958926912853699 0 -0.044835398741860606 -0.00024299403291413229 0 -0.044887557423836981 -0.00028093536238500146 0 -0.044835398741860606 -0.00024299403291413229 0 -0.044887557423836981 -0.00028093536238500146 0 -0.044788342129254047 -0.0003285430362401812 0 -0.044835398741860606 -0.00024299403291413229 0 -0.044788342129254047 -0.0003285430362401812 0 -0.044747895989535678 -0.0003028810595253262 0 -0.044993183066998149 -0.00019739531524261969 0 -0.045001714288339288 -8.2809921807788792e-05 0 -0.044955783461928564 -0.00017474170799006852 0 -0.044977812180584067 -7.2533909755935141e-05 0 -0.044911237101671872 -0.00016958926912853699 0 -0.044955783461928564 -0.00017474170799006852 0 -0.044955783461928564 -0.00017474170799006852 0 -0.044947521830286594 -0.00028071247561240408 0 -0.044887557423836981 -0.00028093536238500146 0 -0.044993183066998149 -0.00019739531524261969 0 -0.044955783461928564 -0.00017474170799006852 0 -0.044947521830286594 -0.00028071247561240408 0 -0.044997282051107756 -0.00032447845881996781 0 -0.044993183066998149 -0.00019739531524261969 0 -0.044947521830286594 -0.00028071247561240408 0 -0.044997282051107756 -0.00032447845881996781 0 -0.044947521830286594 -0.00028071247561240408 0 -0.044942249522780073 -0.00035069919968382302 0 -0.044942249522780073 -0.00035069919968382302 0 -0.04490928575096962 -0.00034698862495620523 0 -0.044911254454804608 -0.00038004467997594432 0 -0.044947521830286594 -0.00028071247561240408 0 -0.044942249522780073 -0.00035069919968382302 0 -0.04490928575096962 -0.00034698862495620523 0 -0.044947521830286594 -0.00028071247561240408 0 -0.04490928575096962 -0.00034698862495620523 0 -0.044887557423836981 -0.00028093536238500146 0 -0.04490928575096962 -0.00034698862495620523 0 -0.044887557423836981 -0.00028093536238500146 0 -0.044859016527407654 -0.00042645831478556573 0 -0.044788342129254047 -0.0003285430362401812 0 -0.044859016527407654 -0.00042645831478556573 0 -0.044543449187596056 -0.00049090705439042896 0 -0.044887557423836981 -0.00028093536238500146 0 -0.044788342129254047 -0.0003285430362401812 0 -0.044859016527407654 -0.00042645831478556573 0 -0.044300972864329068 -0.00047310574490747005 0 -0.044574064292111359 -0.00051780347506119508 0 -0.044304670629497861 -0.00051590218728438271 0 -0.04410573731696471 -0.00065567948114140693 0 -0.044543449187596056 -0.00049090705439042896 0 -0.04490928575096962 -0.00034698862495620523 0 -0.044859016527407654 -0.00042645831478556573 0 -0.044911254454804608 -0.00038004467997594432 0 -0.044300972864329068 -0.00047310574490747005 0 -0.045025571022151191 -0.0006544078463528967 0 -0.04410573731696471 -0.00065567948114140693 0 -0.043907470685445704 -0.00043468485697247851 0 -0.044142782014610936 -0.00043765463931344105 0 -0.04410573731696471 -0.00065567948114140693 0 -0.043907470685445704 -0.00043468485697247851 0 -0.043640988008634266 -0.00063161941966727861 0 -0.044304670629497861 -0.00051590218728438271 0 -0.04410573731696471 -0.00065567948114140693 0 -0.044142782014610936 -0.00043765463931344105 0 -0.044304670629497861 -0.00051590218728438271 0 -0.044142782014610936 -0.00043765463931344105 0 -0.044241086178560846 -0.00038758893012873344 0 -0.04404230168250807 -0.00023470589433131632 0 -0.044241086178560846 -0.00038758893012873344 0 -0.044221815600179244 -0.0002968431070644635 0 -0.044142782014610936 -0.00043765463931344105 0 -0.04404230168250807 -0.00023470589433131632 0 -0.044241086178560846 -0.00038758893012873344 0 -0.043907470685445704 -0.00043468485697247851 0 -0.04404230168250807 -0.00023470589433131632 0 -0.043654614648274893 -0.00022579434530522032 0 -0.043907470685445704 -0.00043468485697247851 0 -0.044142782014610936 -0.00043765463931344105 0 -0.04404230168250807 -0.00023470589433131632 0 -0.036465344424532961 -0.002059272547518949 0 -0.03617485778363802 -0.0019974800213886364 0 -0.036051636855870491 -0.0021230883556853405 0 -0.040369763936218106 -0.0010848998024235005 0 -0.040453440660428386 -0.0010393934953317092 0 -0.03617485778363802 -0.0019974800213886364 0 -0.036051636855870491 -0.0021230883556853405 0 -0.035977415114300394 -0.00203108995927943 0 -0.043907470685445704 -0.00043468485697247851 0 -0.043654614648274893 -0.00022579434530522032 0 -0.043452701728597234 -0.00041691381854327384 0 -0.036051636855870491 -0.0021230883556853405 0 -0.035977415114300394 -0.00203108995927943 0 -0.035787985212708116 -0.0021696979826699779 0 -0.043654614648274893 -0.00022579434530522032 0 -0.043116140393125529 -0.00034124061337647703 0 -0.043452701728597234 -0.00041691381854327384 0 -0.029565319943284565 -0.0020397275898214702 0 -0.030128972358104546 -0.0017001988529931828 0 -0.029561693296994089 -0.0023151492493292862 0 -0.029599690432151684 -0.0023708181720810437 0 -0.029635347767434522 -0.0023882843533963201 0 -0.029593881966129439 -0.0023467834191093231 0 -0.029635347767434522 -0.0023882843533963201 0 -0.029561693296994089 -0.0023151492493292862 0 -0.029593881966129439 -0.0023467834191093231 0 -0.030128972358104546 -0.0017001988529931828 0 -0.030185643672753733 -0.0016708305739514052 0 -0.029561693296994089 -0.0023151492493292862 0 -0.033048159547151186 -0.0018007295291244214 0 -0.036113519377510804 -0.0016628275895029421 0 -0.040453440660428386 -0.0010393934953317092 0 -0.036113519377510804 -0.0016628275895029421 0 -0.035335486796461743 -0.0019749063467846568 0 -0.027812510157777682 -0.0026881844417638054 0 -0.029579158244360203 -0.0023523534813417717 0 -0.029599690432151684 -0.0023708181720810437 0 -0.029593881966129439 -0.0023467834191093231 0 -0.029614248781363851 -0.0023842868619721263 0 -0.029599690432151684 -0.0023708181720810437 0 -0.029635347767434522 -0.0023882843533963201 0 -0.036113519377510804 -0.0016628275895029421 0 -0.035335486796461743 -0.0019749063467846568 0 -0.029619115331592779 -0.0023982805770062206 0 -0.029614248781363851 -0.0023842868619721263 0 -0.029635347767434522 -0.0023882843533963201 0 -0.040043017435547723 -0.00060663872595559821 0 -0.045025571022151191 -0.0006544078463528967 0 -0.043035544748156712 -0.00044782200903573983 0 -0.043640988008634266 -0.00063161941966727861 0 -0.043452701728597234 -0.00041691381854327384 0 -0.043116140393125529 -0.00034124061337647703 0 -0.043035544748156712 -0.00044782200903573983 0 -0.043452701728597234 -0.00041691381854327384 0 -0.044942249522780073 -0.00035069919968382302 0 -0.044928838389770187 -0.00039741402363713355 0 -0.044911254454804608 -0.00038004467997594432 0 -0.035825776137705989 -0.00058823753494876803 0 -0.035335486796461743 -0.0019749063467846568 0 -0.037209331208919588 -0.00042849856558980614 0 -0.038241129395627418 -0.00027083682952408749 0 -0.037945852251656517 -0.0007760525637769051 0 -0.035825776137705989 -0.00058823753494876803 0 -0.040043017435547723 -0.00060663872595559821 0 -0.035335486796461743 -0.0019749063467846568 0 -0.040043017435547723 -0.00060663872595559821 0 -0.043116140393125529 -0.00034124061337647703 0 -0.043073155624248717 -0.00037615867369329524 0 -0.043035544748156712 -0.00044782200903573983 0 -0.043907470685445704 -0.00043468485697247851 0 -0.043640988008634266 -0.00063161941966727861 0 -0.043452701728597234 -0.00041691381854327384 0 -0.044378389879596414 -0.00045663955334021675 0 -0.044335878394928148 -0.00045748318481073178 0 -0.044360488036095526 -0.00050155166251378898 0 -0.044409555181057062 -0.00046738049142181149 0 -0.044378389879596414 -0.00045663955334021675 0 -0.044360488036095526 -0.00050155166251378898 0 -0.044337944204594477 -0.00058174576804478093 0 -0.044581249122498313 -0.00059880647197773165 0 -0.044626583197200038 -0.00087818032834226711 0 -0.044775197673505317 -0.00070037360391311126 0 -0.044637855450428747 -0.00072079974694750834 0 -0.044559402118214395 -0.00078749436589329973 0 -0.044626583197200038 -0.00087818032834226711 0 -0.044637855450428747 -0.00072079974694750834 0 -0.044559402118214395 -0.00078749436589329973 0 -0.044562218061110749 -0.00089083072432345474 0 -0.044445187735723216 -0.00076826171783015654 0 -0.043943961756558646 -0.00073399888762558526 0 -0.04351547402311489 -0.0003693367714641056 0 -0.044595610247903386 -0.00087137012001585132 0 -0.044337944204594477 -0.00058174576804478093 0 -0.04308481102170475 -0.00057594141098258093 0 -0.043381729582770638 -0.00059225104348686896 0 -0.042800740491025335 -0.00032708043452509016 0 -0.044559402118214395 -0.00078749436589329973 0 -0.044602033441928084 -0.00085105012689135084 0 -0.044562218061110749 -0.00089083072432345474 0 -0.044337944204594477 -0.00058174576804478093 0 -0.043943961756558646 -0.00073399888762558526 0 -0.044012737199603892 -0.00021712798450215684 0 -0.043599910901964259 -0.0006159127857574767 0 -0.043866510647927535 -0.00101520665047528 0 -0.043943961756558646 -0.00073399888762558526 0 -0.043881688615771589 -0.00079132464944401011 0 -0.04308481102170475 -0.00057594141098258093 0 -0.043291917249225632 -0.00078730036688355023 0 -0.042873079227202633 -0.00065089194879886566 0 -0.04308481102170475 -0.00057594141098258093 0 -0.043381729582770638 -0.00059225104348686896 0 -0.043291917249225632 -0.00078730036688355023 0 -0.043549437157011678 -0.00053992008586565643 0 -0.043291917249225632 -0.00078730036688355023 0 -0.043866510647927535 -0.00101520665047528 0 -0.043943961756558646 -0.00073399888762558526 0 -0.043728959492462374 -0.0008372084049824885 0 -0.043291917249225632 -0.00078730036688355023 0 -0.043484792129241966 -0.0013448583763893654 0 -0.042962300253743278 -0.0011665923082762515 0 -0.043291917249225632 -0.00078730036688355023 0 -0.043484792129241966 -0.0013448583763893654 0 -0.043866510647927535 -0.00101520665047528 0 -0.043484792129241966 -0.0013448583763893654 0 -0.043866510647927535 -0.00101520665047528 0 -0.044017507544564606 -0.0017274785434854313 0 -0.043866510647927535 -0.00101520665047528 0 -0.044718969283480986 -0.0012798630076845297 0 -0.044017507544564606 -0.0017274785434854313 0 -0.044409555181057062 -0.00046738049142181149 0 -0.044378389879596414 -0.00045663955334021675 0 -0.044411038459275048 -0.00041772435081640502 0 -0.044012737199603892 -0.00021712798450215684 0 -0.043866510647927535 -0.00101520665047528 0 -0.044718969283480986 -0.0012798630076845297 0 -0.044337944204594477 -0.00058174576804478093 0 -0.044823010300780466 -0.00093351285965866549 0 -0.044378389879596414 -0.00045663955334021675 0 -0.044318726046671836 -0.00042855313660739345 0 -0.044335878394928148 -0.00045748318481073178 0 -0.044378389879596414 -0.00045663955334021675 0 -0.044411038459275048 -0.00041772435081640502 0 -0.044318726046671836 -0.00042855313660739345 0 -0.044411038459275048 -0.00041772435081640502 0 -0.044253216061224697 -0.00037338529368106038 0 -0.044318726046671836 -0.00042855313660739345 0 -0.044253216061224697 -0.00037338529368106038 0 -0.044282957391571599 -0.00039647341546345021 0 -0.044318726046671836 -0.00042855313660739345 0 -0.044253216061224697 -0.00037338529368106038 0 -0.044282957391571599 -0.00039647341546345021 0 -0.044221815600179244 -0.0002968431070644635 0 -0.044282957391571599 -0.00039647341546345021 0 -0.044318726046671836 -0.00042855313660739345 0 -0.044335878394928148 -0.00045748318481073178 0 -0.044282957391571599 -0.00039647341546345021 0 -0.044241086178560846 -0.00038758893012873344 0 -0.044221815600179244 -0.0002968431070644635 0 -0.044282957391571599 -0.00039647341546345021 0 -0.044241086178560846 -0.00038758893012873344 0 -0.044333876876496335 -0.00047127831602077931 0 -0.044304670629497861 -0.00051590218728438271 0 -0.044241086178560846 -0.00038758893012873344 0 -0.044333876876496335 -0.00047127831602077931 0 -0.044304670629497861 -0.00051590218728438271 0 -0.044333876876496335 -0.00047127831602077931 0 -0.044381088659204211 -0.00051940874051222051 0 -0.044333876876496335 -0.00047127831602077931 0 -0.044335878394928148 -0.00045748318481073178 0 -0.044360488036095526 -0.00050155166251378898 0 -0.044282957391571599 -0.00039647341546345021 0 -0.044333876876496335 -0.00047127831602077931 0 -0.044335878394928148 -0.00045748318481073178 0 -0.044871943333267252 -0.00047121125712634287 0 -0.044770328635518004 -0.00047555628993342967 0 -0.044775197673505317 -0.00070037360391311126 0 -0.044333876876496335 -0.00047127831602077931 0 -0.044381088659204211 -0.00051940874051222051 0 -0.044360488036095526 -0.00050155166251378898 0 -0.044381088659204211 -0.00051940874051222051 0 -0.044366479825098351 -0.000492037603380515 0 -0.044360488036095526 -0.00050155166251378898 0 -0.044613556534232962 -0.00048746321811281925 0 -0.044581249122498313 -0.00059880647197773165 0 -0.044304670629497861 -0.00051590218728438271 0 -0.044381088659204211 -0.00051940874051222051 0 -0.044543449187596056 -0.00049090705439042896 0 -0.044381088659204211 -0.00051940874051222051 0 -0.044543449187596056 -0.00049090705439042896 0 -0.044366479825098351 -0.000492037603380515 0 -0.044543449187596056 -0.00049090705439042896 0 -0.044366479825098351 -0.000492037603380515 0 -0.044747895989535678 -0.0003028810595253262 0 -0.044613556534232962 -0.00048746321811281925 0 -0.044725209455470046 -0.00033836438622130999 0 -0.044871943333267252 -0.00047121125712634287 0 -0.044832239893719927 -0.00036094556947399405 0 -0.044747895989535678 -0.0003028810595253262 0 -0.044788342129254047 -0.0003285430362401812 0 -0.044543449187596056 -0.00049090705439042896 0 -0.044747895989535678 -0.0003028810595253262 0 -0.044871943333267252 -0.00047121125712634287 0 -0.044826777633747504 -0.00041189066598770215 0 -0.044770328635518004 -0.00047555628993342967 0 -0.044871943333267252 -0.00047121125712634287 0 -0.044832239893719927 -0.00036094556947399405 0 -0.044826777633747504 -0.00041189066598770215 0 -0.044826777633747504 -0.00041189066598770215 0 -0.044770328635518004 -0.00047555628993342967 0 -0.044828548180303809 -0.00033265415957510632 0 -0.044770328635518004 -0.00047555628993342967 0 -0.044640755300549916 -0.00051528639665854509 0 -0.044755483573408708 -0.00037241453371202434 0 -0.044679361882209043 -0.00058819031091103069 0 -0.044770328635518004 -0.00047555628993342967 0 -0.044640755300549916 -0.00051528639665854509 0 -0.044679361882209043 -0.00058819031091103069 0 -0.044770328635518004 -0.00047555628993342967 0 -0.044775197673505317 -0.00070037360391311126 0 -0.044679361882209043 -0.00058819031091103069 0 -0.044775197673505317 -0.00070037360391311126 0 -0.044637855450428747 -0.00072079974694750834 0 -0.044559402118214395 -0.00078749436589329973 0 -0.044559786822597952 -0.00066102436946119825 0 -0.044445187735723216 -0.00076826171783015654 0 -0.044559402118214395 -0.00078749436589329973 0 -0.044637855450428747 -0.00072079974694750834 0 -0.044559786822597952 -0.00066102436946119825 0 -0.044679361882209043 -0.00058819031091103069 0 -0.044637855450428747 -0.00072079974694750834 0 -0.044559786822597952 -0.00066102436946119825 0 -0.044559786822597952 -0.00066102436946119825 0 -0.044640755300549916 -0.00051528639665854509 0 -0.044493162305372709 -0.00058024738400902899 0 -0.044679361882209043 -0.00058819031091103069 0 -0.044559786822597952 -0.00066102436946119825 0 -0.044640755300549916 -0.00051528639665854509 0 -0.044640755300549916 -0.00051528639665854509 0 -0.044661702269465163 -0.00036132345698445802 0 -0.044755483573408708 -0.00037241453371202434 0 -0.044640755300549916 -0.00051528639665854509 0 -0.044661702269465163 -0.00036132345698445802 0 -0.044493162305372709 -0.00058024738400902899 0 -0.044661702269465163 -0.00036132345698445802 0 -0.044755483573408708 -0.00037241453371202434 0 -0.044821443179413403 -0.00023622252972876578 0 -0.044770328635518004 -0.00047555628993342967 0 -0.044755483573408708 -0.00037241453371202434 0 -0.044828548180303809 -0.00033265415957510632 0 -0.044755483573408708 -0.00037241453371202434 0 -0.044821443179413403 -0.00023622252972876578 0 -0.044828548180303809 -0.00033265415957510632 0 -0.044661702269465163 -0.00036132345698445802 0 -0.044821443179413403 -0.00023622252972876578 0 -0.044838394845765274 -0.00010777931746306549 0 -0.044661702269465163 -0.00036132345698445802 0 -0.044838394845765274 -0.00010777931746306549 0 -0.044449108267176539 -0.00030936354087461723 0 -0.044835398741860606 -0.00024299403291413229 0 -0.044747895989535678 -0.0003028810595253262 0 -0.044839950930809523 -0.00027942148542382101 0 -0.044832239893719927 -0.00036094556947399405 0 -0.044747895989535678 -0.0003028810595253262 0 -0.044839950930809523 -0.00027942148542382101 0 -0.044839950930809523 -0.00027942148542382101 0 -0.044828548180303809 -0.00033265415957510632 0 -0.04486433569322254 -0.00022744256344751874 0 -0.044832239893719927 -0.00036094556947399405 0 -0.044839950930809523 -0.00027942148542382101 0 -0.044828548180303809 -0.00033265415957510632 0 -0.044832239893719927 -0.00036094556947399405 0 -0.044826777633747504 -0.00041189066598770215 0 -0.044828548180303809 -0.00033265415957510632 0 -0.044821443179413403 -0.00023622252972876578 0 -0.044828548180303809 -0.00033265415957510632 0 -0.04486433569322254 -0.00022744256344751874 0 -0.044821443179413403 -0.00023622252972876578 0 -0.04486433569322254 -0.00022744256344751874 0 -0.044907899219877853 -0.00012111042166917849 0 -0.04486433569322254 -0.00022744256344751874 0 -0.044901677498956884 -0.00016447942213679761 0 -0.044907899219877853 -0.00012111042166917849 0 -0.044835398741860606 -0.00024299403291413229 0 -0.044839950930809523 -0.00027942148542382101 0 -0.044901677498956884 -0.00016447942213679761 0 -0.044839950930809523 -0.00027942148542382101 0 -0.04486433569322254 -0.00022744256344751874 0 -0.044901677498956884 -0.00016447942213679761 0 -0.044901677498956884 -0.00016447942213679761 0 -0.044907899219877853 -0.00012111042166917849 0 -0.04495327769473529 -6.8871247970145257e-05 0 -0.044960191675157864 -7.3267281953325123e-05 0 -0.044901677498956884 -0.00016447942213679761 0 -0.04495327769473529 -6.8871247970145257e-05 0 -0.044907899219877853 -0.00012111042166917849 0 -0.04499981857271388 -8.6913146809356186e-09 0 -0.04495327769473529 -6.8871247970145257e-05 0 -0.044960191675157864 -7.3267281953325123e-05 0 -0.04495327769473529 -6.8871247970145257e-05 0 -0.044999945854230193 -7.397539263009094e-08 0 -0.04499981857271388 -8.6913146809356186e-09 0 -0.04495327769473529 -6.8871247970145257e-05 0 -0.044999945854230193 -7.397539263009094e-08 0 -0.044907899219877853 -0.00012111042166917849 0 -0.04499981857271388 -8.6913146809356186e-09 0 -0.044838394845765274 -0.00010777931746306549 0 -0.044821443179413403 -0.00023622252972876578 0 -0.044907899219877853 -0.00012111042166917849 0 -0.044838394845765274 -0.00010777931746306549 0 -0.04499981857271388 -8.6913146809356186e-09 0 -0.044838394845765274 -0.00010777931746306549 0 -0.045000096966144355 -1.7050547132412906e-07 0 -0.044838394845765274 -0.00010777931746306549 0 -0.045000096966144355 -1.7050547132412906e-07 0 -0.044795947110094228 -4.8957758730415273e-05 0 -0.045000096966144355 -1.7050547132412906e-07 0 -0.044795947110094228 -4.8957758730415273e-05 0 -0.04499813832534013 5.444466052643178e-07 0 -0.044838394845765274 -0.00010777931746306549 0 -0.044795947110094228 -4.8957758730415273e-05 0 -0.044449108267176539 -0.00030936354087461723 0 -0.044795947110094228 -4.8957758730415273e-05 0 -0.044342149509218318 -0.00017972686636913028 0 -0.044449108267176539 -0.00030936354087461723 0 -0.044795947110094228 -4.8957758730415273e-05 0 -0.044342149509218318 -0.00017972686636913028 0 -0.04499813832534013 5.444466052643178e-07 0 -0.044999949291667125 1.87630753759025e-08 0 -0.045018834280779942 -2.4165979230757092e-05 0 -0.045000148750014554 -4.927793263343938e-08 0 -0.044999775121352198 -1.829671959009769e-08 0 -0.044472071815144461 -9.4372031513658975e-05 0 -0.044342149509218318 -0.00017972686636913028 0 -0.04499813832534013 5.444466052643178e-07 0 -0.043909642580144834 -9.8326078502768461e-05 0 -0.045018834280779942 -2.4165979230757092e-05 0 -0.045000148750014554 -4.927793263343938e-08 0 -0.04498412929899534 -3.3918576690160594e-05 0 -0.044472071815144461 -9.4372031513658975e-05 0 -0.044386102818642789 -0.00027580760413473273 0 -0.043909642580144834 -9.8326078502768461e-05 0 -0.043740734993232257 -0.00036457508410904369 0 -0.043810837500185704 -0.00043879080467718555 0 -0.045018834280779942 -2.4165979230757092e-05 0 -0.04498412929899534 -3.3918576690160594e-05 0 -0.044922915187349005 -0.0001593693471727994 0 -0.043909642580144834 -9.8326078502768461e-05 0 -0.043918654859909742 -0.00029390543777734396 0 -0.043740734993232257 -0.00036457508410904369 0 -0.044342149509218318 -0.00017972686636913028 0 -0.043909642580144834 -9.8326078502768461e-05 0 -0.043918654859909742 -0.00029390543777734396 0 -0.043918654859909742 -0.00029390543777734396 0 -0.043740734993232257 -0.00036457508410904369 0 -0.043630966110985485 -0.00041026300761857657 0 -0.044342149509218318 -0.00017972686636913028 0 -0.043918654859909742 -0.00029390543777734396 0 -0.043630966110985485 -0.00041026300761857657 0 -0.043740734993232257 -0.00036457508410904369 0 -0.04344558006161587 -0.00020901764004043765 0 -0.043828961099955627 -0.00020421263419140566 0 -0.04344558006161587 -0.00020901764004043765 0 -0.043630966110985485 -0.00041026300761857657 0 -0.04282032033931181 -1.9276376396703431e-05 0 -0.043740734993232257 -0.00036457508410904369 0 -0.04344558006161587 -0.00020901764004043765 0 -0.043630966110985485 -0.00041026300761857657 0 -0.043556246641460732 -0.00037457823509783343 0 -0.043391467149869065 -0.00032806751381597162 0 -0.043630966110985485 -0.00041026300761857657 0 -0.044449108267176539 -0.00030936354087461723 0 -0.044215358615960945 -0.00069800321262653594 0 -0.044661702269465163 -0.00036132345698445802 0 -0.044449108267176539 -0.00030936354087461723 0 -0.044493162305372709 -0.00058024738400902899 0 -0.044449108267176539 -0.00030936354087461723 0 -0.044493162305372709 -0.00058024738400902899 0 -0.044215358615960945 -0.00069800321262653594 0 -0.044342149509218318 -0.00017972686636913028 0 -0.043630966110985485 -0.00041026300761857657 0 -0.044449108267176539 -0.00030936354087461723 0 -0.044908551256123891 -8.1515531561572423e-05 0 -0.044863800838338276 -0.00010866405336877082 0 -0.044824773211047178 -0.00013731172080996086 0 -0.044908551256123891 -8.1515531561572423e-05 0 -0.044999858631701917 -2.4630628090166645e-08 0 -0.044999916117330174 -5.467101944902545e-08 0 -0.044999858631701917 -2.4630628090166645e-08 0 -0.044863800838338276 -0.00010866405336877082 0 -0.044967377878140646 -7.4529874986711169e-05 0 -0.044863800838338276 -0.00010866405336877082 0 -0.044967377878140646 -7.4529874986711169e-05 0 -0.044670367547077233 -0.00021549657336646455 0 -0.044908551256123891 -8.1515531561572423e-05 0 -0.044999858631701917 -2.4630628090166645e-08 0 -0.044863800838338276 -0.00010866405336877082 0 -0.044738357882694514 -0.00011282620719376655 0 -0.044922915187349005 -0.0001593693471727994 0 -0.044576219623566567 -0.00025230864758766207 0 -0.044999858631701917 -2.4630628090166645e-08 0 -0.044967377878140646 -7.4529874986711169e-05 0 -0.045000095013799361 -2.289580542914957e-08 0 -0.044845960628728233 -9.8073137723140151e-05 0 -0.044999937191263419 -4.5293213307519466e-08 0 -0.044738357882694514 -0.00011282620719376655 0 -0.044999542945052352 4.8379857976454424e-08 0 -0.04498412929899534 -3.3918576690160594e-05 0 -0.045000148750014554 -4.927793263343938e-08 0 -0.044999542945052352 4.8379857976454424e-08 0 -0.04498412929899534 -3.3918576690160594e-05 0 -0.044738357882694514 -0.00011282620719376655 0 -0.04498412929899534 -3.3918576690160594e-05 0 -0.044922915187349005 -0.0001593693471727994 0 -0.043740734993232257 -0.00036457508410904369 0 -0.043810837500185704 -0.00043879080467718555 0 -0.043828961099955627 -0.00020421263419140566 0 -0.043810837500185704 -0.00043879080467718555 0 -0.043828961099955627 -0.00020421263419140566 0 -0.044107317984342496 -0.00024838454344558664 0 -0.044254422078677302 -0.00011467314125602598 0 -0.044501631603686399 -0.00010183328362835364 0 -0.044210227273780676 0.00015445829875685064 0 -0.043828961099955627 -0.00020421263419140566 0 -0.044254422078677302 -0.00011467314125602598 0 -0.044107317984342496 -0.00024838454344558664 0 -0.043828961099955627 -0.00020421263419140566 0 -0.044254422078677302 -0.00011467314125602598 0 -0.044210227273780676 0.00015445829875685064 0 -0.044254422078677302 -0.00011467314125602598 0 -0.044576219623566567 -0.00025230864758766207 0 -0.044501631603686399 -0.00010183328362835364 0 -0.044254422078677302 -0.00011467314125602598 0 -0.044107317984342496 -0.00024838454344558664 0 -0.044576219623566567 -0.00025230864758766207 0 -0.044386102818642789 -0.00027580760413473273 0 -0.044571745374521653 -0.00024467193762114806 0 -0.043810837500185704 -0.00043879080467718555 0 -0.044107317984342496 -0.00024838454344558664 0 -0.044576219623566567 -0.00025230864758766207 0 -0.044738357882694514 -0.00011282620719376655 0 -0.044576219623566567 -0.00025230864758766207 0 -0.044670367547077233 -0.00021549657336646455 0 -0.044845960628728233 -9.8073137723140151e-05 0 -0.044703885525184471 -0.00020055944240241264 0 -0.044863800838338276 -0.00010866405336877082 0 -0.044670367547077233 -0.00021549657336646455 0 -0.044824773211047178 -0.00013731172080996086 0 -0.044670367547077233 -0.00021549657336646455 0 -0.044778508949221203 -4.605322106182513e-05 0 -0.044824773211047178 -0.00013731172080996086 0 -0.044576219623566567 -0.00025230864758766207 0 -0.044670367547077233 -0.00021549657336646455 0 -0.044501631603686399 -0.00010183328362835364 0 -0.04272749965850095 0.00037368300884884362 0 -0.042603127556879276 0.00040538202958425055 0 -0.044501631603686399 -0.00010183328362835364 0 -0.044778508949221203 -4.605322106182513e-05 0 -0.044210227273780676 0.00015445829875685064 0 -0.044670367547077233 -0.00021549657336646455 0 -0.044501631603686399 -0.00010183328362835364 0 -0.044778508949221203 -4.605322106182513e-05 0 -0.040661271847813082 0.00083417109447436299 0 -0.040948072496138313 0.00036030224055523741 0 -0.040690773549645905 0.00097357738236001365 0 -0.04272749965850095 0.00037368300884884362 0 -0.042949879695888336 0.00014721873179820083 0 -0.044908551256123891 -8.1515531561572423e-05 0 -0.044824773211047178 -0.00013731172080996086 0 -0.044911025307898811 -7.9318192269642782e-05 0 -0.044778508949221203 -4.605322106182513e-05 0 -0.044824773211047178 -0.00013731172080996086 0 -0.044911025307898811 -7.9318192269642782e-05 0 -0.040752679863614506 0.00056209031569228764 0 -0.040780141305645674 0.0006977664020216414 0 -0.040690773549645905 0.00097357738236001365 0 -0.040661271847813082 0.00083417109447436299 0 -0.040780141305645674 0.0006977664020216414 0 -0.040690773549645905 0.00097357738236001365 0 -0.040661271847813082 0.00083417109447436299 0 -0.040780141305645674 0.0006977664020216414 0 -0.041003015740034787 0.00067909546213194719 0 -0.040752679863614506 0.00056209031569228764 0 -0.040780141305645674 0.0006977664020216414 0 -0.040952748758006731 0.00034941447879363401 0 -0.040952748758006731 0.00034941447879363401 0 -0.041003015740034787 0.00067909546213194719 0 -0.041272729349806102 0.00039769648124869574 0 -0.040780141305645674 0.0006977664020216414 0 -0.040952748758006731 0.00034941447879363401 0 -0.041003015740034787 0.00067909546213194719 0 -0.042603127556879276 0.00040538202958425055 0 -0.04238395583833527 0.00027612360568489826 0 -0.043828961099955627 -0.00020421263419140566 0 -0.044210227273780676 0.00015445829875685064 0 -0.043468840856981161 0.00021630528137830393 0 -0.040952748758006731 0.00034941447879363401 0 -0.041272729349806102 0.00039769648124869574 0 -0.041109595444908512 -9.9810898642743316e-06 0 -0.041272729349806102 0.00039769648124869574 0 -0.041109595444908512 -9.9810898642743316e-06 0 -0.041348734246172449 -0.0003941952140931479 0 -0.041109595444908512 -9.9810898642743316e-06 0 -0.041112691358971054 -0.00034314765384753349 0 -0.041348734246172449 -0.0003941952140931479 0 -0.041112691358971054 -0.00034314765384753349 0 -0.041157106776277957 -0.00057684339898661182 0 -0.041059302440371467 -0.00051865590658409114 0 -0.041112691358971054 -0.00034314765384753349 0 -0.04095561838679735 -7.7020029894043381e-05 0 -0.041059302440371467 -0.00051865590658409114 0 -0.040952748758006731 0.00034941447879363401 0 -0.041109595444908512 -9.9810898642743316e-06 0 -0.04095561838679735 -7.7020029894043381e-05 0 -0.041109595444908512 -9.9810898642743316e-06 0 -0.041112691358971054 -0.00034314765384753349 0 -0.04095561838679735 -7.7020029894043381e-05 0 -0.040752679863614506 0.00056209031569228764 0 -0.04095561838679735 -7.7020029894043381e-05 0 -0.040752239871143403 -0.00010928632440451318 0 -0.040752679863614506 0.00056209031569228764 0 -0.040952748758006731 0.00034941447879363401 0 -0.04095561838679735 -7.7020029894043381e-05 0 -0.04095561838679735 -7.7020029894043381e-05 0 -0.040752239871143403 -0.00010928632440451318 0 -0.040769747380274175 -0.00051413523314738853 0 -0.040752679863614506 0.00056209031569228764 0 -0.040752239871143403 -0.00010928632440451318 0 -0.0404874912250449 0.00021729067134415442 0 -0.042302896358926957 5.497045210165815e-05 0 -0.042542317056146382 -3.4450371687801702e-05 0 -0.04282032033931181 -1.9276376396703431e-05 0 -0.042302896358926957 5.497045210165815e-05 0 -0.042540849645606837 7.7105603432205328e-05 0 -0.042542317056146382 -3.4450371687801702e-05 0 -0.044559786822597952 -0.00066102436946119825 0 -0.044445187735723216 -0.00076826171783015654 0 -0.044493162305372709 -0.00058024738400902899 0 -0.04351547402311489 -0.0003693367714641056 0 -0.043391467149869065 -0.00032806751381597162 0 -0.044445187735723216 -0.00076826171783015654 0 -0.044493162305372709 -0.00058024738400902899 0 -0.044215358615960945 -0.00069800321262653594 0 -0.043630966110985485 -0.00041026300761857657 0 -0.042542317056146382 -3.4450371687801702e-05 0 -0.04282032033931181 -1.9276376396703431e-05 0 -0.04344558006161587 -0.00020901764004043765 0 -0.043828961099955627 -0.00020421263419140566 0 -0.043468840856981161 0.00021630528137830393 0 -0.04344558006161587 -0.00020901764004043765 0 -0.043468840856981161 0.00021630528137830393 0 -0.04282032033931181 -1.9276376396703431e-05 0 -0.04238395583833527 0.00027612360568489826 0 -0.042155766523299561 9.2419496916979323e-05 0 -0.043468840856981161 0.00021630528137830393 0 -0.04282032033931181 -1.9276376396703431e-05 0 -0.042068391338157082 6.5375434601331597e-05 0 -0.042302896358926957 5.497045210165815e-05 0 -0.04282032033931181 -1.9276376396703431e-05 0 -0.042068391338157082 6.5375434601331597e-05 0 -0.042302896358926957 5.497045210165815e-05 0 -0.042068391338157082 6.5375434601331597e-05 0 -0.041889098407457456 -0.00025365159715984856 0 -0.042068391338157082 6.5375434601331597e-05 0 -0.041889098407457456 -0.00025365159715984856 0 -0.041348734246172449 -0.0003941952140931479 0 -0.041272729349806102 0.00039769648124869574 0 -0.042068391338157082 6.5375434601331597e-05 0 -0.041348734246172449 -0.0003941952140931479 0 -0.041112691358971054 -0.00034314765384753349 0 -0.041348734246172449 -0.0003941952140931479 0 -0.041157106776277957 -0.00057684339898661182 0 -0.041348734246172449 -0.0003941952140931479 0 -0.041157106776277957 -0.00057684339898661182 0 -0.040948071699316087 -0.00089653047363454823 0 -0.041889098407457456 -0.00025365159715984856 0 -0.041348734246172449 -0.0003941952140931479 0 -0.041337300999090346 -0.00081500263450906855 0 -0.041348734246172449 -0.0003941952140931479 0 -0.040948071699316087 -0.00089653047363454823 0 -0.041337300999090346 -0.00081500263450906855 0 -0.041337300999090346 -0.00081500263450906855 0 -0.042005182316681669 -0.00062986207883277616 0 -0.041497393148181232 -0.0013595882902739203 0 -0.042091276706281329 -0.0010996895373200583 0 -0.042005182316681669 -0.00062986207883277616 0 -0.041497393148181232 -0.0013595882902739203 0 -0.041889098407457456 -0.00025365159715984856 0 -0.041337300999090346 -0.00081500263450906855 0 -0.042005182316681669 -0.00062986207883277616 0 -0.042302896358926957 5.497045210165815e-05 0 -0.042540849645606837 7.7105603432205328e-05 0 -0.042319804385114859 -0.00018511977632762323 0 -0.041889098407457456 -0.00025365159715984856 0 -0.042005182316681669 -0.00062986207883277616 0 -0.042319804385114859 -0.00018511977632762323 0 -0.042302896358926957 5.497045210165815e-05 0 -0.041889098407457456 -0.00025365159715984856 0 -0.042319804385114859 -0.00018511977632762323 0 -0.043381729582770638 -0.00059225104348686896 0 -0.042540849645606837 7.7105603432205328e-05 0 -0.042800740491025335 -0.00032708043452509016 0 -0.042540849645606837 7.7105603432205328e-05 0 -0.042319804385114859 -0.00018511977632762323 0 -0.042800740491025335 -0.00032708043452509016 0 -0.042005182316681669 -0.00062986207883277616 0 -0.042319804385114859 -0.00018511977632762323 0 -0.042538565998656901 -0.00048884881991259014 0 -0.042319804385114859 -0.00018511977632762323 0 -0.042538565998656901 -0.00048884881991259014 0 -0.042800740491025335 -0.00032708043452509016 0 -0.04308481102170475 -0.00057594141098258093 0 -0.042800740491025335 -0.00032708043452509016 0 -0.042873079227202633 -0.00065089194879886566 0 -0.042538565998656901 -0.00048884881991259014 0 -0.042800740491025335 -0.00032708043452509016 0 -0.042873079227202633 -0.00065089194879886566 0 -0.042873079227202633 -0.00065089194879886566 0 -0.042524977206732699 -0.00083023512339202481 0 -0.042962300253743278 -0.0011665923082762515 0 -0.043291917249225632 -0.00078730036688355023 0 -0.042873079227202633 -0.00065089194879886566 0 -0.042962300253743278 -0.0011665923082762515 0 -0.042538565998656901 -0.00048884881991259014 0 -0.042873079227202633 -0.00065089194879886566 0 -0.042524977206732699 -0.00083023512339202481 0 -0.042005182316681669 -0.00062986207883277616 0 -0.042538565998656901 -0.00048884881991259014 0 -0.042524977206732699 -0.00083023512339202481 0 -0.042091276706281329 -0.0010996895373200583 0 -0.042524977206732699 -0.00083023512339202481 0 -0.04234472584278131 -0.0016782443642313182 0 -0.042091276706281329 -0.0010996895373200583 0 -0.042005182316681669 -0.00062986207883277616 0 -0.042524977206732699 -0.00083023512339202481 0 -0.042524977206732699 -0.00083023512339202481 0 -0.042962300253743278 -0.0011665923082762515 0 -0.04234472584278131 -0.0016782443642313182 0 -0.04234472584278131 -0.0016782443642313182 0 -0.042561075994929795 -0.0036410559522312602 0 -0.040936799354298052 -0.0026185536646552566 0 -0.042962300253743278 -0.0011665923082762515 0 -0.04234472584278131 -0.0016782443642313182 0 -0.043279994583504969 -0.0020136036281215119 0 -0.04234472584278131 -0.0016782443642313182 0 -0.042561075994929795 -0.0036410559522312602 0 -0.043279994583504969 -0.0020136036281215119 0 -0.03914812748779644 -0.0054148296923565292 0 -0.038914873518714407 -0.0052130371908127322 0 -0.042561075994929795 -0.0036410559522312602 0 -0.040936799354298052 -0.0026185536646552566 0 -0.038956451477154756 -0.0050916945407781236 0 -0.041337300999090346 -0.00081500263450906855 0 -0.041497393148181232 -0.0013595882902739203 0 -0.040397176837070822 -0.0017964383480517079 0 -0.040936799354298052 -0.0026185536646552566 0 -0.041497393148181232 -0.0013595882902739203 0 -0.040397176837070822 -0.0017964383480517079 0 -0.04234472584278131 -0.0016782443642313182 0 -0.040936799354298052 -0.0026185536646552566 0 -0.041497393148181232 -0.0013595882902739203 0 -0.042091276706281329 -0.0010996895373200583 0 -0.04234472584278131 -0.0016782443642313182 0 -0.041497393148181232 -0.0013595882902739203 0 -0.040397176837070822 -0.0017964383480517079 0 -0.037749494306578625 -0.0028051892993841156 0 -0.037388173862114259 -0.0018206719634687467 0 -0.040948071699316087 -0.00089653047363454823 0 -0.041337300999090346 -0.00081500263450906855 0 -0.040397176837070822 -0.0017964383480517079 0 -0.040744224266506875 -0.0017440379243364031 0 -0.037658888750462929 -0.00069940799122186054 0 -0.040948071699316087 -0.00089653047363454823 0 -0.040397176837070822 -0.0017964383480517079 0 -0.04056650188091257 -0.0013255953795491529 0 -0.040397176837070822 -0.0017964383480517079 0 -0.037749494306578625 -0.0028051892993841156 0 -0.039007643050192949 -0.0035927973251506503 0 -0.040936799354298052 -0.0026185536646552566 0 -0.040397176837070822 -0.0017964383480517079 0 -0.039007643050192949 -0.0035927973251506503 0 -0.040697469220160702 -0.00036300918075812111 0 -0.037658888750462929 -0.00069940799122186054 0 -0.041157106776277957 -0.00057684339898661182 0 -0.040948071699316087 -0.00089653047363454823 0 -0.041091908696288697 -0.00058080540764328522 0 -0.037749494306578625 -0.0028051892993841156 0 -0.037388173862114259 -0.0018206719634687467 0 -0.036207578495227134 -0.0037604103668608924 0 -0.037658888750462929 -0.00069940799122186054 0 -0.033832968385134998 -0.0019203319282457216 0 -0.036990835717829816 -0.0035739135111425464 0 -0.037039635155901911 -0.0046991527333472777 0 -0.036226341448477875 -0.0051898823386383117 0 -0.031773355336598419 -0.00017769621110630499 0 -0.031575892211175599 -0.00046916315818882779 0 -0.031200931589042663 -0.00044580999999518277 0 -0.037749494306578625 -0.0028051892993841156 0 -0.036990835717829816 -0.0035739135111425464 0 -0.037739759057182215 -0.0037785247166722455 0 -0.037031274591671583 -0.0020178028837061612 0 -0.033832968385134998 -0.0019203319282457216 0 -0.037739759057182215 -0.0037785247166722455 0 -0.038298171785932152 -0.0045554099325115878 0 -0.037039635155901911 -0.0046991527333472777 0 -0.036990835717829816 -0.0035739135111425464 0 -0.037739759057182215 -0.0037785247166722455 0 -0.037039635155901911 -0.0046991527333472777 0 -0.040936799354298052 -0.0026185536646552566 0 -0.039007643050192949 -0.0035927973251506503 0 -0.038956451477154756 -0.0050916945407781236 0 -0.037749494306578625 -0.0028051892993841156 0 -0.037739759057182215 -0.0037785247166722455 0 -0.039007643050192949 -0.0035927973251506503 0 -0.039007643050192949 -0.0035927973251506503 0 -0.038298171785932152 -0.0045554099325115878 0 -0.038956451477154756 -0.0050916945407781236 0 -0.037739759057182215 -0.0037785247166722455 0 -0.039007643050192949 -0.0035927973251506503 0 -0.038298171785932152 -0.0045554099325115878 0 -0.038298171785932152 -0.0045554099325115878 0 -0.038956451477154756 -0.0050916945407781236 0 -0.03833684298842454 -0.0043877480971733244 0 -0.038298171785932152 -0.0045554099325115878 0 -0.037039635155901911 -0.0046991527333472777 0 -0.036953151228469691 -0.0056770403959302872 0 -0.038170457419930144 -0.0046232188682354671 0 -0.038126357375547364 -0.0047910770954135845 0 -0.038298171785932152 -0.0045554099325115878 0 -0.038629390699002591 -0.0043000126626929012 0 -0.03833684298842454 -0.0043877480971733244 0 -0.037039635155901911 -0.0046991527333472777 0 -0.036953151228469691 -0.0056770403959302872 0 -0.036226341448477875 -0.0051898823386383117 0 -0.038629390699002591 -0.0043000126626929012 0 -0.038578253617243354 -0.003794220578127212 0 -0.039178031372923076 -0.0035770035384700811 0 -0.038629390699002591 -0.0043000126626929012 0 -0.03843322679046772 -0.0040669844499026473 0 -0.03833684298842454 -0.0043877480971733244 0 -0.038629390699002591 -0.0043000126626929012 0 -0.03843322679046772 -0.0040669844499026473 0 -0.038578253617243354 -0.003794220578127212 0 -0.03843322679046772 -0.0040669844499026473 0 -0.038578253617243354 -0.003794220578127212 0 -0.038155991080138014 -0.0036225399375539652 0 -0.03833684298842454 -0.0043877480971733244 0 -0.037515276744942164 -0.0033432894733640378 0 -0.038155991080138014 -0.0036225399375539652 0 -0.03843322679046772 -0.0040669844499026473 0 -0.03833684298842454 -0.0043877480971733244 0 -0.038155991080138014 -0.0036225399375539652 0 -0.037070293432756286 -0.0041786356709318144 0 -0.036623485515030987 -0.0028179618408513177 0 -0.037515276744942164 -0.0033432894733640378 0 -0.03833684298842454 -0.0043877480971733244 0 -0.037070293432756286 -0.0041786356709318144 0 -0.037515276744942164 -0.0033432894733640378 0 -0.037070293432756286 -0.0041786356709318144 0 -0.035174897580697743 -0.0053212247519217925 0 -0.033897565819342355 -0.0036988897060381077 0 -0.037070293432756286 -0.0041786356709318144 0 -0.036623485515030987 -0.0028179618408513177 0 -0.033897565819342355 -0.0036988897060381077 0 -0.034982143911088073 -0.0039105149672174046 0 -0.032205612399284538 -0.0052068438026709341 0 -0.035904138080491359 -0.0072666226997995347 0 -0.037070293432756286 -0.0041786356709318144 0 -0.035174897580697743 -0.0053212247519217925 0 -0.035904138080491359 -0.0072666226997995347 0 -0.035174897580697743 -0.0053212247519217925 0 -0.033474277510471516 -0.0063642296794781247 0 -0.035904138080491359 -0.0072666226997995347 0 -0.038956451477154756 -0.0050916945407781236 0 -0.037070293432756286 -0.0041786356709318144 0 -0.038956451477154756 -0.0050916945407781236 0 -0.03833684298842454 -0.0043877480971733244 0 -0.037070293432756286 -0.0041786356709318144 0 -0.030471028014926078 -0.00055647473136730163 0 -0.030592988851220349 -0.00041917686595803759 0 -0.030565210579922335 -0.00067551119232771761 0 -0.03575108706412479 -0.00048843602928688268 0 -0.035370044806976045 -0.00076400531353300587 0 -0.040752239871143403 -0.00010928632440451318 0 -0.040769747380274175 -0.00051413523314738853 0 -0.040233448816668904 -0.00085444147974721553 0 -0.03575108706412479 -0.00048843602928688268 0 -0.035770818842450758 -0.00033193138015196068 0 -0.030592988851220349 -0.00041917686595803759 0 -0.030697066952841398 -0.00051878913112149796 0 -0.031022172899259803 -0.00022281795709128217 0 -0.030471028014926078 -0.00055647473136730163 0 -0.030592988851220349 -0.00041917686595803759 0 -0.030697066952841398 -0.00051878913112149796 0 -0.030697066952841398 -0.00051878913112149796 0 -0.030952187671151755 -0.00047155562809004435 0 -0.031020749147165749 -0.00066601310424704028 0 -0.030697066952841398 -0.00051878913112149796 0 -0.030952187671151755 -0.00047155562809004435 0 -0.031022172899259803 -0.00022281795709128217 0 -0.030952187671151755 -0.00047155562809004435 0 -0.031022172899259803 -0.00022281795709128217 0 -0.031200931589042663 -0.00044580999999518277 0 -0.04095561838679735 -7.7020029894043381e-05 0 -0.040769747380274175 -0.00051413523314738853 0 -0.041059302440371467 -0.00051865590658409114 0 -0.037658888750462929 -0.00069940799122186054 0 -0.035770818842450758 -0.00033193138015196068 0 -0.031773355336598419 -0.00017769621110630499 0 -0.031022172899259803 -0.00022281795709128217 0 -0.031200931589042663 -0.00044580999999518277 0 -0.041157106776277957 -0.00057684339898661182 0 -0.041091908696288697 -0.00058080540764328522 0 -0.041059302440371467 -0.00051865590658409114 0 -0.033832968385134998 -0.0019203319282457216 0 -0.030545091111503005 -0.00041619310924772646 0 -0.031103866310380639 -0.00012256429790989524 0 -0.030736434021964902 -0.00029669889445333494 0 -0.030870065102841762 -0.00040368713222426394 0 -0.031575892211175599 -0.00046916315818882779 0 -0.031200931589042663 -0.00044580999999518277 0 -0.031020749147165749 -0.00066601310424704028 0 -0.033832968385134998 -0.0019203319282457216 0 -0.033561940764247886 -0.002753531685485297 0 -0.030952187671151755 -0.00047155562809004435 0 -0.031200931589042663 -0.00044580999999518277 0 -0.031020749147165749 -0.00066601310424704028 0 -0.030736434021964902 -0.00029669889445333494 0 -0.030870065102841762 -0.00040368713222426394 0 -0.030644435550413567 -0.0004718443883551831 0 -0.036953151228469691 -0.0056770403959302872 0 -0.036226341448477875 -0.0051898823386383117 0 -0.036278579751406421 -0.0058113286457844053 0 -0.030870065102841762 -0.00040368713222426394 0 -0.030671339215762636 -0.00061317312706559162 0 -0.030644435550413567 -0.0004718443883551831 0 -0.036953151228469691 -0.0056770403959302872 0 -0.036278579751406421 -0.0058113286457844053 0 -0.03618944876909283 -0.0062594509704876839 0 -0.033561940764247886 -0.002753531685485297 0 -0.033450340752785412 -0.0033307268780520707 0 -0.036226341448477875 -0.0051898823386383117 0 -0.036278579751406421 -0.0058113286457844053 0 -0.035795502382593089 -0.0060248871585640781 0 -0.038126357375547364 -0.0047910770954135845 0 -0.034710953869759066 -0.0045984961925917963 0 -0.036278579751406421 -0.0058113286457844053 0 -0.035795502382593089 -0.0060248871585640781 0 -0.03618944876909283 -0.0062594509704876839 0 -0.030671339215762636 -0.00061317312706559162 0 -0.030514945707353889 -0.00056071948984411839 0 -0.030644435550413567 -0.0004718443883551831 0 -0.030514945707353889 -0.00056071948984411839 0 -0.030644435550413567 -0.0004718443883551831 0 -0.030456031421683186 -0.00046315743083912925 0 -0.030545091111503005 -0.00041619310924772646 0 -0.030620256584420118 -0.00054276571326143533 0 -0.030697066952841398 -0.00051878913112149796 0 -0.031020749147165749 -0.00066601310424704028 0 -0.030644908961134483 -0.000672037510942066 0 -0.030736434021964902 -0.00029669889445333494 0 -0.030644435550413567 -0.0004718443883551831 0 -0.030456031421683186 -0.00046315743083912925 0 -0.030697066952841398 -0.00051878913112149796 0 -0.030644908961134483 -0.000672037510942066 0 -0.030467053904694626 -0.00057386543942354324 0 -0.030456031421683186 -0.00046315743083912925 0 -0.03035746717551947 -0.00055133185386721246 0 -0.030397456876350842 -0.00061668607798870932 0 -0.030644908961134483 -0.000672037510942066 0 -0.03035746717551947 -0.00055133185386721246 0 -0.030467053904694626 -0.00057386543942354324 0 -0.030514945707353889 -0.00056071948984411839 0 -0.030456031421683186 -0.00046315743083912925 0 -0.030397456876350842 -0.00061668607798870932 0 -0.030620256584420118 -0.00054276571326143533 0 -0.030371611121965313 -0.00056950566638833242 0 -0.03035746717551947 -0.00055133185386721246 0 -0.030467053904694626 -0.00057386543942354324 0 -0.030332067125314107 -0.00041923214010872905 0 -0.030471028014926078 -0.00055647473136730163 0 -0.030697066952841398 -0.00051878913112149796 0 -0.030467053904694626 -0.00057386543942354324 0 -0.030471028014926078 -0.00055647473136730163 0 -0.030467053904694626 -0.00057386543942354324 0 -0.030332067125314107 -0.00041923214010872905 0 -0.030108450812968965 -0.00069420119504911908 0 -0.029656115207732078 -0.00093802566889358157 0 -0.030158676596076447 -0.00067479828277091953 0 -0.030256887401293234 -0.00064032032952930965 0 -0.030190598684844906 -0.0006909920558312182 0 -0.030158676596076447 -0.00067479828277091953 0 -0.030190598684844906 -0.0006909920558312182 0 -0.030141010374175985 -0.00086333837339240072 0 -0.030158676596076447 -0.00067479828277091953 0 -0.030218547179756413 -0.00072361112047545913 0 -0.029838188690001599 -0.00095235522923270031 0 -0.030158676596076447 -0.00067479828277091953 0 -0.030245321146409668 -0.00065410201502988797 0 -0.030256887401293234 -0.00064032032952930965 0 -0.030158676596076447 -0.00067479828277091953 0 -0.030245321146409668 -0.00065410201502988797 0 -0.030218547179756413 -0.00072361112047545913 0 -0.03035746717551947 -0.00055133185386721246 0 -0.030338126383592505 -0.00060514571396338241 0 -0.030256887401293234 -0.00064032032952930965 0 -0.03035746717551947 -0.00055133185386721246 0 -0.030338126383592505 -0.00060514571396338241 0 -0.030397456876350842 -0.00061668607798870932 0 -0.03035746717551947 -0.00055133185386721246 0 -0.030256887401293234 -0.00064032032952930965 0 -0.030230480696081523 -0.00057869586312915772 0 -0.030256887401293234 -0.00064032032952930965 0 -0.030230480696081523 -0.00057869586312915772 0 -0.030190598684844906 -0.0006909920558312182 0 -0.030245321146409668 -0.00065410201502988797 0 -0.030338126383592505 -0.00060514571396338241 0 -0.030256887401293234 -0.00064032032952930965 0 -0.030245321146409668 -0.00065410201502988797 0 -0.030338126383592505 -0.00060514571396338241 0 -0.030330846802511396 -0.00064482223163066525 0 -0.030514945707353889 -0.00056071948984411839 0 -0.030397456876350842 -0.00061668607798870932 0 -0.030516472873028087 -0.00082384932398286222 0 -0.030338126383592505 -0.00060514571396338241 0 -0.030330846802511396 -0.00064482223163066525 0 -0.030397456876350842 -0.00061668607798870932 0 -0.030330846802511396 -0.00064482223163066525 0 -0.030397456876350842 -0.00061668607798870932 0 -0.030413642238919885 -0.00067726904241627956 0 -0.030082423395071656 -0.00024757821431011748 0 -0.030411551157377894 -0.0027082175782295486 0 -0.030341254446916668 -0.00072439952980915632 0 -0.030346460227274306 -0.00080573237571874244 0 -0.030413642238919885 -0.00067726904241627956 0 -0.028705895765899346 -0.00073541504756924846 0 -0.030411551157377894 -0.0027082175782295486 0 -0.030330846802511396 -0.00064482223163066525 0 -0.030341254446916668 -0.00072439952980915632 0 -0.030413642238919885 -0.00067726904241627956 0 -0.03030342916502908 -0.00064611498957219062 0 -0.030216513585922387 -0.00076555185032989228 0 -0.030245321146409668 -0.00065410201502988797 0 -0.030330846802511396 -0.00064482223163066525 0 -0.030218547179756413 -0.00072361112047545913 0 -0.030330846802511396 -0.00064482223163066525 0 -0.030341254446916668 -0.00072439952980915632 0 -0.03027929399285538 -0.00079029574287977386 0 -0.030341254446916668 -0.00072439952980915632 0 -0.03027929399285538 -0.00079029574287977386 0 -0.030346460227274306 -0.00080573237571874244 0 -0.035631902750283412 -0.0067812602229569766 0 -0.035466287930943391 -0.0064936913347989778 0 -0.035771131529300539 -0.0063982087533610236 0 -0.026888952179255771 -0.0007218008615649911 0 -0.026197462703738409 -0.00080830513742595879 0 -0.02655965848407409 -0.0013436185688921801 0 -0.03026665502744064 -0.0020795138144320702 0 -0.030411551157377894 -0.0027082175782295486 0 -0.035795502382593089 -0.0060248871585640781 0 -0.035466287930943391 -0.0064936913347989778 0 -0.035771131529300539 -0.0063982087533610236 0 -0.033450340752785412 -0.0033307268780520707 0 -0.030411551157377894 -0.0027082175782295486 0 -0.030671339215762636 -0.00061317312706559162 0 -0.030514945707353889 -0.00056071948984411839 0 -0.030516472873028087 -0.00082384932398286222 0 -0.03026665502744064 -0.0020795138144320702 0 -0.034710953869759066 -0.0045984961925917963 0 -0.035631902750283412 -0.0067812602229569766 0 -0.035771131529300539 -0.0063982087533610236 0 -0.03618944876909283 -0.0062594509704876839 0 -0.035795502382593089 -0.0060248871585640781 0 -0.035771131529300539 -0.0063982087533610236 0 -0.03618944876909283 -0.0062594509704876839 0 -0.032225368362995312 -0.00079641153239848068 0 -0.030191201534006354 -0.0015380228444341823 0 -0.029350622208007982 8.7133439398112981e-05 0 -0.032225368362995312 -0.00079641153239848068 0 -0.030455688949327375 -0.0037223284639768864 0 -0.030191201534006354 -0.0015380228444341823 0 -0.032225368362995312 -0.00079641153239848068 0 -0.030762269791373746 0.0014076296511409973 0 -0.029350622208007982 8.7133439398112981e-05 0 -0.03026665502744064 -0.0020795138144320702 0 -0.0282303786557133 0.00072968932978949969 0 -0.030762269791373746 0.0014076296511409973 0 -0.029350622208007982 8.7133439398112981e-05 0 -0.029084850936524301 0.0013669988824666246 0 -0.025578838296129162 1.5245536411794869e-05 0 -0.02603909361992341 0.00042671094346780948 0 -0.02503097329565597 0.00086179552809293987 0 -0.030762269791373746 0.0014076296511409973 0 -0.029084850936524301 0.0013669988824666246 0 -0.029292510189509801 0.0035719896056491465 0 -0.0282303786557133 0.00072968932978949969 0 -0.025308353421961988 0.0030603923273190173 0 -0.02603909361992341 0.00042671094346780948 0 -0.02503097329565597 0.00086179552809293987 0 -0.026205591487074801 0.0010699453769135758 0 -0.025578838296129162 1.5245536411794869e-05 0 -0.02603909361992341 0.00042671094346780948 0 -0.026566537436991475 -0.00011845828897176994 0 -0.02603909361992341 0.00042671094346780948 0 -0.02667800443619579 0.00053965281232575023 0 -0.026205591487074801 0.0010699453769135758 0 -0.02603909361992341 0.00042671094346780948 0 -0.026566537436991475 -0.00011845828897176994 0 -0.02667800443619579 0.00053965281232575023 0 -0.026888952179255771 -0.0007218008615649911 0 -0.026197462703738409 -0.00080830513742595879 0 -0.026566537436991475 -0.00011845828897176994 0 -0.026150808625521837 -0.00083775982763122623 0 -0.025578838296129162 1.5245536411794869e-05 0 -0.026566537436991475 -0.00011845828897176994 0 -0.03026665502744064 -0.0020795138144320702 0 -0.026221570607658451 -0.00044966839007614604 0 -0.026888952179255771 -0.0007218008615649911 0 -0.026566537436991475 -0.00011845828897176994 0 -0.027225398080006263 -9.4936964377153574e-05 0 -0.028705895765899346 -0.00073541504756924846 0 -0.029347642488197604 -0.00089102635225490911 0 -0.03027929399285538 -0.00079029574287977386 0 -0.030346460227274306 -0.00080573237571874244 0 -0.030239283891315343 -0.00096756907157642821 0 -0.030216513585922387 -0.00076555185032989228 0 -0.029347642488197604 -0.00089102635225490911 0 -0.026566537436991475 -0.00011845828897176994 0 -0.027225398080006263 -9.4936964377153574e-05 0 -0.02667800443619579 0.00053965281232575023 0 -0.027225398080006263 -9.4936964377153574e-05 0 -0.02667800443619579 0.00053965281232575023 0 -0.027278023769499046 0.00059961950305172334 0 -0.030008129209912443 -0.0011732852279295112 0 -0.029637290616279156 -0.0014430764115610428 0 -0.029553265315543968 -0.0013336970941969829 0 -0.029703932472019523 -0.001316773161767577 0 -0.029637290616279156 -0.0014430764115610428 0 -0.029674540863948089 -0.00149016801895804 0 -0.029347642488197604 -0.00089102635225490911 0 -0.028232911756015281 -0.00056171425218472758 0 -0.029347642488197604 -0.00089102635225490911 0 -0.029606020516055126 -0.0013553620062472598 0 -0.029637290616279156 -0.0014430764115610428 0 -0.029674540863948089 -0.00149016801895804 0 -0.029531415644718714 -0.0015532700343247809 0 -0.029397050497298353 -0.0014623181179083948 0 -0.029531415644718714 -0.0015532700343247809 0 -0.029377832046179237 -0.0016081381193525364 0 -0.029637290616279156 -0.0014430764115610428 0 -0.029397050497298353 -0.0014623181179083948 0 -0.029531415644718714 -0.0015532700343247809 0 -0.029553265315543968 -0.0013336970941969829 0 -0.029542891314784527 -0.0011657997161378954 0 -0.029286057949405496 -0.0013360692090872617 0 -0.029637290616279156 -0.0014430764115610428 0 -0.029397050497298353 -0.0014623181179083948 0 -0.029553265315543968 -0.0013336970941969829 0 -0.030158676596076447 -0.00067479828277091953 0 -0.029838188690001599 -0.00095235522923270031 0 -0.02915503543388949 -0.00098675164641274615 0 -0.030008129209912443 -0.0011732852279295112 0 -0.029553265315543968 -0.0013336970941969829 0 -0.029542891314784527 -0.0011657997161378954 0 -0.029542891314784527 -0.0011657997161378954 0 -0.029838188690001599 -0.00095235522923270031 0 -0.02915503543388949 -0.00098675164641274615 0 -0.030008129209912443 -0.0011732852279295112 0 -0.029542891314784527 -0.0011657997161378954 0 -0.029838188690001599 -0.00095235522923270031 0 -0.030218547179756413 -0.00072361112047545913 0 -0.030008129209912443 -0.0011732852279295112 0 -0.029838188690001599 -0.00095235522923270031 0 -0.033692712629800781 -0.0019758641245411616 0 -0.036959280813062184 -0.0025993466543102707 0 -0.035689030770520581 -0.0014055636792745603 0 -0.033692712629800781 -0.0019758641245411616 0 -0.033398393789800807 -0.0051251505780982578 0 -0.036959280813062184 -0.0025993466543102707 0 -0.033692712629800781 -0.0019758641245411616 0 -0.031917650654853615 -0.0030499142463256226 0 -0.031008960601971336 -0.001554364469895404 0 -0.033692712629800781 -0.0019758641245411616 0 -0.031917650654853615 -0.0030499142463256226 0 -0.033398393789800807 -0.0051251505780982578 0 -0.031917650654853615 -0.0030499142463256226 0 -0.033398393789800807 -0.0051251505780982578 0 -0.030228649211074685 -0.0042256928603208784 0 -0.033398393789800807 -0.0051251505780982578 0 -0.030228649211074685 -0.0042256928603208784 0 -0.030524796425772695 -0.0065814469245143526 0 -0.036623485515030987 -0.0028179618408513177 0 -0.037515276744942164 -0.0033432894733640378 0 -0.036959280813062184 -0.0025993466543102707 0 -0.034982143911088073 -0.0039105149672174046 0 -0.036864036354735764 -0.002659494796225148 0 -0.037515276744942164 -0.0033432894733640378 0 -0.037845850537596995 -0.0031144096410403652 0 -0.036959280813062184 -0.0025993466543102707 0 -0.037515276744942164 -0.0033432894733640378 0 -0.038155991080138014 -0.0036225399375539652 0 -0.037845850537596995 -0.0031144096410403652 0 -0.039178031372923076 -0.0035770035384700811 0 -0.038416849967474589 -0.0033319175957915938 0 -0.038306251081330456 -0.0024222936404446672 0 -0.037845850537596995 -0.0031144096410403652 0 -0.038416849967474589 -0.0033319175957915938 0 -0.038306251081330456 -0.0024222936404446672 0 -0.034710953869759066 -0.0045984961925917963 0 -0.033102440796435255 -0.0015942077709813014 0 -0.038578253617243354 -0.003794220578127212 0 -0.039178031372923076 -0.0035770035384700811 0 -0.038416849967474589 -0.0033319175957915938 0 -0.038578253617243354 -0.003794220578127212 0 -0.038155991080138014 -0.0036225399375539652 0 -0.038416849967474589 -0.0033319175957915938 0 -0.038155991080138014 -0.0036225399375539652 0 -0.037845850537596995 -0.0031144096410403652 0 -0.038416849967474589 -0.0033319175957915938 0 -0.030191201534006354 -0.0015380228444341823 0 -0.028043790053293986 -0.0011472112471066216 0 -0.029350622208007982 8.7133439398112981e-05 0 -0.030455688949327375 -0.0037223284639768864 0 -0.030191201534006354 -0.0015380228444341823 0 -0.028043790053293986 -0.0011472112471066216 0 -0.028043790053293986 -0.0011472112471066216 0 -0.029350622208007982 8.7133439398112981e-05 0 -0.028131826643539443 0.00022606908244647244 0 -0.038306251081330456 -0.0024222936404446672 0 -0.036959280813062184 -0.0025993466543102707 0 -0.035689030770520581 -0.0014055636792745603 0 -0.037845850537596995 -0.0031144096410403652 0 -0.038306251081330456 -0.0024222936404446672 0 -0.036959280813062184 -0.0025993466543102707 0 -0.027752551850131469 0.0012767593289530787 0 -0.026743598432547346 0.0020138773304797875 0 -0.025716161756822706 0.001523824134217848 0 -0.028131826643539443 0.00022606908244647244 0 -0.027752551850131469 0.0012767593289530787 0 -0.025716161756822706 0.001523824134217848 0 -0.033102440796435255 -0.0015942077709813014 0 -0.030867639404234447 0.00080896646383874773 0 -0.028043790053293986 -0.0011472112471066216 0 -0.028131826643539443 0.00022606908244647244 0 -0.025716161756822706 0.001523824134217848 0 -0.038306251081330456 -0.0024222936404446672 0 -0.035656695735229504 0.00017196201239175874 0 -0.035689030770520581 -0.0014055636792745603 0 -0.029350622208007982 8.7133439398112981e-05 0 -0.028131826643539443 0.00022606908244647244 0 -0.029084850936524301 0.0013669988824666246 0 -0.028131826643539443 0.00022606908244647244 0 -0.027752551850131469 0.0012767593289530787 0 -0.029084850936524301 0.0013669988824666246 0 -0.029084850936524301 0.0013669988824666246 0 -0.028356585459937547 0.0024403075161659933 0 -0.029292510189509801 0.0035719896056491465 0 -0.028356585459937547 0.0024403075161659933 0 -0.02704874081970278 0.0030703581946827426 0 -0.029292510189509801 0.0035719896056491465 0 -0.025284825744107339 0.0030850961680139424 0 -0.025245862852296557 0.0031335962940019163 0 -0.025219171141473203 0.003170446959418597 0 -0.026515244730385478 0.0031033153404448565 0 -0.025308353421961988 0.0030603923273190173 0 -0.027752551850131469 0.0012767593289530787 0 -0.028356585459937547 0.0024403075161659933 0 -0.027472379621826831 0.0022071507191958714 0 -0.027752551850131469 0.0012767593289530787 0 -0.029084850936524301 0.0013669988824666246 0 -0.028356585459937547 0.0024403075161659933 0 -0.026743598432547346 0.0020138773304797875 0 -0.02704874081970278 0.0030703581946827426 0 -0.025059647160948849 0.0025167440118075458 0 -0.026515244730385478 0.0031033153404448565 0 -0.024991883956126032 0.002603214292874469 0 -0.026743598432547346 0.0020138773304797875 0 -0.027472379621826831 0.0022071507191958714 0 -0.02704874081970278 0.0030703581946827426 0 -0.027752551850131469 0.0012767593289530787 0 -0.026743598432547346 0.0020138773304797875 0 -0.027472379621826831 0.0022071507191958714 0 -0.028356585459937547 0.0024403075161659933 0 -0.027472379621826831 0.0022071507191958714 0 -0.02704874081970278 0.0030703581946827426 0 -0.030867639404234447 0.00080896646383874773 0 -0.027397069639047592 0.0028511984237892308 0 -0.025059647160948849 0.0025167440118075458 0 -0.024001672624130572 0.0034500064651604317 0 -0.025247840579988919 0.0030195083437994956 0 -0.025059647160948849 0.0025167440118075458 0 -0.025716161756822706 0.001523824134217848 0 -0.024001672624130572 0.0034500064651604317 0 -0.035656695735229504 0.00017196201239175874 0 -0.032966376707822764 0.00021591483326288612 0 -0.032653462351800444 0.0029335027053806811 0 -0.025284825744107339 0.0030850961680139424 0 -0.025059647160948849 0.0025167440118075458 0 -0.025247840579988919 0.0030195083437994956 0 -0.026743598432547346 0.0020138773304797875 0 -0.025059647160948849 0.0025167440118075458 0 -0.025716161756822706 0.001523824134217848 0 -0.033692712629800781 -0.0019758641245411616 0 -0.034501629450513049 -0.00073197871405349894 0 -0.032966376707822764 0.00021591483326288612 0 -0.035656695735229504 0.00017196201239175874 0 -0.034501629450513049 -0.00073197871405349894 0 -0.032966376707822764 0.00021591483326288612 0 -0.033692712629800781 -0.0019758641245411616 0 -0.034501629450513049 -0.00073197871405349894 0 -0.035689030770520581 -0.0014055636792745603 0 -0.035656695735229504 0.00017196201239175874 0 -0.034501629450513049 -0.00073197871405349894 0 -0.035689030770520581 -0.0014055636792745603 0 -0.033692712629800781 -0.0019758641245411616 0 -0.032966376707822764 0.00021591483326288612 0 -0.031008960601971336 -0.001554364469895404 0 -0.032966376707822764 0.00021591483326288612 0 -0.030912805235405762 0.0014305759071994177 0 -0.031008960601971336 -0.001554364469895404 0 -0.032966376707822764 0.00021591483326288612 0 -0.030912805235405762 0.0014305759071994177 0 -0.032653462351800444 0.0029335027053806811 0 -0.030912805235405762 0.0014305759071994177 0 -0.029543604779736162 -0.00011837685903449186 0 -0.029315104331151032 0.0029283055969798241 0 -0.027523874509697479 0.0013642610974428191 0 -0.029543604779736162 -0.00011837685903449186 0 -0.029315104331151032 0.0029283055969798241 0 -0.027523874509697479 0.0013642610974428191 0 -0.027472507769861865 -0.00015614110157501022 0 -0.029543604779736162 -0.00011837685903449186 0 -0.027523874509697479 0.0013642610974428191 0 -0.027472507769861865 -0.00015614110157501022 0 -0.025698200508009767 0.00094696670782801044 0 -0.027472507769861865 -0.00015614110157501022 0 -0.029543604779736162 -0.00011837685903449186 0 -0.028755805258453712 -0.0020918200474352908 0 -0.027472507769861865 -0.00015614110157501022 0 -0.028755805258453712 -0.0020918200474352908 0 -0.026488305856923928 -0.0022263388392023968 0 -0.031008960601971336 -0.001554364469895404 0 -0.029543604779736162 -0.00011837685903449186 0 -0.028755805258453712 -0.0020918200474352908 0 -0.030912805235405762 0.0014305759071994177 0 -0.031008960601971336 -0.001554364469895404 0 -0.029543604779736162 -0.00011837685903449186 0 -0.031917650654853615 -0.0030499142463256226 0 -0.031008960601971336 -0.001554364469895404 0 -0.030228649211074685 -0.0042256928603208784 0 -0.031008960601971336 -0.001554364469895404 0 -0.028755805258453712 -0.0020918200474352908 0 -0.030228649211074685 -0.0042256928603208784 0 -0.028755805258453712 -0.0020918200474352908 0 -0.027530721635470067 -0.0043815531526974734 0 -0.030228649211074685 -0.0042256928603208784 0 -0.028755805258453712 -0.0020918200474352908 0 -0.027530721635470067 -0.0043815531526974734 0 -0.026488305856923928 -0.0022263388392023968 0 -0.027530721635470067 -0.0043815531526974734 0 -0.030228649211074685 -0.0042256928603208784 0 -0.028800551206679393 -0.0058562786890356874 0 -0.030228649211074685 -0.0042256928603208784 0 -0.030524796425772695 -0.0065814469245143526 0 -0.028800551206679393 -0.0058562786890356874 0 -0.022963619953472472 -0.0035226550993212964 0 -0.022276915095175459 -0.0061620316293360608 0 -0.02444245474497252 -0.0064123199947550506 0 -0.025385564341332382 -0.0043673818428023427 0 -0.022963619953472472 -0.0035226550993212964 0 -0.02444245474497252 -0.0064123199947550506 0 -0.027530721635470067 -0.0043815531526974734 0 -0.025385564341332382 -0.0043673818428023427 0 -0.026395604009471666 -0.0075993012477553502 0 -0.027530721635470067 -0.0043815531526974734 0 -0.025385564341332382 -0.0043673818428023427 0 -0.026488305856923928 -0.0022263388392023968 0 -0.025385564341332382 -0.0043673818428023427 0 -0.026488305856923928 -0.0022263388392023968 0 -0.02453816457625263 -0.0018408169484533906 0 -0.022963619953472472 -0.0035226550993212964 0 -0.022817939572232288 -0.0016752425555452853 0 -0.02453816457625263 -0.0018408169484533906 0 -0.025385564341332382 -0.0043673818428023427 0 -0.022963619953472472 -0.0035226550993212964 0 -0.02453816457625263 -0.0018408169484533906 0 -0.02453816457625263 -0.0018408169484533906 0 -0.025602440808974142 -0.00063418780502843121 0 -0.023938023339706706 0.00011004467004564937 0 -0.022817939572232288 -0.0016752425555452853 0 -0.023938023339706706 0.00011004467004564937 0 -0.021985506906467864 -0.00048192357106702639 0 -0.022817939572232288 -0.0016752425555452853 0 -0.02453816457625263 -0.0018408169484533906 0 -0.023938023339706706 0.00011004467004564937 0 -0.027472507769861865 -0.00015614110157501022 0 -0.026488305856923928 -0.0022263388392023968 0 -0.025602440808974142 -0.00063418780502843121 0 -0.026488305856923928 -0.0022263388392023968 0 -0.02453816457625263 -0.0018408169484533906 0 -0.025602440808974142 -0.00063418780502843121 0 -0.027472507769861865 -0.00015614110157501022 0 -0.025602440808974142 -0.00063418780502843121 0 -0.025698200508009767 0.00094696670782801044 0 -0.025602440808974142 -0.00063418780502843121 0 -0.025698200508009767 0.00094696670782801044 0 -0.023938023339706706 0.00011004467004564937 0 -0.027523874509697479 0.0013642610974428191 0 -0.025698200508009767 0.00094696670782801044 0 -0.025684879923888126 0.0026177209132878629 0 -0.023938023339706706 0.00011004467004564937 0 -0.022740008410409737 0.00072178724902676741 0 -0.021985506906467864 -0.00048192357106702639 0 -0.025698200508009767 0.00094696670782801044 0 -0.023938023339706706 0.00011004467004564937 0 -0.023943155937158265 0.0017121746441724375 0 -0.023938023339706706 0.00011004467004564937 0 -0.022740008410409737 0.00072178724902676741 0 -0.023943155937158265 0.0017121746441724375 0 -0.021985506906467864 -0.00048192357106702639 0 -0.021407111745119601 0.00035268744101578495 0 -0.020411541287181256 -0.00057414882987304378 0 -0.022740008410409737 0.00072178724902676741 0 -0.021407111745119601 0.00035268744101578495 0 -0.021481340293186733 0.0012558203209619174 0 -0.022740008410409737 0.00072178724902676741 0 -0.021985506906467864 -0.00048192357106702639 0 -0.021407111745119601 0.00035268744101578495 0 -0.021407111745119601 0.00035268744101578495 0 -0.020629690654912824 0.00054005895325437447 0 -0.021051036816866434 0.00083329029159423323 0 -0.020629690654912824 0.00054005895325437447 0 -0.019699536343275568 0.00023160255403542092 0 -0.020411541287181256 -0.00057414882987304378 0 -0.019699536343275568 0.00023160255403542092 0 -0.020411541287181256 -0.00057414882987304378 0 -0.019232074976876967 -0.00071939096515129426 0 -0.021407111745119601 0.00035268744101578495 0 -0.020629690654912824 0.00054005895325437447 0 -0.020411541287181256 -0.00057414882987304378 0 -0.020411541287181256 -0.00057414882987304378 0 -0.021164834741466954 -0.0018110768803504581 0 -0.019219487351218881 -0.0021257065588537144 0 -0.021985506906467864 -0.00048192357106702639 0 -0.020411541287181256 -0.00057414882987304378 0 -0.021164834741466954 -0.0018110768803504581 0 -0.022817939572232288 -0.0016752425555452853 0 -0.021985506906467864 -0.00048192357106702639 0 -0.021164834741466954 -0.0018110768803504581 0 -0.018033282192706186 -0.00056495927491164713 0 -0.018877700030994388 0.00017101684391101154 0 -0.018448028513043134 0.0011296437774007909 0 -0.018033282192706186 -0.00056495927491164713 0 -0.018877700030994388 0.00017101684391101154 0 -0.019232074976876967 -0.00071939096515129426 0 -0.019699536343275568 0.00023160255403542092 0 -0.018877700030994388 0.00017101684391101154 0 -0.019232074976876967 -0.00071939096515129426 0 -0.018033282192706186 -0.00056495927491164713 0 -0.019232074976876967 -0.00071939096515129426 0 -0.019219487351218881 -0.0021257065588537144 0 -0.020411541287181256 -0.00057414882987304378 0 -0.019232074976876967 -0.00071939096515129426 0 -0.019219487351218881 -0.0021257065588537144 0 -0.018024654090943636 -0.00091849893718638624 0 -0.017775854443440063 -0.0024447829279220725 0 -0.018033282192706186 -0.00056495927491164713 0 -0.017788659679249013 -0.0025307228306431419 0 -0.019219487351218881 -0.0021257065588537144 0 -0.017788659679249013 -0.0025307228306431419 0 -0.019219487351218881 -0.0021257065588537144 0 -0.019046158553486719 -0.0037731580757594525 0 -0.019219487351218881 -0.0021257065588537144 0 -0.019046158553486719 -0.0037731580757594525 0 -0.020558361438210753 -0.0031476755666700633 0 -0.019046158553486719 -0.0037731580757594525 0 -0.020558361438210753 -0.0031476755666700633 0 -0.020181031886469251 -0.0040101210934152002 0 -0.01817238205536233 -0.0042160091484822774 0 -0.018972842563101288 -0.0038182999104874765 0 -0.017531031687431021 -0.0042881394749497564 0 -0.017788659679249013 -0.0025307228306431419 0 -0.019046158553486719 -0.0037731580757594525 0 -0.022963619953472472 -0.0035226550993212964 0 -0.021164834741466954 -0.0018110768803504581 0 -0.020558361438210753 -0.0031476755666700633 0 -0.022963619953472472 -0.0035226550993212964 0 -0.022817939572232288 -0.0016752425555452853 0 -0.021164834741466954 -0.0018110768803504581 0 -0.021164834741466954 -0.0018110768803504581 0 -0.019219487351218881 -0.0021257065588537144 0 -0.020558361438210753 -0.0031476755666700633 0 -0.020558361438210753 -0.0031476755666700633 0 -0.020181031886469251 -0.0040101210934152002 0 -0.021129845675325547 -0.0040950877392906069 0 -0.020766083672042437 -0.0033307608886059895 0 -0.021164469441277818 -0.0051147424443159038 0 -0.022963619953472472 -0.0035226550993212964 0 -0.020558361438210753 -0.0031476755666700633 0 -0.022276915095175459 -0.0061620316293360608 0 -0.021129845675325547 -0.0040950877392906069 0 -0.020924403035412025 -0.0047424616989280577 0 -0.021784286159498019 -0.0049833743663360731 0 -0.020181031886469251 -0.0040101210934152002 0 -0.021129845675325547 -0.0040950877392906069 0 -0.020924403035412025 -0.0047424616989280577 0 -0.020181031886469251 -0.0040101210934152002 0 -0.020038484173846665 -0.0047606564365870498 0 -0.020924403035412025 -0.0047424616989280577 0 -0.020038484173846665 -0.0047606564365870498 0 -0.020924403035412025 -0.0047424616989280577 0 -0.021042319709353708 -0.0055208259525630606 0 -0.020038484173846665 -0.0047606564365870498 0 -0.019820883334727344 -0.0054198318078093636 0 -0.021042319709353708 -0.0055208259525630606 0 -0.020924403035412025 -0.0047424616989280577 0 -0.021042319709353708 -0.0055208259525630606 0 -0.021784286159498019 -0.0049833743663360731 0 -0.018603899079263228 -0.0042748347471862468 0 -0.019046158553486719 -0.0037731580757594525 0 -0.019162611299101222 -0.0047905700102574972 0 -0.019046158553486719 -0.0037731580757594525 0 -0.020181031886469251 -0.0040101210934152002 0 -0.020038484173846665 -0.0047606564365870498 0 -0.019046158553486719 -0.0037731580757594525 0 -0.020038484173846665 -0.0047606564365870498 0 -0.019162611299101222 -0.0047905700102574972 0 -0.020038484173846665 -0.0047606564365870498 0 -0.019162611299101222 -0.0047905700102574972 0 -0.019820883334727344 -0.0054198318078093636 0 -0.018639103454933994 -0.004929604605791834 0 -0.019162611299101222 -0.0047905700102574972 0 -0.01917119840938307 -0.0056861572708003846 0 -0.019162611299101222 -0.0047905700102574972 0 -0.01917119840938307 -0.0056861572708003846 0 -0.019820883334727344 -0.0054198318078093636 0 -0.01917119840938307 -0.0056861572708003846 0 -0.019820883334727344 -0.0054198318078093636 0 -0.020340264117480421 -0.0060366842610209562 0 -0.029565319943284565 -0.0020397275898214702 0 -0.029561693296994089 -0.0023151492493292862 0 -0.029367911258273965 -0.002352554174691962 0 -0.029607207868836381 -0.0023391854325038458 0 -0.029561693296994089 -0.0023151492493292862 0 -0.029367911258273965 -0.002352554174691962 0 -0.033048159547151186 -0.0018007295291244214 0 -0.028434767262381741 -0.0038059022479742673 0 -0.03617485778363802 -0.0019974800213886364 0 -0.035977415114300394 -0.00203108995927943 0 -0.036231227509814737 -0.0017779897546128733 0 -0.023576819005440681 -0.003968421526142781 0 -0.028434767262381741 -0.0038059022479742673 0 -0.029607207868836381 -0.0023391854325038458 0 -0.029561693296994089 -0.0023151492493292862 0 -0.029593881966129439 -0.0023467834191093231 0 -0.029579158244360203 -0.0023523534813417717 0 -0.029607207868836381 -0.0023391854325038458 0 -0.029593881966129439 -0.0023467834191093231 0 -0.031390120639022467 -0.0041362248262475339 0 -0.031222751568715391 -0.0054572793547940377 0 -0.032579926988957869 -0.0046066195432483891 0 -0.019820883334727344 -0.0054198318078093636 0 -0.021042319709353708 -0.0055208259525630606 0 -0.020340264117480421 -0.0060366842610209562 0 -0.025781404826230692 -0.0049920279901946299 0 -0.028434767262381741 -0.0038059022479742673 0 -0.028434767262381741 -0.0038059022479742673 0 -0.033983717467239848 -0.0035824020736179587 0 -0.036465344424532961 -0.002059272547518949 0 -0.03617485778363802 -0.0019974800213886364 0 -0.036231227509814737 -0.0017779897546128733 0 -0.036465344424532961 -0.002059272547518949 0 -0.036231227509814737 -0.0017779897546128733 0 -0.036613422958341836 -0.0018247742456311946 0 -0.036465344424532961 -0.002059272547518949 0 -0.036613422958341836 -0.0018247742456311946 0 -0.037048617558786676 -0.0019281189351266807 0 -0.031390120639022467 -0.0041362248262475339 0 -0.030036911434497861 -0.00519085717740726 0 -0.031222751568715391 -0.0054572793547940377 0 -0.040369763936218106 -0.0010848998024235005 0 -0.03947479558442743 -0.001790188625830666 0 -0.033983717467239848 -0.0035824020736179587 0 -0.03947479558442743 -0.001790188625830666 0 -0.031222751568715391 -0.0054572793547940377 0 -0.03241246163868676 -0.0057147098200010455 0 -0.032579926988957869 -0.0046066195432483891 0 -0.03241246163868676 -0.0057147098200010455 0 -0.032579926988957869 -0.0046066195432483891 0 -0.034251819970729319 -0.0051538579293414844 0 -0.031390120639022467 -0.0041362248262475339 0 -0.032579926988957869 -0.0046066195432483891 0 -0.032713155957434306 -0.0030879619406422977 0 -0.032579926988957869 -0.0046066195432483891 0 -0.033480483258689339 -0.0041147060067010192 0 -0.032713155957434306 -0.0030879619406422977 0 -0.032579926988957869 -0.0046066195432483891 0 -0.033480483258689339 -0.0041147060067010192 0 -0.034251819970729319 -0.0051538579293414844 0 -0.029367433577097066 -0.0079516015337396575 0 -0.028169164489981482 -0.0078608078185086697 0 -0.028624958813383075 -0.0068650747375721549 0 -0.030918946837972729 -0.0060128426768542203 0 -0.037856895421034487 -0.0039653501089613472 0 -0.029367433577097066 -0.0079516015337396575 0 -0.028169164489981482 -0.0078608078185086697 0 -0.029013359451070076 -0.0095455459508697969 0 -0.03947479558442743 -0.001790188625830666 0 -0.037856895421034487 -0.0039653501089613472 0 -0.045868379640548664 -0.00022686612313001667 0 -0.03947479558442743 -0.001790188625830666 0 -0.044253216061224697 -0.00037338529368106038 0 -0.043257846425638 -0.0002447493565178852 0 -0.044199812336457034 7.5065468414960615e-06 0 -0.044718969283480986 -0.0012798630076845297 0 -0.0453404497274719 -0.0023001243621233857 0 -0.044519483203764754 -0.0020286552102787665 0 -0.044411038459275048 -0.00041772435081640502 0 -0.044253216061224697 -0.00037338529368106038 0 -0.044199812336457034 7.5065468414960615e-06 0 -0.0453404497274719 -0.0023001243621233857 0 -0.044519483203764754 -0.0020286552102787665 0 -0.043984619206366704 -0.0028052610383384764 0 -0.037856895421034487 -0.0039653501089613472 0 -0.03786696923719389 -0.0060460313301670919 0 -0.044823010300780466 -0.00093351285965866549 0 -0.037856895421034487 -0.0039653501089613472 0 -0.044718969283480986 -0.0012798630076845297 0 -0.044519483203764754 -0.0020286552102787665 0 -0.044017507544564606 -0.0017274785434854313 0 -0.044519483203764754 -0.0020286552102787665 0 -0.044017507544564606 -0.0017274785434854313 0 -0.043984619206366704 -0.0028052610383384764 0 -0.043484792129241966 -0.0013448583763893654 0 -0.042962300253743278 -0.0011665923082762515 0 -0.043279994583504969 -0.0020136036281215119 0 -0.043484792129241966 -0.0013448583763893654 0 -0.043279994583504969 -0.0020136036281215119 0 -0.044017507544564606 -0.0017274785434854313 0 -0.043279994583504969 -0.0020136036281215119 0 -0.044017507544564606 -0.0017274785434854313 0 -0.043984619206366704 -0.0028052610383384764 0 -0.035904138080491359 -0.0072666226997995347 0 -0.032142044765979594 -0.0089038585847850439 0 -0.033474277510471516 -0.0063642296794781247 0 -0.03914812748779644 -0.0054148296923565292 0 -0.03786696923719389 -0.0060460313301670919 0 -0.032142044765979594 -0.0089038585847850439 0 -0.029791226885820418 -0.0066730434580744586 0 -0.033474277510471516 -0.0063642296794781247 0 -0.042561075994929795 -0.0036410559522312602 0 -0.043279994583504969 -0.0020136036281215119 0 -0.043984619206366704 -0.0028052610383384764 0 -0.029367433577097066 -0.0079516015337396575 0 -0.029013359451070076 -0.0095455459508697969 0 -0.032142044765979594 -0.0089038585847850439 0 -0.029367433577097066 -0.0079516015337396575 0 -0.032142044765979594 -0.0089038585847850439 0 -0.029791226885820418 -0.0066730434580744586 0 -0.035174897580697743 -0.0053212247519217925 0 -0.033474277510471516 -0.0063642296794781247 0 -0.033897565819342355 -0.0036988897060381077 0 -0.029791226885820418 -0.0066730434580744586 0 -0.033474277510471516 -0.0063642296794781247 0 -0.033897565819342355 -0.0036988897060381077 0 -0.029955200273348446 -0.0066016268258849301 0 -0.032205612399284538 -0.0052068438026709341 0 -0.029791226885820418 -0.0066730434580744586 0 -0.028800551206679393 -0.0058562786890356874 0 -0.028712916770667996 -0.0060598393973154748 0 -0.029791226885820418 -0.0066730434580744586 0 -0.030524796425772695 -0.0065814469245143526 0 -0.028800551206679393 -0.0058562786890356874 0 -0.025385564341332382 -0.0043673818428023427 0 -0.026395604009471666 -0.0075993012477553502 0 -0.02444245474497252 -0.0064123199947550506 0 -0.027530721635470067 -0.0043815531526974734 0 -0.028800551206679393 -0.0058562786890356874 0 -0.026395604009471666 -0.0075993012477553502 0 -0.028794366543937248 -0.005853858211030346 0 -0.027268039145527383 -0.007063675044949245 0 -0.021164469441277818 -0.0051147424443159038 0 -0.026978525942245413 -0.0059487725234800759 0 -0.026395604009471666 -0.0075993012477553502 0 -0.02444245474497252 -0.0064123199947550506 0 -0.024336836414860567 -0.009181659110955042 0 -0.022276915095175459 -0.0061620316293360608 0 -0.02444245474497252 -0.0064123199947550506 0 -0.024336836414860567 -0.009181659110955042 0 -0.025781404826230692 -0.0049920279901946299 0 -0.026978525942245413 -0.0059487725234800759 0 -0.030918946837972729 -0.0060128426768542203 0 -0.026978525942245413 -0.0059487725234800759 0 -0.028169164489981482 -0.0078608078185086697 0 -0.027601433859628793 -0.0066943412702726397 0 -0.028624958813383075 -0.0068650747375721549 0 -0.029367433577097066 -0.0079516015337396575 0 -0.029791226885820418 -0.0066730434580744586 0 -0.028624958813383075 -0.0068650747375721549 0 -0.029791226885820418 -0.0066730434580744586 0 -0.028712916770667996 -0.0060598393973154748 0 -0.028624958813383075 -0.0068650747375721549 0 -0.028712916770667996 -0.0060598393973154748 0 -0.027601433859628793 -0.0066943412702726397 0 -0.028624958813383075 -0.0068650747375721549 0 -0.027268039145527383 -0.007063675044949245 0 -0.026978525942245413 -0.0059487725234800759 0 -0.034561449992576494 1.1090935683112456e-05 0 -0.034201414416845842 -0.00050385766147407834 0 -0.03370557505955793 0.00024391619049765747 0 -0.038626340518657522 -0.00048401324018356167 0 -0.037705748195274717 -0.00069031721054852867 0 -0.038222415356744859 -0.00033922292356973769 0 -0.036179619012326407 -0.00046497041054998516 0 -0.03623624007211583 -0.00033946025546162541 0 -0.036078428839769618 -0.00035507391521813101 0 -0.038178336091190715 -0.00079462141709233888 0 -0.036412359338266864 -0.00035478699520706124 0 -0.034049794839643294 -0.00032651153051758167 0 -0.036359569959383074 5.7055290428839481e-05 0 -0.035310478425924892 0.00095765396342505581 0 -0.035213218950916045 0.00081715560765088931 0 -0.034984078879034659 0.0010821203370121276 0 -0.036179619012326407 -0.00046497041054998516 0 -0.036254907822453088 -0.00037056634565661392 0 -0.03623624007211583 -0.00033946025546162541 0 -0.036359569959383074 5.7055290428839481e-05 0 -0.037758161408756166 -8.2980152239541145e-05 0 -0.037049817285363301 -0.00049494346656770111 0 -0.037276714948415814 -0.00017697544358898483 0 -0.036871171526027834 -0.00021465144014120547 0 -0.037758161408756166 -8.2980152239541145e-05 0 -0.038178336091190715 -0.00079462141709233888 0 -0.036359569959383074 5.7055290428839481e-05 0 -0.038178336091190715 -0.00079462141709233888 0 -0.035920315404050294 -2.8129103472310144e-06 0 -0.034849330012603444 9.1319763793408771e-07 0 -0.037017313738322795 -9.2444461820910052e-07 0 -0.035609067298379149 -8.0878030050289087e-05 0 -0.035920315404050294 -2.8129103472310144e-06 0 -0.037017313738322795 -9.2444461820910052e-07 0 -0.035473585203844443 -6.2452172336856487e-05 0 -0.035920315404050294 -2.8129103472310144e-06 0 -0.035210070622734443 5.3208078734960767e-05 0 -0.036412359338266864 -0.00035478699520706124 0 -0.036156197620067616 -0.00032382726657095628 0 -0.035920315404050294 -2.8129103472310144e-06 0 -0.035210070622734443 5.3208078734960767e-05 0 -0.034849330012603444 9.1319763793408771e-07 0 -0.034049794839643294 -0.00032651153051758167 0 -0.036412359338266864 -0.00035478699520706124 0 -0.035017202147678853 4.9432216506393241e-05 0 -0.035473585203844443 -6.2452172336856487e-05 0 -0.035210070622734443 5.3208078734960767e-05 0 -0.034049794839643294 -0.00032651153051758167 0 -0.033242973818015865 -0.00034565617290005263 0 -0.035017202147678853 4.9432216506393241e-05 0 -0.035210070622734443 5.3208078734960767e-05 0 -0.034543862793317365 1.3395050512841514e-06 0 -0.035210070622734443 5.3208078734960767e-05 0 -0.034849330012603444 9.1319763793408771e-07 0 -0.034543862793317365 1.3395050512841514e-06 0 -0.034849330012603444 9.1319763793408771e-07 0 -0.034543862793317365 1.3395050512841514e-06 0 -0.032681292738939043 -9.1665252072849797e-07 0 -0.031675261912971736 -0.0013942475449932833 0 -0.032147282011743959 -0.00073853095843509154 0 -0.031455399359530671 -1.9350714347257565e-05 0 -0.034049794839643294 -0.00032651153051758167 0 -0.031817725875802318 -1.4363171751556512e-05 0 -0.03370557505955793 0.00024391619049765747 0 -0.033475071624627289 0.001114862189610879 0 -0.033210815010793059 0.0009921862813131589 0 -0.034561449992576494 1.1090935683112456e-05 0 -0.03370557505955793 0.00024391619049765747 0 -0.033475071624627289 0.001114862189610879 0 -0.034222308607617352 0.0010272042560627583 0 -0.033033677720160783 0.0006838182399753987 0 -0.034622483427525587 0.001625342703684386 0 -0.034951045823692482 0.0014783798404898487 0 -0.034609086317715816 0.0019698341201305884 0 -0.034622483427525587 0.001625342703684386 0 -0.034951045823692482 0.0014783798404898487 0 -0.034511412831974148 0.0013163504108237856 0 -0.034622483427525587 0.001625342703684386 0 -0.034352988487799482 0.0018497015538687723 0 -0.034609086317715816 0.0019698341201305884 0 -0.034352988487799482 0.0018497015538687723 0 -0.034132243661352646 0.0013224709253381003 0 -0.034511412831974148 0.0013163504108237856 0 -0.034622483427525587 0.001625342703684386 0 -0.034352988487799482 0.0018497015538687723 0 -0.034511412831974148 0.0013163504108237856 0 -0.033117950713431779 0.00086789192918360688 0 -0.034151966990688384 0.0014736621516955016 0 -0.034151966990688384 0.0014736621516955016 0 -0.033898948418088375 0.00081789238347259978 0 -0.034511412831974148 0.0013163504108237856 0 -0.034278519772877936 0.0010491781640484198 0 -0.034656174146379469 0.0010101855577357515 0 -0.034132243661352646 0.0013224709253381003 0 -0.034511412831974148 0.0013163504108237856 0 -0.034278519772877936 0.0010491781640484198 0 -0.034278519772877936 0.0010491781640484198 0 -0.034656174146379469 0.0010101855577357515 0 -0.034148337971791745 0.00076756047373362712 0 -0.034132243661352646 0.0013224709253381003 0 -0.034278519772877936 0.0010491781640484198 0 -0.033912410444858918 0.00082538359751345327 0 -0.034278519772877936 0.0010491781640484198 0 -0.034148337971791745 0.00076756047373362712 0 -0.033912410444858918 0.00082538359751345327 0 -0.035213218950916045 0.00081715560765088931 0 -0.034656174146379469 0.0010101855577357515 0 -0.034148337971791745 0.00076756047373362712 0 -0.037758161408756166 -8.2980152239541145e-05 0 -0.036921440785718324 0.00080811818785766413 0 -0.036359569959383074 5.7055290428839481e-05 0 -0.034222308607617352 0.0010272042560627583 0 -0.035310478425924892 0.00095765396342505581 0 -0.034951045823692482 0.0014783798404898487 0 -0.034984078879034659 0.0010821203370121276 0 -0.034951045823692482 0.0014783798404898487 0 -0.034511412831974148 0.0013163504108237856 0 -0.034984078879034659 0.0010821203370121276 0 -0.034511412831974148 0.0013163504108237856 0 -0.034984078879034659 0.0010821203370121276 0 -0.034656174146379469 0.0010101855577357515 0 -0.035213218950916045 0.00081715560765088931 0 -0.034984078879034659 0.0010821203370121276 0 -0.034656174146379469 0.0010101855577357515 0 -0.041785107070409826 -0.0027925284156386306 0 -0.042667394574684096 -0.0013802106922926364 0 -0.041549454952315851 -0.0020337837909621985 0 -0.037758161408756166 -8.2980152239541145e-05 0 -0.040995164239812469 3.3342484930582181e-05 0 -0.038457604705014678 0.00048763043258295792 0 -0.040098801333099836 0.00065288492630762029 0 -0.03919076508302894 0.0015030690451689884 0 -0.040098801333099836 0.00065288492630762029 0 -0.03919076508302894 0.0015030690451689884 0 -0.040463784573390602 0.001638953244754764 0 -0.040995164239812469 3.3342484930582181e-05 0 -0.04313067521863833 0.00039298607991502599 0 -0.03919076508302894 0.0015030690451689884 0 -0.039929188368252641 0.0024996513700991144 0 -0.040463784573390602 0.001638953244754764 0 -0.042667394574684096 -0.0013802106922926364 0 -0.04241240756875099 -0.00014230219456486115 0 -0.0433195540634718 -0.00039881453989954965 0 -0.042667394574684096 -0.0013802106922926364 0 -0.041546797189474224 -0.00066211889635615657 0 -0.04241240756875099 -0.00014230219456486115 0 -0.042667394574684096 -0.0013802106922926364 0 -0.041546797189474224 -0.00066211889635615657 0 -0.041549454952315851 -0.0020337837909621985 0 -0.041546797189474224 -0.00066211889635615657 0 -0.041549454952315851 -0.0020337837909621985 0 -0.040661102994369855 -0.0018742356729078624 0 -0.038626340518657522 -0.00048401324018356167 0 -0.038220456902488431 -0.00012072247739327018 0 -0.038222415356744859 -0.00033922292356973769 0 -0.041422509422878138 -0.0028368802512252116 0 -0.041549454952315851 -0.0020337837909621985 0 -0.040661102994369855 -0.0018742356729078624 0 -0.038178336091190715 -0.00079462141709233888 0 -0.039624281505427336 -0.0011690493393151158 0 -0.041785107070409826 -0.0027925284156386306 0 -0.041422509422878138 -0.0028368802512252116 0 -0.041549454952315851 -0.0020337837909621985 0 -0.037705748195274717 -0.00069031721054852867 0 -0.038222415356744859 -0.00033922292356973769 0 -0.037022473676342239 -1.2850979329121673e-06 0 -0.038222415356744859 -0.00033922292356973769 0 -0.037022473676342239 -1.2850979329121673e-06 0 -0.038352946677045863 -7.9664139050760139e-05 0 -0.036412359338266864 -0.00035478699520706124 0 -0.037018648849548752 -2.1825788316992288e-07 0 -0.038220456902488431 -0.00012072247739327018 0 -0.038222415356744859 -0.00033922292356973769 0 -0.038352946677045863 -7.9664139050760139e-05 0 -0.041546797189474224 -0.00066211889635615657 0 -0.03938121350687241 -0.00023857421629515236 0 -0.040766499819677879 -0.00013748702620597955 0 -0.041546797189474224 -0.00066211889635615657 0 -0.040661102994369855 -0.0018742356729078624 0 -0.03938121350687241 -0.00023857421629515236 0 -0.037022473676342239 -1.2850979329121673e-06 0 -0.038352946677045863 -7.9664139050760139e-05 0 -0.039486700957395669 -6.4411930288494618e-07 0 -0.038352946677045863 -7.9664139050760139e-05 0 -0.03938121350687241 -0.00023857421629515236 0 -0.039486700957395669 -6.4411930288494618e-07 0 -0.039624281505427336 -0.0011690493393151158 0 -0.039217168365159906 -0.00021978094489318985 0 -0.038220456902488431 -0.00012072247739327018 0 -0.038352946677045863 -7.9664139050760139e-05 0 -0.03938121350687241 -0.00023857421629515236 0 -0.03938121350687241 -0.00023857421629515236 0 -0.039486700957395669 -6.4411930288494618e-07 0 -0.040766499819677879 -0.00013748702620597955 0 -0.039486700957395669 -6.4411930288494618e-07 0 -0.04144005086075072 -2.8115522059374792e-06 0 -0.041953543912999089 1.1018708583765429e-06 0 -0.039486700957395669 -6.4411930288494618e-07 0 -0.040766499819677879 -0.00013748702620597955 0 -0.04144005086075072 -2.8115522059374792e-06 0 -0.040766499819677879 -0.00013748702620597955 0 -0.04144005086075072 -2.8115522059374792e-06 0 -0.0420862596384955 -0.00017192164416912352 0 -0.042180977876119269 -0.00020883555210673326 0 -0.043218912870495702 -0.00051117293735434188 0 -0.041546797189474224 -0.00066211889635615657 0 -0.0420862596384955 -0.00017192164416912352 0 -0.04241240756875099 -0.00014230219456486115 0 -0.041546797189474224 -0.00066211889635615657 0 -0.040766499819677879 -0.00013748702620597955 0 -0.0420862596384955 -0.00017192164416912352 0 -0.0420862596384955 -0.00017192164416912352 0 -0.042919472125557988 0.00015883445017360407 0 -0.04342968341404245 -4.4506496129811161e-05 0 -0.042919472125557988 0.00015883445017360407 0 -0.044134896306197574 0.00018304578761200725 0 -0.04342968341404245 -4.4506496129811161e-05 0 -0.04144005086075072 -2.8115522059374792e-06 0 -0.0420862596384955 -0.00017192164416912352 0 -0.042919472125557988 0.00015883445017360407 0 -0.04144005086075072 -2.8115522059374792e-06 0 -0.042919472125557988 0.00015883445017360407 0 -0.041953543912999089 1.1018708583765429e-06 0 -0.042919472125557988 0.00015883445017360407 0 -0.041953543912999089 1.1018708583765429e-06 0 -0.043450635666498844 0.00030123787294801307 0 -0.042919472125557988 0.00015883445017360407 0 -0.043450635666498844 0.00030123787294801307 0 -0.044116215121291838 0.00025745491213102935 0 -0.041954798693275328 -2.6376963585218602e-07 0 -0.043713185651697947 1.164194367199414e-07 0 -0.044999308505123153 1.7633351392189613e-07 0 -0.041954077721290867 1.6530545806954212e-08 0 -0.043558702187857692 0.00013831916140751266 0 -0.042919472125557988 0.00015883445017360407 0 -0.044116215121291838 0.00025745491213102935 0 -0.044134896306197574 0.00018304578761200725 0 -0.044116215121291838 0.00025745491213102935 0 -0.044997086886528828 6.4449663702976147e-07 0 -0.044999166610250801 3.6994806956649583e-07 0 -0.043713185651697947 1.164194367199414e-07 0 -0.044999759466506799 -8.68129797703532e-08 0 -0.044999308505123153 1.7633351392189613e-07 0 -0.043558702187857692 0.00013831916140751266 0 -0.044999200189004773 9.1682508610926804e-08 0 -0.043450635666498844 0.00030123787294801307 0 -0.044116215121291838 0.00025745491213102935 0 -0.044997086886528828 6.4449663702976147e-07 0 -0.044999166610250801 3.6994806956649583e-07 0 -0.04474198089623839 0.00011232258610041053 0 -0.04499984163354534 9.4051227351549526e-08 0 -0.044999166610250801 3.6994806956649583e-07 0 -0.044134896306197574 0.00018304578761200725 0 -0.04474198089623839 0.00011232258610041053 0 -0.044116215121291838 0.00025745491213102935 0 -0.044999166610250801 3.6994806956649583e-07 0 -0.044134896306197574 0.00018304578761200725 0 -0.044134896306197574 0.00018304578761200725 0 -0.04474198089623839 0.00011232258610041053 0 -0.044321797693819109 -0.0001918877976324817 0 -0.04474198089623839 0.00011232258610041053 0 -0.044321797693819109 -0.0001918877976324817 0 -0.044878300473204749 -0.00018231434471575246 0 -0.044321797693819109 -0.0001918877976324817 0 -0.04342968341404245 -4.4506496129811161e-05 0 -0.043723373657342177 -0.00083926582079308818 0 -0.044134896306197574 0.00018304578761200725 0 -0.044321797693819109 -0.0001918877976324817 0 -0.04342968341404245 -4.4506496129811161e-05 0 -0.0420862596384955 -0.00017192164416912352 0 -0.04342968341404245 -4.4506496129811161e-05 0 -0.043723373657342177 -0.00083926582079308818 0 -0.043218912870495702 -0.00051117293735434188 0 -0.04313067521863833 0.00039298607991502599 0 -0.044321797693819109 -0.0001918877976324817 0 -0.044474757485680569 -0.00094629660157822745 0 -0.044878300473204749 -0.00018231434471575246 0 -0.04313067521863833 0.00039298607991502599 0 -0.045425880523514851 0.00022014411655377236 0 -0.044321797693819109 -0.0001918877976324817 0 -0.043723373657342177 -0.00083926582079308818 0 -0.044474757485680569 -0.00094629660157822745 0 -0.045699559709921164 0.00092081855396555334 0 -0.045251533203600217 0.00075764965360226584 0 -0.045487049127007247 0.00058555450235716667 0 -0.045699559709921164 0.00092081855396555334 0 -0.045251533203600217 0.00075764965360226584 0 -0.045282774534594186 0.0010818758992011798 0 -0.045251533203600217 0.00075764965360226584 0 -0.044996409377112433 0.00097340128804173178 0 -0.045282774534594186 0.0010818758992011798 0 -0.045251533203600217 0.00075764965360226584 0 -0.045487049127007247 0.00058555450235716667 0 -0.045245343575993281 0.0002341365918639891 0 -0.045251533203600217 0.00075764965360226584 0 -0.045245343575993281 0.0002341365918639891 0 -0.045018698388461648 0.00035985113943201661 0 -0.045425880523514851 0.00022014411655377236 0 -0.045082996783138651 0.00012290839127617178 0 -0.04474198089623839 0.00011232258610041053 0 -0.044878300473204749 -0.00018231434471575246 0 -0.044988943489572893 4.4013106186014903e-05 0 -0.045245343575993281 0.0002341365918639891 0 -0.045000326787266218 -8.2290726623099212e-08 0 -0.045018698388461648 0.00035985113943201661 0 -0.045082996783138651 0.00012290839127617178 0 -0.045000074290075034 8.0584404212978122e-08 0 -0.044988943489572893 4.4013106186014903e-05 0 -0.04499984163354534 9.4051227351549526e-08 0 -0.045000034458645123 -2.2090616039776881e-08 0 -0.04474198089623839 0.00011232258610041053 0 -0.044988943489572893 4.4013106186014903e-05 0 -0.04499984163354534 9.4051227351549526e-08 0 -0.044999692849038465 1.1612427615930494e-07 0 -0.045000326787266218 -8.2290726623099212e-08 0 -0.044891203132401455 0.00013689458559318962 0 -0.044999692849038465 1.1612427615930494e-07 0 -0.044891203132401455 0.00013689458559318962 0 -0.044974028933403569 8.4351443871772961e-05 0 -0.045000326787266218 -8.2290726623099212e-08 0 -0.045018698388461648 0.00035985113943201661 0 -0.044891203132401455 0.00013689458559318962 0 -0.045018698388461648 0.00035985113943201661 0 -0.044891203132401455 0.00013689458559318962 0 -0.044682962780499387 0.00064112755617988981 0 -0.044868282911513603 0.00016053632210275018 0 -0.044683746764340525 0.00036016542857073952 0 -0.044891203132401455 0.00013689458559318962 0 -0.044682962780499387 0.00064112755617988981 0 -0.04434538548979465 0.00047941980314806609 0 -0.045251533203600217 0.00075764965360226584 0 -0.045018698388461648 0.00035985113943201661 0 -0.04492989916842776 0.00075262314542021613 0 -0.045018698388461648 0.00035985113943201661 0 -0.044682962780499387 0.00064112755617988981 0 -0.04492989916842776 0.00075262314542021613 0 -0.045251533203600217 0.00075764965360226584 0 -0.04492989916842776 0.00075262314542021613 0 -0.044996409377112433 0.00097340128804173178 0 -0.04492989916842776 0.00075262314542021613 0 -0.044996409377112433 0.00097340128804173178 0 -0.044679690864344528 0.00098061104161093014 0 -0.044682962780499387 0.00064112755617988981 0 -0.044679690864344528 0.00098061104161093014 0 -0.044365262906079957 0.00099084060380356183 0 -0.044682962780499387 0.00064112755617988981 0 -0.04492989916842776 0.00075262314542021613 0 -0.044679690864344528 0.00098061104161093014 0 -0.044385279942676742 0.0011942831281990982 0 -0.044789356185541973 0.0013140226508052896 0 -0.043974784429890057 0.0013693902882521711 0 -0.044679690864344528 0.00098061104161093014 0 -0.044385279942676742 0.0011942831281990982 0 -0.044789356185541973 0.0013140226508052896 0 -0.044679690864344528 0.00098061104161093014 0 -0.044385279942676742 0.0011942831281990982 0 -0.044365262906079957 0.00099084060380356183 0 -0.032842763022509561 0.0010457712340842795 0 -0.032929834942541363 0.0010365160365716831 0 -0.033087292111835941 0.0010478658292754756 0 -0.043307653659399058 0.0011315819287001554 0 -0.042900051316300175 0.0016678057489713126 0 -0.043974784429890057 0.0013693902882521711 0 -0.043865963773531129 0.0014493937047536005 0 -0.043972916121842245 0.0013924476346582086 0 -0.038083807325795666 0.0010949698958328375 0 -0.037543454305850432 0.00081699646712075252 0 -0.032842763022509561 0.0010457712340842795 0 -0.033244478585241169 0.00079702199712019606 0 -0.032929834942541363 0.0010365160365716831 0 -0.043307653659399058 0.0011315819287001554 0 -0.042900051316300175 0.0016678057489713126 0 -0.041739676871192802 0.00083941101989687622 0 -0.043865963773531129 0.0014493937047536005 0 -0.043241746997614398 0.0017741925844052004 0 -0.044996409377112433 0.00097340128804173178 0 -0.044789356185541973 0.0013140226508052896 0 -0.045282774534594186 0.0010818758992011798 0 -0.044996409377112433 0.00097340128804173178 0 -0.044679690864344528 0.00098061104161093014 0 -0.044789356185541973 0.0013140226508052896 0 -0.042900051316300175 0.0016678057489713126 0 -0.041411019327265965 0.002078371622725866 0 -0.041739676871192802 0.00083941101989687622 0 -0.041411019327265965 0.002078371622725866 0 -0.040463784573390602 0.001638953244754764 0 -0.041739676871192802 0.00083941101989687622 0 -0.039929188368252641 0.0024996513700991144 0 -0.041411019327265965 0.002078371622725866 0 -0.040463784573390602 0.001638953244754764 0 -0.04313067521863833 0.00039298607991502599 0 -0.043241746997614398 0.0017741925844052004 0 -0.034148337971791745 0.00076756047373362712 0 -0.033244478585241169 0.00079702199712019606 0 -0.033912410444858918 0.00082538359751345327 0 -0.040098801333099836 0.00065288492630762029 0 -0.040463784573390602 0.001638953244754764 0 -0.041739676871192802 0.00083941101989687622 0 -0.036921440785718324 0.00080811818785766413 0 -0.037543454305850432 0.00081699646712075252 0 -0.032525564071546081 0.00047610278835453926 0 -0.032457709741130054 0.0006287514726257109 0 -0.033244478585241169 0.00079702199712019606 0 -0.033526174959911136 0.0010144161271711102 0 -0.032929834942541363 0.0010365160365716831 0 -0.033526174959911136 0.0010144161271711102 0 -0.033548589609824986 0.0013511184377854321 0 -0.032929834942541363 0.0010365160365716831 0 -0.033244478585241169 0.00079702199712019606 0 -0.033912410444858918 0.00082538359751345327 0 -0.033526174959911136 0.0010144161271711102 0 -0.034027351954694571 0.0012523854597308471 0 -0.033752227270867172 0.0011186088531140159 0 -0.033548589609824986 0.0013511184377854321 0 -0.033912410444858918 0.00082538359751345327 0 -0.033526174959911136 0.0010144161271711102 0 -0.033752227270867172 0.0011186088531140159 0 -0.033526174959911136 0.0010144161271711102 0 -0.033752227270867172 0.0011186088531140159 0 -0.033548589609824986 0.0013511184377854321 0 -0.034027351954694571 0.0012523854597308471 0 -0.033912410444858918 0.00082538359751345327 0 -0.033752227270867172 0.0011186088531140159 0 -0.033117950713431779 0.00086789192918360688 0 -0.032525564071546081 0.00047610278835453926 0 -0.034184527585663524 0.0016356244537304937 0 -0.034027351954694571 0.0012523854597308471 0 -0.033548589609824986 0.0013511184377854321 0 -0.031531681587486017 -0.00044674907228645983 0 -0.031629525556913465 -0.00032571069371362316 0 -0.03161969033312978 -0.00051975389907522017 0 -0.031629525556913465 -0.00032571069371362316 0 -0.031799012814840974 -0.00039370633761986004 0 -0.031726816276299953 -0.00050026247108598675 0 -0.031629525556913465 -0.00032571069371362316 0 -0.031799012814840974 -0.00039370633761986004 0 -0.031852501774608501 0.00016128378258677443 0 -0.031799012814840974 -0.00039370633761986004 0 -0.032073722697357997 -0.00054968336206604124 0 -0.031852501774608501 0.00016128378258677443 0 -0.032073722697357997 -0.00054968336206604124 0 -0.032538947696013176 -5.1203776799296807e-05 0 -0.031852501774608501 0.00016128378258677443 0 -0.032073722697357997 -0.00054968336206604124 0 -0.032538947696013176 -5.1203776799296807e-05 0 -0.032329361678725438 -0.00093886128599182932 0 -0.032457709741130054 0.0006287514726257109 0 -0.033051049605426402 0.001010023216938005 0 -0.032538947696013176 -5.1203776799296807e-05 0 -0.031852501774608501 0.00016128378258677443 0 -0.033087292111835941 0.0010478658292754756 0 -0.034216374511498032 0.0007350277476779048 0 -0.033546980456723323 4.3283475515664359e-05 0 -0.035033340638426301 0.00026194819145786233 0 -0.034216374511498032 0.0007350277476779048 0 -0.033556988821743856 0.00079139992512708857 0 -0.033546980456723323 4.3283475515664359e-05 0 -0.034216374511498032 0.0007350277476779048 0 -0.035033340638426301 0.00026194819145786233 0 -0.035126891490085271 0.0010593860237779129 0 -0.032538947696013176 -5.1203776799296807e-05 0 -0.033176952654093241 0.00046859589038314491 0 -0.033087292111835941 0.0010478658292754756 0 -0.032538947696013176 -5.1203776799296807e-05 0 -0.033176952654093241 0.00046859589038314491 0 -0.033546980456723323 4.3283475515664359e-05 0 -0.033556988821743856 0.00079139992512708857 0 -0.033176952654093241 0.00046859589038314491 0 -0.033087292111835941 0.0010478658292754756 0 -0.033556988821743856 0.00079139992512708857 0 -0.033176952654093241 0.00046859589038314491 0 -0.033546980456723323 4.3283475515664359e-05 0 -0.033546980456723323 4.3283475515664359e-05 0 -0.034630870568968498 -0.0014625052630904409 0 -0.032329361678725438 -0.00093886128599182932 0 -0.032538947696013176 -5.1203776799296807e-05 0 -0.033546980456723323 4.3283475515664359e-05 0 -0.032329361678725438 -0.00093886128599182932 0 -0.033546980456723323 4.3283475515664359e-05 0 -0.035033340638426301 0.00026194819145786233 0 -0.034630870568968498 -0.0014625052630904409 0 -0.03641263138515631 -0.00025287150060967947 0 -0.036873521562259801 -0.0015421131284165653 0 -0.034630870568968498 -0.0014625052630904409 0 -0.03641263138515631 -0.00025287150060967947 0 -0.035033340638426301 0.00026194819145786233 0 -0.034630870568968498 -0.0014625052630904409 0 -0.03641263138515631 -0.00025287150060967947 0 -0.037689148072932027 -5.6805187721252668e-06 0 -0.036873521562259801 -0.0015421131284165653 0 -0.036301536728383169 0.00067380356830984715 0 -0.037429633090627731 0.0010486442485639011 0 -0.037689148072932027 -5.6805187721252668e-06 0 -0.03641263138515631 -0.00025287150060967947 0 -0.036301536728383169 0.00067380356830984715 0 -0.037689148072932027 -5.6805187721252668e-06 0 -0.03641263138515631 -0.00025287150060967947 0 -0.036301536728383169 0.00067380356830984715 0 -0.035033340638426301 0.00026194819145786233 0 -0.036301536728383169 0.00067380356830984715 0 -0.035033340638426301 0.00026194819145786233 0 -0.035126891490085271 0.0010593860237779129 0 -0.036301536728383169 0.00067380356830984715 0 -0.035126891490085271 0.0010593860237779129 0 -0.03628935632632229 0.0019005832568483555 0 -0.039958072500302977 0.0017837909189060374 0 -0.039094447408510369 0.0014611291897993995 0 -0.043672378051801346 0.0017050013989037419 0 -0.043985062984456744 0.0013734544137353718 0 -0.044272894435454187 0.0013862772735025611 0 -0.035126891490085271 0.0010593860237779129 0 -0.03628935632632229 0.0019005832568483555 0 -0.033914606462066101 0.0015355422738253537 0 -0.036301536728383169 0.00067380356830984715 0 -0.03628935632632229 0.0019005832568483555 0 -0.037429633090627731 0.0010486442485639011 0 -0.043377228121051617 0.0016543728208835401 0 -0.04399468627424475 0.0011735789103097969 0 -0.043297585653097111 0.0016981711211909235 0 -0.043672378051801346 0.0017050013989037419 0 -0.043784438861877474 0.0011482055817920911 0 -0.043297585653097111 0.0016981711211909235 0 -0.043560558431357047 0.0011669882294874272 0 -0.044246075342507275 0.0012076748295226302 0 -0.043672378051801346 0.0017050013989037419 0 -0.043985062984456744 0.0013734544137353718 0 -0.043784438861877474 0.0011482055817920911 0 -0.043985062984456744 0.0013734544137353718 0 -0.043784438861877474 0.0011482055817920911 0 -0.044011198387668947 0.0011687990482733637 0 -0.044011198387668947 0.0011687990482733637 0 -0.044149642434653982 0.0012018489849049238 0 -0.044124789203432109 0.0013168040654823732 0 -0.044149642434653982 0.0012018489849049238 0 -0.044124789203432109 0.0013168040654823732 0 -0.044144745946179356 0.0013574244872209345 0 -0.043985062984456744 0.0013734544137353718 0 -0.044011198387668947 0.0011687990482733637 0 -0.044124789203432109 0.0013168040654823732 0 -0.043985062984456744 0.0013734544137353718 0 -0.044124789203432109 0.0013168040654823732 0 -0.044272894435454187 0.0013862772735025611 0 -0.044124789203432109 0.0013168040654823732 0 -0.044144745946179356 0.0013574244872209345 0 -0.044272894435454187 0.0013862772735025611 0 -0.034216374511498032 0.0007350277476779048 0 -0.033556988821743856 0.00079139992512708857 0 -0.033914606462066101 0.0015355422738253537 0 -0.034216374511498032 0.0007350277476779048 0 -0.035126891490085271 0.0010593860237779129 0 -0.033914606462066101 0.0015355422738253537 0 -0.033556988821743856 0.00079139992512708857 0 -0.033914606462066101 0.0015355422738253537 0 -0.033087292111835941 0.0010478658292754756 0 -0.032842763022509561 0.0010457712340842795 0 -0.033914606462066101 0.0015355422738253537 0 -0.033087292111835941 0.0010478658292754756 0 -0.043307653659399058 0.0011315819287001554 0 -0.044272894435454187 0.0013862772735025611 0 -0.043974784429890057 0.0013693902882521711 0 -0.038083807325795666 0.0010949698958328375 0 -0.039094447408510369 0.0014611291897993995 0 -0.044144745946179356 0.0013574244872209345 0 -0.044272894435454187 0.0013862772735025611 0 -0.043974784429890057 0.0013693902882521711 0 -0.044385279942676742 0.0011942831281990982 0 -0.043974784429890057 0.0013693902882521711 0 -0.044193410650745543 0.0012534245723086451 0 -0.044149642434653982 0.0012018489849049238 0 -0.044144745946179356 0.0013574244872209345 0 -0.044193410650745543 0.0012534245723086451 0 -0.044144745946179356 0.0013574244872209345 0 -0.043974784429890057 0.0013693902882521711 0 -0.044193410650745543 0.0012534245723086451 0 -0.044149642434653982 0.0012018489849049238 0 -0.044193410650745543 0.0012534245723086451 0 -0.044365262906079957 0.00099084060380356183 0 -0.044385279942676742 0.0011942831281990982 0 -0.044193410650745543 0.0012534245723086451 0 -0.044365262906079957 0.00099084060380356183 0 -0.044149642434653982 0.0012018489849049238 0 -0.044365262906079957 0.00099084060380356183 0 -0.044026145860490043 0.00084758910204861635 0 -0.044365262906079957 0.00099084060380356183 0 -0.044026145860490043 0.00084758910204861635 0 -0.04434538548979465 0.00047941980314806609 0 -0.044011198387668947 0.0011687990482733637 0 -0.044149642434653982 0.0012018489849049238 0 -0.044026145860490043 0.00084758910204861635 0 -0.044836667433892689 0.00060859717443611215 0 -0.045022789803599209 0.000209878179508742 0 -0.044822681696300493 0.00012680988152236373 0 -0.044836667433892689 0.00060859717443611215 0 -0.044822681696300493 0.00012680988152236373 0 -0.044460910780139751 0.00049727091868138678 0 -0.044423957233962065 0.00072701627824650129 0 -0.044683746764340525 0.00036016542857073952 0 -0.044682962780499387 0.00064112755617988981 0 -0.044365262906079957 0.00099084060380356183 0 -0.04434538548979465 0.00047941980314806609 0 -0.044891203132401455 0.00013689458559318962 0 -0.045022789803599209 0.000209878179508742 0 -0.044974028933403569 8.4351443871772961e-05 0 -0.045022789803599209 0.000209878179508742 0 -0.044974028933403569 8.4351443871772961e-05 0 -0.044822681696300493 0.00012680988152236373 0 -0.044822681696300493 0.00012680988152236373 0 -0.045000230728847491 2.135762823082288e-07 0 -0.04470847957098191 -2.7838691846475017e-05 0 -0.044974028933403569 8.4351443871772961e-05 0 -0.044822681696300493 0.00012680988152236373 0 -0.045000230728847491 2.135762823082288e-07 0 -0.044999692849038465 1.1612427615930494e-07 0 -0.044974028933403569 8.4351443871772961e-05 0 -0.045000230728847491 2.135762823082288e-07 0 -0.044998069842122956 -1.2314821462054604e-06 0 -0.04470847957098191 -2.7838691846475017e-05 0 -0.044287908778461622 -8.1450154115036258e-05 0 -0.044999605849164154 -4.8320733595671206e-08 0 -0.044182637023012394 -0.0001847789521825496 0 -0.044998069842122956 -1.2314821462054604e-06 0 -0.044287908778461622 -8.1450154115036258e-05 0 -0.043443911969165049 -0.00047451657697143484 0 -0.045000230728847491 2.135762823082288e-07 0 -0.044998069842122956 -1.2314821462054604e-06 0 -0.04470847957098191 -2.7838691846475017e-05 0 -0.044822681696300493 0.00012680988152236373 0 -0.04470847957098191 -2.7838691846475017e-05 0 -0.044357719240842954 0.00016813488165135868 0 -0.044357719240842954 0.00016813488165135868 0 -0.044287908778461622 -8.1450154115036258e-05 0 -0.043656883072299368 0.00020293753297476861 0 -0.04470847957098191 -2.7838691846475017e-05 0 -0.044357719240842954 0.00016813488165135868 0 -0.044287908778461622 -8.1450154115036258e-05 0 -0.044357719240842954 0.00016813488165135868 0 -0.043932045233942174 0.00064978924330564528 0 -0.043656883072299368 0.00020293753297476861 0 -0.044357719240842954 0.00016813488165135868 0 -0.044460910780139751 0.00049727091868138678 0 -0.043932045233942174 0.00064978924330564528 0 -0.044822681696300493 0.00012680988152236373 0 -0.044357719240842954 0.00016813488165135868 0 -0.044460910780139751 0.00049727091868138678 0 -0.044246075342507275 0.0012076748295226302 0 -0.044836667433892689 0.00060859717443611215 0 -0.044460910780139751 0.00049727091868138678 0 -0.043784438861877474 0.0011482055817920911 0 -0.044011198387668947 0.0011687990482733637 0 -0.044026145860490043 0.00084758910204861635 0 -0.044246075342507275 0.0012076748295226302 0 -0.044460910780139751 0.00049727091868138678 0 -0.043932045233942174 0.00064978924330564528 0 -0.04399468627424475 0.0011735789103097969 0 -0.044423957233962065 0.00072701627824650129 0 -0.043560558431357047 0.0011669882294874272 0 -0.044246075342507275 0.0012076748295226302 0 -0.043932045233942174 0.00064978924330564528 0 -0.043560558431357047 0.0011669882294874272 0 -0.043932045233942174 0.00064978924330564528 0 -0.043139358280882723 0.00070900658635901536 0 -0.043139358280882723 0.00070900658635901536 0 -0.041860098374089785 0.00078182295563998245 0 -0.043053960686652383 0.0012788292048502006 0 -0.043560558431357047 0.0011669882294874272 0 -0.043139358280882723 0.00070900658635901536 0 -0.043053960686652383 0.0012788292048502006 0 -0.043139358280882723 0.00070900658635901536 0 -0.041860098374089785 0.00078182295563998245 0 -0.042830262167810239 0.00020326024549978007 0 -0.041860098374089785 0.00078182295563998245 0 -0.042830262167810239 0.00020326024549978007 0 -0.042011455225529237 -0.00018259331246296982 0 -0.043139358280882723 0.00070900658635901536 0 -0.042830262167810239 0.00020326024549978007 0 -0.043656883072299368 0.00020293753297476861 0 -0.043932045233942174 0.00064978924330564528 0 -0.043139358280882723 0.00070900658635901536 0 -0.043656883072299368 0.00020293753297476861 0 -0.044287908778461622 -8.1450154115036258e-05 0 -0.043656883072299368 0.00020293753297476861 0 -0.043443911969165049 -0.00047451657697143484 0 -0.042830262167810239 0.00020326024549978007 0 -0.043656883072299368 0.00020293753297476861 0 -0.043443911969165049 -0.00047451657697143484 0 -0.044182637023012394 -0.0001847789521825496 0 -0.043488015256869898 -9.6451828541038717e-05 0 -0.042830262167810239 0.00020326024549978007 0 -0.043443911969165049 -0.00047451657697143484 0 -0.042011455225529237 -0.00018259331246296982 0 -0.044988338728393397 -8.2685817090150886e-06 0 -0.044991525199542602 -3.9057166873294753e-06 0 -0.044959587845769533 -3.4252728724885519e-05 0 -0.044988338728393397 -8.2685817090150886e-06 0 -0.044999978808769471 -6.704254854849708e-09 0 -0.04499995186119965 -2.6113917128817113e-08 0 -0.044988338728393397 -8.2685817090150886e-06 0 -0.04499995186119965 -2.6113917128817113e-08 0 -0.044959587845769533 -3.4252728724885519e-05 0 -0.044988338728393397 -8.2685817090150886e-06 0 -0.044999978808769471 -6.704254854849708e-09 0 -0.044991525199542602 -3.9057166873294753e-06 0 -0.045000002320879799 2.5969398592331065e-09 0 -0.044999978808769471 -6.704254854849708e-09 0 -0.044991525199542602 -3.9057166873294753e-06 0 -0.044999916117330174 -5.467101944902545e-08 0 -0.04499995186119965 -2.6113917128817113e-08 0 -0.044954900688121024 -4.5993385942756857e-05 0 -0.044908551256123891 -8.1515531561572423e-05 0 -0.044999916117330174 -5.467101944902545e-08 0 -0.044954900688121024 -4.5993385942756857e-05 0 -0.04499995186119965 -2.6113917128817113e-08 0 -0.044959587845769533 -3.4252728724885519e-05 0 -0.044954900688121024 -4.5993385942756857e-05 0 -0.044959587845769533 -3.4252728724885519e-05 0 -0.044954900688121024 -4.5993385942756857e-05 0 -0.044911025307898811 -7.9318192269642782e-05 0 -0.044908551256123891 -8.1515531561572423e-05 0 -0.044954900688121024 -4.5993385942756857e-05 0 -0.044911025307898811 -7.9318192269642782e-05 0 -0.043488015256869898 -9.6451828541038717e-05 0 -0.042949879695888336 0.00014721873179820083 0 -0.041860098374089785 0.00078182295563998245 0 -0.042011455225529237 -0.00018259331246296982 0 -0.040948072496138313 0.00036030224055523741 0 -0.041860098374089785 0.00078182295563998245 0 -0.040948072496138313 0.00036030224055523741 0 -0.040690773549645905 0.00097357738236001365 0 -0.040752679863614506 0.00056209031569228764 0 -0.040690773549645905 0.00097357738236001365 0 -0.040709585114976174 0.0013802413779912073 0 -0.040752679863614506 0.00056209031569228764 0 -0.040709585114976174 0.0013802413779912073 0 -0.0404874912250449 0.00021729067134415442 0 -0.041860098374089785 0.00078182295563998245 0 -0.040690773549645905 0.00097357738236001365 0 -0.040709585114976174 0.0013802413779912073 0 -0.041860098374089785 0.00078182295563998245 0 -0.043053960686652383 0.0012788292048502006 0 -0.042653525985814622 0.0018670500862587268 0 -0.041860098374089785 0.00078182295563998245 0 -0.040709585114976174 0.0013802413779912073 0 -0.042653525985814622 0.0018670500862587268 0 -0.043297585653097111 0.0016981711211909235 0 -0.043560558431357047 0.0011669882294874272 0 -0.043053960686652383 0.0012788292048502006 0 -0.043297585653097111 0.0016981711211909235 0 -0.043053960686652383 0.0012788292048502006 0 -0.042653525985814622 0.0018670500862587268 0 -0.043297585653097111 0.0016981711211909235 0 -0.043672378051801346 0.0017050013989037419 0 -0.042653525985814622 0.0018670500862587268 0 -0.038525279871089911 0.0017779763356481878 0 -0.037429633090627731 0.0010486442485639011 0 -0.038311650946882166 0.00075983863383365753 0 -0.03628935632632229 0.0019005832568483555 0 -0.038525279871089911 0.0017779763356481878 0 -0.037429633090627731 0.0010486442485639011 0 -0.039958072500302977 0.0017837909189060374 0 -0.040562510967701082 0.0017800044690999982 0 -0.040695400781040482 0.0014583183912059076 0 -0.040562510967701082 0.0017800044690999982 0 -0.040709585114976174 0.0013802413779912073 0 -0.038525279871089911 0.0017779763356481878 0 -0.039562200852651275 0.00022730884111975977 0 -0.038525279871089911 0.0017779763356481878 0 -0.038311650946882166 0.00075983863383365753 0 -0.039562200852651275 0.00022730884111975977 0 -0.037689148072932027 -5.6805187721252668e-06 0 -0.038311650946882166 0.00075983863383365753 0 -0.039562200852651275 0.00022730884111975977 0 -0.037429633090627731 0.0010486442485639011 0 -0.037689148072932027 -5.6805187721252668e-06 0 -0.038311650946882166 0.00075983863383365753 0 -0.037689148072932027 -5.6805187721252668e-06 0 -0.038890700021402873 -0.0012815105234249341 0 -0.036873521562259801 -0.0015421131284165653 0 -0.037689148072932027 -5.6805187721252668e-06 0 -0.039562200852651275 0.00022730884111975977 0 -0.038890700021402873 -0.0012815105234249341 0 -0.0404874912250449 0.00021729067134415442 0 -0.039562200852651275 0.00022730884111975977 0 -0.040233448816668904 -0.00085444147974721553 0 -0.039562200852651275 0.00022730884111975977 0 -0.040233448816668904 -0.00085444147974721553 0 -0.038890700021402873 -0.0012815105234249341 0 -0.040752239871143403 -0.00010928632440451318 0 -0.0404874912250449 0.00021729067134415442 0 -0.040233448816668904 -0.00085444147974721553 0 -0.040709585114976174 0.0013802413779912073 0 -0.0404874912250449 0.00021729067134415442 0 -0.039562200852651275 0.00022730884111975977 0 -0.030471028014926078 -0.00055647473136730163 0 -0.030618487506849111 -0.0006034826249690313 0 -0.030565210579922335 -0.00067551119232771761 0 -0.030618487506849111 -0.0006034826249690313 0 -0.030565210579922335 -0.00067551119232771761 0 -0.030843491948362053 -0.00086432759929699877 0 -0.035370044806976045 -0.00076400531353300587 0 -0.034852579341514991 -0.0010639847098208005 0 -0.030843491948362053 -0.00086432759929699877 0 -0.030989364896795959 -0.00064893693303341932 0 -0.031214768891228567 -0.00095542295954340517 0 -0.034852579341514991 -0.0010639847098208005 0 -0.034038608124283477 -0.0012387295983748105 0 -0.030618487506849111 -0.0006034826249690313 0 -0.030843491948362053 -0.00086432759929699877 0 -0.030989364896795959 -0.00064893693303341932 0 -0.030618487506849111 -0.0006034826249690313 0 -0.030989364896795959 -0.00064893693303341932 0 -0.030755528749180316 -0.00035728515116525787 0 -0.030989364896795959 -0.00064893693303341932 0 -0.030755528749180316 -0.00035728515116525787 0 -0.031131575469770335 -0.00040029137065070869 0 -0.03021793782396166 -0.00029129646237997889 0 -0.03015530376830123 -0.00034499911232689986 0 -0.029682454770956358 -0.00018698326712873032 0 -0.029420942738232703 -0.00041248150856299317 0 -0.029162954527702033 -0.00026212994410884541 0 -0.029682454770956358 -0.00018698326712873032 0 -0.030332067125314107 -0.00041923214010872905 0 -0.030005823960310134 -0.00049847939369096473 0 -0.03021793782396166 -0.00029129646237997889 0 -0.030317679460057614 -0.00038983405526519491 0 -0.030618487506849111 -0.0006034826249690313 0 -0.030755528749180316 -0.00035728515116525787 0 -0.030332067125314107 -0.00041923214010872905 0 -0.030471028014926078 -0.00055647473136730163 0 -0.030618487506849111 -0.0006034826249690313 0 -0.030332067125314107 -0.00041923214010872905 0 -0.03035746717551947 -0.00055133185386721246 0 -0.030332067125314107 -0.00041923214010872905 0 -0.030230480696081523 -0.00057869586312915772 0 -0.030332067125314107 -0.00041923214010872905 0 -0.030230480696081523 -0.00057869586312915772 0 -0.030005823960310134 -0.00049847939369096473 0 -0.030230480696081523 -0.00057869586312915772 0 -0.030005823960310134 -0.00049847939369096473 0 -0.030041842832462959 -0.00067290714295784146 0 -0.030230480696081523 -0.00057869586312915772 0 -0.030041842832462959 -0.00067290714295784146 0 -0.030190598684844906 -0.0006909920558312182 0 -0.030005823960310134 -0.00049847939369096473 0 -0.030041842832462959 -0.00067290714295784146 0 -0.029764848714798436 -0.00064655536091698927 0 -0.030041842832462959 -0.00067290714295784146 0 -0.030141010374175985 -0.00086333837339240072 0 -0.029876264299171892 -0.00082971698126088188 0 -0.030041842832462959 -0.00067290714295784146 0 -0.029876264299171892 -0.00082971698126088188 0 -0.029764848714798436 -0.00064655536091698927 0 -0.030041842832462959 -0.00067290714295784146 0 -0.030190598684844906 -0.0006909920558312182 0 -0.030141010374175985 -0.00086333837339240072 0 -0.02915503543388949 -0.00098675164641274615 0 -0.028940633611365736 -0.0014156867742653367 0 -0.029286057949405496 -0.0013360692090872617 0 -0.029542891314784527 -0.0011657997161378954 0 -0.02915503543388949 -0.00098675164641274615 0 -0.029286057949405496 -0.0013360692090872617 0 -0.030141010374175985 -0.00086333837339240072 0 -0.029876264299171892 -0.00082971698126088188 0 -0.029744984294518238 -0.0011651842348592862 0 -0.02915503543388949 -0.00098675164641274615 0 -0.028940633611365736 -0.0014156867742653367 0 -0.028740750660080753 -0.001417512008042691 0 -0.029656115207732078 -0.00093802566889358157 0 -0.029251765366188443 -0.0012775957274608397 0 -0.028940633611365736 -0.0014156867742653367 0 -0.028740750660080753 -0.001417512008042691 0 -0.028775026440235919 -0.0015325687256633803 0 -0.028940633611365736 -0.0014156867742653367 0 -0.028976378548669576 -0.0016378499919786913 0 -0.028775026440235919 -0.0015325687256633803 0 -0.028940633611365736 -0.0014156867742653367 0 -0.029180354047618092 -0.0015312145786708414 0 -0.028976378548669576 -0.0016378499919786913 0 -0.028940633611365736 -0.0014156867742653367 0 -0.029180354047618092 -0.0015312145786708414 0 -0.029286057949405496 -0.0013360692090872617 0 -0.029397050497298353 -0.0014623181179083948 0 -0.029180354047618092 -0.0015312145786708414 0 -0.029377832046179237 -0.0016081381193525364 0 -0.029397050497298353 -0.0014623181179083948 0 -0.029180354047618092 -0.0015312145786708414 0 -0.029286057949405496 -0.0013360692090872617 0 -0.029397050497298353 -0.0014623181179083948 0 -0.029553265315543968 -0.0013336970941969829 0 -0.029286057949405496 -0.0013360692090872617 0 -0.029057547826381095 -0.0014517692531353585 0 -0.029344896186922948 -0.000986932469431984 0 -0.028987380320221291 -0.0011209853883200032 0 -0.028740750660080753 -0.001417512008042691 0 -0.028812014126857119 -0.0014579840128434152 0 -0.028775026440235919 -0.0015325687256633803 0 -0.029057547826381095 -0.0014517692531353585 0 -0.028740750660080753 -0.001417512008042691 0 -0.028812014126857119 -0.0014579840128434152 0 -0.029073793224311993 -0.0014339098108554376 0 -0.029251765366188443 -0.0012775957274608397 0 -0.029057547826381095 -0.0014517692531353585 0 -0.029744984294518238 -0.0011651842348592862 0 -0.029344896186922948 -0.000986932469431984 0 -0.029744984294518238 -0.0011651842348592862 0 -0.029637244462963553 -0.00086712782428539708 0 -0.029344896186922948 -0.000986932469431984 0 -0.029876264299171892 -0.00082971698126088188 0 -0.029744984294518238 -0.0011651842348592862 0 -0.029637244462963553 -0.00086712782428539708 0 -0.029637244462963553 -0.00086712782428539708 0 -0.029344896186922948 -0.000986932469431984 0 -0.029483756254260925 -0.00064280884821613202 0 -0.029344896186922948 -0.000986932469431984 0 -0.029246509868469474 -0.00064866617346675105 0 -0.028987380320221291 -0.0011209853883200032 0 -0.029344896186922948 -0.000986932469431984 0 -0.029246509868469474 -0.00064866617346675105 0 -0.029483756254260925 -0.00064280884821613202 0 -0.029246509868469474 -0.00064866617346675105 0 -0.029483756254260925 -0.00064280884821613202 0 -0.029420942738232703 -0.00041248150856299317 0 -0.029483756254260925 -0.00064280884821613202 0 -0.029764848714798436 -0.00064655536091698927 0 -0.029420942738232703 -0.00041248150856299317 0 -0.029876264299171892 -0.00082971698126088188 0 -0.029637244462963553 -0.00086712782428539708 0 -0.029764848714798436 -0.00064655536091698927 0 -0.029637244462963553 -0.00086712782428539708 0 -0.029483756254260925 -0.00064280884821613202 0 -0.029764848714798436 -0.00064655536091698927 0 -0.029682454770956358 -0.00018698326712873032 0 -0.030005823960310134 -0.00049847939369096473 0 -0.029420942738232703 -0.00041248150856299317 0 -0.030005823960310134 -0.00049847939369096473 0 -0.029764848714798436 -0.00064655536091698927 0 -0.029420942738232703 -0.00041248150856299317 0 -0.029246509868469474 -0.00064866617346675105 0 -0.029420942738232703 -0.00041248150856299317 0 -0.029082065822152968 -0.00027567036871885671 0 -0.029420942738232703 -0.00041248150856299317 0 -0.029082065822152968 -0.00027567036871885671 0 -0.029162954527702033 -0.00026212994410884541 0 -0.029082065822152968 -0.00027567036871885671 0 -0.029069363700191284 4.7313602722287917e-05 0 -0.029225821090287121 -0.00061336494485221766 0 -0.029082065822152968 -0.00027567036871885671 0 -0.029069363700191284 4.7313602722287917e-05 0 -0.029014251505279882 -0.00052100670134454187 0 -0.029014251505279882 -0.00052100670134454187 0 -0.028739105997977101 -0.00091721372967764367 0 -0.02848677801093696 -0.00048209053176469772 0 -0.029069363700191284 4.7313602722287917e-05 0 -0.029014251505279882 -0.00052100670134454187 0 -0.02848677801093696 -0.00048209053176469772 0 -0.029246509868469474 -0.00064866617346675105 0 -0.029082065822152968 -0.00027567036871885671 0 -0.029014251505279882 -0.00052100670134454187 0 -0.029014251505279882 -0.00052100670134454187 0 -0.028987380320221291 -0.0011209853883200032 0 -0.028739105997977101 -0.00091721372967764367 0 -0.029246509868469474 -0.00064866617346675105 0 -0.029014251505279882 -0.00052100670134454187 0 -0.028987380320221291 -0.0011209853883200032 0 -0.028739105997977101 -0.00091721372967764367 0 -0.028297186924798164 -0.0010970882372118356 0 -0.02848677801093696 -0.00048209053176469772 0 -0.028739105997977101 -0.00091721372967764367 0 -0.02867072618469995 -0.0013019920655134409 0 -0.028297186924798164 -0.0010970882372118356 0 -0.028987380320221291 -0.0011209853883200032 0 -0.028739105997977101 -0.00091721372967764367 0 -0.02867072618469995 -0.0013019920655134409 0 -0.02867072618469995 -0.0013019920655134409 0 -0.02820397879071156 -0.0015943581489341236 0 -0.028803883526554018 -0.0015820749523774368 0 -0.028987380320221291 -0.0011209853883200032 0 -0.02867072618469995 -0.0013019920655134409 0 -0.028803883526554018 -0.0015820749523774368 0 -0.029057547826381095 -0.0014517692531353585 0 -0.028987380320221291 -0.0011209853883200032 0 -0.028803883526554018 -0.0015820749523774368 0 -0.025147191694691682 -0.0026223186013960317 0 -0.02388371728957835 -0.0023076335236937974 0 -0.025147191694691682 -0.0026223186013960317 0 -0.023902913070323478 -0.0038641338969925745 0 -0.02281623214503244 -0.0070237068803898932 0 -0.019734215917904391 -0.0058327007027288436 0 -0.020797899871393556 -0.0040741388725767788 0 -0.027212386341206828 -0.0014364515106989849 0 -0.02820397879071156 -0.0015943581489341236 0 -0.028297186924798164 -0.0010970882372118356 0 -0.02867072618469995 -0.0013019920655134409 0 -0.02820397879071156 -0.0015943581489341236 0 -0.028297186924798164 -0.0010970882372118356 0 -0.028297186924798164 -0.0010970882372118356 0 -0.02848677801093696 -0.00048209053176469772 0 -0.027932524464617414 -0.0006525110911450025 0 -0.027212386341206828 -0.0014364515106989849 0 -0.027184070994423496 -0.00055294386557822039 0 -0.027932524464617414 -0.0006525110911450025 0 -0.027212386341206828 -0.0014364515106989849 0 -0.028297186924798164 -0.0010970882372118356 0 -0.027932524464617414 -0.0006525110911450025 0 -0.027533070016501009 -0.00017036407528814101 0 -0.027804499275513542 0.00043225828148961594 0 -0.026830652066476564 -5.1061635395207807e-05 0 -0.027184070994423496 -0.00055294386557822039 0 -0.027533070016501009 -0.00017036407528814101 0 -0.027932524464617414 -0.0006525110911450025 0 -0.027184070994423496 -0.00055294386557822039 0 -0.027533070016501009 -0.00017036407528814101 0 -0.026830652066476564 -5.1061635395207807e-05 0 -0.027533070016501009 -0.00017036407528814101 0 -0.02848677801093696 -0.00048209053176469772 0 -0.027932524464617414 -0.0006525110911450025 0 -0.027533070016501009 -0.00017036407528814101 0 -0.02848677801093696 -0.00048209053176469772 0 -0.027804499275513542 0.00043225828148961594 0 -0.029069363700191284 4.7313602722287917e-05 0 -0.030707515587970288 0.00020546601600465229 0 -0.029225821090287121 -0.00061336494485221766 0 -0.029114280096949538 0.00012548416275089141 0 -0.029202396058762032 0.00026403149031122545 0 -0.029069363700191284 4.7313602722287917e-05 0 -0.02848677801093696 -0.00048209053176469772 0 -0.027804499275513542 0.00043225828148961594 0 -0.029202396058762032 0.00026403149031122545 0 -0.029327559240208533 0.00018024280853348948 0 -0.030707515587970288 0.00020546601600465229 0 -0.031644821622640068 -0.00051973617593025845 0 -0.031694669401954152 -0.00014560215841161626 0 -0.027804499275513542 0.00043225828148961594 0 -0.026690975573366922 0.00052838373212688537 0 -0.026830652066476564 -5.1061635395207807e-05 0 -0.030707515587970288 0.00020546601600465229 0 -0.031368865690051199 -0.00065447365250340616 0 -0.031644821622640068 -0.00051973617593025845 0 -0.031368865690051199 -0.00065447365250340616 0 -0.031763004359553905 -0.00073284758261976148 0 -0.031644821622640068 -0.00051973617593025845 0 -0.031368865690051199 -0.00065447365250340616 0 -0.031605896543733948 -0.00066817429963899808 0 -0.031763004359553905 -0.00073284758261976148 0 -0.031368865690051199 -0.00065447365250340616 0 -0.031465431454152884 -0.00051675733455628357 0 -0.031605896543733948 -0.00066817429963899808 0 -0.031294449549748145 -0.00064501683345767396 0 -0.030383043341541394 -0.00055153788346877682 0 -0.030707515587970288 0.00020546601600465229 0 -0.031368865690051199 -0.00065447365250340616 0 -0.029225821090287121 -0.00061336494485221766 0 -0.029082065822152968 -0.00027567036871885671 0 -0.029225821090287121 -0.00061336494485221766 0 -0.029162954527702033 -0.00026212994410884541 0 -0.030383043341541394 -0.00055153788346877682 0 -0.03015530376830123 -0.00034499911232689986 0 -0.030989364896795959 -0.00064893693303341932 0 -0.031131575469770335 -0.00040029137065070869 0 -0.031340766048750968 -0.00068452333216947295 0 -0.031465431454152884 -0.00051675733455628357 0 -0.031131575469770335 -0.00040029137065070869 0 -0.031340766048750968 -0.00068452333216947295 0 -0.031465431454152884 -0.00051675733455628357 0 -0.031340766048750968 -0.00068452333216947295 0 -0.031605896543733948 -0.00066817429963899808 0 -0.031340766048750968 -0.00068452333216947295 0 -0.031574939108217549 -0.0010090180770996222 0 -0.031605896543733948 -0.00066817429963899808 0 -0.030989364896795959 -0.00064893693303341932 0 -0.031340766048750968 -0.00068452333216947295 0 -0.031214768891228567 -0.00095542295954340517 0 -0.031340766048750968 -0.00068452333216947295 0 -0.031214768891228567 -0.00095542295954340517 0 -0.031574939108217549 -0.0010090180770996222 0 -0.034038608124283477 -0.0012387295983748105 0 -0.033110898343440789 -0.0012076641748698781 0 -0.031574939108217549 -0.0010090180770996222 0 -0.032329361678725438 -0.00093886128599182932 0 -0.031605896543733948 -0.00066817429963899808 0 -0.033110898343440789 -0.0012076641748698781 0 -0.032384637782284106 -0.00099185685890802668 0 -0.032329361678725438 -0.00093886128599182932 0 -0.031605896543733948 -0.00066817429963899808 0 -0.031763004359553905 -0.00073284758261976148 0 -0.031960822762944339 -0.00078959869638615542 0 -0.031802790814067047 -0.00067425555860063581 0 -0.031889192830623664 -0.00067348197637850005 0 -0.031960822762944339 -0.00078959869638615542 0 -0.031879701526797824 -0.00061742079408275889 0 -0.031802790814067047 -0.00067425555860063581 0 -0.032329361678725438 -0.00093886128599182932 0 -0.031960822762944339 -0.00078959869638615542 0 -0.031763004359553905 -0.00073284758261976148 0 -0.032073722697357997 -0.00054968336206604124 0 -0.032329361678725438 -0.00093886128599182932 0 -0.031960822762944339 -0.00078959869638615542 0 -0.031799012814840974 -0.00039370633761986004 0 -0.032073722697357997 -0.00054968336206604124 0 -0.031879701526797824 -0.00061742079408275889 0 -0.032073722697357997 -0.00054968336206604124 0 -0.031960822762944339 -0.00078959869638615542 0 -0.031879701526797824 -0.00061742079408275889 0 -0.031799012814840974 -0.00039370633761986004 0 -0.031879701526797824 -0.00061742079408275889 0 -0.031726816276299953 -0.00050026247108598675 0 -0.031879701526797824 -0.00061742079408275889 0 -0.031726816276299953 -0.00050026247108598675 0 -0.031802790814067047 -0.00067425555860063581 0 -0.031726816276299953 -0.00050026247108598675 0 -0.03161969033312978 -0.00051975389907522017 0 -0.031802790814067047 -0.00067425555860063581 0 -0.031629525556913465 -0.00032571069371362316 0 -0.031726816276299953 -0.00050026247108598675 0 -0.03161969033312978 -0.00051975389907522017 0 -0.03161969033312978 -0.00051975389907522017 0 -0.031638613797108375 -0.00067714896631602798 0 -0.031802790814067047 -0.00067425555860063581 0 -0.031802790814067047 -0.00067425555860063581 0 -0.031827643052494844 -0.00070555140796013476 0 -0.031889192830623664 -0.00067348197637850005 0 -0.031638613797108375 -0.00067714896631602798 0 -0.031802790814067047 -0.00067425555860063581 0 -0.031827643052494844 -0.00070555140796013476 0 -0.029228792840885219 -0.00033103337654008693 0 -0.029186274925133766 -0.00029155109051385246 0 -0.029212021282692128 -0.00029010295751172945 0 -0.030334964832792157 -0.00046286816273738402 0 -0.030653594865989831 -0.00056909100688471868 0 -0.029212021282692128 -0.00029010295751172945 0 -0.029188896930880899 -0.00026794322516931985 0 -0.029236978093561464 -0.00027595389396086123 0 -0.025625908644504636 2.4377185669534001e-05 0 -0.02563389889377201 4.7140215889416567e-06 0 -0.025703665066502054 -0.00019223064662492569 0 -0.027039599850154691 -5.5167723303242173e-05 0 -0.027430601914865484 -0.00023769165505654351 0 -0.029186274925133766 -0.00029155109051385246 0 -0.029212021282692128 -0.00029010295751172945 0 -0.029188896930880899 -0.00026794322516931985 0 -0.025625908644504636 2.4377185669534001e-05 0 -0.025661407501894103 4.8776857932094123e-05 0 -0.02563389889377201 4.7140215889416567e-06 0 -0.031827643052494844 -0.00070555140796013476 0 -0.031934440800688219 -0.00054139992407641426 0 -0.031889192830623664 -0.00067348197637850005 0 -0.027039599850154691 -5.5167723303242173e-05 0 -0.029574717994756885 -0.00029774827796508565 0 -0.029186274925133766 -0.00029155109051385246 0 -0.029188896930880899 -0.00026794322516931985 0 -0.029161307591508479 -0.000258936416090604 0 -0.030653594865989831 -0.00056909100688471868 0 -0.029574717994756885 -0.00029774827796508565 0 -0.025625908644504636 2.4377185669534001e-05 0 -0.025790660183230986 8.2160893462124109e-05 0 -0.025661407501894103 4.8776857932094123e-05 0 -0.031934440800688219 -0.00054139992407641426 0 -0.031838332727219809 -0.00054207436776355293 0 -0.031889192830623664 -0.00067348197637850005 0 -0.031934440800688219 -0.00054139992407641426 0 -0.031838332727219809 -0.00054207436776355293 0 -0.031726289553594307 -0.00022198825808230005 0 -0.031838332727219809 -0.00054207436776355293 0 -0.031889192830623664 -0.00067348197637850005 0 -0.031818904228107799 -0.00064631607600280179 0 -0.031960822762944339 -0.00078959869638615542 0 -0.031889192830623664 -0.00067348197637850005 0 -0.031818904228107799 -0.00064631607600280179 0 -0.031763004359553905 -0.00073284758261976148 0 -0.031818904228107799 -0.00064631607600280179 0 -0.031644821622640068 -0.00051973617593025845 0 -0.031960822762944339 -0.00078959869638615542 0 -0.031763004359553905 -0.00073284758261976148 0 -0.031818904228107799 -0.00064631607600280179 0 -0.031818904228107799 -0.00064631607600280179 0 -0.0317546478414832 -0.00049707621421384593 0 -0.031644821622640068 -0.00051973617593025845 0 -0.031838332727219809 -0.00054207436776355293 0 -0.031818904228107799 -0.00064631607600280179 0 -0.0317546478414832 -0.00049707621421384593 0 -0.031838332727219809 -0.00054207436776355293 0 -0.0317546478414832 -0.00049707621421384593 0 -0.031726289553594307 -0.00022198825808230005 0 -0.0317546478414832 -0.00049707621421384593 0 -0.031644821622640068 -0.00051973617593025845 0 -0.031726289553594307 -0.00022198825808230005 0 -0.031644821622640068 -0.00051973617593025845 0 -0.031694669401954152 -0.00014560215841161626 0 -0.031726289553594307 -0.00022198825808230005 0 -0.031694669401954152 -0.00014560215841161626 0 -0.031726289553594307 -0.00022198825808230005 0 -0.031789857758780307 -0.00032667628095063594 0 -0.026690975573366922 0.00052838373212688537 0 -0.026447436910747264 0.00034751767187900045 0 -0.026292455381755484 0.00036895214785623813 0 -0.026487037330510787 0.0002378433447662078 0 -0.026213481774819428 5.0045640937434683e-05 0 -0.026830652066476564 -5.1061635395207807e-05 0 -0.026690975573366922 0.00052838373212688537 0 -0.026487037330510787 0.0002378433447662078 0 -0.026447436910747264 0.00034751767187900045 0 -0.026323869904446167 0.00025282820508355666 0 -0.026447436910747264 0.00034751767187900045 0 -0.026292455381755484 0.00036895214785623813 0 -0.026487037330510787 0.0002378433447662078 0 -0.026323869904446167 0.00025282820508355666 0 -0.026447436910747264 0.00034751767187900045 0 -0.026487037330510787 0.0002378433447662078 0 -0.026323869904446167 0.00025282820508355666 0 -0.026213481774819428 5.0045640937434683e-05 0 -0.026690975573366922 0.00052838373212688537 0 -0.026487037330510787 0.0002378433447662078 0 -0.026830652066476564 -5.1061635395207807e-05 0 -0.031803267793226064 -0.00037726946315989977 0 -0.031726289553594307 -0.00022198825808230005 0 -0.031789857758780307 -0.00032667628095063594 0 -0.026690975573366922 0.00052838373212688537 0 -0.025887806386600078 0.0003082385667737698 0 -0.026292455381755484 0.00036895214785623813 0 -0.029574717994756885 -0.00029774827796508565 0 -0.032585965242701832 -0.00042720794852575954 0 -0.029327559240208533 0.00018024280853348948 0 -0.02806541005824115 -0.00017462518939648111 0 -0.02584767881882015 0.00020481901750619354 0 -0.025887806386600078 0.0003082385667737698 0 -0.02573918037170142 0.00010463686570495395 0 -0.02584767881882015 0.00020481901750619354 0 -0.025892024717235926 0.00026528005003853376 0 -0.025907535258326113 0.00017242413997908541 0 -0.02584767881882015 0.00020481901750619354 0 -0.025887806386600078 0.0003082385667737698 0 -0.025892024717235926 0.00026528005003853376 0 -0.029574717994756885 -0.00029774827796508565 0 -0.02806541005824115 -0.00017462518939648111 0 -0.025892024717235926 0.00026528005003853376 0 -0.025981265796190346 0.00023652012369820152 0 -0.025907535258326113 0.00017242413997908541 0 -0.025887806386600078 0.0003082385667737698 0 -0.026003562916852362 0.00029648457991686612 0 -0.026097163987788788 0.00031310408866839655 0 -0.025887806386600078 0.0003082385667737698 0 -0.026003562916852362 0.00029648457991686612 0 -0.025892024717235926 0.00026528005003853376 0 -0.026003562916852362 0.00029648457991686612 0 -0.025892024717235926 0.00026528005003853376 0 -0.025981265796190346 0.00023652012369820152 0 -0.025887806386600078 0.0003082385667737698 0 -0.026097163987788788 0.00031310408866839655 0 -0.026292455381755484 0.00036895214785623813 0 -0.026003562916852362 0.00029648457991686612 0 -0.025981265796190346 0.00023652012369820152 0 -0.026097163987788788 0.00031310408866839655 0 -0.026097163987788788 0.00031310408866839655 0 -0.026292455381755484 0.00036895214785623813 0 -0.026178101430780913 0.00024806091870673805 0 -0.026323869904446167 0.00025282820508355666 0 -0.026178101430780913 0.00024806091870673805 0 -0.026213481774819428 5.0045640937434683e-05 0 -0.026323869904446167 0.00025282820508355666 0 -0.026292455381755484 0.00036895214785623813 0 -0.026178101430780913 0.00024806091870673805 0 -0.026178101430780913 0.00024806091870673805 0 -0.026030130777503054 0.0001602419882478845 0 -0.026213481774819428 5.0045640937434683e-05 0 -0.026030130777503054 0.0001602419882478845 0 -0.026002401158367248 2.7451575365284826e-06 0 -0.026213481774819428 5.0045640937434683e-05 0 -0.025981265796190346 0.00023652012369820152 0 -0.026097163987788788 0.00031310408866839655 0 -0.026030130777503054 0.0001602419882478845 0 -0.026097163987788788 0.00031310408866839655 0 -0.026178101430780913 0.00024806091870673805 0 -0.026030130777503054 0.0001602419882478845 0 -0.026030130777503054 0.0001602419882478845 0 -0.025907535258326113 0.00017242413997908541 0 -0.025879573524225707 5.9875231168871187e-05 0 -0.025981265796190346 0.00023652012369820152 0 -0.026030130777503054 0.0001602419882478845 0 -0.025907535258326113 0.00017242413997908541 0 -0.026030130777503054 0.0001602419882478845 0 -0.025879573524225707 5.9875231168871187e-05 0 -0.026002401158367248 2.7451575365284826e-06 0 -0.025907535258326113 0.00017242413997908541 0 -0.025879573524225707 5.9875231168871187e-05 0 -0.025816281033111295 0.00012137301631100079 0 -0.02584767881882015 0.00020481901750619354 0 -0.025907535258326113 0.00017242413997908541 0 -0.025816281033111295 0.00012137301631100079 0 -0.025837694876104537 -0.00010564835182604875 0 -0.026002401158367248 2.7451575365284826e-06 0 -0.026032608864466615 -0.00022836963649250182 0 -0.025879573524225707 5.9875231168871187e-05 0 -0.025837694876104537 -0.00010564835182604875 0 -0.025757579357979545 1.3598977787875689e-05 0 -0.025879573524225707 5.9875231168871187e-05 0 -0.025837694876104537 -0.00010564835182604875 0 -0.026002401158367248 2.7451575365284826e-06 0 -0.026002401158367248 2.7451575365284826e-06 0 -0.026213481774819428 5.0045640937434683e-05 0 -0.026032608864466615 -0.00022836963649250182 0 -0.026213481774819428 5.0045640937434683e-05 0 -0.026032608864466615 -0.00022836963649250182 0 -0.026369371216324006 -0.0004194596736163301 0 -0.025837694876104537 -0.00010564835182604875 0 -0.026032608864466615 -0.00022836963649250182 0 -0.025761821096118926 -0.00031999973661049814 0 -0.026213481774819428 5.0045640937434683e-05 0 -0.026830652066476564 -5.1061635395207807e-05 0 -0.026369371216324006 -0.0004194596736163301 0 -0.027184070994423496 -0.00055294386557822039 0 -0.026830652066476564 -5.1061635395207807e-05 0 -0.026369371216324006 -0.0004194596736163301 0 -0.02682399499652138 -0.0011647431644937541 0 -0.026369371216324006 -0.0004194596736163301 0 -0.025758560507819175 -0.00059172053702511167 0 -0.025147191694691682 -0.0026223186013960317 0 -0.025956279127736077 -0.00020639357503578613 0 -0.027212386341206828 -0.0014364515106989849 0 -0.027184070994423496 -0.00055294386557822039 0 -0.026369371216324006 -0.0004194596736163301 0 -0.025147191694691682 -0.0026223186013960317 0 -0.026745172606089863 -0.00020041253256709493 0 -0.026032608864466615 -0.00022836963649250182 0 -0.026369371216324006 -0.0004194596736163301 0 -0.025758560507819175 -0.00059172053702511167 0 -0.026032608864466615 -0.00022836963649250182 0 -0.025761821096118926 -0.00031999973661049814 0 -0.025758560507819175 -0.00059172053702511167 0 -0.025761821096118926 -0.00031999973661049814 0 -0.025758560507819175 -0.00059172053702511167 0 -0.025673487075701617 -0.00037025223066561481 0 -0.025419313668057528 -0.00045320562386444419 0 -0.025596041889136723 -0.00036850464439088155 0 -0.025384969440854808 -0.00032470162696032013 0 -0.025758560507819175 -0.00059172053702511167 0 -0.025419313668057528 -0.00045320562386444419 0 -0.025596041889136723 -0.00036850464439088155 0 -0.025064038775797985 -0.00063396035584019578 0 -0.025758560507819175 -0.00059172053702511167 0 -0.025419313668057528 -0.00045320562386444419 0 -0.025064038775797985 -0.00063396035584019578 0 -0.025419313668057528 -0.00045320562386444419 0 -0.025118474695707094 -0.00031953564350920016 0 -0.025610439842202772 -0.00026716549244073774 0 -0.025607919655683681 -0.0002401809855771252 0 -0.025544107958445139 -0.00025012670961471176 0 -0.025610439842202772 -0.00026716549244073774 0 -0.025596041889136723 -0.00036850464439088155 0 -0.025544107958445139 -0.00025012670961471176 0 -0.025610439842202772 -0.00026716549244073774 0 -0.025620707202091968 -0.00014936871353809063 0 -0.025607919655683681 -0.0002401809855771252 0 -0.025610439842202772 -0.00026716549244073774 0 -0.025596041889136723 -0.00036850464439088155 0 -0.025673487075701617 -0.00037025223066561481 0 -0.025610439842202772 -0.00026716549244073774 0 -0.025673487075701617 -0.00037025223066561481 0 -0.025635306582957301 -0.000216627468693952 0 -0.025758560507819175 -0.00059172053702511167 0 -0.025596041889136723 -0.00036850464439088155 0 -0.025673487075701617 -0.00037025223066561481 0 -0.025761821096118926 -0.00031999973661049814 0 -0.025673487075701617 -0.00037025223066561481 0 -0.02568467759086002 -0.00016082439968895723 0 -0.025673487075701617 -0.00037025223066561481 0 -0.025635306582957301 -0.000216627468693952 0 -0.02568467759086002 -0.00016082439968895723 0 -0.025610439842202772 -0.00026716549244073774 0 -0.025635306582957301 -0.000216627468693952 0 -0.025625642239557427 -0.00017941008580806494 0 -0.025625642239557427 -0.00017941008580806494 0 -0.025626873159629169 -7.0837476802301579e-05 0 -0.025620707202091968 -0.00014936871353809063 0 -0.025610439842202772 -0.00026716549244073774 0 -0.025625642239557427 -0.00017941008580806494 0 -0.025620707202091968 -0.00014936871353809063 0 -0.025635306582957301 -0.000216627468693952 0 -0.025625642239557427 -0.00017941008580806494 0 -0.025626873159629169 -7.0837476802301579e-05 0 -0.025626873159629169 -7.0837476802301579e-05 0 -0.025633159496034286 -4.110999555390154e-05 0 -0.02563618760556614 2.3176878917376111e-05 0 -0.025635306582957301 -0.000216627468693952 0 -0.025626873159629169 -7.0837476802301579e-05 0 -0.025633159496034286 -4.110999555390154e-05 0 -0.025633159496034286 -4.110999555390154e-05 0 -0.02563618760556614 2.3176878917376111e-05 0 -0.025635537191398265 2.1378702500835465e-05 0 -0.025837694876104537 -0.00010564835182604875 0 -0.025761821096118926 -0.00031999973661049814 0 -0.02568467759086002 -0.00016082439968895723 0 -0.025635306582957301 -0.000216627468693952 0 -0.025633159496034286 -4.110999555390154e-05 0 -0.02568467759086002 -0.00016082439968895723 0 -0.025633159496034286 -4.110999555390154e-05 0 -0.02568467759086002 -0.00016082439968895723 0 -0.025665112292563332 2.6781799511503541e-05 0 -0.02568467759086002 -0.00016082439968895723 0 -0.025757579357979545 1.3598977787875689e-05 0 -0.025665112292563332 2.6781799511503541e-05 0 -0.025837694876104537 -0.00010564835182604875 0 -0.02568467759086002 -0.00016082439968895723 0 -0.025757579357979545 1.3598977787875689e-05 0 -0.02806541005824115 -0.00017462518939648111 0 -0.024918761229706817 0.00017419890389885274 0 -0.025887806386600078 0.0003082385667737698 0 -0.025661407501894103 4.8776857932094123e-05 0 -0.02573918037170142 0.00010463686570495395 0 -0.025790660183230986 8.2160893462124109e-05 0 -0.025841067870678986 3.7147453781304201e-05 0 -0.025661407501894103 4.8776857932094123e-05 0 -0.025757579357979545 1.3598977787875689e-05 0 -0.025665112292563332 2.6781799511503541e-05 0 -0.02573918037170142 0.00010463686570495395 0 -0.02584767881882015 0.00020481901750619354 0 -0.025816281033111295 0.00012137301631100079 0 -0.02573918037170142 0.00010463686570495395 0 -0.025816281033111295 0.00012137301631100079 0 -0.025757579357979545 1.3598977787875689e-05 0 -0.02573918037170142 0.00010463686570495395 0 -0.025879573524225707 5.9875231168871187e-05 0 -0.025816281033111295 0.00012137301631100079 0 -0.025757579357979545 1.3598977787875689e-05 0 -0.025665112292563332 2.6781799511503541e-05 0 -0.025661407501894103 4.8776857932094123e-05 0 -0.02573918037170142 0.00010463686570495395 0 -0.02563618760556614 2.3176878917376111e-05 0 -0.025635537191398265 2.1378702500835465e-05 0 -0.025646487160117491 3.3985147423254533e-05 0 -0.025665112292563332 2.6781799511503541e-05 0 -0.025661407501894103 4.8776857932094123e-05 0 -0.025635537191398265 2.1378702500835465e-05 0 -0.025633159496034286 -4.110999555390154e-05 0 -0.025665112292563332 2.6781799511503541e-05 0 -0.025635537191398265 2.1378702500835465e-05 0 -0.025661407501894103 4.8776857932094123e-05 0 -0.025635537191398265 2.1378702500835465e-05 0 -0.02563389889377201 4.7140215889416567e-06 0 -0.025635537191398265 2.1378702500835465e-05 0 -0.02563389889377201 4.7140215889416567e-06 0 -0.025646487160117491 3.3985147423254533e-05 0 -0.02563389889377201 4.7140215889416567e-06 0 -0.025715684923387636 1.3452384365893584e-05 0 -0.025646487160117491 3.3985147423254533e-05 0 -0.025715684923387636 1.3452384365893584e-05 0 -0.025686156402103307 9.3282566337665856e-05 0 -0.025864044508017558 0.00017307432168673677 0 -0.02563618760556614 2.3176878917376111e-05 0 -0.025686156402103307 9.3282566337665856e-05 0 -0.025646487160117491 3.3985147423254533e-05 0 -0.025715684923387636 1.3452384365893584e-05 0 -0.025686156402103307 9.3282566337665856e-05 0 -0.025646487160117491 3.3985147423254533e-05 0 -0.025864044508017558 0.00017307432168673677 0 -0.026539268530492915 0.00020522230177491519 0 -0.025923768703822483 -7.0670132751564569e-05 0 -0.025715684923387636 1.3452384365893584e-05 0 -0.025864044508017558 0.00017307432168673677 0 -0.025923768703822483 -7.0670132751564569e-05 0 -0.025642379635534118 0.0001572801459181001 0 -0.025347571578077436 0.00019506064410294504 0 -0.025789926173891236 0.00024032427073516192 0 -0.025864044508017558 0.00017307432168673677 0 -0.025642379635534118 0.0001572801459181001 0 -0.025789926173891236 0.00024032427073516192 0 -0.025686156402103307 9.3282566337665856e-05 0 -0.025864044508017558 0.00017307432168673677 0 -0.025642379635534118 0.0001572801459181001 0 -0.02563618760556614 2.3176878917376111e-05 0 -0.025686156402103307 9.3282566337665856e-05 0 -0.025639676001213658 4.6223132920742922e-05 0 -0.025686156402103307 9.3282566337665856e-05 0 -0.025642379635534118 0.0001572801459181001 0 -0.025639676001213658 4.6223132920742922e-05 0 -0.025642379635534118 0.0001572801459181001 0 -0.025639676001213658 4.6223132920742922e-05 0 -0.025615717193327111 -6.626059440811285e-06 0 -0.025626873159629169 -7.0837476802301579e-05 0 -0.02563618760556614 2.3176878917376111e-05 0 -0.025639676001213658 4.6223132920742922e-05 0 -0.025626873159629169 -7.0837476802301579e-05 0 -0.025620707202091968 -0.00014936871353809063 0 -0.025615717193327111 -6.626059440811285e-06 0 -0.025626873159629169 -7.0837476802301579e-05 0 -0.025639676001213658 4.6223132920742922e-05 0 -0.025615717193327111 -6.626059440811285e-06 0 -0.025615717193327111 -6.626059440811285e-06 0 -0.025513468338682323 9.2247897665300941e-06 0 -0.025599284967280461 -0.00014508861065275913 0 -0.025620707202091968 -0.00014936871353809063 0 -0.025615717193327111 -6.626059440811285e-06 0 -0.025599284967280461 -0.00014508861065275913 0 -0.025642379635534118 0.0001572801459181001 0 -0.025615717193327111 -6.626059440811285e-06 0 -0.025513468338682323 9.2247897665300941e-06 0 -0.025642379635534118 0.0001572801459181001 0 -0.025513468338682323 9.2247897665300941e-06 0 -0.025347571578077436 0.00019506064410294504 0 -0.025513468338682323 9.2247897665300941e-06 0 -0.025317897915964786 -0.00015085817563260422 0 -0.025347571578077436 0.00019506064410294504 0 -0.025513468338682323 9.2247897665300941e-06 0 -0.025523820031359914 -0.0001377733369309534 0 -0.025599284967280461 -0.00014508861065275913 0 -0.025513468338682323 9.2247897665300941e-06 0 -0.025523820031359914 -0.0001377733369309534 0 -0.025317897915964786 -0.00015085817563260422 0 -0.025523820031359914 -0.0001377733369309534 0 -0.025317897915964786 -0.00015085817563260422 0 -0.025621326606608239 -0.00029394848373632561 0 -0.025317897915964786 -0.00015085817563260422 0 -0.025621326606608239 -0.00029394848373632561 0 -0.025663677664313989 -0.0005349844717536784 0 -0.025621326606608239 -0.00029394848373632561 0 -0.025607919655683681 -0.0002401809855771252 0 -0.025599284967280461 -0.00014508861065275913 0 -0.025621326606608239 -0.00029394848373632561 0 -0.025607919655683681 -0.0002401809855771252 0 -0.025615840376522755 -0.00026304569821929472 0 -0.025620707202091968 -0.00014936871353809063 0 -0.025607919655683681 -0.0002401809855771252 0 -0.025599284967280461 -0.00014508861065275913 0 -0.025523820031359914 -0.0001377733369309534 0 -0.025621326606608239 -0.00029394848373632561 0 -0.025599284967280461 -0.00014508861065275913 0 -0.024482041142428607 8.996247691468151e-05 0 -0.023963703182495185 1.1221361163478455e-06 0 -0.021852400981890792 -2.5693166346326355e-06 0 -0.025317897915964786 -0.00015085817563260422 0 -0.024482041142428607 8.996247691468151e-05 0 -0.025347571578077436 0.00019506064410294504 0 -0.025317897915964786 -0.00015085817563260422 0 -0.024482041142428607 8.996247691468151e-05 0 -0.02474921449965882 -0.00075165246496890095 0 -0.024482041142428607 8.996247691468151e-05 0 -0.025347571578077436 0.00019506064410294504 0 -0.025125265123610376 0.00021433454036383739 0 -0.025347571578077436 0.00019506064410294504 0 -0.025125265123610376 0.00021433454036383739 0 -0.025789926173891236 0.00024032427073516192 0 -0.024482041142428607 8.996247691468151e-05 0 -0.025125265123610376 0.00021433454036383739 0 -0.023963703182495185 1.1221361163478455e-06 0 -0.025125265123610376 0.00021433454036383739 0 -0.023963703182495185 1.1221361163478455e-06 0 -0.026080267207573636 3.503559987798507e-07 0 -0.025125265123610376 0.00021433454036383739 0 -0.026080267207573636 3.503559987798507e-07 0 -0.025789926173891236 0.00024032427073516192 0 -0.026080267207573636 3.503559987798507e-07 0 -0.025789926173891236 0.00024032427073516192 0 -0.026539268530492915 0.00020522230177491519 0 -0.025864044508017558 0.00017307432168673677 0 -0.025789926173891236 0.00024032427073516192 0 -0.026539268530492915 0.00020522230177491519 0 -0.026539268530492915 0.00020522230177491519 0 -0.028195319646947187 7.706838630849952e-07 0 -0.027610944143992677 -6.8688490243118064e-05 0 -0.026080267207573636 3.503559987798507e-07 0 -0.026539268530492915 0.00020522230177491519 0 -0.028195319646947187 7.706838630849952e-07 0 -0.028195319646947187 7.706838630849952e-07 0 -0.027610944143992677 -6.8688490243118064e-05 0 -0.030308395215164416 -2.3628803131243922e-06 0 -0.030316770732325731 -2.8366411027867952e-08 0 -0.031412296464301409 -0.00017305482776191705 0 -0.031489101732158957 0.00020452143005415127 0 -0.030311033282543625 -1.8599332524321307e-07 0 -0.029718984895010493 -0.00032453306332316312 0 -0.027610944143992677 -6.8688490243118064e-05 0 -0.030308395215164416 -2.3628803131243922e-06 0 -0.027837587845873354 -0.00063182394803390344 0 -0.029718984895010493 -0.00032453306332316312 0 -0.028432662581516846 -0.00025317092605098258 0 -0.031412296464301409 -0.00017305482776191705 0 -0.03152590177143328 -0.00011011681608897023 0 -0.031496678758188526 5.4171503506552221e-05 0 -0.031412296464301409 -0.00017305482776191705 0 -0.031489101732158957 0.00020452143005415127 0 -0.031496678758188526 5.4171503506552221e-05 0 -0.026082489968360982 -7.8254662879214212e-07 0 -0.028432662581516846 -0.00025317092605098258 0 -0.027610944143992677 -6.8688490243118064e-05 0 -0.027837587845873354 -0.00063182394803390344 0 -0.026977656535862815 -0.0004625163472189507 0 -0.026539268530492915 0.00020522230177491519 0 -0.027610944143992677 -6.8688490243118064e-05 0 -0.026977656535862815 -0.0004625163472189507 0 -0.025923768703822483 -7.0670132751564569e-05 0 -0.025703665066502054 -0.00019223064662492569 0 -0.026116708119746212 -0.00045020906372495335 0 -0.026539268530492915 0.00020522230177491519 0 -0.025923768703822483 -7.0670132751564569e-05 0 -0.026116708119746212 -0.00045020906372495335 0 -0.027430601914865484 -0.00023769165505654351 0 -0.028432662581516846 -0.00025317092605098258 0 -0.02563389889377201 4.7140215889416567e-06 0 -0.025715684923387636 1.3452384365893584e-05 0 -0.025703665066502054 -0.00019223064662492569 0 -0.025715684923387636 1.3452384365893584e-05 0 -0.025923768703822483 -7.0670132751564569e-05 0 -0.025703665066502054 -0.00019223064662492569 0 -0.029228792840885219 -0.00033103337654008693 0 -0.029236978093561464 -0.00027595389396086123 0 -0.029283304184815062 -0.00032664403947942831 0 -0.029228792840885219 -0.00033103337654008693 0 -0.029212021282692128 -0.00029010295751172945 0 -0.029236978093561464 -0.00027595389396086123 0 -0.03152590177143328 -0.00011011681608897023 0 -0.031505063845719841 2.6585328423386394e-05 0 -0.031496678758188526 5.4171503506552221e-05 0 -0.028432662581516846 -0.00025317092605098258 0 -0.030458148665929413 -6.0784307434652564e-05 0 -0.029236978093561464 -0.00027595389396086123 0 -0.029287950440660394 -0.00028710672548467144 0 -0.029283304184815062 -0.00032664403947942831 0 -0.031505063845719841 2.6585328423386394e-05 0 -0.031478536510737891 6.6806816782606635e-06 0 -0.031496678758188526 5.4171503506552221e-05 0 -0.031505063845719841 2.6585328423386394e-05 0 -0.031478536510737891 6.6806816782606635e-06 0 -0.031473994907056289 5.3201775403158117e-06 0 -0.030458148665929413 -6.0784307434652564e-05 0 -0.031011301305143204 -0.00028492146185366181 0 -0.030334964832792157 -0.00046286816273738402 0 -0.031011301305143204 -0.00028492146185366181 0 -0.031638613797108375 -0.00067714896631602798 0 -0.031488327128873138 -0.00054715247878720018 0 -0.031502453564827289 -0.00051408360145610012 0 -0.029228792840885219 -0.00033103337654008693 0 -0.029283304184815062 -0.00032664403947942831 0 -0.029278627647450751 -0.00036854162873082333 0 -0.03161969033312978 -0.00051975389907522017 0 -0.031502453564827289 -0.00051408360145610012 0 -0.031539771111045861 -0.00050000109948488357 0 -0.03161969033312978 -0.00051975389907522017 0 -0.031638613797108375 -0.00067714896631602798 0 -0.031502453564827289 -0.00051408360145610012 0 -0.031011301305143204 -0.00028492146185366181 0 -0.03204344604477842 0.00010122274525613452 0 -0.033117950713431779 0.00086789192918360688 0 -0.03204344604477842 0.00010122274525613452 0 -0.032803228936925555 0.00077825832228088632 0 -0.032633885614246586 0.00038215335550586361 0 -0.032479079136571949 0.00062667254708846816 0 -0.031531681587486017 -0.00044674907228645983 0 -0.031502453564827289 -0.00051408360145610012 0 -0.031539771111045861 -0.00050000109948488357 0 -0.03204344604477842 0.00010122274525613452 0 -0.033033677720160783 0.0006838182399753987 0 -0.033117950713431779 0.00086789192918360688 0 -0.033033677720160783 0.0006838182399753987 0 -0.031531681587486017 -0.00044674907228645983 0 -0.03161969033312978 -0.00051975389907522017 0 -0.031539771111045861 -0.00050000109948488357 0 -0.031478536510737891 6.6806816782606635e-06 0 -0.031478864361592918 7.8935851854431414e-06 0 -0.031455399359530671 -1.9350714347257565e-05 0 -0.031817725875802318 -1.4363171751556512e-05 0 -0.031180457295951175 -0.0001386225308677344 0 -0.031817389937032182 0.00014412220602624023 0 -0.031759050065663014 3.6296419956411086e-06 0 -0.032068269515738324 -0.00011299406645052065 0 -0.031478536510737891 6.6806816782606635e-06 0 -0.031473994907056289 5.3201775403158117e-06 0 -0.031478864361592918 7.8935851854431414e-06 0 -0.031011301305143204 -0.00028492146185366181 0 -0.031817725875802318 -1.4363171751556512e-05 0 -0.031817725875802318 -1.4363171751556512e-05 0 -0.033033677720160783 0.0006838182399753987 0 -0.031759050065663014 3.6296419956411086e-06 0 -0.032068269515738324 -0.00011299406645052065 0 -0.031889642610176815 -0.00019599808503310048 0 -0.031675261912971736 -0.0013942475449932833 0 -0.030685731177442513 -0.00038692960204775463 0 -0.031455399359530671 -1.9350714347257565e-05 0 -0.032147282011743959 -0.00073853095843509154 0 -0.031455399359530671 -1.9350714347257565e-05 0 -0.032674358674971885 4.137229830906305e-08 0 -0.033242973818015865 -0.00034565617290005263 0 -0.032680107847301187 1.0238429901759897e-07 0 -0.031455399359530671 -1.9350714347257565e-05 0 -0.032674358674971885 4.137229830906305e-08 0 -0.031489101732158957 0.00020452143005415127 0 -0.030316770732325731 -2.8366411027867952e-08 0 -0.032674358674971885 4.137229830906305e-08 0 -0.031489101732158957 0.00020452143005415127 0 -0.031455399359530671 -1.9350714347257565e-05 0 -0.031489101732158957 0.00020452143005415127 0 -0.031496678758188526 5.4171503506552221e-05 0 -0.031478536510737891 6.6806816782606635e-06 0 -0.031455399359530671 -1.9350714347257565e-05 0 -0.031496678758188526 5.4171503506552221e-05 0 -0.011577447158989779 -0.00069349458256485693 0 -0.014982913355407244 -6.3759710766349433e-05 0 -0.014059777422494193 0.00019140496574194269 0 -0.013956721943060897 -0.00028894618551497832 0 -0.014445352170993601 -0.00010558151159680758 0 -0.014059777422494193 0.00019140496574194269 0 -0.014445352170993601 -0.00010558151159680758 0 -0.014352068693964454 0.00028237960645063263 0 -0.014059777422494193 0.00019140496574194269 0 -0.011983852444818678 -1.7010432046037161e-06 0 -0.014367527417654366 1.7186978377460226e-06 0 -0.011977367952820591 -6.3019303426429614e-07 0 -0.010887175186054875 -0.0004592750864561319 0 -0.010670160926168357 0.00016837161794077467 0 -0.011980780658517463 -2.3545699637522654e-07 0 -0.012553120955216553 -0.00026462685389700493 0 -0.014059777422494193 0.00019140496574194269 0 -0.011983852444818678 -1.7010432046037161e-06 0 -0.013956721943060897 -0.00028894618551497832 0 -0.012553120955216553 -0.00026462685389700493 0 -0.011577447158989779 -0.00069349458256485693 0 -0.010887175186054875 -0.0004592750864561319 0 -0.010282967673474756 -0.00047974154312648286 0 -0.010670160926168357 0.00016837161794077467 0 -0.010887175186054875 -0.0004592750864561319 0 -0.010282967673474756 -0.00047974154312648286 0 -0.010343962499825941 -0.00059134036940501188 0 -0.0081460845725492455 -0.001760481612987669 0 -0.0080992309496026489 -0.0011453263520762587 0 -0.0041919464978974336 -0.0028300837467064499 0 -0.0044296342352324325 -0.0032386478311882722 0 -0.0042599987801048038 -0.0034336443728908883 0 -0.0041919464978974336 -0.0028300837467064499 0 -0.0036671394199347665 -0.0030823001660180535 0 -0.0042599987801048038 -0.0034336443728908883 0 -0.0041919464978974336 -0.0028300837467064499 0 -0.0045450742940861405 -0.0034641765767588124 0 -0.0057884712240412455 -0.0025034405724368098 0 -0.0051108901263387553 -0.0024246931365808719 0 -0.0081460845725492455 -0.001760481612987669 0 -0.0081460845725492455 -0.001760481612987669 0 -0.010160519500108921 -0.00073290449412260095 0 -0.0094996957333475535 -0.00082732465876293715 0 -0.0093709580198351669 -0.00057353541489512294 0 -0.0097965101281680435 -0.00047780164287549457 0 -0.0081460845725492455 -0.001760481612987669 0 -0.011577447158989779 -0.00069349458256485693 0 -0.0036671394199347665 -0.0030823001660180535 0 -0.0032706348942238787 -0.0036252057378673179 0 -0.0030155039963081971 -0.0025051600039173679 0 -0.0036671394199347665 -0.0030823001660180535 0 -0.0030155039963081971 -0.0025051600039173679 0 -0.0036062378798551813 -0.002571985435861574 0 -0.0041919464978974336 -0.0028300837467064499 0 -0.0036671394199347665 -0.0030823001660180535 0 -0.0036062378798551813 -0.002571985435861574 0 -0.010160519500108921 -0.00073290449412260095 0 -0.0070647415502977096 -0.0021323620129385704 0 -0.010160519500108921 -0.00073290449412260095 0 -0.012816736427488588 -0.00046117481375654908 0 -0.0036671394199347665 -0.0030823001660180535 0 -0.0042599987801048038 -0.0034336443728908883 0 -0.0032706348942238787 -0.0036252057378673179 0 -0.012371893664892893 -0.0002436317360854763 0 -0.011784466140933553 -0.0010453654692669889 0 -0.011596142833092385 -0.0004024249843685652 0 -0.013953610385794303 0.00087333097866692405 0 -0.013686815468494311 -0.00011245705711420544 0 -0.01270537428417666 -0.00051437152977707292 0 -0.014367058009391908 0.00096579183231650372 0 -0.013686815468494311 -0.00011245705711420544 0 -0.015221837067742851 -0.00061188843320989623 0 -0.014367058009391908 0.00096579183231650372 0 -0.013953610385794303 0.00087333097866692405 0 -0.013686815468494311 -0.00011245705711420544 0 -0.011577447158989779 -0.00069349458256485693 0 -0.010160519500108921 -0.00073290449412260095 0 -0.013686815468494311 -0.00011245705711420544 0 -0.014072129082967039 -0.0010702612997829733 0 -0.015221837067742851 -0.00061188843320989623 0 -0.013686815468494311 -0.00011245705711420544 0 -0.014072129082967039 -0.0010702612997829733 0 -0.01338889043167104 -0.00063460019552602802 0 -0.013686815468494311 -0.00011245705711420544 0 -0.01270537428417666 -0.00051437152977707292 0 -0.01338889043167104 -0.00063460019552602802 0 -0.01270537428417666 -0.00051437152977707292 0 -0.01338889043167104 -0.00063460019552602802 0 -0.013220501118726323 -0.0010607087666347575 0 -0.014072129082967039 -0.0010702612997829733 0 -0.01338889043167104 -0.00063460019552602802 0 -0.013220501118726323 -0.0010607087666347575 0 -0.013220501118726323 -0.0010607087666347575 0 -0.013395475883074968 -0.0030732135984148793 0 -0.012464294333696122 -0.0020474029710012913 0 -0.012203934253276452 -0.0015341331737248724 0 -0.018159931899407428 -0.0018003075510678124 0 -0.013220501118726323 -0.0010607087666347575 0 -0.013822436585232129 -0.0018346592853199879 0 -0.013430763869507993 -0.0027000568734851698 0 -0.01270537428417666 -0.00051437152977707292 0 -0.013220501118726323 -0.0010607087666347575 0 -0.012464294333696122 -0.0020474029710012913 0 -0.014072129082967039 -0.0010702612997829733 0 -0.013822436585232129 -0.0018346592853199879 0 -0.014727067682902656 -0.0024462079392060174 0 -0.014072129082967039 -0.0010702612997829733 0 -0.015221837067742851 -0.00061188843320989623 0 -0.014727067682902656 -0.0024462079392060174 0 -0.014072129082967039 -0.0010702612997829733 0 -0.013220501118726323 -0.0010607087666347575 0 -0.013822436585232129 -0.0018346592853199879 0 -0.015221837067742851 -0.00061188843320989623 0 -0.016062221792690179 -0.0021726578537099371 0 -0.014727067682902656 -0.0024462079392060174 0 -0.014982913355407244 -6.3759710766349433e-05 0 -0.017106930313295285 -0.00090168557185849225 0 -0.014059777422494193 0.00019140496574194269 0 -0.014367527417654366 1.7186978377460226e-06 0 -0.015159821960220954 0.00012902842048586081 0 -0.014059777422494193 0.00019140496574194269 0 -0.014352068693964454 0.00028237960645063263 0 -0.015159821960220954 0.00012902842048586081 0 -0.014352068693964454 0.00028237960645063263 0 -0.015159821960220954 0.00012902842048586081 0 -0.015433897153821978 -0.00040426339559948045 0 -0.014367527417654366 1.7186978377460226e-06 0 -0.015159821960220954 0.00012902842048586081 0 -0.016752056077870354 -1.7591753905437389e-06 0 -0.016754441403981135 -6.168203129932922e-07 0 -0.017106930313295285 -0.00090168557185849225 0 -0.015159821960220954 0.00012902842048586081 0 -0.016752056077870354 -1.7591753905437389e-06 0 -0.015433897153821978 -0.00040426339559948045 0 -0.016757808073150183 -1.2210667384546239e-08 0 -0.016957060714659678 -3.0676197977941537e-06 0 -0.01885464945296993 2.557386783058969e-09 0 -0.017106930313295285 -0.00090168557185849225 0 -0.018857707341800242 1.844376516588573e-07 0 -0.019692561110914678 -0.001053754785657025 0 -0.019982264835974338 -0.00032418716105784044 0 -0.018860151796839579 -1.1112461033521153e-06 0 -0.017106930313295285 -0.00090168557185849225 0 -0.017463416243828793 -0.0016133109063701551 0 -0.020372270300064124 -0.00068460186980860509 0 -0.019982264835974338 -0.00032418716105784044 0 -0.020491445865908144 -0.00022949603510322443 0 -0.019692561110914678 -0.001053754785657025 0 -0.020372270300064124 -0.00068460186980860509 0 -0.019982264835974338 -0.00032418716105784044 0 -0.019982264835974338 -0.00032418716105784044 0 -0.020292004451647437 1.5188356192187522e-05 0 -0.020491445865908144 -0.00022949603510322443 0 -0.019982264835974338 -0.00032418716105784044 0 -0.020292004451647437 1.5188356192187522e-05 0 -0.019961057639049772 0.00011328228690500574 0 -0.018860151796839579 -1.1112461033521153e-06 0 -0.019961057639049772 0.00011328228690500574 0 -0.020353254447827662 1.0380363769710736e-06 0 -0.019982264835974338 -0.00032418716105784044 0 -0.018860151796839579 -1.1112461033521153e-06 0 -0.019961057639049772 0.00011328228690500574 0 -0.020353254447827662 1.0380363769710736e-06 0 -0.020424713047483192 0.00018645322501063458 0 -0.021845104992794139 -9.9719075319508013e-07 0 -0.019961057639049772 0.00011328228690500574 0 -0.020353254447827662 1.0380363769710736e-06 0 -0.020424713047483192 0.00018645322501063458 0 -0.020292004451647437 1.5188356192187522e-05 0 -0.020424713047483192 0.00018645322501063458 0 -0.020398492596020237 5.0705708970395022e-05 0 -0.020292004451647437 1.5188356192187522e-05 0 -0.019961057639049772 0.00011328228690500574 0 -0.020424713047483192 0.00018645322501063458 0 -0.020424713047483192 0.00018645322501063458 0 -0.020343544482861929 -9.2480623161583759e-05 0 -0.020398492596020237 5.0705708970395022e-05 0 -0.024482041142428607 8.996247691468151e-05 0 -0.02474921449965882 -0.00075165246496890095 0 -0.021852400981890792 -2.5693166346326355e-06 0 -0.022378054882278967 -0.00038193380884697832 0 -0.021848868966165023 -1.8406141765347149e-07 0 -0.020424713047483192 0.00018645322501063458 0 -0.020343544482861929 -9.2480623161583759e-05 0 -0.021845104992794139 -9.9719075319508013e-07 0 -0.025433003268757949 -0.0002081885190678596 0 -0.025463572260771266 -0.00022865751039072377 0 -0.025544107958445139 -0.00025012670961471176 0 -0.024028713057058088 4.9483773337940886e-05 0 -0.026138110246921618 -0.00028188010596711543 0 -0.025607919655683681 -0.0002401809855771252 0 -0.025615840376522755 -0.00026304569821929472 0 -0.025544107958445139 -0.00025012670961471176 0 -0.024618635775522132 -0.000328488410734189 0 -0.024028713057058088 4.9483773337940886e-05 0 -0.020343544482861929 -9.2480623161583759e-05 0 -0.020493721677020071 0.00011986683630686613 0 -0.020398492596020237 5.0705708970395022e-05 0 -0.022378054882278967 -0.00038193380884697832 0 -0.024028713057058088 4.9483773337940886e-05 0 -0.025317897915964786 -0.00015085817563260422 0 -0.02474921449965882 -0.00075165246496890095 0 -0.025663677664313989 -0.0005349844717536784 0 -0.020292004451647437 1.5188356192187522e-05 0 -0.020398492596020237 5.0705708970395022e-05 0 -0.020491445865908144 -0.00022949603510322443 0 -0.020493721677020071 0.00011986683630686613 0 -0.020398492596020237 5.0705708970395022e-05 0 -0.020620852113440453 -6.2749602883387939e-05 0 -0.020398492596020237 5.0705708970395022e-05 0 -0.020620852113440453 -6.2749602883387939e-05 0 -0.020491445865908144 -0.00022949603510322443 0 -0.025433003268757949 -0.0002081885190678596 0 -0.025405592273205817 -0.00022190410455724571 0 -0.025463572260771266 -0.00022865751039072377 0 -0.024028713057058088 4.9483773337940886e-05 0 -0.023379086212775943 8.6094496115446677e-05 0 -0.025405592273205817 -0.00022190410455724571 0 -0.025391931484807242 -0.00021239130097153291 0 -0.025463572260771266 -0.00022865751039072377 0 -0.023379086212775943 8.6094496115446677e-05 0 -0.018159931899407428 -0.0018003075510678124 0 -0.025405592273205817 -0.00022190410455724571 0 -0.025391931484807242 -0.00021239130097153291 0 -0.025327361107328979 -0.00022721067614040768 0 -0.020620852113440453 -6.2749602883387939e-05 0 -0.020491445865908144 -0.00022949603510322443 0 -0.02075349495887913 -0.00049427499797873769 0 -0.020372270300064124 -0.00068460186980860509 0 -0.020491445865908144 -0.00022949603510322443 0 -0.02075349495887913 -0.00049427499797873769 0 -0.017463416243828793 -0.0016133109063701551 0 -0.018159931899407428 -0.0018003075510678124 0 -0.013822436585232129 -0.0018346592853199879 0 -0.014727067682902656 -0.0024462079392060174 0 -0.013430763869507993 -0.0027000568734851698 0 -0.013395475883074968 -0.0030732135984148793 0 -0.011836646991914768 -0.0033324481524847653 0 -0.012464294333696122 -0.0020474029710012913 0 -0.025391931484807242 -0.00021239130097153291 0 -0.025327361107328979 -0.00022721067614040768 0 -0.025319351422287046 -0.0002207140470152743 0 -0.018159931899407428 -0.0018003075510678124 0 -0.01941099211903756 -0.0016912225380697583 0 -0.011836646991914768 -0.0033324481524847653 0 -0.011198586812385591 -0.0022197489580646742 0 -0.012464294333696122 -0.0020474029710012913 0 -0.011836646991914768 -0.0033324481524847653 0 -0.011198586812385591 -0.0022197489580646742 0 -0.010427433572018285 -0.0018049574681001503 0 -0.01941099211903756 -0.0016912225380697583 0 -0.011427417342026182 -0.00058941873540092275 0 -0.016854715993850054 -0.004002819329095404 0 -0.011121641015782262 -0.0051551927529254636 0 -0.013047270054891874 0.00030161109709919953 0 -0.01941099211903756 -0.0016912225380697583 0 -0.018575869090027067 -0.0026235160289186823 0 -0.025380354595122917 -0.0001622768830414344 0 -0.02540612692784356 -0.00017278795645969059 0 -0.025268599578836145 -5.8886486060934847e-05 0 -0.025391931484807242 -0.00021239130097153291 0 -0.025380354595122917 -0.0001622768830414344 0 -0.02540612692784356 -0.00017278795645969059 0 -0.02560270562878425 -0.0010913608796445456 0 -0.01941099211903756 -0.0016912225380697583 0 -0.02540612692784356 -0.00017278795645969059 0 -0.025463572260771266 -0.00022865751039072377 0 -0.02547930176449853 -0.00025916189455463669 0 -0.025391931484807242 -0.00021239130097153291 0 -0.02540612692784356 -0.00017278795645969059 0 -0.025463572260771266 -0.00022865751039072377 0 -0.02540612692784356 -0.00017278795645969059 0 -0.02547930176449853 -0.00025916189455463669 0 -0.025221291966636254 -0.00015067323947504658 0 -0.025596041889136723 -0.00036850464439088155 0 -0.02547930176449853 -0.00025916189455463669 0 -0.025544107958445139 -0.00025012670961471176 0 -0.025596041889136723 -0.00036850464439088155 0 -0.02547930176449853 -0.00025916189455463669 0 -0.025384969440854808 -0.00032470162696032013 0 -0.025463572260771266 -0.00022865751039072377 0 -0.02547930176449853 -0.00025916189455463669 0 -0.025544107958445139 -0.00025012670961471176 0 -0.025118474695707094 -0.00031953564350920016 0 -0.025384969440854808 -0.00032470162696032013 0 -0.025221291966636254 -0.00015067323947504658 0 -0.025419313668057528 -0.00045320562386444419 0 -0.025118474695707094 -0.00031953564350920016 0 -0.025384969440854808 -0.00032470162696032013 0 -0.02547930176449853 -0.00025916189455463669 0 -0.025384969440854808 -0.00032470162696032013 0 -0.025221291966636254 -0.00015067323947504658 0 -0.025118474695707094 -0.00031953564350920016 0 -0.025221291966636254 -0.00015067323947504658 0 -0.024876406735387845 4.1222478605184441e-05 0 -0.025221291966636254 -0.00015067323947504658 0 -0.025268599578836145 -5.8886486060934847e-05 0 -0.024876406735387845 4.1222478605184441e-05 0 -0.011121641015782262 -0.0051551927529254636 0 -0.0061261275492888621 -0.0030321595638317369 0 -0.0053035637523033991 -0.0062870738572897138 0 -0.018575869090027067 -0.0026235160289186823 0 -0.014946511036892532 -0.0031880335979551748 0 -0.02540612692784356 -0.00017278795645969059 0 -0.025221291966636254 -0.00015067323947504658 0 -0.025268599578836145 -5.8886486060934847e-05 0 -0.011121641015782262 -0.0051551927529254636 0 -0.0082859626820916792 -0.00089285326005246566 0 -0.013047270054891874 0.00030161109709919953 0 -0.0061261275492888621 -0.0030321595638317369 0 -0.0082859626820916792 -0.00089285326005246566 0 -0.00335743036498652 -0.00081832806986235245 0 -0.011121641015782262 -0.0051551927529254636 0 -0.0061261275492888621 -0.0030321595638317369 0 -0.0082859626820916792 -0.00089285326005246566 0 -0.0082859626820916792 -0.00089285326005246566 0 -0.0082061873727207954 0.0017483027752887639 0 -0.00335743036498652 -0.00081832806986235245 0 -0.0082061873727207954 0.0017483027752887639 0 -0.0064474340196876111 0.0039300764477246883 0 -0.00335743036498652 -0.00081832806986235245 0 -0.0026580516355836988 -0.0010751211595339556 0 -0.0060243798376444857 -0.00060496618131640023 0 -0.0082061873727207954 0.0017483027752887639 0 -0.0064474340196876111 0.0039300764477246883 0 -0.0092532926417806822 0.0045507951875976777 0 -0.0060243798376444857 -0.00060496618131640023 0 -0.011427417342026182 -0.00058941873540092275 0 -0.0082061873727207954 0.0017483027752887639 0 -0.0092532926417806822 0.0045507951875976777 0 -0.013047270054891874 0.00030161109709919953 0 -0.0094549295416769558 -0.00073010830118144852 0 -0.010427433572018285 -0.0018049574681001503 0 -0.010363803072561118 -0.0010679353023199782 0 -0.0094549295416769558 -0.00073010830118144852 0 -0.010363803072561118 -0.0010679353023199782 0 -0.010595295906303833 -0.00051476506669943572 0 -0.0082859626820916792 -0.00089285326005246566 0 -0.0082061873727207954 0.0017483027752887639 0 -0.013047270054891874 0.00030161109709919953 0 -0.011198586812385591 -0.0022197489580646742 0 -0.010427433572018285 -0.0018049574681001503 0 -0.010984711176025329 -0.0012306797001310672 0 -0.012816736427488588 -0.00046117481375654908 0 -0.011002849288153097 -0.0023241563876775866 0 -0.01270537428417666 -0.00051437152977707292 0 -0.011198586812385591 -0.0022197489580646742 0 -0.012464294333696122 -0.0020474029710012913 0 -0.011784466140933553 -0.0010453654692669889 0 -0.011198586812385591 -0.0022197489580646742 0 -0.010984711176025329 -0.0012306797001310672 0 -0.011784466140933553 -0.0010453654692669889 0 -0.011252950612803488 -0.00080179981098877956 0 -0.010984711176025329 -0.0012306797001310672 0 -0.010427433572018285 -0.0018049574681001503 0 -0.010984711176025329 -0.0012306797001310672 0 -0.010363803072561118 -0.0010679353023199782 0 -0.011252950612803488 -0.00080179981098877956 0 -0.010984711176025329 -0.0012306797001310672 0 -0.010595295906303833 -0.00051476506669943572 0 -0.010984711176025329 -0.0012306797001310672 0 -0.010363803072561118 -0.0010679353023199782 0 -0.010595295906303833 -0.00051476506669943572 0 -0.0023026370737745938 -0.0037798415041591839 0 -0.0023824185038292282 -0.0029977760624923626 0 -0.0017339300196841524 -0.0033973624141764133 0 -0.011784466140933553 -0.0010453654692669889 0 -0.011252950612803488 -0.00080179981098877956 0 -0.011596142833092385 -0.0004024249843685652 0 -0.0063618610917795249 -0.0022947383613402192 0 -0.0070647415502977096 -0.0021323620129385704 0 -0.011252950612803488 -0.00080179981098877956 0 -0.010595295906303833 -0.00051476506669943572 0 -0.011596142833092385 -0.0004024249843685652 0 -0.0023026370737745938 -0.0037798415041591839 0 -0.0032706348942238787 -0.0036252057378673179 0 -0.0023824185038292282 -0.0029977760624923626 0 -0.0032706348942238787 -0.0036252057378673179 0 -0.0023824185038292282 -0.0029977760624923626 0 -0.0030155039963081971 -0.0025051600039173679 0 -0.0016267945989135546 -0.0027045581944764507 0 -0.0011055458260276173 -0.0036247636931419761 0 -0.0017339300196841524 -0.0033973624141764133 0 -0.0023824185038292282 -0.0029977760624923626 0 -0.0016267945989135546 -0.0027045581944764507 0 -0.0017339300196841524 -0.0033973624141764133 0 -0.00083007329777832952 -0.0037136592925241952 0 -0.00085907660777011783 -0.0035216496006193259 0 -0.00025118516283512057 -0.0043485590819250441 0 0.00041039537722466977 -0.0043950388879957251 0 0.00032051649287706042 -0.0052141751044596637 0 -0.00085907660777011783 -0.0035216496006193259 0 0.0014178828038744098 -0.0038682512085147116 0 0.00041039537722466977 -0.0043950388879957251 0 0.00032051649287706042 -0.0052141751044596637 0 0.0010839273287868477 -0.0043701462056760353 0 0.0010786862223390993 -0.0037514278696027972 0 0.0009464314151895394 -0.0035581421795651286 0 0.0012884884366436322 -0.0035038112729906625 0 -0.0026580516355836988 -0.0010751211595339556 0 -0.00085907660777011783 -0.0035216496006193259 0 -0.0060243798376444857 -0.00060496618131640023 0 -0.00085907660777011783 -0.0035216496006193259 0 -0.0028164764037366566 -0.0016889994389126658 0 -0.0033065183004634181 -0.0015857419565930291 0 -0.0030595885515168043 -0.001316054663886939 0 -0.0060243798376444857 -0.00060496618131640023 0 -0.0063618610917795249 -0.0022947383613402192 0 -0.0013982399140812236 -0.0039458970778781964 0 -0.0023026370737745938 -0.0037798415041591839 0 -0.0017339300196841524 -0.0033973624141764133 0 -0.0013982399140812236 -0.0039458970778781964 0 -0.0011055458260276173 -0.0036247636931419761 0 -0.0017339300196841524 -0.0033973624141764133 0 0.0013107031783308758 -0.0031804156248201529 0 0.0018367916922247493 -0.0034061032049273604 0 0.0020454621771928217 -0.0030439655236294467 0 0.0015762669571382799 -0.0035896990119477783 0 0.0017584579236688878 -0.0036709734428828265 0 0.0015806624145046941 -0.0038274489182257782 0 0.0015762669571382799 -0.0035896990119477783 0 0.0012884884366436322 -0.0035038112729906625 0 0.0015806624145046941 -0.0038274489182257782 0 0.0015762669571382799 -0.0035896990119477783 0 0.0012884884366436322 -0.0035038112729906625 0 0.0013107031783308758 -0.0031804156248201529 0 0.0009464314151895394 -0.0035581421795651286 0 0.0012884884366436322 -0.0035038112729906625 0 0.0013107031783308758 -0.0031804156248201529 0 0.0015762669571382799 -0.0035896990119477783 0 0.0013107031783308758 -0.0031804156248201529 0 0.0018367916922247493 -0.0034061032049273604 0 0.0018367916922247493 -0.0034061032049273604 0 0.0021865829505529695 -0.0034664719148291973 0 0.0020454621771928217 -0.0030439655236294467 0 0.0021865829505529695 -0.0034664719148291973 0 0.0026538482915706061 -0.0030695418415189759 0 0.0020454621771928217 -0.0030439655236294467 0 0.0021865829505529695 -0.0034664719148291973 0 0.0016772575515935381 -0.0039006561774530533 0 0.002523873265045017 -0.0036127424199239961 0 0.0018367916922247493 -0.0034061032049273604 0 0.0021865829505529695 -0.0034664719148291973 0 0.0017584579236688878 -0.0036709734428828265 0 0.0021865829505529695 -0.0034664719148291973 0 0.0017584579236688878 -0.0036709734428828265 0 0.0016772575515935381 -0.0039006561774530533 0 0.0015762669571382799 -0.0035896990119477783 0 0.0018367916922247493 -0.0034061032049273604 0 0.0017584579236688878 -0.0036709734428828265 0 0.0013623360035412452 -0.0037586218710476847 0 0.0013332433086920179 -0.0039492458066628343 0 0.0017584579236688878 -0.0036709734428828265 0 0.0016772575515935381 -0.0039006561774530533 0 0.0015806624145046941 -0.0038274489182257782 0 0.0016772575515935381 -0.0039006561774530533 0 0.001515816995448605 -0.0048169583494666801 0 0.0023486572963447735 -0.004763922937269462 0 0.0016772575515935381 -0.0039006561774530533 0 0.00020246647500976858 -0.0047118015841780886 0 0.001515816995448605 -0.0048169583494666801 0 0.0016772575515935381 -0.0039006561774530533 0 -0.00011337759661035561 -0.0033500470258557291 0 0.00020246647500976858 -0.0047118015841780886 0 -0.00011337759661035561 -0.0033500470258557291 0 -0.00071311415871350657 -0.004389548335209081 0 0.00020246647500976858 -0.0047118015841780886 0 0.0010786862223390993 -0.0037514278696027972 0 0.0012884884366436322 -0.0035038112729906625 0 0.0015806624145046941 -0.0038274489182257782 0 -0.0026580516355836988 -0.0010751211595339556 0 0.0013332433086920179 -0.0039492458066628343 0 -0.0016361670704711671 -0.002979243767719123 0 -0.00011337759661035561 -0.0033500470258557291 0 -0.00071311415871350657 -0.004389548335209081 0 -0.0026580516355836988 -0.0010751211595339556 0 -0.0023273229320299542 -0.0022511731042255934 0 -0.0061261275492888621 -0.0030321595638317369 0 -0.0036930539303668486 -0.0038340579917769497 0 -0.0053035637523033991 -0.0062870738572897138 0 -0.0061261275492888621 -0.0030321595638317369 0 -0.00335743036498652 -0.00081832806986235245 0 -0.0036930539303668486 -0.0038340579917769497 0 -0.00335743036498652 -0.00081832806986235245 0 -0.0036930539303668486 -0.0038340579917769497 0 -0.00021235102213044006 -0.0055797089157710623 0 -0.00071311415871350657 -0.004389548335209081 0 0.00020246647500976858 -0.0047118015841780886 0 -0.00021235102213044006 -0.0055797089157710623 0 -0.0023273229320299542 -0.0022511731042255934 0 -0.00015525141924159394 -0.0056200888377412111 0 -0.014946511036892532 -0.0031880335979551748 0 -0.012271767217037497 -0.0030006323455065518 0 -0.00021235102213044006 -0.0055797089157710623 0 -0.0053035637523033991 -0.0062870738572897138 0 0.00023970569371716986 -0.0069577475223574093 0 -0.00021235102213044006 -0.0055797089157710623 0 0.00039271985054048828 -0.0062578675453429109 0 0.00023970569371716986 -0.0069577475223574093 0 -0.0036930539303668486 -0.0038340579917769497 0 -0.00021235102213044006 -0.0055797089157710623 0 -0.0053035637523033991 -0.0062870738572897138 0 -0.025118474695707094 -0.00031953564350920016 0 -0.024876406735387845 4.1222478605184441e-05 0 -0.024683697247657413 -0.00038539015122170453 0 -0.024876406735387845 4.1222478605184441e-05 0 -0.024683697247657413 -0.00038539015122170453 0 -0.024229866336894935 -2.5252378762571706e-05 0 -0.02388371728957835 -0.0023076335236937974 0 -0.012271767217037497 -0.0030006323455065518 0 -0.020797899871393556 -0.0040741388725767788 0 -0.01821119998340277 -0.003011073871171578 0 -0.018765650947721261 -0.00095063843835365639 0 -0.019734215917904391 -0.0058327007027288436 0 -0.020797899871393556 -0.0040741388725767788 0 -0.018400952136965191 -0.0042108350755038701 0 -0.020797899871393556 -0.0040741388725767788 0 -0.018400952136965191 -0.0042108350755038701 0 -0.01821119998340277 -0.003011073871171578 0 -0.025064038775797985 -0.00063396035584019578 0 -0.025118474695707094 -0.00031953564350920016 0 -0.024683697247657413 -0.00038539015122170453 0 -0.023230759087693873 -0.0030837762419515281 0 -0.019668714341137247 -0.0032263892625478273 0 -0.014648813601965916 -0.0040969242750279675 0 -0.019668714341137247 -0.0032263892625478273 0 -0.029057547826381095 -0.0014517692531353585 0 -0.028803883526554018 -0.0015820749523774368 0 -0.028970828904474572 -0.0014498307257342356 0 -0.017140756734508437 -0.0042469834313241944 0 -0.016315034354710951 -0.0026679289902921777 0 -0.013038469400885622 -0.0034462188510730389 0 -0.016800469248767977 -0.004576242208154572 0 -0.017140756734508437 -0.0042469834313241944 0 -0.015036187034213033 -0.0038026277695715652 0 -0.019734215917904391 -0.0058327007027288436 0 -0.016800469248767977 -0.004576242208154572 0 -0.018400952136965191 -0.0042108350755038701 0 -0.023902913070323478 -0.0038641338969925745 0 -0.023230759087693873 -0.0030837762419515281 0 -0.018400952136965191 -0.0042108350755038701 0 -0.01773439079693399 -0.0036828071472858348 0 -0.01821119998340277 -0.003011073871171578 0 -0.018400952136965191 -0.0042108350755038701 0 -0.01773439079693399 -0.0036828071472858348 0 -0.017140756734508437 -0.0042469834313241944 0 -0.01773439079693399 -0.0036828071472858348 0 -0.017349918195299224 -0.0034039502306252977 0 -0.01821119998340277 -0.003011073871171578 0 -0.017140756734508437 -0.0042469834313241944 0 -0.017349918195299224 -0.0034039502306252977 0 -0.016315034354710951 -0.0026679289902921777 0 -0.016800469248767977 -0.004576242208154572 0 -0.018400952136965191 -0.0042108350755038701 0 -0.017140756734508437 -0.0042469834313241944 0 -0.01773439079693399 -0.0036828071472858348 0 -0.017140756734508437 -0.0042469834313241944 0 -0.017349918195299224 -0.0034039502306252977 0 -0.0052284891652341079 -0.0043820914609008456 0 -0.012271767217037497 -0.0030006323455065518 0 -0.017349918195299224 -0.0034039502306252977 0 -0.01821119998340277 -0.003011073871171578 0 -0.016315034354710951 -0.0026679289902921777 0 -0.01821119998340277 -0.003011073871171578 0 -0.016315034354710951 -0.0026679289902921777 0 -0.018765650947721261 -0.00095063843835365639 0 -0.014825251043273787 -0.0016232333611833022 0 -0.016315034354710951 -0.0026679289902921777 0 -0.018765650947721261 -0.00095063843835365639 0 -0.014825251043273787 -0.0016232333611833022 0 -0.016315034354710951 -0.0026679289902921777 0 -0.013038469400885622 -0.0034462188510730389 0 0.0017024848407838019 -0.0063012927903063074 0 0.0018912757120169831 -0.0053914278587085347 0 0.00096472140731335588 -0.0055167891444547054 0 0.0017024848407838019 -0.0063012927903063074 0 0.00039271985054048828 -0.0062578675453429109 0 0.00096472140731335588 -0.0055167891444547054 0 0.0017024848407838019 -0.0063012927903063074 0 0.00039271985054048828 -0.0062578675453429109 0 0.00026433798065574174 -0.0064270245543777051 0 -0.0097894942579267522 -0.002489035249192739 0 -0.012271767217037497 -0.0030006323455065518 0 -0.00021235102213044006 -0.0055797089157710623 0 0.00039271985054048828 -0.0062578675453429109 0 0.00096472140731335588 -0.0055167891444547054 0 0.00020246647500976858 -0.0047118015841780886 0 0.00096472140731335588 -0.0055167891444547054 0 0.001515816995448605 -0.0048169583494666801 0 0.00020246647500976858 -0.0047118015841780886 0 -0.00021235102213044006 -0.0055797089157710623 0 0.00096472140731335588 -0.0055167891444547054 0 0.0018912757120169831 -0.0053914278587085347 0 0.001515816995448605 -0.0048169583494666801 0 0.0023486572963447735 -0.004763922937269462 0 0.0018912757120169831 -0.0053914278587085347 0 0.00096472140731335588 -0.0055167891444547054 0 0.001515816995448605 -0.0048169583494666801 0 0.0018912757120169831 -0.0053914278587085347 0 0.0023486572963447735 -0.004763922937269462 0 0.0027612160279688572 -0.0055687701614475574 0 0.0023486572963447735 -0.004763922937269462 0 0.0027612160279688572 -0.0055687701614475574 0 0.0033262394402506054 -0.0049155962268207058 0 0.0027612160279688572 -0.0055687701614475574 0 0.0033228196922293917 -0.0060873197258790633 0 0.0033262394402506054 -0.0049155962268207058 0 0.0017024848407838019 -0.0063012927903063074 0 0.0018912757120169831 -0.0053914278587085347 0 0.0027612160279688572 -0.0055687701614475574 0 0.0017024848407838019 -0.0063012927903063074 0 0.0027612160279688572 -0.0055687701614475574 0 0.0027990266270015523 -0.006340797165592155 0 -0.0052284891652341079 -0.0043820914609008456 0 -0.0070563548228661822 -0.0027112068990636615 0 -0.014825251043273787 -0.0016232333611833022 0 -0.01055991474135212 -0.0024275625282311865 0 -0.013038469400885622 -0.0034462188510730389 0 -0.0070563548228661822 -0.0027112068990636615 0 -0.019668714341137247 -0.0032263892625478273 0 0.0027612160279688572 -0.0055687701614475574 0 0.0027990266270015523 -0.006340797165592155 0 0.0033228196922293917 -0.0060873197258790633 0 -0.016457839792092595 -0.00086837389097437693 0 -0.019668714341137247 -0.0032263892625478273 0 -0.028491408085104267 -0.001231327533455353 0 -0.028722364347709521 -0.0014240125012200283 0 -0.028970828904474572 -0.0014498307257342356 0 -0.012092721423356651 -0.0015837692761965772 0 -0.013886247619823672 -0.0012462482178768124 0 -0.018284447189974854 -0.0031261757512701807 0 -0.0070563548228661822 -0.0027112068990636615 0 -0.00018569723280516942 0.00076034673337137336 0 -0.028491408085104267 -0.001231327533455353 0 -0.028722364347709521 -0.0014240125012200283 0 -0.028215232293282631 -0.0014346614055654962 0 -0.0073416690606354709 -0.0017005768773830487 0 -0.0099669957448740749 -0.001191582262945543 0 -0.0047322876131584068 0.00099679719862282479 0 -0.016457839792092595 -0.00086837389097437693 0 -0.0070563548228661822 -0.0027112068990636615 0 -0.028722364347709521 -0.0014240125012200283 0 -0.028765836797056459 -0.0014651610752041864 0 -0.028812014126857119 -0.0014579840128434152 0 -0.029972826995546625 -0.0016830396245472116 0 -0.023181619425218996 -0.0016336259937287012 0 -0.028722364347709521 -0.0014240125012200283 0 -0.028765836797056459 -0.0014651610752041864 0 -0.028742397492171223 -0.0014610120163481878 0 -0.028765836797056459 -0.0014651610752041864 0 -0.028812014126857119 -0.0014579840128434152 0 -0.028775026440235919 -0.0015325687256633803 0 -0.028722364347709521 -0.0014240125012200283 0 -0.028812014126857119 -0.0014579840128434152 0 -0.028912154215302646 -0.0014521222868942147 0 -0.029057547826381095 -0.0014517692531353585 0 -0.028812014126857119 -0.0014579840128434152 0 -0.028912154215302646 -0.0014521222868942147 0 -0.029057547826381095 -0.0014517692531353585 0 -0.028912154215302646 -0.0014521222868942147 0 -0.028970828904474572 -0.0014498307257342356 0 -0.028722364347709521 -0.0014240125012200283 0 -0.028912154215302646 -0.0014521222868942147 0 -0.028970828904474572 -0.0014498307257342356 0 -0.029212500789770578 -0.0016978104047504666 0 -0.029000727966070193 -0.0018782546299546685 0 -0.029557951842411109 -0.0017858966822627395 0 -0.014399702647495712 0.0010434692065256494 0 -0.021280166773464594 0.0017723481943938187 0 -0.029212500789770578 -0.0016978104047504666 0 -0.028976378548669576 -0.0016378499919786913 0 -0.029000727966070193 -0.0018782546299546685 0 -0.029180354047618092 -0.0015312145786708414 0 -0.029212500789770578 -0.0016978104047504666 0 -0.029377832046179237 -0.0016081381193525364 0 -0.029180354047618092 -0.0015312145786708414 0 -0.029212500789770578 -0.0016978104047504666 0 -0.028976378548669576 -0.0016378499919786913 0 -0.028765836797056459 -0.0014651610752041864 0 -0.028775026440235919 -0.0015325687256633803 0 -0.028742397492171223 -0.0014610120163481878 0 -0.027294052980596773 -0.0014800930179570339 0 -0.023181619425218996 -0.0016336259937287012 0 -0.028976378548669576 -0.0016378499919786913 0 -0.028775026440235919 -0.0015325687256633803 0 -0.028705193115178166 -0.0018332868522172323 0 -0.028976378548669576 -0.0016378499919786913 0 -0.028705193115178166 -0.0018332868522172323 0 -0.029000727966070193 -0.0018782546299546685 0 -0.017165643629657671 0.0009395904056510656 0 -0.017180155261872821 0.0015941575892793631 0 -0.014965644089900544 0.0011696592771214831 0 -0.023181619425218996 -0.0016336259937287012 0 -0.014399702647495712 0.0010434692065256494 0 -0.00052001127206036265 0.0040220578610407282 0 -0.00051079318672634516 0.0041940339582274867 0 0.00034954935153757438 0.0038698757369921336 0 -0.012610183156540472 0.0005756899663515578 0 -0.014399702647495712 0.0010434692065256494 0 -0.028491408085104267 -0.001231327533455353 0 -0.028215232293282631 -0.0014346614055654962 0 -0.028202641122109993 -0.0012658954602396133 0 -0.023181619425218996 -0.0016336259937287012 0 -0.012610183156540472 0.0005756899663515578 0 -0.012610183156540472 0.0005756899663515578 0 -0.0053581234618207381 0.0020776511072338158 0 -0.016457839792092595 -0.00086837389097437693 0 -0.0053581234618207381 0.0020776511072338158 0 -0.016457839792092595 -0.00086837389097437693 0 -0.012610183156540472 0.0005756899663515578 0 -0.013793293279250118 -0.0012610157960368565 0 -0.010512289325504898 -0.0019047352345479634 0 -0.010554353672063014 -0.00049347390918399613 0 -0.0073416690606354709 -0.0017005768773830487 0 -0.0046744330773753808 -0.0010603370914040347 0 -0.0047322876131584068 0.00099679719862282479 0 -0.0053581234618207381 0.0020776511072338158 0 -0.00018569723280516942 0.00076034673337137336 0 -0.00018569723280516942 0.00076034673337137336 0 0.0040678797286027406 0.0042043031988454934 0 0.0037956539602094354 0.0050115796893884417 0 0.0038078710122996617 0.0045263378071230759 0 0.0026459923801191824 0.0040474695341778041 0 -0.00051079318672634516 0.0041940339582274867 0 0.00034954935153757438 0.0038698757369921336 0 0.0010686165418074052 0.0043992189153270545 0 0.0037956539602094354 0.0050115796893884417 0 0.0026459923801191824 0.0040474695341778041 0 0.0010686165418074052 0.0043992189153270545 0 -0.014399702647495712 0.0010434692065256494 0 -0.0064182889881225173 0.0038723870593673302 0 0.00034954935153757438 0.0038698757369921336 0 0.0010686165418074052 0.0043992189153270545 0 0.0010904329914422722 0.0042621704851940976 0 -0.0053581234618207381 0.0020776511072338158 0 0.004136539007057155 0.0053596825406972597 0 0.0017923128013868867 0.0036151096535250206 0 0.0010686165418074052 0.0043992189153270545 0 0.0011995594940826309 0.0033132179898707963 0 0.0017923128013868867 0.0036151096535250206 0 0.0026459923801191824 0.0040474695341778041 0 0.0010686165418074052 0.0043992189153270545 0 0.0017923128013868867 0.0036151096535250206 0 0.0026459923801191824 0.0040474695341778041 0 0.0022656573258166891 0.0027354866900817492 0 0.0017923128013868867 0.0036151096535250206 0 0.0022656573258166891 0.0027354866900817492 0 0.0011995594940826309 0.0033132179898707963 0 0.0036890429311874232 0.0044598874131015461 0 0.0026459923801191824 0.0040474695341778041 0 0.0038818884010340233 0.0019594796624719437 0 -0.00018569723280516942 0.00076034673337137336 0 0.0041156176159129589 -0.001852694861730777 0 0.0026459923801191824 0.0040474695341778041 0 0.0038818884010340233 0.0019594796624719437 0 0.0022656573258166891 0.0027354866900817492 0 0.0038818884010340233 0.0019594796624719437 0 0.0022656573258166891 0.0027354866900817492 0 0.0027109815202618986 0.001329321563791653 0 0.0022656573258166891 0.0027354866900817492 0 0.0027109815202618986 0.001329321563791653 0 0.0014931261643884653 0.002082476746841434 0 0.0022656573258166891 0.0027354866900817492 0 0.0014931261643884653 0.002082476746841434 0 0.0011995594940826309 0.0033132179898707963 0 0.0018095120375061302 0.00036286258467433633 0 0.0027109815202618986 0.001329321563791653 0 0.0014931261643884653 0.002082476746841434 0 0.0018095120375061302 0.00036286258467433633 0 0.0027109815202618986 0.001329321563791653 0 0.004032799672426088 -0.00037080538171812422 0 0.0018095120375061302 0.00036286258467433633 0 0.0026087967127357806 -0.0009268491108493477 0 0.004032799672426088 -0.00037080538171812422 0 0.0018095120375061302 0.00036286258467433633 0 0.0026087967127357806 -0.0009268491108493477 0 0.0014342545420519635 -0.0010518576767520088 0 0.0038818884010340233 0.0019594796624719437 0 0.0027109815202618986 0.001329321563791653 0 0.004032799672426088 -0.00037080538171812422 0 0.0041156176159129589 -0.001852694861730777 0 0.0035707381358304029 -0.0020736994829090431 0 0.0033262394402506054 -0.0049155962268207058 0 0.0032492566265861539 -0.003922266886784734 0 0.0026869008971418628 -0.0040840009718677616 0 0.0023486572963447735 -0.004763922937269462 0 0.0033262394402506054 -0.0049155962268207058 0 0.0026869008971418628 -0.0040840009718677616 0 0.0016772575515935381 -0.0039006561774530533 0 0.0023486572963447735 -0.004763922937269462 0 0.0026869008971418628 -0.0040840009718677616 0 0.0016772575515935381 -0.0039006561774530533 0 0.0026869008971418628 -0.0040840009718677616 0 0.002523873265045017 -0.0036127424199239961 0 0.0026869008971418628 -0.0040840009718677616 0 0.0029092787349179841 -0.0036384716263607045 0 0.002523873265045017 -0.0036127424199239961 0 0.0032492566265861539 -0.003922266886784734 0 0.0026869008971418628 -0.0040840009718677616 0 0.0029092787349179841 -0.0036384716263607045 0 0.0032492566265861539 -0.003922266886784734 0 0.0029092787349179841 -0.0036384716263607045 0 0.0032709725284003621 -0.0033295849149234781 0 0.0029092787349179841 -0.0036384716263607045 0 0.002795711530308791 -0.0033594911108853222 0 0.0032709725284003621 -0.0033295849149234781 0 0.0021865829505529695 -0.0034664719148291973 0 0.002523873265045017 -0.0036127424199239961 0 0.002795711530308791 -0.0033594911108853222 0 0.0029092787349179841 -0.0036384716263607045 0 0.002523873265045017 -0.0036127424199239961 0 0.002795711530308791 -0.0033594911108853222 0 0.0021865829505529695 -0.0034664719148291973 0 0.002795711530308791 -0.0033594911108853222 0 0.0026538482915706061 -0.0030695418415189759 0 0.002795711530308791 -0.0033594911108853222 0 0.0030694821468609731 -0.0030925373809120847 0 0.0026538482915706061 -0.0030695418415189759 0 0.002795711530308791 -0.0033594911108853222 0 0.0032709725284003621 -0.0033295849149234781 0 0.0030694821468609731 -0.0030925373809120847 0 0.0040983148171742194 -0.0025532798747247695 0 0.0038207913776374365 -0.0028933837419380698 0 0.0028167484595913949 -0.0022076347159329128 0 0.0038207913776374365 -0.0028933837419380698 0 0.0028167484595913949 -0.0022076347159329128 0 0.0030148396333102394 -0.003078020214156047 0 0.0028167484595913949 -0.0022076347159329128 0 0.0030148396333102394 -0.003078020214156047 0 0.0015232912392765083 -0.0025001628170852586 0 0.0026087967127357806 -0.0009268491108493477 0 0.0028167484595913949 -0.0022076347159329128 0 0.0014342545420519635 -0.0010518576767520088 0 0.0026087967127357806 -0.0009268491108493477 0 0.004032799672426088 -0.00037080538171812422 0 0.0040983148171742194 -0.0025532798747247695 0 0.0035707381358304029 -0.0020736994829090431 0 0.0036856869337036123 -0.0029181981262179652 0 0.0026087967127357806 -0.0009268491108493477 0 0.0040983148171742194 -0.0025532798747247695 0 0.0028167484595913949 -0.0022076347159329128 0 0.0044064282441561957 -0.0045813821354749179 0 0.0039022194141207791 -0.0042273269525207975 0 0.0037460882081983213 -0.0037883824811233307 0 0.0044064282441561957 -0.0045813821354749179 0 0.0039022194141207791 -0.0042273269525207975 0 0.0044064387671760947 -0.0045925331006663218 0 0.0036888526272809831 -0.0042105230248626795 0 0.0039022194141207791 -0.0042273269525207975 0 0.0044064387671760947 -0.0045925331006663218 0 0.0041577589401702733 -0.0044717039252663406 0 0.0048782499193907609 -0.004986167991289152 0 0.0036888526272809831 -0.0042105230248626795 0 0.0044064387671760947 -0.0045925331006663218 0 0.003506470148279729 -0.004331709078122325 0 0.0036888526272809831 -0.0042105230248626795 0 0.003506470148279729 -0.004331709078122325 0 0.0035247460689404242 -0.0042223536474308033 0 0.0033020459068801695 -0.0041901584788206526 0 0.0036198871098875249 -0.004156108484656809 0 0.0036888526272809831 -0.0042105230248626795 0 0.0034383821447156074 -0.0039867879912818729 0 0.0035247460689404242 -0.0042223536474308033 0 0.0039022194141207791 -0.0042273269525207975 0 0.0034383821447156074 -0.0039867879912818729 0 0.0037460882081983213 -0.0037883824811233307 0 0.0036888526272809831 -0.0042105230248626795 0 0.0039022194141207791 -0.0042273269525207975 0 0.0034383821447156074 -0.0039867879912818729 0 0.0034383821447156074 -0.0039867879912818729 0 0.0037460882081983213 -0.0037883824811233307 0 0.0030148396333102394 -0.003078020214156047 0 0.0034383821447156074 -0.0039867879912818729 0 0.0024904067203607972 -0.0046382779867848523 0 0.0020885433669670366 -0.0033962406575724436 0 0.0034383821447156074 -0.0039867879912818729 0 0.0030148396333102394 -0.003078020214156047 0 0.0020885433669670366 -0.0033962406575724436 0 0.0038207913776374365 -0.0028933837419380698 0 0.0037460882081983213 -0.0037883824811233307 0 0.0030148396333102394 -0.003078020214156047 0 0.0038207913776374365 -0.0028933837419380698 0 0.0036170993045025533 -0.0028163527927473468 0 0.0037705865559896465 -0.002634265582841246 0 0.003858657392328001 -0.0029613171901803244 0 0.004082373295176126 -0.0035830276516902772 0 0.0038207913776374365 -0.0028933837419380698 0 0.0044064282441561957 -0.0045813821354749179 0 0.0037460882081983213 -0.0037883824811233307 0 0.0040983148171742194 -0.0025532798747247695 0 0.0038207913776374365 -0.0028933837419380698 0 0.0036170993045025533 -0.0028163527927473468 0 0.0036856869337036123 -0.0029181981262179652 0 0.0036250571622016619 -0.0027787666055348811 0 0.0036170993045025533 -0.0028163527927473468 0 0.0030694821468609731 -0.0030925373809120847 0 0.0030845554386017262 -0.0027705461715344043 0 0.0032709725284003621 -0.0033295849149234781 0 0.0036170993045025533 -0.0028163527927473468 0 0.0030694821468609731 -0.0030925373809120847 0 0.0030694821468609731 -0.0030925373809120847 0 0.0026538482915706061 -0.0030695418415189759 0 0.0030845554386017262 -0.0027705461715344043 0 0.0026538482915706061 -0.0030695418415189759 0 0.0030845554386017262 -0.0027705461715344043 0 0.0024814615634077895 -0.0027201423519186865 0 0.0030845554386017262 -0.0027705461715344043 0 0.0034491216301408972 -0.002564270778919906 0 0.0030435434746458514 -0.0023860245084903683 0 0.0030845554386017262 -0.0027705461715344043 0 0.0030435434746458514 -0.0023860245084903683 0 0.0024814615634077895 -0.0027201423519186865 0 0.0036170993045025533 -0.0028163527927473468 0 0.0030845554386017262 -0.0027705461715344043 0 0.0034491216301408972 -0.002564270778919906 0 0.0036170993045025533 -0.0028163527927473468 0 0.0037705865559896465 -0.002634265582841246 0 0.0034491216301408972 -0.002564270778919906 0 0.0037705865559896465 -0.002634265582841246 0 0.0034491216301408972 -0.002564270778919906 0 0.003585925445375184 -0.0021844846817439078 0 0.0034491216301408972 -0.002564270778919906 0 0.003585925445375184 -0.0021844846817439078 0 0.0030435434746458514 -0.0023860245084903683 0 0.003585925445375184 -0.0021844846817439078 0 0.0030435434746458514 -0.0023860245084903683 0 0.0030497248295350719 -0.0017727608285186324 0 0.003585925445375184 -0.0021844846817439078 0 0.0030497248295350719 -0.0017727608285186324 0 0.0038235512140574117 -0.001725513293797825 0 0.003585925445375184 -0.0021844846817439078 0 0.0040340189207448938 -0.0019162347981780863 0 0.0038235512140574117 -0.001725513293797825 0 0.0045573741228590627 -0.0039568864818213369 0 0.0046101408185064861 -0.0043468109043888524 0 0.0051740527829899083 -0.0041561877194955469 0 0.004082373295176126 -0.0035830276516902772 0 0.0043195639831610658 -0.0028949680240579908 0 0.0044064282441561957 -0.0045813821354749179 0 0.0045573741228590627 -0.0039568864818213369 0 0.0046101408185064861 -0.0043468109043888524 0 0.0037705865559896465 -0.002634265582841246 0 0.003585925445375184 -0.0021844846817439078 0 0.0040340189207448938 -0.0019162347981780863 0 0.0044064282441561957 -0.0045813821354749179 0 0.0046101408185064861 -0.0043468109043888524 0 0.0044064387671760947 -0.0045925331006663218 0 0.0044064387671760947 -0.0045925331006663218 0 0.0051740527829899083 -0.0041561877194955469 0 0.0047247385401132198 -0.0048876721951397238 0 0.0061400570862316208 -0.0050357009285273268 0 0.0048782499193907609 -0.004986167991289152 0 0.0046101408185064861 -0.0043468109043888524 0 0.0044064387671760947 -0.0045925331006663218 0 0.0051740527829899083 -0.0041561877194955469 0 0.0067846721912443548 -0.0054825414277587699 0 0.006124941662320537 -0.0030216261582156063 0 0.0080971595704200233 -0.0043900538809473685 0 0.0061400570862316208 -0.0050357009285273268 0 0.0059815055621786212 -0.0029617551547667909 0 0.0045573741228590627 -0.0039568864818213369 0 0.0051740527829899083 -0.0041561877194955469 0 0.006124941662320537 -0.0030216261582156063 0 0.0043195639831610658 -0.0028949680240579908 0 0.0045709539648749612 -0.0014732959296461722 0 0.0045573741228590627 -0.0039568864818213369 0 0.006124941662320537 -0.0030216261582156063 0 0.0046442866924901079 -0.0014084517310693767 0 0.006124941662320537 -0.0030216261582156063 0 0.0046442866924901079 -0.0014084517310693767 0 0.0062066354943889363 -0.0013913459270266286 0 0.006124941662320537 -0.0030216261582156063 0 0.0062066354943889363 -0.0013913459270266286 0 0.0079505276660065214 -0.0025810923775203658 0 0.0062066354943889363 -0.0013913459270266286 0 0.0079505276660065214 -0.0025810923775203658 0 0.0079031157998792918 -0.0012195956302444178 0 0.0062066354943889363 -0.0013913459270266286 0 0.0074632059946735316 -8.0891986364198349e-05 0 0.0053493126352469802 -0.00028991915927630859 0 0.0062066354943889363 -0.0013913459270266286 0 0.0074632059946735316 -8.0891986364198349e-05 0 0.0079031157998792918 -0.0012195956302444178 0 0.0046442866924901079 -0.0014084517310693767 0 0.0053493126352469802 -0.00028991915927630859 0 0.0043157224332632015 -0.00088577876567359477 0 0.0046442866924901079 -0.0014084517310693767 0 0.0062066354943889363 -0.0013913459270266286 0 0.0053493126352469802 -0.00028991915927630859 0 0.0053493126352469802 -0.00028991915927630859 0 0.0065027185775642432 0.0010699133453832466 0 0.0048207180576694889 0.00090024914273061421 0 0.0074632059946735316 -8.0891986364198349e-05 0 0.0053493126352469802 -0.00028991915927630859 0 0.0065027185775642432 0.0010699133453832466 0 0.0074632059946735316 -8.0891986364198349e-05 0 0.0065027185775642432 0.0010699133453832466 0 0.0084947317613813991 0.0010785577994793895 0 0.0038872982590374282 0.00010407053019526369 0 0.0048207180576694889 0.00090024914273061421 0 0.0037408881247521595 0.00064974025855139524 0 0.0053493126352469802 -0.00028991915927630859 0 0.0048207180576694889 0.00090024914273061421 0 0.0043323941097090949 -0.00020562481832916895 0 0.0038872982590374282 0.00010407053019526369 0 0.0048207180576694889 0.00090024914273061421 0 0.0043323941097090949 -0.00020562481832916895 0 0.0043323941097090949 -0.00020562481832916895 0 0.0043157224332632015 -0.00088577876567359477 0 0.0036068703739810734 -0.00072963329102211259 0 0.0053493126352469802 -0.00028991915927630859 0 0.0043323941097090949 -0.00020562481832916895 0 0.0043157224332632015 -0.00088577876567359477 0 0.0038872982590374282 0.00010407053019526369 0 0.0043323941097090949 -0.00020562481832916895 0 0.0036068703739810734 -0.00072963329102211259 0 0.0038872982590374282 0.00010407053019526369 0 0.0036068703739810734 -0.00072963329102211259 0 0.0030289243619370295 -3.6372725166924735e-05 0 0.0033714977904488641 -0.0019059681034210079 0 0.0036068703739810734 -0.00072963329102211259 0 0.0040447215879882113 -0.0012772616889095802 0 0.0046442866924901079 -0.0014084517310693767 0 0.0040447215879882113 -0.0012772616889095802 0 0.0038235512140574117 -0.001725513293797825 0 0.0043157224332632015 -0.00088577876567359477 0 0.0036068703739810734 -0.00072963329102211259 0 0.0040447215879882113 -0.0012772616889095802 0 0.0046442866924901079 -0.0014084517310693767 0 0.0043157224332632015 -0.00088577876567359477 0 0.0040447215879882113 -0.0012772616889095802 0 0.0040340189207448938 -0.0019162347981780863 0 0.0046442866924901079 -0.0014084517310693767 0 0.0038235512140574117 -0.001725513293797825 0 0.0032208853710897285 -0.0018493359580372686 0 0.0039685657001547444 -0.0012959362693147421 0 0.0030497248295350719 -0.0017727608285186324 0 0.0040447215879882113 -0.0012772616889095802 0 0.0038235512140574117 -0.001725513293797825 0 0.0033714977904488641 -0.0019059681034210079 0 0.0036068703739810734 -0.00072963329102211259 0 0.0028497347059371933 -0.00086079084148155322 0 0.0033714977904488641 -0.0019059681034210079 0 0.0023072805755799497 -0.0014327714618469504 0 0.0028497347059371933 -0.00086079084148155322 0 0.0023072805755799497 -0.0014327714618469504 0 0.0028497347059371933 -0.00086079084148155322 0 0.0019272012762108547 -0.00023864051267767674 0 0.0036068703739810734 -0.00072963329102211259 0 0.0028497347059371933 -0.00086079084148155322 0 0.0030289243619370295 -3.6372725166924735e-05 0 0.0028497347059371933 -0.00086079084148155322 0 0.0030289243619370295 -3.6372725166924735e-05 0 0.0019272012762108547 -0.00023864051267767674 0 0.0030289243619370295 -3.6372725166924735e-05 0 0.0023868964901373308 0.00059354065208018926 0 0.0019272012762108547 -0.00023864051267767674 0 0.0030289243619370295 -3.6372725166924735e-05 0 0.0023868964901373308 0.00059354065208018926 0 0.0037408881247521595 0.00064974025855139524 0 0.0024573957793228352 0.00047660385077947923 0 0.0036465864170097807 0.00063710292557905737 0 0.0038872982590374282 0.00010407053019526369 0 0.0030289243619370295 -3.6372725166924735e-05 0 0.0037408881247521595 0.00064974025855139524 0 0.0012616282317555734 0.00032295181879088289 0 0.00032970082006171471 0.00022260923447087289 0 0.001266641602470017 0.00045809581369581743 0 0.00093711650672343653 -9.4352280763871591e-05 0 0.00025205275887910762 0.00022003685260357038 0 0.0023868964901373308 0.00059354065208018926 0 0.001266641602470017 0.00045809581369581743 0 0.0019272012762108547 -0.00023864051267767674 0 0.0024573957793228352 0.00047660385077947923 0 0.0012616282317555734 0.00032295181879088289 0 0.0019272012762108547 -0.00023864051267767674 0 0.00093711650672343653 -9.4352280763871591e-05 0 0.0013889880781466973 -0.00090740610412265216 0 0.001266641602470017 0.00045809581369581743 0 0.0019272012762108547 -0.00023864051267767674 0 0.00093711650672343653 -9.4352280763871591e-05 0 0.00093711650672343653 -9.4352280763871591e-05 0 0.0013889880781466973 -0.00090740610412265216 0 0.00063758175425462113 -0.00060537411954907615 0 0.0013889880781466973 -0.00090740610412265216 0 0.00073140819506902312 -0.0013189994809883489 0 0.00063758175425462113 -0.00060537411954907615 0 0.0023072805755799497 -0.0014327714618469504 0 0.0019272012762108547 -0.00023864051267767674 0 0.0013889880781466973 -0.00090740610412265216 0 0.0023072805755799497 -0.0014327714618469504 0 0.0013889880781466973 -0.00090740610412265216 0 0.001594853365285366 -0.0019039082873837233 0 0.001594853365285366 -0.0019039082873837233 0 0.00070838034915449459 -0.0020077136559392447 0 0.00073140819506902312 -0.0013189994809883489 0 0.0013889880781466973 -0.00090740610412265216 0 0.001594853365285366 -0.0019039082873837233 0 0.00073140819506902312 -0.0013189994809883489 0 0.0012142445433823109 -0.0027166385034509666 0 0.001594853365285366 -0.0019039082873837233 0 0.0026155660453008722 -0.0026871017831364388 0 0.0012142445433823109 -0.0027166385034509666 0 0.001594853365285366 -0.0019039082873837233 0 0.00070838034915449459 -0.0020077136559392447 0 0.0012142445433823109 -0.0027166385034509666 0 0.0026155660453008722 -0.0026871017831364388 0 0.0018540728990683992 -0.0035168003385116229 0 0.0033714977904488641 -0.0019059681034210079 0 0.0023072805755799497 -0.0014327714618469504 0 0.0026155660453008722 -0.0026871017831364388 0 0.0023072805755799497 -0.0014327714618469504 0 0.001594853365285366 -0.0019039082873837233 0 0.0026155660453008722 -0.0026871017831364388 0 0.0032208853710897285 -0.0018493359580372686 0 0.0024782621644156579 -0.0024742058089609795 0 0.0030435434746458514 -0.0023860245084903683 0 0.0030497248295350719 -0.0017727608285186324 0 0.0023349094951324902 -0.0022462412249203505 0 0.0030435434746458514 -0.0023860245084903683 0 0.0023349094951324902 -0.0022462412249203505 0 0.0024814615634077895 -0.0027201423519186865 0 0.0024782621644156579 -0.0024742058089609795 0 0.0017721812058535244 -0.0031202161356155525 0 0.0023349094951324902 -0.0022462412249203505 0 0.0024814615634077895 -0.0027201423519186865 0 0.0017547809536232137 -0.0027334117276024785 0 0.0026538482915706061 -0.0030695418415189759 0 0.0024814615634077895 -0.0027201423519186865 0 0.0020454621771928217 -0.0030439655236294467 0 0.0024814615634077895 -0.0027201423519186865 0 0.0020454621771928217 -0.0030439655236294467 0 0.0017547809536232137 -0.0027334117276024785 0 0.0013107031783308758 -0.0031804156248201529 0 0.0020454621771928217 -0.0030439655236294467 0 0.0017547809536232137 -0.0027334117276024785 0 0.0010839273287868477 -0.0043701462056760353 0 0.0018540728990683992 -0.0035168003385116229 0 0.0004880050227143429 -0.0036389362547750771 0 0.0012142445433823109 -0.0027166385034509666 0 0.0018540728990683992 -0.0035168003385116229 0 0.0004880050227143429 -0.0036389362547750771 0 0.0014178828038744098 -0.0038682512085147116 0 0.0017721812058535244 -0.0031202161356155525 0 -0.00025118516283512057 -0.0043485590819250441 0 0.0004880050227143429 -0.0036389362547750771 0 -0.00085586189190316197 -0.0034585069352916641 0 0.0004880050227143429 -0.0036389362547750771 0 -0.00085586189190316197 -0.0034585069352916641 0 -2.5226539917148627e-05 -0.002547315623238542 0 0.00041039537722466977 -0.0043950388879957251 0 0.0010839273287868477 -0.0043701462056760353 0 0.0004880050227143429 -0.0036389362547750771 0 -0.00025118516283512057 -0.0043485590819250441 0 0.00041039537722466977 -0.0043950388879957251 0 0.0004880050227143429 -0.0036389362547750771 0 -0.00083007329777832952 -0.0037136592925241952 0 -0.0015399719354157835 -0.0025209075882038109 0 -0.0023824185038292282 -0.0029977760624923626 0 -0.0016267945989135546 -0.0027045581944764507 0 -0.0021626908825431038 -0.0016814183363716331 0 -0.0023824185038292282 -0.0029977760624923626 0 -0.0030155039963081971 -0.0025051600039173679 0 -0.0021626908825431038 -0.0016814183363716331 0 -0.0030155039963081971 -0.0025051600039173679 0 -0.0030579310366423691 -0.0015186729793196017 0 -0.0021626908825431038 -0.0016814183363716331 0 -0.0030155039963081971 -0.0025051600039173679 0 -0.0030579310366423691 -0.0015186729793196017 0 -0.0036474788965377004 -0.0019344718506266927 0 -0.0030579310366423691 -0.0015186729793196017 0 -0.0021626908825431038 -0.0016814183363716331 0 -0.002782805396495446 -0.00059233601659352186 0 -0.0015399719354157835 -0.0025209075882038109 0 -0.0021399518881888174 -0.0015739426268681902 0 -0.00085586189190316197 -0.0034585069352916641 0 -0.001491571628289013 -0.0025237218122034335 0 -2.5226539917148627e-05 -0.002547315623238542 0 -0.001491571628289013 -0.0025237218122034335 0 -0.00067910132421258916 -0.0018344056735328364 0 -2.5226539917148627e-05 -0.002547315623238542 0 -0.001491571628289013 -0.0025237218122034335 0 -0.0013701877053828016 -0.0016171585555277564 0 -0.0021858372673207171 -0.0014628363511436319 0 -0.0021399518881888174 -0.0015739426268681902 0 -0.002702827339600302 -0.00065736533932707949 0 -0.001491571628289013 -0.0025237218122034335 0 -0.0013701877053828016 -0.0016171585555277564 0 -0.00067910132421258916 -0.0018344056735328364 0 -0.00067910132421258916 -0.0018344056735328364 0 -2.5226539917148627e-05 -0.002547315623238542 0 -2.896869419188002e-05 -0.0016027132357135513 0 0.0012142445433823109 -0.0027166385034509666 0 0.0004880050227143429 -0.0036389362547750771 0 -2.5226539917148627e-05 -0.002547315623238542 0 0.0012142445433823109 -0.0027166385034509666 0 -2.5226539917148627e-05 -0.002547315623238542 0 0.00070838034915449459 -0.0020077136559392447 0 -2.5226539917148627e-05 -0.002547315623238542 0 0.00070838034915449459 -0.0020077136559392447 0 -2.896869419188002e-05 -0.0016027132357135513 0 0.00070838034915449459 -0.0020077136559392447 0 0.00073140819506902312 -0.0013189994809883489 0 -2.896869419188002e-05 -0.0016027132357135513 0 0.00073140819506902312 -0.0013189994809883489 0 -2.896869419188002e-05 -0.0016027132357135513 0 2.8521453910781896e-05 -0.00092933476096309319 0 -2.896869419188002e-05 -0.0016027132357135513 0 2.8521453910781896e-05 -0.00092933476096309319 0 -0.0010064163857897671 -0.00095293462614356138 0 2.8521453910781896e-05 -0.00092933476096309319 0 6.2545094850873173e-05 -0.0003896250645158311 0 -0.00075344581126933334 -2.0937142934707804e-05 0 0.00073140819506902312 -0.0013189994809883489 0 2.8521453910781896e-05 -0.00092933476096309319 0 0.00063758175425462113 -0.00060537411954907615 0 2.8521453910781896e-05 -0.00092933476096309319 0 0.00063758175425462113 -0.00060537411954907615 0 6.2545094850873173e-05 -0.0003896250645158311 0 0.00093711650672343653 -9.4352280763871591e-05 0 0.00063758175425462113 -0.00060537411954907615 0 0.00030787025762718539 -6.4548252020558662e-06 0 0.00063758175425462113 -0.00060537411954907615 0 0.00030787025762718539 -6.4548252020558662e-06 0 6.2545094850873173e-05 -0.0003896250645158311 0 0.00093711650672343653 -9.4352280763871591e-05 0 0.00030787025762718539 -6.4548252020558662e-06 0 0.00025205275887910762 0.00022003685260357038 0 0.00024154371045115422 1.0465110924487383e-05 0 -0.00059397427165951849 -6.8304914471305499e-05 0 0.00030787025762718539 -6.4548252020558662e-06 0 -0.00025111704336445756 0.0002376338831477119 0 -0.00045061193536729448 -0.00010341261643705229 0 0.00030787025762718539 -6.4548252020558662e-06 0 6.2545094850873173e-05 -0.0003896250645158311 0 -0.00075344581126933334 -2.0937142934707804e-05 0 0.00030787025762718539 -6.4548252020558662e-06 0 -0.00025111704336445756 0.0002376338831477119 0 0.00025205275887910762 0.00022003685260357038 0 -0.00025111704336445756 0.0002376338831477119 0 0.00025205275887910762 0.00022003685260357038 0 -3.5574787238670942e-05 0.00069596034734999178 0 0.0012698608839190443 0.00018148906167325413 0 0.00025205275887910762 0.00022003685260357038 0 0.0006423223923476076 0.00077531445118101956 0 -0.00025111704336445756 0.0002376338831477119 0 -0.00090961304392745215 0.00038846467803668516 0 -0.00045061193536729448 -0.00010341261643705229 0 -0.00025111704336445756 0.0002376338831477119 0 -0.00090961304392745215 0.00038846467803668516 0 -0.00061982220709614721 0.00058568929244228775 0 -0.00045061193536729448 -0.00010341261643705229 0 -0.0010852118721893149 -0.00015924900226185526 0 -0.0012071917152917263 0.00024496606132064848 0 -0.00090961304392745215 0.00038846467803668516 0 -0.00045061193536729448 -0.00010341261643705229 0 -0.0012071917152917263 0.00024496606132064848 0 -0.00059397427165951849 -6.8304914471305499e-05 0 -0.001562752549959127 -0.00010733420215340323 0 -0.0019903397918538969 -0.00010562614934371493 0 -0.0010064163857897671 -0.00095293462614356138 0 -0.0018585381188773011 -0.00084627714068889509 0 -0.00075344581126933334 -2.0937142934707804e-05 0 -0.0019903397918538969 -0.00010562614934371493 0 -0.0010064163857897671 -0.00095293462614356138 0 2.8521453910781896e-05 -0.00092933476096309319 0 -0.00075344581126933334 -2.0937142934707804e-05 0 -0.0010064163857897671 -0.00095293462614356138 0 -0.00067910132421258916 -0.0018344056735328364 0 -2.896869419188002e-05 -0.0016027132357135513 0 -0.0010064163857897671 -0.00095293462614356138 0 -0.0013701877053828016 -0.0016171585555277564 0 -0.00067910132421258916 -0.0018344056735328364 0 -0.0010064163857897671 -0.00095293462614356138 0 -0.0013701877053828016 -0.0016171585555277564 0 -0.0010064163857897671 -0.00095293462614356138 0 -0.0018585381188773011 -0.00084627714068889509 0 -0.0013701877053828016 -0.0016171585555277564 0 -0.0018585381188773011 -0.00084627714068889509 0 -0.0021858372673207171 -0.0014628363511436319 0 -0.0033133109317817692 0.00011046431767950344 0 -0.0031199538023362785 4.3626823805295727e-05 0 -0.0026635919852697229 -8.285674043639222e-05 0 -0.0018585381188773011 -0.00084627714068889509 0 -0.0021858372673207171 -0.0014628363511436319 0 -0.0026635919852697229 -8.285674043639222e-05 0 -0.002702827339600302 -0.00065736533932707949 0 -0.0027256758769746811 -0.00013797611701750411 0 -0.0033133109317817692 0.00011046431767950344 0 -0.0037607753705093585 6.5253144150839479e-05 0 -0.0031199538023362785 4.3626823805295727e-05 0 -0.0037607753705093585 6.5253144150839479e-05 0 -0.0031199538023362785 4.3626823805295727e-05 0 -0.0033368950487054367 0.00014016351927225083 0 -0.0026911716583643925 -2.2292769891087801e-05 0 -0.0026674219456138209 0.00012712576749007753 0 -0.0033368950487054367 0.00014016351927225083 0 -0.0031199538023362785 4.3626823805295727e-05 0 -0.0026911716583643925 -2.2292769891087801e-05 0 -0.0033368950487054367 0.00014016351927225083 0 -0.0031199538023362785 4.3626823805295727e-05 0 -0.0026635919852697229 -8.285674043639222e-05 0 -0.0026911716583643925 -2.2292769891087801e-05 0 -0.0026911716583643925 -2.2292769891087801e-05 0 -0.0021892033059435277 0.00019497291308047548 0 -0.0026674219456138209 0.00012712576749007753 0 -0.0019903397918538969 -0.00010562614934371493 0 -0.0026635919852697229 -8.285674043639222e-05 0 -0.0026911716583643925 -2.2292769891087801e-05 0 -0.0010852118721893149 -0.00015924900226185526 0 -0.0026911716583643925 -2.2292769891087801e-05 0 -0.0018169382407933724 0.00015705942257936316 0 -0.001562752549959127 -0.00010733420215340323 0 -0.0025910008786309085 -7.7159383745544155e-05 0 -0.0019903397918538969 -0.00010562614934371493 0 -0.0018585381188773011 -0.00084627714068889509 0 -0.0026635919852697229 -8.285674043639222e-05 0 -0.0010852118721893149 -0.00015924900226185526 0 -0.0012071917152917263 0.00024496606132064848 0 -0.0018169382407933724 0.00015705942257936316 0 -0.0012071917152917263 0.00024496606132064848 0 -0.0018169382407933724 0.00015705942257936316 0 -0.0016822743807849796 0.00028475924986870254 0 -0.0026911716583643925 -2.2292769891087801e-05 0 -0.0018169382407933724 0.00015705942257936316 0 -0.0021892033059435277 0.00019497291308047548 0 -0.0021892033059435277 0.00019497291308047548 0 -0.0016822743807849796 0.00028475924986870254 0 -0.0018153217782474109 0.00029458251682358734 0 -0.0018169382407933724 0.00015705942257936316 0 -0.0021892033059435277 0.00019497291308047548 0 -0.0016822743807849796 0.00028475924986870254 0 -0.0016822743807849796 0.00028475924986870254 0 -0.0012514766120362804 0.00048197647547734701 0 -0.0018153217782474109 0.00029458251682358734 0 -0.0012071917152917263 0.00024496606132064848 0 -0.0016822743807849796 0.00028475924986870254 0 -0.0012514766120362804 0.00048197647547734701 0 -0.00090961304392745215 0.00038846467803668516 0 -0.0012071917152917263 0.00024496606132064848 0 -0.0012514766120362804 0.00048197647547734701 0 -0.0014055901181734233 5.4898756110421072e-07 0 -0.00043584278545623779 0.00036723314265392574 0 0.00091887586161851231 1.1414800847347648e-06 0 -0.0014055901181734233 5.4898756110421072e-07 0 -0.0018153217782474109 0.00029458251682358734 0 -0.00043584278545623779 0.00036723314265392574 0 -0.0012514766120362804 0.00048197647547734701 0 -0.0018153217782474109 0.00029458251682358734 0 -0.00043584278545623779 0.00036723314265392574 0 -0.0021892033059435277 0.00019497291308047548 0 -0.0018153217782474109 0.00029458251682358734 0 -0.0026674219456138209 0.00012712576749007753 0 -0.0018153217782474109 0.00029458251682358734 0 -0.0026674219456138209 0.00012712576749007753 0 -0.0028542722667165032 0.00017921634498207695 0 -0.0014055901181734233 5.4898756110421072e-07 0 -0.0018153217782474109 0.00029458251682358734 0 -0.0028542722667165032 0.00017921634498207695 0 -0.0014055901181734233 5.4898756110421072e-07 0 -0.0037298623041781701 7.3437621528311007e-08 0 -0.0028542722667165032 0.00017921634498207695 0 -0.0037298623041781701 7.3437621528311007e-08 0 -0.0028542722667165032 0.00017921634498207695 0 -0.0040472985497440345 0.00013073311861143351 0 -0.0028542722667165032 0.00017921634498207695 0 -0.0033368950487054367 0.00014016351927225083 0 -0.0040472985497440345 0.00013073311861143351 0 -0.0026674219456138209 0.00012712576749007753 0 -0.0028542722667165032 0.00017921634498207695 0 -0.0033368950487054367 0.00014016351927225083 0 -0.0037607753705093585 6.5253144150839479e-05 0 -0.0033368950487054367 0.00014016351927225083 0 -0.0045337329646472522 9.0236612422144201e-05 0 -0.0033368950487054367 0.00014016351927225083 0 -0.0045337329646472522 9.0236612422144201e-05 0 -0.0040472985497440345 0.00013073311861143351 0 -0.0037298623041781701 7.3437621528311007e-08 0 -0.0040472985497440345 0.00013073311861143351 0 -0.006056560612710136 1.3988961409323161e-06 0 -0.0045337329646472522 9.0236612422144201e-05 0 -0.0040472985497440345 0.00013073311861143351 0 -0.006056560612710136 1.3988961409323161e-06 0 -0.0045337329646472522 9.0236612422144201e-05 0 -0.006056560612710136 1.3988961409323161e-06 0 -0.0049800137318187889 -0.00010661476732797371 0 -0.006056560612710136 1.3988961409323161e-06 0 -0.0083750982528479848 -3.9311783413873023e-06 0 -0.0049800137318187889 -0.00010661476732797371 0 -0.0083750982528479848 -3.9311783413873023e-06 0 -0.0049800137318187889 -0.00010661476732797371 0 -0.0052030278025877756 -0.0010957221315842911 0 -0.0037607753705093585 6.5253144150839479e-05 0 -0.0045337329646472522 9.0236612422144201e-05 0 -0.0049800137318187889 -0.00010661476732797371 0 -0.0037607753705093585 6.5253144150839479e-05 0 -0.0049800137318187889 -0.00010661476732797371 0 -0.0036994975508935287 -0.00024205259990528897 0 -0.0033133109317817692 0.00011046431767950344 0 -0.0037607753705093585 6.5253144150839479e-05 0 -0.0036994975508935287 -0.00024205259990528897 0 -0.002782805396495446 -0.00059233601659352186 0 -0.0033133109317817692 0.00011046431767950344 0 -0.0036994975508935287 -0.00024205259990528897 0 -0.002782805396495446 -0.00059233601659352186 0 -0.0036994975508935287 -0.00024205259990528897 0 -0.0039057977403028164 -0.0010317883265200214 0 -0.0030579310366423691 -0.0015186729793196017 0 -0.002782805396495446 -0.00059233601659352186 0 -0.0039057977403028164 -0.0010317883265200214 0 -0.0049800137318187889 -0.00010661476732797371 0 -0.0036994975508935287 -0.00024205259990528897 0 -0.0039057977403028164 -0.0010317883265200214 0 -0.0049800137318187889 -0.00010661476732797371 0 -0.0039057977403028164 -0.0010317883265200214 0 -0.0052030278025877756 -0.0010957221315842911 0 -0.004500020964891654 -0.001873740749210591 0 -0.0039057977403028164 -0.0010317883265200214 0 -0.0052030278025877756 -0.0010957221315842911 0 -0.004500020964891654 -0.001873740749210591 0 -0.0039057977403028164 -0.0010317883265200214 0 -0.0036474788965377004 -0.0019344718506266927 0 -0.0030579310366423691 -0.0015186729793196017 0 -0.0039057977403028164 -0.0010317883265200214 0 -0.0036474788965377004 -0.0019344718506266927 0 -0.0041919464978974336 -0.0028300837467064499 0 -0.0036474788965377004 -0.0019344718506266927 0 -0.0036062378798551813 -0.002571985435861574 0 -0.0030155039963081971 -0.0025051600039173679 0 -0.0036474788965377004 -0.0019344718506266927 0 -0.0036062378798551813 -0.002571985435861574 0 -0.0041919464978974336 -0.0028300837467064499 0 -0.004500020964891654 -0.001873740749210591 0 -0.0057884712240412455 -0.0025034405724368098 0 -0.0041919464978974336 -0.0028300837467064499 0 -0.004500020964891654 -0.001873740749210591 0 -0.0036474788965377004 -0.0019344718506266927 0 -0.011977367952820591 -6.3019303426429614e-07 0 -0.010670160926168357 0.00016837161794077467 0 -0.010181390895346193 5.6085006324685538e-07 0 -0.0083816337319907695 1.3999234397522093e-07 0 -0.0080992309496026489 -0.0011453263520762587 0 -0.0083750982528479848 -3.9311783413873023e-06 0 -0.0057884712240412455 -0.0025034405724368098 0 -0.0052030278025877756 -0.0010957221315842911 0 -0.0083833809757463719 -5.4556054208938223e-07 0 -0.010670160926168357 0.00016837161794077467 0 -0.010181390895346193 5.6085006324685538e-07 0 -0.004500020964891654 -0.001873740749210591 0 -0.0057884712240412455 -0.0025034405724368098 0 -0.0052030278025877756 -0.0010957221315842911 0 -0.017058716806105319 0.0026494573676581136 0 -0.016706900395267579 0.0025840191707674843 0 -0.014302202929795201 0.0027068099795033869 0 -0.014794904765504701 0.0029861874237220357 0 -0.013956420505923913 0.0030076304125782657 0 -0.014302202929795201 0.0027068099795033869 0 -0.013949815778511912 0.0026776114759422915 0 -0.014196428396441663 0.0024405553865867054 0 -0.014302202929795201 0.0027068099795033869 0 -0.013956420505923913 0.0030076304125782657 0 -0.013949815778511912 0.0026776114759422915 0 -0.014302202929795201 0.0027068099795033869 0 -0.014794904765504701 0.0029861874237220357 0 -0.014542256822429827 0.002279140089151263 0 -0.019322276918106056 0.0022992719216072236 0 -0.019384837755931 0.0019741294820835634 0 -0.019193055251396664 0.0019282592568568237 0 -0.019322276918106056 0.0022992719216072236 0 -0.019484410226671908 0.0020806004618313736 0 -0.019384837755931 0.0019741294820835634 0 -0.019322276918106056 0.0022992719216072236 0 -0.019484410226671908 0.0020806004618313736 0 -0.019529666824427527 0.0021698881246453566 0 -0.019484410226671908 0.0020806004618313736 0 -0.019613299858553382 0.0021546644146163796 0 -0.019529666824427527 0.0021698881246453566 0 -0.019484410226671908 0.0020806004618313736 0 -0.019613299858553382 0.0021546644146163796 0 -0.019525243639054626 0.0019821240225706615 0 -0.016962323555751568 0.002263271250150605 0 -0.020100250456826018 0.0024217649567859468 0 -0.016962323555751568 0.002263271250150605 0 -0.016706900395267579 0.0025840191707674843 0 -0.017699891250233402 0.0013299570045099518 0 -0.01731789566405377 0.0030859862052959115 0 -0.016457870637368345 0.00150007431625257 0 -0.01731789566405377 0.0030859862052959115 0 -0.015637596200565623 0.002660554696992948 0 -0.016457870637368345 0.00150007431625257 0 -0.016962323555751568 0.002263271250150605 0 -0.01384952016268693 0.0024409238802068473 0 -0.012553719999499524 0.0026323740758861852 0 -0.012223985926856897 0.002670198950964273 0 -0.012071386889667688 0.0030852967743090183 0 -0.012945584437056474 0.0028040411007856586 0 -0.01384952016268693 0.0024409238802068473 0 -0.013633282846497811 0.0030156842992150905 0 -0.013644143665352125 0.0027397350008334263 0 -0.013369093117363498 0.0030474720793248799 0 -0.012553719999499524 0.0026323740758861852 0 -0.012223985926856897 0.002670198950964273 0 -0.013036520918059152 0.002186311658345597 0 -0.013633282846497811 0.0030156842992150905 0 -0.013644143665352125 0.0027397350008334263 0 -0.013956420505923913 0.0030076304125782657 0 -0.013644143665352125 0.0027397350008334263 0 -0.013956420505923913 0.0030076304125782657 0 -0.013949815778511912 0.0026776114759422915 0 -0.013644143665352125 0.0027397350008334263 0 -0.013949815778511912 0.0026776114759422915 0 -0.01396850612296896 0.0023282817684171201 0 -0.011653353487872423 0.0038197866439780136 0 -0.013421314085208445 0.0024346161690062544 0 -0.011256637851707368 0.0042022357988061995 0 -0.013089955561315833 0.0030525348239088691 0 -0.012056616439991874 0.002462864384246915 0 -0.013949815778511912 0.0026776114759422915 0 -0.01396850612296896 0.0023282817684171201 0 -0.014196428396441663 0.0024405553865867054 0 -0.012945584437056474 0.0028040411007856586 0 -0.013421314085208445 0.0024346161690062544 0 -0.013421314085208445 0.0024346161690062544 0 -0.013657660332897933 0.0023163907443471562 0 -0.011256637851707368 0.0042022357988061995 0 -0.012056616439991874 0.002462864384246915 0 -0.010775120845168729 0.0026926181339310489 0 -0.0046719671680557793 0.0034509043594130669 0 -0.0042555629085667861 0.0040710579857905693 0 -0.0057133732907878919 0.0026874545823607882 0 -0.0078804704909843232 0.003382983293346087 0 -0.0076059758744770282 0.0021746308531617182 0 -0.012056616439991874 0.002462864384246915 0 -0.010775120845168729 0.0026926181339310489 0 -0.012364915235101149 0.0012707931268591223 0 -0.0042278365423323557 0.0037615406923427147 0 -0.0076059758744770282 0.0021746308531617182 0 -0.0046719671680557793 0.0034509043594130669 0 -0.0041023217160934622 0.0029564774428405792 0 -0.0047145081120242198 0.0025475070659186998 0 -0.013089955561315833 0.0030525348239088691 0 -0.012056616439991874 0.002462864384246915 0 -0.013238831687401987 0.0019103726460426439 0 -0.012056616439991874 0.002462864384246915 0 -0.013238831687401987 0.0019103726460426439 0 -0.012364915235101149 0.0012707931268591223 0 -0.013421314085208445 0.0024346161690062544 0 -0.014308186901493918 0.0018537794085579039 0 -0.013089955561315833 0.0030525348239088691 0 -0.013238831687401987 0.0019103726460426439 0 -0.014325847897483772 0.0017224922768481106 0 -0.014325847897483772 0.0017224922768481106 0 -0.014047811027647777 0.0022547084175815755 0 -0.014542256822429827 0.002279140089151263 0 -0.013976996690858431 0.0023339828256358419 0 -0.014325847897483772 0.0017224922768481106 0 -0.014047811027647777 0.0022547084175815755 0 -0.01396850612296896 0.0023282817684171201 0 -0.014047811027647777 0.0022547084175815755 0 -0.014196428396441663 0.0024405553865867054 0 -0.014047811027647777 0.0022547084175815755 0 -0.014196428396441663 0.0024405553865867054 0 -0.014542256822429827 0.002279140089151263 0 -0.014302202929795201 0.0027068099795033869 0 -0.014196428396441663 0.0024405553865867054 0 -0.014542256822429827 0.002279140089151263 0 -0.014794904765504701 0.0029861874237220357 0 -0.014542256822429827 0.002279140089151263 0 -0.015373276928390099 0.0023319607180948445 0 -0.014542256822429827 0.002279140089151263 0 -0.014961709250229011 0.0019193493532178828 0 -0.015373276928390099 0.0023319607180948445 0 -0.014325847897483772 0.0017224922768481106 0 -0.014542256822429827 0.002279140089151263 0 -0.014961709250229011 0.0019193493532178828 0 -0.014325847897483772 0.0017224922768481106 0 -0.014961709250229011 0.0019193493532178828 0 -0.014744968558269334 0.00095181198115561986 0 -0.014961709250229011 0.0019193493532178828 0 -0.015373276928390099 0.0023319607180948445 0 -0.015413561909607125 0.0014363054453237307 0 -0.015400995055130946 0.0022896486430944471 0 -0.015471704868387354 0.0017147563483431967 0 -0.01593115587148226 0.0021394719779021082 0 -0.015373276928390099 0.0023319607180948445 0 -0.015576681276477451 0.0019292863644449958 0 -0.01593115587148226 0.0021394719779021082 0 -0.015835387102320249 0.001927441419670624 0 -0.015576681276477451 0.0019292863644449958 0 -0.01593115587148226 0.0021394719779021082 0 -0.015373276928390099 0.0023319607180948445 0 -0.015716751795811206 0.0028362853525677424 0 -0.015850778140519051 0.0017367245693095806 0 -0.016388108012895544 0.0022999483805595661 0 -0.016148492982910195 0.002043996386793511 0 -0.01593115587148226 0.0021394719779021082 0 -0.016148492982910195 0.002043996386793511 0 -0.015835387102320249 0.001927441419670624 0 -0.01593115587148226 0.0021394719779021082 0 -0.016875202358809165 0.0025352024085666886 0 -0.015716751795811206 0.0028362853525677424 0 -0.01593115587148226 0.0021394719779021082 0 -0.016148492982910195 0.002043996386793511 0 -0.016875202358809165 0.0025352024085666886 0 -0.016388108012895544 0.0022999483805595661 0 -0.016148492982910195 0.002043996386793511 0 -0.016875202358809165 0.0025352024085666886 0 -0.016388108012895544 0.0022999483805595661 0 -0.016625795883013588 0.0021476911770431494 0 -0.016875202358809165 0.0025352024085666886 0 -0.016916557017898754 0.0025779226099854357 0 -0.017184105512443655 0.0026988844071079232 0 -0.016875202358809165 0.0025352024085666886 0 -0.018700111943196977 0.0026259254263551529 0 -0.018486035256930558 0.0020614742622340598 0 -0.016875202358809165 0.0025352024085666886 0 -0.017833314601056166 0.001912109416627799 0 -0.018486035256930558 0.0020614742622340598 0 -0.017833314601056166 0.001912109416627799 0 -0.018486035256930558 0.0020614742622340598 0 -0.018749219422783524 0.0017405840094482032 0 -0.016625795883013588 0.0021476911770431494 0 -0.017833314601056166 0.001912109416627799 0 -0.017293536675170394 0.0014987438343026141 0 -0.016625795883013588 0.0021476911770431494 0 -0.016875202358809165 0.0025352024085666886 0 -0.017833314601056166 0.001912109416627799 0 -0.019322276918106056 0.0022992719216072236 0 -0.018700111943196977 0.0026259254263551529 0 -0.019032812219506215 0.0021456560509781697 0 -0.017058716806105319 0.0026494573676581136 0 -0.017184105512443655 0.0026988844071079232 0 -0.014794904765504701 0.0029861874237220357 0 -0.015373276928390099 0.0023319607180948445 0 -0.015716751795811206 0.0028362853525677424 0 -0.018700111943196977 0.0026259254263551529 0 -0.018486035256930558 0.0020614742622340598 0 -0.019032812219506215 0.0021456560509781697 0 -0.018486035256930558 0.0020614742622340598 0 -0.019032812219506215 0.0021456560509781697 0 -0.01905080876025822 0.001817148433505725 0 -0.019322276918106056 0.0022992719216072236 0 -0.019032812219506215 0.0021456560509781697 0 -0.019193055251396664 0.0019282592568568237 0 -0.019032812219506215 0.0021456560509781697 0 -0.01905080876025822 0.001817148433505725 0 -0.019193055251396664 0.0019282592568568237 0 -0.01905080876025822 0.001817148433505725 0 -0.019325776234540164 0.0017034993083928915 0 -0.019206475126493813 0.0017662921225039359 0 -0.01905080876025822 0.001817148433505725 0 -0.019206475126493813 0.0017662921225039359 0 -0.019193055251396664 0.0019282592568568237 0 -0.01905080876025822 0.001817148433505725 0 -0.018749219422783524 0.0017405840094482032 0 -0.019325776234540164 0.0017034993083928915 0 -0.018486035256930558 0.0020614742622340598 0 -0.01905080876025822 0.001817148433505725 0 -0.018749219422783524 0.0017405840094482032 0 -0.019367152885397872 0.0017439671632108217 0 -0.020135898999933125 0.0019896625503443609 0 -0.019325776234540164 0.0017034993083928915 0 -0.020151512019961876 0.0015504049664547782 0 -0.021064583659337912 0.002290141977853842 0 -0.020831092237314733 0.0015968716374553144 0 -0.020151512019961876 0.0015504049664547782 0 -0.021064583659337912 0.002290141977853842 0 -0.017833314601056166 0.001912109416627799 0 -0.017293536675170394 0.0014987438343026141 0 -0.018378811182328241 0.0012530018570427247 0 -0.017833314601056166 0.001912109416627799 0 -0.018749219422783524 0.0017405840094482032 0 -0.018378811182328241 0.0012530018570427247 0 -0.018749219422783524 0.0017405840094482032 0 -0.019325776234540164 0.0017034993083928915 0 -0.018378811182328241 0.0012530018570427247 0 -0.019325776234540164 0.0017034993083928915 0 -0.018378811182328241 0.0012530018570427247 0 -0.019081780247382725 0.0011940559978286611 0 -0.017237734357189602 0.00059070803546876975 0 -0.017293536675170394 0.0014987438343026141 0 -0.018378811182328241 0.0012530018570427247 0 -0.018440378701849384 0.0012042122353147207 0 -0.018303271177452476 0.00034335867614990488 0 -0.017237734357189602 0.00059070803546876975 0 -0.018378811182328241 0.0012530018570427247 0 -0.017972595966874942 -0.00045522859397226841 0 -0.019081780247382725 0.0011940559978286611 0 -0.019055407217568373 0.00094721601289049408 0 -0.018837673433616604 0.00099575496535827092 0 -0.018378811182328241 0.0012530018570427247 0 -0.019081780247382725 0.0011940559978286611 0 -0.018837673433616604 0.00099575496535827092 0 -0.019081780247382725 0.0011940559978286611 0 -0.019055407217568373 0.00094721601289049408 0 -0.019509549037107769 0.0010715720311625838 0 -0.019055407217568373 0.00094721601289049408 0 -0.019509549037107769 0.0010715720311625838 0 -0.019594856803365982 0.00080219694977699092 0 -0.019699536343275568 0.00023160255403542092 0 -0.018877700030994388 0.00017101684391101154 0 -0.01931274382282383 0.00054597712866786576 0 -0.01931274382282383 0.00054597712866786576 0 -0.019055407217568373 0.00094721601289049408 0 -0.019594856803365982 0.00080219694977699092 0 -0.019699536343275568 0.00023160255403542092 0 -0.01931274382282383 0.00054597712866786576 0 -0.019594856803365982 0.00080219694977699092 0 -0.018877700030994388 0.00017101684391101154 0 -0.019055407217568373 0.00094721601289049408 0 -0.018448028513043134 0.0011296437774007909 0 -0.018877700030994388 0.00017101684391101154 0 -0.01931274382282383 0.00054597712866786576 0 -0.019055407217568373 0.00094721601289049408 0 -0.018879116835676477 0.00067865325158585088 0 -0.018303271177452476 0.00034335867614990488 0 -0.017344867464073672 -0.00055212269418498461 0 -0.01797153916623697 -0.0013104742641742576 0 -0.018242081597986119 -6.6157984454674759e-05 0 -0.018024654090943636 -0.00091849893718638624 0 -0.018303271177452476 0.00034335867614990488 0 -0.02048761032691648 0.0012944345938847429 0 -0.021023326920355412 0.001458650840926435 0 -0.02122714197713001 0.0012004625325796367 0 -0.02048761032691648 0.0012944345938847429 0 -0.021023326920355412 0.001458650840926435 0 -0.020831092237314733 0.0015968716374553144 0 -0.02048761032691648 0.0012944345938847429 0 -0.020151512019961876 0.0015504049664547782 0 -0.019808515127530769 0.0012753000756492738 0 -0.02048761032691648 0.0012944345938847429 0 -0.020831092237314733 0.0015968716374553144 0 -0.020151512019961876 0.0015504049664547782 0 -0.019325776234540164 0.0017034993083928915 0 -0.019081780247382725 0.0011940559978286611 0 -0.019808515127530769 0.0012753000756492738 0 -0.019325776234540164 0.0017034993083928915 0 -0.020151512019961876 0.0015504049664547782 0 -0.019808515127530769 0.0012753000756492738 0 -0.019509549037107769 0.0010715720311625838 0 -0.019808515127530769 0.0012753000756492738 0 -0.020048067832383078 0.0010698189696799368 0 -0.019081780247382725 0.0011940559978286611 0 -0.019509549037107769 0.0010715720311625838 0 -0.019808515127530769 0.0012753000756492738 0 -0.02048761032691648 0.0012944345938847429 0 -0.019808515127530769 0.0012753000756492738 0 -0.020048067832383078 0.0010698189696799368 0 -0.020048067832383078 0.0010698189696799368 0 -0.020070599562070635 0.00067345165083142731 0 -0.020755497760402749 0.0010459549194530183 0 -0.020048067832383078 0.0010698189696799368 0 -0.019594856803365982 0.00080219694977699092 0 -0.020070599562070635 0.00067345165083142731 0 -0.019509549037107769 0.0010715720311625838 0 -0.020048067832383078 0.0010698189696799368 0 -0.019594856803365982 0.00080219694977699092 0 -0.020629690654912824 0.00054005895325437447 0 -0.019699536343275568 0.00023160255403542092 0 -0.020070599562070635 0.00067345165083142731 0 -0.019699536343275568 0.00023160255403542092 0 -0.019594856803365982 0.00080219694977699092 0 -0.020070599562070635 0.00067345165083142731 0 -0.020629690654912824 0.00054005895325437447 0 -0.020070599562070635 0.00067345165083142731 0 -0.020755497760402749 0.0010459549194530183 0 -0.021051036816866434 0.00083329029159423323 0 -0.020755497760402749 0.0010459549194530183 0 -0.021481340293186733 0.0012558203209619174 0 -0.021407111745119601 0.00035268744101578495 0 -0.021051036816866434 0.00083329029159423323 0 -0.021481340293186733 0.0012558203209619174 0 -0.020629690654912824 0.00054005895325437447 0 -0.021051036816866434 0.00083329029159423323 0 -0.020755497760402749 0.0010459549194530183 0 -0.02048761032691648 0.0012944345938847429 0 -0.020755497760402749 0.0010459549194530183 0 -0.02122714197713001 0.0012004625325796367 0 -0.02048761032691648 0.0012944345938847429 0 -0.020048067832383078 0.0010698189696799368 0 -0.020755497760402749 0.0010459549194530183 0 -0.020755497760402749 0.0010459549194530183 0 -0.02122714197713001 0.0012004625325796367 0 -0.021481340293186733 0.0012558203209619174 0 -0.021481340293186733 0.0012558203209619174 0 -0.023943155937158265 0.0017121746441724375 0 -0.024683531719594171 0.00348128694546749 0 -0.021590843566759593 0.0013480126612674126 0 -0.022838345728585084 0.0022487331941028347 0 -0.02122714197713001 0.0012004625325796367 0 -0.021481340293186733 0.0012558203209619174 0 -0.02118040149958814 0.0012538230592217666 0 -0.022740008410409737 0.00072178724902676741 0 -0.021481340293186733 0.0012558203209619174 0 -0.023943155937158265 0.0017121746441724375 0 -0.025698200508009767 0.00094696670782801044 0 -0.023943155937158265 0.0017121746441724375 0 -0.025684879923888126 0.0026177209132878629 0 -0.025684879923888126 0.0026177209132878629 0 -0.025502539453925908 0.0031637024341000216 0 -0.024683531719594171 0.00348128694546749 0 -0.023943155937158265 0.0017121746441724375 0 -0.025684879923888126 0.0026177209132878629 0 -0.024683531719594171 0.00348128694546749 0 -0.025684879923888126 0.0026177209132878629 0 -0.025502539453925908 0.0031637024341000216 0 -0.025734147112651051 0.0030870667819795639 0 -0.025502539453925908 0.0031637024341000216 0 -0.024683531719594171 0.00348128694546749 0 -0.025728128491706019 0.0032744076096230495 0 -0.02118040149958814 0.0012538230592217666 0 -0.021168406256933524 0.0013951063866325826 0 -0.021547664140185035 0.0014491198785271293 0 -0.022838345728585084 0.0022487331941028347 0 -0.023835697407869932 0.0024152460371668614 0 -0.02122714197713001 0.0012004625325796367 0 -0.02118040149958814 0.0012538230592217666 0 -0.021168406256933524 0.0013951063866325826 0 -0.021023326920355412 0.001458650840926435 0 -0.02122714197713001 0.0012004625325796367 0 -0.021379821959337072 0.001718582149461997 0 -0.021156225873325631 0.0012108119108459547 0 -0.021443093941854154 0.0015736757807839868 0 -0.021023326920355412 0.001458650840926435 0 -0.020831092237314733 0.0015968716374553144 0 -0.021379821959337072 0.001718582149461997 0 -0.020831092237314733 0.0015968716374553144 0 -0.021379821959337072 0.001718582149461997 0 -0.021064583659337912 0.002290141977853842 0 -0.021443093941854154 0.0015736757807839868 0 -0.020742662722984046 0.0023447793560541419 0 -0.021168406256933524 0.0013951063866325826 0 -0.021467556979288809 0.0018295385461248887 0 -0.021576682409569101 0.001654102738561476 0 -0.021379821959337072 0.001718582149461997 0 -0.021064583659337912 0.002290141977853842 0 -0.021988325993278476 0.0024915828376735043 0 -0.021168406256933524 0.0013951063866325826 0 -0.021576682409569101 0.001654102738561476 0 -0.021547664140185035 0.0014491198785271293 0 -0.019628524279311388 0.0018572239025269914 0 -0.019384837755931 0.0019741294820835634 0 -0.019663695943207441 0.0019004861504852803 0 -0.020135898999933125 0.0019896625503443609 0 -0.020742662722984046 0.0023447793560541419 0 -0.019290608141149697 0.0020044250982762541 0 -0.020100250456826018 0.0024217649567859468 0 -0.019206475126493813 0.0017662921225039359 0 -0.019628524279311388 0.0018572239025269914 0 -0.019384837755931 0.0019741294820835634 0 -0.019484410226671908 0.0020806004618313736 0 -0.019384837755931 0.0019741294820835634 0 -0.019525243639054626 0.0019821240225706615 0 -0.020742662722984046 0.0023447793560541419 0 -0.020100250456826018 0.0024217649567859468 0 -0.019206475126493813 0.0017662921225039359 0 -0.019384837755931 0.0019741294820835634 0 -0.019193055251396664 0.0019282592568568237 0 -0.01842471982570211 0.0027125621670903333 0 -0.016630270642361378 0.0021823346849321329 0 -0.022293821121075572 0.002718982877918245 0 -0.016630270642361378 0.0021823346849321329 0 -0.019592528955235028 0.003231409157737558 0 -0.019536719977004763 0.0023147462643606691 0 -0.021223745943446212 0.0027456544529456338 0 -0.019592528955235028 0.003231409157737558 0 -0.019536719977004763 0.0023147462643606691 0 -0.017818626464058889 0.0018841828985070709 0 -0.01842471982570211 0.0027125621670903333 0 -0.020378805211471847 0.0025199084225312716 0 -0.021963969178789264 0.0017639763315044482 0 -0.021588319648594593 0.0018661294609139973 0 -0.021576682409569101 0.001654102738561476 0 -0.017699891250233402 0.0013299570045099518 0 -0.01731789566405377 0.0030859862052959115 0 -0.019004215352696349 0.0035048300904892034 0 -0.022293821121075572 0.002718982877918245 0 -0.020378805211471847 0.0025199084225312716 0 -0.017699891250233402 0.0013299570045099518 0 -0.019363439314218373 0.0033979635980240885 0 -0.019004215352696349 0.0035048300904892034 0 -0.021467556979288809 0.0018295385461248887 0 -0.021588319648594593 0.0018661294609139973 0 -0.021576682409569101 0.001654102738561476 0 -0.020742662722984046 0.0023447793560541419 0 -0.020378805211471847 0.0025199084225312716 0 -0.020430311642782365 0.0023771039895333856 0 -0.020392740661820362 0.00233099598727937 0 -0.02032626619232929 0.0023504025441138934 0 -0.020100250456826018 0.0024217649567859468 0 -0.020378805211471847 0.0025199084225312716 0 -0.025675317504211551 0.0029917444794683376 0 -0.025728128491706019 0.0032744076096230495 0 -0.025715079512064653 0.0031209848845915175 0 -0.021963969178789264 0.0017639763315044482 0 -0.021576682409569101 0.001654102738561476 0 -0.021547664140185035 0.0014491198785271293 0 -0.022293821121075572 0.002718982877918245 0 -0.023835697407869932 0.0024152460371668614 0 -0.025675317504211551 0.0029917444794683376 0 -0.025715079512064653 0.0031209848845915175 0 -0.025600160275267583 0.003067035690594438 0 -0.025715079512064653 0.0031209848845915175 0 -0.025726157516253727 0.0031093943926622692 0 -0.025600160275267583 0.003067035690594438 0 -0.025715079512064653 0.0031209848845915175 0 -0.025726157516253727 0.0031093943926622692 0 -0.025734147112651051 0.0030870667819795639 0 -0.025726157516253727 0.0031093943926622692 0 -0.025664230311027023 0.0031457698510130552 0 -0.025600160275267583 0.003067035690594438 0 -0.025728128491706019 0.0032744076096230495 0 -0.025715079512064653 0.0031209848845915175 0 -0.025734147112651051 0.0030870667819795639 0 -0.025502539453925908 0.0031637024341000216 0 -0.025728128491706019 0.0032744076096230495 0 -0.025734147112651051 0.0030870667819795639 0 -0.025674860898008325 0.0027326712068591807 0 -0.027891290069664232 0.0029615261293335056 0 -0.027523874509697479 0.0013642610974428191 0 -0.025684879923888126 0.0026177209132878629 0 -0.029315104331151032 0.0029283055969798241 0 -0.025684879923888126 0.0026177209132878629 0 -0.025734147112651051 0.0030870667819795639 0 -0.025764520158371093 0.0030801739215364646 0 -0.030912805235405762 0.0014305759071994177 0 -0.029315104331151032 0.0029283055969798241 0 -0.032653462351800444 0.0029335027053806811 0 -0.027891290069664232 0.0029615261293335056 0 -0.027397069639047592 0.0028511984237892308 0 -0.025764520158371093 0.0030801739215364646 0 -0.025641574068280239 0.0031874565534747673 0 -0.025664230311027023 0.0031457698510130552 0 -0.025726157516253727 0.0031093943926622692 0 -0.025764520158371093 0.0030801739215364646 0 -0.025664230311027023 0.0031457698510130552 0 -0.025726157516253727 0.0031093943926622692 0 -0.025734147112651051 0.0030870667819795639 0 -0.025764520158371093 0.0030801739215364646 0 -0.025544863490999783 0.0032922104790292939 0 -0.025525473528719679 0.0031382455896449462 0 -0.025360090731603526 0.003175285396649582 0 -0.025544863490999783 0.0032922104790292939 0 -0.025664230311027023 0.0031457698510130552 0 -0.025525473528719679 0.0031382455896449462 0 -0.027397069639047592 0.0028511984237892308 0 -0.025690701151796575 0.0035695235190700129 0 -0.025600160275267583 0.003067035690594438 0 -0.025433697808847303 0.0030761718990628705 0 -0.02546869205600695 0.0029106853566630308 0 -0.025664230311027023 0.0031457698510130552 0 -0.025525473528719679 0.0031382455896449462 0 -0.025600160275267583 0.003067035690594438 0 -0.025525473528719679 0.0031382455896449462 0 -0.025600160275267583 0.003067035690594438 0 -0.025433697808847303 0.0030761718990628705 0 -0.025433697808847303 0.0030761718990628705 0 -0.025266941562531377 0.00306391091264393 0 -0.02546869205600695 0.0029106853566630308 0 -0.025525473528719679 0.0031382455896449462 0 -0.025433697808847303 0.0030761718990628705 0 -0.025360090731603526 0.003175285396649582 0 -0.025360090731603526 0.003175285396649582 0 -0.02518114036114728 0.003196739678904578 0 -0.025266941562531377 0.00306391091264393 0 -0.025433697808847303 0.0030761718990628705 0 -0.025360090731603526 0.003175285396649582 0 -0.025266941562531377 0.00306391091264393 0 -0.025360090731603526 0.003175285396649582 0 -0.025255481871020363 0.0032802043400769489 0 -0.02518114036114728 0.003196739678904578 0 -0.025544863490999783 0.0032922104790292939 0 -0.025360090731603526 0.003175285396649582 0 -0.025255481871020363 0.0032802043400769489 0 -0.027397069639047592 0.0028511984237892308 0 -0.024721895489387261 0.0032196134093025529 0 -0.025284825744107339 0.0030850961680139424 0 -0.025247840579988919 0.0030195083437994956 0 -0.025245862852296557 0.0031335962940019163 0 -0.025255481871020363 0.0032802043400769489 0 -0.025245862852296557 0.0031335962940019163 0 -0.02518040210185897 0.0031876097804105466 0 -0.024721895489387261 0.0032196134093025529 0 -0.025458294662214404 0.0031226856475856878 0 -0.025245862852296557 0.0031335962940019163 0 -0.02518040210185897 0.0031876097804105466 0 -0.025221493297157595 0.0031638585949643368 0 -0.02518040210185897 0.0031876097804105466 0 -0.025197028977621709 0.0031822919307700841 0 -0.025097182162810826 0.0031862733836602714 0 -0.02518040210185897 0.0031876097804105466 0 -0.02518114036114728 0.003196739678904578 0 -0.025097182162810826 0.0031862733836602714 0 -0.025255481871020363 0.0032802043400769489 0 -0.02518040210185897 0.0031876097804105466 0 -0.02518114036114728 0.003196739678904578 0 -0.025308353421961988 0.0030603923273190173 0 -0.024297332465601337 0.0042972659364233917 0 -0.025245862852296557 0.0031335962940019163 0 -0.025219171141473203 0.003170446959418597 0 -0.025221493297157595 0.0031638585949643368 0 -0.025219171141473203 0.003170446959418597 0 -0.025221493297157595 0.0031638585949643368 0 -0.025197028977621709 0.0031822919307700841 0 -0.02518040210185897 0.0031876097804105466 0 -0.025221493297157595 0.0031638585949643368 0 -0.025197028977621709 0.0031822919307700841 0 -0.022510060844454421 0.0069472123560537502 0 -0.023821151156056358 0.0047832577219276869 0 -0.022018859571251156 0.0048685731565682533 0 -0.017590408922136459 0.00368769957950946 0 -0.0072942708328338351 0.0047614099744616384 0 -0.023430841457991701 0.0037455310722103821 0 -0.022480424773626179 0.0026862007986885928 0 -0.025146413809193177 0.0019628868366767683 0 -0.014614978703200721 0.003952888272755673 0 -0.016642341665362426 0.0035072433543256974 0 -0.014124703489739859 0.0039187453194907962 0 -0.018903411570462127 0.0032007730088809937 0 -0.017590408922136459 0.00368769957950946 0 -0.02228030836151914 0.0037800095543749296 0 -0.023430841457991701 0.0037455310722103821 0 -0.022018859571251156 0.0048685731565682533 0 -0.023821151156056358 0.0047832577219276869 0 -0.023430841457991701 0.0037455310722103821 0 -0.022018859571251156 0.0048685731565682533 0 -0.02228030836151914 0.0037800095543749296 0 -0.023430841457991701 0.0037455310722103821 0 -0.022480424773626179 0.0026862007986885928 0 -0.023821151156056358 0.0047832577219276869 0 -0.023430841457991701 0.0037455310722103821 0 -0.024907153904189121 0.0031733586267547005 0 -0.024297332465601337 0.0042972659364233917 0 -0.02495225579903786 0.0031813585155754933 0 -0.025077291042486693 0.0021720188338909068 0 -0.017590408922136459 0.00368769957950946 0 -0.02518114036114728 0.003196739678904578 0 -0.025103730418367276 0.0031627475866695997 0 -0.025266941562531377 0.00306391091264393 0 -0.02518114036114728 0.003196739678904578 0 -0.025103730418367276 0.0031627475866695997 0 -0.025097182162810826 0.0031862733836602714 0 -0.025103730418367276 0.0031627475866695997 0 -0.025097182162810826 0.0031862733836602714 0 -0.024907153904189121 0.0031733586267547005 0 -0.025197028977621709 0.0031822919307700841 0 -0.025097182162810826 0.0031862733836602714 0 -0.024907153904189121 0.0031733586267547005 0 -0.023430841457991701 0.0037455310722103821 0 -0.024907153904189121 0.0031733586267547005 0 -0.025051266120360891 0.0027342548267920946 0 -0.024907153904189121 0.0031733586267547005 0 -0.025266941562531377 0.00306391091264393 0 -0.025051266120360891 0.0027342548267920946 0 -0.025103730418367276 0.0031627475866695997 0 -0.024907153904189121 0.0031733586267547005 0 -0.025266941562531377 0.00306391091264393 0 -0.025266941562531377 0.00306391091264393 0 -0.025051266120360891 0.0027342548267920946 0 -0.025388910397269412 0.0029057184692103965 0 -0.017590408922136459 0.00368769957950946 0 -0.012701871780593172 0.0032624570202688112 0 -0.0069900304655239349 0.0045097322744715512 0 -0.0075828756343607672 0.0025646242462371333 0 -0.0089389680745934653 0.0027771044836993465 0 -0.0069900304655239349 0.0045097322744715512 0 -0.0061015332548477515 0.0032659133226470918 0 -0.0075828756343607672 0.0025646242462371333 0 -0.017590408922136459 0.00368769957950946 0 -0.022615503768277236 0.0031198653569102747 0 -0.0061015332548477515 0.0032659133226470918 0 -0.0047147905852779866 0.0030826459966388398 0 -0.0044117052562634151 0.004948433455748716 0 -0.0069900304655239349 0.0045097322744715512 0 -0.0061015332548477515 0.0032659133226470918 0 -0.0044117052562634151 0.004948433455748716 0 -0.0047147905852779866 0.0030826459966388398 0 -0.0055913153195074512 0.0024077558251445696 0 -0.0049328894313997356 0.0016607201219367743 0 -0.0061015332548477515 0.0032659133226470918 0 -0.0047147905852779866 0.0030826459966388398 0 -0.0055913153195074512 0.0024077558251445696 0 -0.0061015332548477515 0.0032659133226470918 0 -0.0055913153195074512 0.0024077558251445696 0 -0.0063933950427529302 0.0020387246613839333 0 -0.0058624643170320876 0.0016103546352864695 0 -0.0049328894313997356 0.0016607201219367743 0 -0.0056392931079254603 0.00077112133088599248 0 -0.0055913153195074512 0.0024077558251445696 0 -0.0058624643170320876 0.0016103546352864695 0 -0.0063933950427529302 0.0020387246613839333 0 -0.0055913153195074512 0.0024077558251445696 0 -0.0058624643170320876 0.0016103546352864695 0 -0.0049328894313997356 0.0016607201219367743 0 -0.0075828756343607672 0.0025646242462371333 0 -0.0084862936776121181 0.0018216091157365391 0 -0.0089389680745934653 0.0027771044836993465 0 -0.0061015332548477515 0.0032659133226470918 0 -0.0075828756343607672 0.0025646242462371333 0 -0.0063933950427529302 0.0020387246613839333 0 -0.0075828756343607672 0.0025646242462371333 0 -0.0063933950427529302 0.0020387246613839333 0 -0.0080318303173063429 0.00092995216294386245 0 -0.0058624643170320876 0.0016103546352864695 0 -0.0063933950427529302 0.0020387246613839333 0 -0.0069807047631283972 0.00053396944219841907 0 -0.0065841019540981956 0.001912431072199996 0 -0.0079984493116677796 0.0010444427422322325 0 -0.0063933950427529302 0.0020387246613839333 0 -0.0077811149915076204 0.0011623915886617353 0 -0.0069807047631283972 0.00053396944219841907 0 -0.0075828756343607672 0.0025646242462371333 0 -0.0084862936776121181 0.0018216091157365391 0 -0.0080318303173063429 0.00092995216294386245 0 -0.009250005017178568 0.0011084292822417404 0 -0.0084862936776121181 0.0018216091157365391 0 -0.0080318303173063429 0.00092995216294386245 0 -0.017923700932599974 0.0030055415834584578 0 -0.019064776884465482 0.0027062465649744212 0 -0.01866480991001794 0.0035726579147246922 0 -0.017923700932599974 0.0030055415834584578 0 -0.019064776884465482 0.0027062465649744212 0 -0.019041278764425466 0.001875899657545655 0 -0.009250005017178568 0.0011084292822417404 0 -0.0084862936776121181 0.0018216091157365391 0 -0.0089389680745934653 0.0027771044836993465 0 -0.009250005017178568 0.0011084292822417404 0 -0.0089389680745934653 0.0027771044836993465 0 -0.010577471958225459 0.00085627937265608898 0 -0.0089389680745934653 0.0027771044836993465 0 -0.011029307216677711 0.00083260859995921315 0 -0.010577471958225459 0.00085627937265608898 0 -0.012701871780593172 0.0032624570202688112 0 -0.014528442698729783 0.0014742823742361292 0 -0.020571920156131386 0.003022556784993009 0 -0.019200485199186875 0.0019925528111815003 0 -0.019064776884465482 0.0027062465649744212 0 -0.019200485199186875 0.0019925528111815003 0 -0.019064776884465482 0.0027062465649744212 0 -0.019041278764425466 0.001875899657545655 0 -0.020571920156131386 0.003022556784993009 0 -0.019064776884465482 0.0027062465649744212 0 -0.01866480991001794 0.0035726579147246922 0 -0.022293821121075572 0.002718982877918245 0 -0.022344130253879994 0.0032461110666217909 0 -0.025675317504211551 0.0029917444794683376 0 -0.025600160275267583 0.003067035690594438 0 -0.02546869205600695 0.0029106853566630308 0 -0.01683556086807373 0.0040860570767007488 0 -0.017923700932599974 0.0030055415834584578 0 -0.018236776290289195 0.0036889857668392975 0 -0.025266941562531377 0.00306391091264393 0 -0.025388910397269412 0.0029057184692103965 0 -0.02546869205600695 0.0029106853566630308 0 -0.017923700932599974 0.0030055415834584578 0 -0.018236776290289195 0.0036889857668392975 0 -0.01866480991001794 0.0035726579147246922 0 -0.022615503768277236 0.0031198653569102747 0 -0.022344130253879994 0.0032461110666217909 0 0.0010686165418074052 0.0043992189153270545 0 0.00078781455743173344 0.0043543395070808118 0 0.0010904329914422722 0.0042621704851940976 0 -0.0015423438901446113 0.0041098370826879579 0 -0.0064182889881225173 0.0038723870593673302 0 0.00078781455743173344 0.0043543395070808118 0 0.00059710632602644393 0.0055078105258785908 0 -0.00065812356127073111 0.0043555007979799503 0 -0.029212500789770578 -0.0016978104047504666 0 -0.029377832046179237 -0.0016081381193525364 0 -0.029557951842411109 -0.0017858966822627395 0 -0.014130406394017999 0.0013337937370455476 0 -0.014243776623093896 0.0013506437503718533 0 -0.014264627780586831 0.0013877021380217052 0 -0.029531415644718714 -0.0015532700343247809 0 -0.029377832046179237 -0.0016081381193525364 0 -0.029557951842411109 -0.0017858966822627395 0 -0.029674540863948089 -0.00149016801895804 0 -0.029531415644718714 -0.0015532700343247809 0 -0.029557951842411109 -0.0017858966822627395 0 -0.028232911756015281 -0.00056171425218472758 0 -0.021280166773464594 0.0017723481943938187 0 -0.0064182889881225173 0.0038723870593673302 0 -0.021280166773464594 0.0017723481943938187 0 -0.02667800443619579 0.00053965281232575023 0 -0.027278023769499046 0.00059961950305172334 0 -0.027329658713261491 0.0012799984923898631 0 -0.013518136922916231 0.0052331475791258606 0 -0.016253845081177793 0.0039899782371763679 0 -0.018042319050297278 0.0061437428322950512 0 -0.02667800443619579 0.00053965281232575023 0 -0.027329658713261491 0.0012799984923898631 0 -0.026205591487074801 0.0010699453769135758 0 -0.021280166773464594 0.0017723481943938187 0 -0.021658089772706841 0.003851770078991997 0 -0.013334447067964092 0.0040153515304627817 0 -0.016253845081177793 0.0039899782371763679 0 -0.017667008589803659 0.003615961078522328 0 0.00059710632602644393 0.0055078105258785908 0 -0.00065812356127073111 0.0043555007979799503 0 -0.0019742156525658422 0.0054135712173276748 0 -0.013334447067964092 0.0040153515304627817 0 -0.013518136922916231 0.0052331475791258606 0 -0.016253845081177793 0.0039899782371763679 0 -0.0064182889881225173 0.0038723870593673302 0 -0.011073475329276848 0.0045110418063391416 0 -0.00065812356127073111 0.0043555007979799503 0 -0.0019742156525658422 0.0054135712173276748 0 -0.0026523708791196293 0.0037573905161140085 0 -0.0173422473852353 0.0038005499756290028 0 -0.011073475329276848 0.0045110418063391416 0 -0.018851245517042835 0.0036125252554898542 0 -0.018209783285122332 0.004591730430942886 0 -0.019833609877701174 0.005091752207559694 0 -0.019406879667475296 0.003456562818546954 0 -0.018851245517042835 0.0036125252554898542 0 -0.019833609877701174 0.005091752207559694 0 -0.019404319438905356 0.0034580232490691496 0 -0.018851245517042835 0.0036125252554898542 0 -0.017710361823705782 0.0035973624030528964 0 -0.0173422473852353 0.0038005499756290028 0 -0.017913774251949698 0.0036588405625631376 0 -0.018851245517042835 0.0036125252554898542 0 -0.017710361823705782 0.0035973624030528964 0 -0.018209783285122332 0.004591730430942886 0 -0.016253845081177793 0.0039899782371763679 0 -0.017710361823705782 0.0035973624030528964 0 -0.018209783285122332 0.004591730430942886 0 -0.016649835334611916 0.0034495146055983253 0 -0.011073475329276848 0.0045110418063391416 0 -0.016253845081177793 0.0039899782371763679 0 -0.018042319050297278 0.0061437428322950512 0 -0.018209783285122332 0.004591730430942886 0 -0.018042319050297278 0.0061437428322950512 0 -0.018209783285122332 0.004591730430942886 0 -0.019833609877701174 0.005091752207559694 0 -0.022510060844454421 0.0069472123560537502 0 -0.018042319050297278 0.0061437428322950512 0 -0.019833609877701174 0.005091752207559694 0 -0.025308353421961988 0.0030603923273190173 0 -0.021658089772706841 0.003851770078991997 0 -0.022510060844454421 0.0069472123560537502 0 -0.019833609877701174 0.005091752207559694 0 -0.022018859571251156 0.0048685731565682533 0 -0.019833609877701174 0.005091752207559694 0 -0.022018859571251156 0.0048685731565682533 0 -0.020869867818908882 0.0042444456699788566 0 -0.018903411570462127 0.0032007730088809937 0 -0.0173422473852353 0.0038005499756290028 0 -0.0019742156525658422 0.0054135712173276748 0 -0.0044117052562634151 0.004948433455748716 0 -0.0026523708791196293 0.0037573905161140085 0 -0.022480424773626179 0.0026862007986885928 0 -0.01941039531911903 0.0034289880008977359 0 -0.020979429248048385 0.0033481325352234907 0 -0.012608943438235031 0.0044091429985678209 0 -0.011523128449294999 0.0044493351754912027 0 -0.014124703489739859 0.0039187453194907962 0 -0.02228030836151914 0.0037800095543749296 0 -0.020979429248048385 0.0033481325352234907 0 -0.020869867818908882 0.0042444456699788566 0 -0.02228030836151914 0.0037800095543749296 0 -0.022018859571251156 0.0048685731565682533 0 -0.020869867818908882 0.0042444456699788566 0 -0.011073475329276848 0.0045110418063391416 0 -0.0072942708328338351 0.0047614099744616384 0 -0.014614978703200721 0.003952888272755673 0 -0.012608943438235031 0.0044091429985678209 0 -0.014124703489739859 0.0039187453194907962 0 -0.019406879667475296 0.003456562818546954 0 -0.019833609877701174 0.005091752207559694 0 -0.020869867818908882 0.0042444456699788566 0 -0.0173422473852353 0.0038005499756290028 0 -0.020615117996693081 0.0034178203152372285 0 -0.019406879667475296 0.003456562818546954 0 -0.020979429248048385 0.0033481325352234907 0 -0.020869867818908882 0.0042444456699788566 0 -0.02228030836151914 0.0037800095543749296 0 -0.022480424773626179 0.0026862007986885928 0 -0.020979429248048385 0.0033481325352234907 0 -0.0047147905852779866 0.0030826459966388398 0 -0.0044117052562634151 0.004948433455748716 0 -0.0026523708791196293 0.0037573905161140085 0 -0.0047147905852779866 0.0030826459966388398 0 -0.0049328894313997356 0.0016607201219367743 0 -0.0032761942997774031 0.0017303065279914414 0 -0.0047147905852779866 0.0030826459966388398 0 -0.0032761942997774031 0.0017303065279914414 0 -0.0026523708791196293 0.0037573905161140085 0 -0.0032761942997774031 0.0017303065279914414 0 -0.0010480790259322454 0.0026755644997337926 0 -0.0013784410956223974 0.0011312422539361314 0 -0.0032761942997774031 0.0017303065279914414 0 -0.0026523708791196293 0.0037573905161140085 0 -0.0010480790259322454 0.0026755644997337926 0 -0.00065812356127073111 0.0043555007979799503 0 -0.0026523708791196293 0.0037573905161140085 0 -0.0010480790259322454 0.0026755644997337926 0 -0.00065812356127073111 0.0043555007979799503 0 -0.0010480790259322454 0.0026755644997337926 0 0.00035755918179422634 0.0030896738957415437 0 0.00078781455743173344 0.0043543395070808118 0 -0.00065812356127073111 0.0043555007979799503 0 0.00035755918179422634 0.0030896738957415437 0 0.00028728778806752346 0.0015610459086955869 0 -0.0010480790259322454 0.0026755644997337926 0 0.00035755918179422634 0.0030896738957415437 0 0.00028728778806752346 0.0015610459086955869 0 -0.0010480790259322454 0.0026755644997337926 0 -0.0013784410956223974 0.0011312422539361314 0 0.00028728778806752346 0.0015610459086955869 0 0.0014931261643884653 0.002082476746841434 0 0.00035755918179422634 0.0030896738957415437 0 0.0014931261643884653 0.002082476746841434 0 0.0011995594940826309 0.0033132179898707963 0 0.00035755918179422634 0.0030896738957415437 0 0.00078781455743173344 0.0043543395070808118 0 0.0011995594940826309 0.0033132179898707963 0 0.00035755918179422634 0.0030896738957415437 0 0.0010686165418074052 0.0043992189153270545 0 0.00078781455743173344 0.0043543395070808118 0 0.0011995594940826309 0.0033132179898707963 0 0.0018095120375061302 0.00036286258467433633 0 0.00011117946734150606 0.00013041037100633025 0 0.0014342545420519635 -0.0010518576767520088 0 0.0018095120375061302 0.00036286258467433633 0 0.00028728778806752346 0.0015610459086955869 0 0.00011117946734150606 0.00013041037100633025 0 0.0018095120375061302 0.00036286258467433633 0 0.00028728778806752346 0.0015610459086955869 0 0.0014931261643884653 0.002082476746841434 0 0.00028728778806752346 0.0015610459086955869 0 0.00011117946734150606 0.00013041037100633025 0 -0.0013784410956223974 0.0011312422539361314 0 0.00011117946734150606 0.00013041037100633025 0 -9.3043968399319173e-05 -0.0015457824351882239 0 0.0014342545420519635 -0.0010518576767520088 0 0.00011117946734150606 0.00013041037100633025 0 -0.0011863064227361859 -1.7504773782241823e-05 0 -9.3043968399319173e-05 -0.0015457824351882239 0 -7.3853043800462226e-05 7.4295518393715994e-05 0 -0.001715253457377946 -0.00019536736717913326 0 -0.0011863064227361859 -1.7504773782241823e-05 0 -0.0014920386614990352 -0.0012469552798165177 0 -9.3043968399319173e-05 -0.0015457824351882239 0 -0.0032761942997774031 0.0017303065279914414 0 -0.0023999699843268141 -0.00045086643098959543 0 -0.0013784410956223974 0.0011312422539361314 0 0.00011117946734150606 0.00013041037100633025 0 -0.0023999699843268141 -0.00045086643098959543 0 -0.0013784410956223974 0.0011312422539361314 0 -0.0023999699843268141 -0.00045086643098959543 0 -0.0044820108400596406 0.00048174907637974542 0 -0.0047854626092458889 -0.00078221457525759876 0 -0.0032761942997774031 0.0017303065279914414 0 -0.0023999699843268141 -0.00045086643098959543 0 -0.0044820108400596406 0.00048174907637974542 0 -0.0049328894313997356 0.0016607201219367743 0 -0.0032761942997774031 0.0017303065279914414 0 -0.0044820108400596406 0.00048174907637974542 0 -0.0011863064227361859 -1.7504773782241823e-05 0 -0.0014920386614990352 -0.0012469552798165177 0 -0.0026889462359278027 -0.00017181941432009795 0 -0.001715253457377946 -0.00019536736717913326 0 -0.0040134791780454182 -0.00066686848463005661 0 -2.7088166289299207e-05 0.00034913479189519153 0 -0.001282630883960822 0.0016205647700151832 0 -0.001366128603796885 -0.0025704998730980053 0 -0.0014920386614990352 -0.0012469552798165177 0 -0.0027865781132865941 -0.0014443986675922176 0 -0.0014920386614990352 -0.0012469552798165177 0 -0.0026889462359278027 -0.00017181941432009795 0 -0.0027865781132865941 -0.0014443986675922176 0 0.0012582518876259432 0.0033651880711121677 0 -0.00017793405829913167 0.0044885287338700562 0 -0.00023456162419501571 0.0030871348443690383 0 0.0012582518876259432 0.0033651880711121677 0 -0.00023456162419501571 0.0030871348443690383 0 0.00063983715966810088 0.0024918787344077506 0 -0.001366128603796885 -0.0025704998730980053 0 -9.3043968399319173e-05 -0.0015457824351882239 0 0.00029015874208916371 -0.0026698121201142186 0 -0.001366128603796885 -0.0025704998730980053 0 -0.0014920386614990352 -0.0012469552798165177 0 -9.3043968399319173e-05 -0.0015457824351882239 0 -9.3043968399319173e-05 -0.0015457824351882239 0 0.00029015874208916371 -0.0026698121201142186 0 0.0015232912392765083 -0.0025001628170852586 0 -0.001366128603796885 -0.0025704998730980053 0 0.00029015874208916371 -0.0026698121201142186 0 0.00019433223459799402 -0.0038048057205233086 0 0.0030148396333102394 -0.003078020214156047 0 0.0015232912392765083 -0.0025001628170852586 0 0.0020885433669670366 -0.0033962406575724436 0 0.00029015874208916371 -0.0026698121201142186 0 0.0015232912392765083 -0.0025001628170852586 0 0.0017625684371067047 -0.0037187569063451371 0 0.0016094016532988099 -0.0025821420872277081 0 0.0019546222695995485 -0.003573210218584017 0 -9.3043968399319173e-05 -0.0015457824351882239 0 0.0015232912392765083 -0.0025001628170852586 0 0.0014342545420519635 -0.0010518576767520088 0 0.0028167484595913949 -0.0022076347159329128 0 0.0015232912392765083 -0.0025001628170852586 0 0.0014342545420519635 -0.0010518576767520088 0 -0.0053216147350453775 0.0041655387099135688 0 -0.0044349899617730547 0.001559396104391314 0 -0.0028624285482790673 0.0054618038004676525 0 -0.0017040279867681976 0.0056238096465101471 0 -0.002192327960965041 0.0046864741523208299 0 -0.0057340806778870936 0.002702208794718729 0 -0.0057530789728497608 0.002690269531275801 0 -0.0057082610895829149 0.0026810781554192685 0 -0.0093598759950020947 0.0047164477481320688 0 -0.0086046664916266894 0.0047765134370697324 0 -0.0092159078852559178 0.004184538201069443 0 -0.007489376029196926 0.0020899976367346894 0 -0.0053216147350453775 0.0041655387099135688 0 -0.011256637851707368 0.0042022357988061995 0 -0.0093598759950020947 0.0047164477481320688 0 -0.0092159078852559178 0.004184538201069443 0 -0.011256637851707368 0.0042022357988061995 0 -0.0093598759950020947 0.0047164477481320688 0 -0.0094118823882941086 0.0053277980336664567 0 -0.011653353487872423 0.0038197866439780136 0 -0.010034634922576573 0.0020363411293167553 0 -0.013801208256448412 0.0016750677207179319 0 -0.012734657744326491 0.0027215695728287324 0 -0.011828515066496731 0.0019366469996786343 0 -0.012223985926856897 0.002670198950964273 0 -0.012071386889667688 0.0030852967743090183 0 -0.011391492022932367 0.003156557607170366 0 -0.01384952016268693 0.0024409238802068473 0 -0.010034634922576573 0.0020363411293167553 0 -0.01384952016268693 0.0024409238802068473 0 -0.014528442698729783 0.0014742823742361292 0 -0.015637596200565623 0.002660554696992948 0 -0.016457870637368345 0.00150007431625257 0 -0.015438402126018958 0.0025075054899937116 0 -0.014528442698729783 0.0014742823742361292 0 -0.010034634922576573 0.0020363411293167553 0 -0.011029155749270417 0.00082625737262916033 0 -0.010577471958225459 0.00085627937265608898 0 -0.0098136943288408621 -0.00021690648612925867 0 -0.016630270642361378 0.0021823346849321329 0 -0.014528442698729783 0.0014742823742361292 0 -0.014528442698729783 0.0014742823742361292 0 -0.013199989303851125 0.0014698416928330721 0 -0.009250005017178568 0.0011084292822417404 0 -0.010577471958225459 0.00085627937265608898 0 -0.0098136943288408621 -0.00021690648612925867 0 -0.010034634922576573 0.0020363411293167553 0 -0.0069810294982469859 0.00091565267402103569 0 -0.0081810771831310244 0.0010657670304903869 0 -0.009125315875051004 0.0017090665428337627 0 -0.0072874344196680613 0.0019504872447764377 0 -0.007489376029196926 0.0020899976367346894 0 -0.010034634922576573 0.0020363411293167553 0 -0.0093598759950020947 0.0047164477481320688 0 -0.0086046664916266894 0.0047765134370697324 0 -0.0094118823882941086 0.0053277980336664567 0 -0.009250005017178568 0.0011084292822417404 0 -0.0098136943288408621 -0.00021690648612925867 0 -0.0080318303173063429 0.00092995216294386245 0 -0.010034634922576573 0.0020363411293167553 0 -0.0079984493116677796 0.0010444427422322325 0 -0.0092433647190109606 0.0002517030826424204 0 -0.0077811149915076204 0.0011623915886617353 0 -0.0069807047631283972 0.00053396944219841907 0 -0.0067734923915269366 0.0006094470248441821 0 -0.0057718504431951805 -1.7637291625779004e-05 0 -0.006996118404953974 -0.0010069978703557759 0 -0.0077778634677845172 -0.00039306365097668627 0 -0.0067734923915269366 0.0006094470248441821 0 -0.006996118404953974 -0.0010069978703557759 0 -0.0060884293609284532 0.0014460071325265308 0 -0.0069810294982469859 0.00091565267402103569 0 -0.007489376029196926 0.0020899976367346894 0 -0.0069810294982469859 0.00091565267402103569 0 -0.0049328894313997356 0.0016607201219367743 0 -0.0044820108400596406 0.00048174907637974542 0 -0.0056392931079254603 0.00077112133088599248 0 -0.0069810294982469859 0.00091565267402103569 0 -0.0058713581860601318 0.00082934621652767655 0 -0.0058624643170320876 0.0016103546352864695 0 -0.0068294295752586937 0.00060968497415417268 0 -0.0056392931079254603 0.00077112133088599248 0 -0.0067734923915269366 0.0006094470248441821 0 -0.0056392931079254603 0.00077112133088599248 0 -0.0057718504431951805 -1.7637291625779004e-05 0 -0.0044820108400596406 0.00048174907637974542 0 -0.0057718504431951805 -1.7637291625779004e-05 0 -0.0047854626092458889 -0.00078221457525759876 0 -0.0044820108400596406 0.00048174907637974542 0 -0.0056392931079254603 0.00077112133088599248 0 -0.0057718504431951805 -1.7637291625779004e-05 0 -0.0026889462359278027 -0.00017181941432009795 0 -0.0042050270979402315 -0.00033830103070437432 0 -0.0027865781132865941 -0.0014443986675922176 0 -0.0044349899617730547 0.001559396104391314 0 -0.001282630883960822 0.0016205647700151832 0 -0.0040134791780454182 -0.00066686848463005661 0 -0.0044349899617730547 0.001559396104391314 0 -0.0057718504431951805 -1.7637291625779004e-05 0 -0.0047854626092458889 -0.00078221457525759876 0 -0.006996118404953974 -0.0010069978703557759 0 -0.007489376029196926 0.0020899976367346894 0 -0.0044349899617730547 0.001559396104391314 0 -0.0017040279867681976 0.0056238096465101471 0 -0.002192327960965041 0.0046864741523208299 0 -0.0013868869330089502 0.0040426617261504197 0 -0.002192327960965041 0.0046864741523208299 0 -0.0013868869330089502 0.0040426617261504197 0 -0.0022920483725664222 0.0034161575764357749 0 -0.0017040279867681976 0.0056238096465101471 0 -0.0013868869330089502 0.0040426617261504197 0 -0.00017793405829913167 0.0044885287338700562 0 -0.0013868869330089502 0.0040426617261504197 0 -0.00017793405829913167 0.0044885287338700562 0 -0.00023456162419501571 0.0030871348443690383 0 -0.0013868869330089502 0.0040426617261504197 0 -0.00023456162419501571 0.0030871348443690383 0 -0.0016250958454060345 0.0023154418390392869 0 -0.0014056388145206901 0.0039596354402747181 0 -0.0017718628022079083 0.0024150842369226231 0 -0.0013868869330089502 0.0040426617261504197 0 -0.0022920483725664222 0.0034161575764357749 0 -0.0019413582121981271 0.0024415215526586527 0 -0.0022920483725664222 0.0034161575764357749 0 -0.0031959770066088749 0.0029626880839872245 0 -0.0029587182746733521 0.004124926696348636 0 -0.002192327960965041 0.0046864741523208299 0 -0.0022920483725664222 0.0034161575764357749 0 -0.0029587182746733521 0.004124926696348636 0 -0.0028624285482790673 0.0054618038004676525 0 -0.002192327960965041 0.0046864741523208299 0 -0.0029587182746733521 0.004124926696348636 0 -0.011256637851707368 0.0042022357988061995 0 -0.0092159078852559178 0.004184538201069443 0 -0.010775120845168729 0.0026926181339310489 0 -0.0028624285482790673 0.0054618038004676525 0 -0.0029587182746733521 0.004124926696348636 0 -0.0042555629085667861 0.0040710579857905693 0 -0.0053216147350453775 0.0041655387099135688 0 -0.0078804704909843232 0.003382983293346087 0 -0.0031959770066088749 0.0029626880839872245 0 -0.0042555629085667861 0.0040710579857905693 0 -0.0041023217160934622 0.0029564774428405792 0 -0.0046719671680557793 0.0034509043594130669 0 -0.0042555629085667861 0.0040710579857905693 0 -0.0041023217160934622 0.0029564774428405792 0 -0.0031959770066088749 0.0029626880839872245 0 -0.0029587182746733521 0.004124926696348636 0 -0.0042555629085667861 0.0040710579857905693 0 -0.0041023217160934622 0.0029564774428405792 0 -0.0039211951685718723 0.0017694141523323702 0 -0.0047145081120242198 0.0025475070659186998 0 -0.0031959770066088749 0.0029626880839872245 0 -0.0041023217160934622 0.0029564774428405792 0 -0.0039211951685718723 0.0017694141523323702 0 -0.0039211951685718723 0.0017694141523323702 0 -0.0028550562402814067 0.0020134119017723657 0 -0.0023633994960198129 0.00088697265624226417 0 -0.0028550562402814067 0.0020134119017723657 0 -0.0019413582121981271 0.0024415215526586527 0 -0.0023633994960198129 0.00088697265624226417 0 -0.0022920483725664222 0.0034161575764357749 0 -0.0031959770066088749 0.0029626880839872245 0 -0.0019413582121981271 0.0024415215526586527 0 -0.0031959770066088749 0.0029626880839872245 0 -0.0028550562402814067 0.0020134119017723657 0 -0.0019413582121981271 0.0024415215526586527 0 -0.0031959770066088749 0.0029626880839872245 0 -0.0039211951685718723 0.0017694141523323702 0 -0.0028550562402814067 0.0020134119017723657 0 -0.00023456162419501571 0.0030871348443690383 0 -0.0016250958454060345 0.0023154418390392869 0 -0.00015947588797915742 0.0018640287801591885 0 -0.0016250958454060345 0.0023154418390392869 0 -0.00015947588797915742 0.0018640287801591885 0 -0.00091194876500007131 0.0010972299187100337 0 -0.00015947588797915742 0.0018640287801591885 0 -0.00091194876500007131 0.0010972299187100337 0 8.6930838304724353e-05 0.00070433220624540108 0 -0.0017718628022079083 0.0024150842369226231 0 -0.0021319406448143917 0.0008092776811599318 0 -0.0016250958454060345 0.0023154418390392869 0 -0.00091194876500007131 0.0010972299187100337 0 -0.001896246822568758 0.00073653454958633961 0 -0.00091194876500007131 0.0010972299187100337 0 -0.00095769827603531168 -8.8718315477528731e-05 0 -0.001896246822568758 0.00073653454958633961 0 -0.00095769827603531168 -8.8718315477528731e-05 0 -0.002247573003203092 -0.00079000634135925499 0 -0.001896246822568758 0.00073653454958633961 0 -0.00095769827603531168 -8.8718315477528731e-05 0 8.6930838304724353e-05 0.00070433220624540108 0 -9.453760942992903e-06 -0.00024602966529852757 0 -0.00091194876500007131 0.0010972299187100337 0 -0.00095769827603531168 -8.8718315477528731e-05 0 8.6930838304724353e-05 0.00070433220624540108 0 -0.00095769827603531168 -8.8718315477528731e-05 0 -9.453760942992903e-06 -0.00024602966529852757 0 -0.00037432322406675872 -0.0010431502367715003 0 -9.453760942992903e-06 -0.00024602966529852757 0 -0.00037432322406675872 -0.0010431502367715003 0 0.00056443357175967491 -0.00084393695405227695 0 -0.00095769827603531168 -8.8718315477528731e-05 0 -0.002247573003203092 -0.00079000634135925499 0 -0.0014589847359431827 -0.0012653777992753384 0 -0.00095769827603531168 -8.8718315477528731e-05 0 -0.00037432322406675872 -0.0010431502367715003 0 -0.0014589847359431827 -0.0012653777992753384 0 -0.0027250068589630889 -0.00068243577432622912 0 -0.0038802849238700043 0.00017443634246584538 0 -0.0037008640323279193 -0.0013336031180146703 0 -0.0038802849238700043 0.00017443634246584538 0 -0.0037008640323279193 -0.0013336031180146703 0 -0.0045845704007928655 -0.00058798960097276615 0 -0.0039211951685718723 0.0017694141523323702 0 -0.0038802849238700043 0.00017443634246584538 0 -0.0047284147312467986 0.00089477820203311348 0 -0.0039211951685718723 0.0017694141523323702 0 -0.0038802849238700043 0.00017443634246584538 0 -0.0023633994960198129 0.00088697265624226417 0 -0.0027250068589630889 -0.00068243577432622912 0 -0.0038802849238700043 0.00017443634246584538 0 -0.0023633994960198129 0.00088697265624226417 0 -0.002486465732575536 -0.00073328536681080902 0 -0.0021319406448143917 0.0008092776811599318 0 0.0043961523443785157 -0.0031140703593028063 0 0.0012341257980626294 -0.00056526749004776338 0 0.0043961523443785157 -0.0031140703593028063 0 0.0067881583534564272 -0.0035488789405598927 0 0.0018541171674582664 -0.0050542221332833884 0 0.0020343770770138909 -0.0049367081943922225 0 0.0017625684371067047 -0.0037187569063451371 0 0.0075840258803381863 -0.0079355074871913112 0 0.007285261964146258 -0.0077046797828386332 0 0.0079798352258511739 -0.0064022740055505612 0 0.0043961523443785157 -0.0031140703593028063 0 0.0048782499193907609 -0.004986167991289152 0 0.0038649971695154106 -0.0035918918988349568 0 0.0043715677252271195 -0.0039837962591715423 0 0.0042376484840190359 -0.0033499130732594835 0 0.0048782499193907609 -0.004986167991289152 0 0.0036198871098875249 -0.004156108484656809 0 0.0043961523443785157 -0.0031140703593028063 0 0.0036198871098875249 -0.004156108484656809 0 0.0036198871098875249 -0.004156108484656809 0 0.0019546222695995485 -0.003573210218584017 0 0.0018541171674582664 -0.0050542221332833884 0 0.0017625684371067047 -0.0037187569063451371 0 0.00019433223459799402 -0.0038048057205233086 0 0.00029015874208916371 -0.0026698121201142186 0 0.0017625684371067047 -0.0037187569063451371 0 0.00019433223459799402 -0.0038048057205233086 0 0.0023308564320741678 0.0019510101453922804 0 0.0027517721232050317 0.0022691668229257406 0 0.0029183476109843598 0.0010014906995787531 0 0.0023308564320741678 0.0019510101453922804 0 0.0029183476109843598 0.0010014906995787531 0 0.001823045821414668 0.0002535533259929252 0 0.0046975325526875085 0.00079612420558413353 0 0.0027517721232050317 0.0022691668229257406 0 0.0029183476109843598 0.0010014906995787531 0 0.0046975325526875085 0.00079612420558413353 0 0.0029183476109843598 0.0010014906995787531 0 0.0029937369412651495 -0.00029188674041043976 0 0.0029183476109843598 0.0010014906995787531 0 0.001823045821414668 0.0002535533259929252 0 0.0029937369412651495 -0.00029188674041043976 0 0.0022816147933717437 0.0018184639755673359 0 0.0018004239161337197 0.00060677596594873944 0 0.0023308564320741678 0.0019510101453922804 0 0.0018749141668632809 0.00085160542184028944 0 0.001551258883807131 0.0016079091425993698 0 0.0018749141668632809 0.00085160542184028944 0 0.001551258883807131 0.0016079091425993698 0 0.0010183399141269148 0.00080694841561884537 0 0.0023308564320741678 0.0019510101453922804 0 0.001551258883807131 0.0016079091425993698 0 0.0015219581850845322 0.0024646615635480189 0 0.0012582518876259432 0.0033651880711121677 0 0.0027517721232050317 0.0022691668229257406 0 0.0015219581850845322 0.0024646615635480189 0 0.0023308564320741678 0.0019510101453922804 0 0.0027517721232050317 0.0022691668229257406 0 0.0015219581850845322 0.0024646615635480189 0 -2.7088166289299207e-05 0.00034913479189519153 0 0.0012341257980626294 -0.00056526749004776338 0 0.0012582518876259432 0.0033651880711121677 0 0.0015219581850845322 0.0024646615635480189 0 0.00063983715966810088 0.0024918787344077506 0 0.001551258883807131 0.0016079091425993698 0 0.0015219581850845322 0.0024646615635480189 0 0.00083294863520989859 0.0017118965356175192 0 -0.00023456162419501571 0.0030871348443690383 0 -0.00015947588797915742 0.0018640287801591885 0 0.00063983715966810088 0.0024918787344077506 0 0.0015219581850845322 0.0024646615635480189 0 0.00063983715966810088 0.0024918787344077506 0 0.00083294863520989859 0.0017118965356175192 0 -0.00015947588797915742 0.0018640287801591885 0 0.00063983715966810088 0.0024918787344077506 0 0.00083294863520989859 0.0017118965356175192 0 8.6930838304724353e-05 0.00070433220624540108 0 0.00083294863520989859 0.0017118965356175192 0 0.0010183399141269148 0.00080694841561884537 0 -0.00015947588797915742 0.0018640287801591885 0 8.6930838304724353e-05 0.00070433220624540108 0 0.00083294863520989859 0.0017118965356175192 0 0.001551258883807131 0.0016079091425993698 0 0.00083294863520989859 0.0017118965356175192 0 0.0010183399141269148 0.00080694841561884537 0 0.0010183399141269148 0.00080694841561884537 0 0.00062659593658406267 4.1443349142845077e-05 0 0.0014982681938384818 -0.00025000821471021718 0 8.6930838304724353e-05 0.00070433220624540108 0 0.0010183399141269148 0.00080694841561884537 0 0.00062659593658406267 4.1443349142845077e-05 0 8.6930838304724353e-05 0.00070433220624540108 0 -9.453760942992903e-06 -0.00024602966529852757 0 0.00062659593658406267 4.1443349142845077e-05 0 0.00056443357175967491 -0.00084393695405227695 0 0.0016319180877799799 -0.0001789377233300134 0 0.0011968692163131479 -0.0014553255185192364 0 -9.453760942992903e-06 -0.00024602966529852757 0 0.00062659593658406267 4.1443349142845077e-05 0 0.00056443357175967491 -0.00084393695405227695 0 0.00030212426699293169 -0.00090642928597702639 0 0.0036770956887167932 -0.001534924917647839 0 0.00062659593658406267 4.1443349142845077e-05 0 0.00056443357175967491 -0.00084393695405227695 0 0.0014982681938384818 -0.00025000821471021718 0 0.0036770956887167932 -0.001534924917647839 0 0.0066966993267612105 -0.0026399363880559717 0 0.011264842950363705 -0.0055612859997074245 0 0.0097453118702906013 -0.0050261057241524146 0 0.011898575522861833 -0.0036790101711907841 0 0.0036770956887167932 -0.001534924917647839 0 0.0067881583534564272 -0.0035488789405598927 0 0.0018749141668632809 0.00085160542184028944 0 0.0010183399141269148 0.00080694841561884537 0 0.0014982681938384818 -0.00025000821471021718 0 0.0018004239161337197 0.00060677596594873944 0 0.0036770956887167932 -0.001534924917647839 0 0.001823045821414668 0.0002535533259929252 0 0.001340989669967055 -0.0013739737626894705 0 0.0029937369412651495 -0.00029188674041043976 0 0.011264842950363705 -0.0055612859997074245 0 0.0094408691176562972 -0.0067639532416914391 0 0.0097453118702906013 -0.0050261057241524146 0 0.0094408691176562972 -0.0067639532416914391 0 0.0097453118702906013 -0.0050261057241524146 0 0.0079798352258511739 -0.0064022740055505612 0 0.0097453118702906013 -0.0050261057241524146 0 0.0080971595704200233 -0.0043900538809473685 0 0.009678339122506107 -0.0033971312913583089 0 0.0067846721912443548 -0.0054825414277587699 0 0.0080971595704200233 -0.0043900538809473685 0 0.0079798352258511739 -0.0064022740055505612 0 0.0097453118702906013 -0.0050261057241524146 0 0.0080971595704200233 -0.0043900538809473685 0 0.0079798352258511739 -0.0064022740055505612 0 0.0067846721912443548 -0.0054825414277587699 0 0.007285261964146258 -0.0077046797828386332 0 0.0079798352258511739 -0.0064022740055505612 0 0.0075840258803381863 -0.0079355074871913112 0 0.0094408691176562972 -0.0067639532416914391 0 0.0079798352258511739 -0.0064022740055505612 0 0.0079505276660065214 -0.0025810923775203658 0 0.0093714093069270955 -0.0016418989427353856 0 0.0079031157998792918 -0.0012195956302444178 0 0.0080971595704200233 -0.0043900538809473685 0 0.0079505276660065214 -0.0025810923775203658 0 0.009678339122506107 -0.0033971312913583089 0 0.006124941662320537 -0.0030216261582156063 0 0.0080971595704200233 -0.0043900538809473685 0 0.0079505276660065214 -0.0025810923775203658 0 0.0079505276660065214 -0.0025810923775203658 0 0.009678339122506107 -0.0033971312913583089 0 0.0093714093069270955 -0.0016418989427353856 0 0.009678339122506107 -0.0033971312913583089 0 0.0093714093069270955 -0.0016418989427353856 0 0.010983313441244083 -0.0022084432925910395 0 0.0093714093069270955 -0.0016418989427353856 0 0.010983313441244083 -0.0022084432925910395 0 0.011408480434808601 -0.00053579678278362498 0 0.010983313441244083 -0.0022084432925910395 0 0.011898575522861833 -0.0036790101711907841 0 0.01246413821612938 -0.0018834720907170428 0 0.010983313441244083 -0.0022084432925910395 0 0.01246413821612938 -0.0018834720907170428 0 0.011408480434808601 -0.00053579678278362498 0 0.0097453118702906013 -0.0050261057241524146 0 0.009678339122506107 -0.0033971312913583089 0 0.011898575522861833 -0.0036790101711907841 0 0.009678339122506107 -0.0033971312913583089 0 0.010983313441244083 -0.0022084432925910395 0 0.011898575522861833 -0.0036790101711907841 0 0.00056443357175967491 -0.00084393695405227695 0 0.0011968692163131479 -0.0014553255185192364 0 0.00014523399104246165 -0.0018509339665062779 0 0.0011968692163131479 -0.0014553255185192364 0 0.00083271093710514691 -0.0026736815534264382 0 0.00014523399104246165 -0.0018509339665062779 0 0.0066966993267612105 -0.0026399363880559717 0 0.0065191402794836633 -0.0025517376063773837 0 0.01246413821612938 -0.0018834720907170428 0 0.012929604947069233 -0.0003207779780375462 0 0.011408480434808601 -0.00053579678278362498 0 0.00083271093710514691 -0.0026736815534264382 0 0.00047928707978266404 -0.0039295928422408569 0 -0.0004409664504628911 -0.0030324404733198924 0 0.0065191402794836633 -0.0025517376063773837 0 0.007744114413284024 -0.00082065056323365766 0 0.007744114413284024 -0.00082065056323365766 0 0.013542271012828903 -0.00019026616291219843 0 0.013253592932314545 -7.4244200218442766e-05 0 0.012418794596159308 0.0009505361356556539 0 0.011408480434808601 -0.00053579678278362498 0 0.013253592932314545 -7.4244200218442766e-05 0 0.012418794596159308 0.0009505361356556539 0 0.013517623415837404 0.0016717405510468999 0 0.012418794596159308 0.0009505361356556539 0 0.011408480434808601 -0.00053579678278362498 0 0.010711491112792489 0.00097114773757636316 0 0.0093714093069270955 -0.0016418989427353856 0 0.011408480434808601 -0.00053579678278362498 0 0.0093487912802664216 -0.00018937397639298275 0 0.0093487912802664216 -0.00018937397639298275 0 0.010711491112792489 0.00097114773757636316 0 0.0084947317613813991 0.0010785577994793895 0 0.011408480434808601 -0.00053579678278362498 0 0.0093487912802664216 -0.00018937397639298275 0 0.010711491112792489 0.00097114773757636316 0 0.0074632059946735316 -8.0891986364198349e-05 0 0.0093487912802664216 -0.00018937397639298275 0 0.0084947317613813991 0.0010785577994793895 0 0.0093714093069270955 -0.0016418989427353856 0 0.0093487912802664216 -0.00018937397639298275 0 0.0079031157998792918 -0.0012195956302444178 0 0.0074632059946735316 -8.0891986364198349e-05 0 0.0093487912802664216 -0.00018937397639298275 0 0.0079031157998792918 -0.0012195956302444178 0 -0.0026854262748893121 -0.0023368653075963577 0 -0.0010695920001308568 -0.0021055657499652095 0 -0.0020437636582682607 -0.003465813542855919 0 -0.0030329935902984042 -0.0022928054258204481 0 -0.0037511732650754286 -0.0029037308637118713 0 -0.003243451609541381 -0.0039989360271574662 0 -0.0030329935902984042 -0.0022928054258204481 0 -0.0037511732650754286 -0.0029037308637118713 0 -0.0037008640323279193 -0.0013336031180146703 0 -0.0037511732650754286 -0.0029037308637118713 0 -0.0037008640323279193 -0.0013336031180146703 0 -0.0049395105186036559 -0.0016382034228652315 0 -0.002486465732575536 -0.00073328536681080902 0 -0.0028663387250077695 -0.0023524351088919861 0 -0.0027250068589630889 -0.00068243577432622912 0 -0.0030329935902984042 -0.0022928054258204481 0 -0.0037008640323279193 -0.0013336031180146703 0 -0.002247573003203092 -0.00079000634135925499 0 -0.0026854262748893121 -0.0023368653075963577 0 -0.0014589847359431827 -0.0012653777992753384 0 -0.00037432322406675872 -0.0010431502367715003 0 -0.0014589847359431827 -0.0012653777992753384 0 -0.0010695920001308568 -0.0021055657499652095 0 -0.0026854262748893121 -0.0023368653075963577 0 -0.0014589847359431827 -0.0012653777992753384 0 -0.0010695920001308568 -0.0021055657499652095 0 -0.00037432322406675872 -0.0010431502367715003 0 0.00014523399104246165 -0.0018509339665062779 0 -0.0010695920001308568 -0.0021055657499652095 0 -0.00037432322406675872 -0.0010431502367715003 0 0.00056443357175967491 -0.00084393695405227695 0 0.00014523399104246165 -0.0018509339665062779 0 0.00083271093710514691 -0.0026736815534264382 0 0.00014523399104246165 -0.0018509339665062779 0 -0.0004409664504628911 -0.0030324404733198924 0 0.00014523399104246165 -0.0018509339665062779 0 -0.0004409664504628911 -0.0030324404733198924 0 -0.0010695920001308568 -0.0021055657499652095 0 -0.0004409664504628911 -0.0030324404733198924 0 -0.0010695920001308568 -0.0021055657499652095 0 -0.0020437636582682607 -0.003465813542855919 0 -0.0004409664504628911 -0.0030324404733198924 0 -0.0010709188527590638 -0.0042238483418055306 0 -0.0020437636582682607 -0.003465813542855919 0 0.00047928707978266404 -0.0039295928422408569 0 -0.0004409664504628911 -0.0030324404733198924 0 -0.0010709188527590638 -0.0042238483418055306 0 0.007744114413284024 -0.00082065056323365766 0 0.0014987579753215404 -0.0014187064210077142 0 0.007744114413284024 -0.00082065056323365766 0 0.010218933856697161 0.0017288394506597819 0 0.0065603341714883584 0.0016928840739902752 0 0.0058706451806931409 0.0015996889460717142 0 0.0063641968917026804 0.0010581791147047908 0 0.0058706451806931409 0.0015996889460717142 0 0.0057213104023975782 0.0011784693324506791 0 0.0063641968917026804 0.0010581791147047908 0 0.0058706451806931409 0.0015996889460717142 0 0.005156779880573694 0.0015085965640361423 0 0.0057213104023975782 0.0011784693324506791 0 0.005156779880573694 0.0015085965640361423 0 0.0052748305237488753 0.0010502997445333707 0 0.0057213104023975782 0.0011784693324506791 0 0.0014987579753215404 -0.0014187064210077142 0 0.0014663028473830843 -0.001572666376709316 0 0.005156779880573694 0.0015085965640361423 0 0.0049398518421420691 0.0011612606240903917 0 0.0052748305237488753 0.0010502997445333707 0 -0.0026854262748893121 -0.0023368653075963577 0 -0.0020437636582682607 -0.003465813542855919 0 -0.003243451609541381 -0.0039989360271574662 0 -0.0010709188527590638 -0.0042238483418055306 0 -0.0027239422042630375 -0.0045360839719354746 0 -0.0020437636582682607 -0.003465813542855919 0 -0.0027239422042630375 -0.0045360839719354746 0 -0.0020437636582682607 -0.003465813542855919 0 -0.003243451609541381 -0.0039989360271574662 0 -0.0037511732650754286 -0.0029037308637118713 0 -0.003243451609541381 -0.0039989360271574662 0 -0.0038174891133719089 -0.0036711085033296845 0 -0.0028663387250077695 -0.0023524351088919861 0 -0.0032285840223650578 -0.0039148348776170405 0 -0.0037511732650754286 -0.0029037308637118713 0 -0.0038174891133719089 -0.0036711085033296845 0 -0.0044113870746436152 -0.0036146948171094178 0 -0.0038174891133719089 -0.0036711085033296845 0 -0.0038548169587223559 -0.0041768799565364244 0 -0.0044113870746436152 -0.0036146948171094178 0 -0.003243451609541381 -0.0039989360271574662 0 -0.0038174891133719089 -0.0036711085033296845 0 -0.0038548169587223559 -0.0041768799565364244 0 0.0014663028473830843 -0.001572666376709316 0 -0.00049398158032523665 -0.00068025336995372664 0 -0.0027239422042630375 -0.0045360839719354746 0 -0.0038548169587223559 -0.0041768799565364244 0 -0.0044577105044083781 -0.0048039877919346862 0 0.005156779880573694 0.0015085965640361423 0 0.0043901070302631191 0.001384303231405424 0 0.0049398518421420691 0.0011612606240903917 0 -0.0027239422042630375 -0.0045360839719354746 0 -0.003243451609541381 -0.0039989360271574662 0 -0.0038548169587223559 -0.0041768799565364244 0 -0.0038548169587223559 -0.0041768799565364244 0 -0.0044577105044083781 -0.0048039877919346862 0 -0.0044113870746436152 -0.0036146948171094178 0 0.0036755745427708292 0.0029727744760500788 0 0.0027378901104394139 0.0028147814799640517 0 0.0039229406194861696 0.0018076070849348885 0 -0.0060733202675286434 -0.0024228115368278855 0 -0.0065542635954627835 -0.0025033148212569669 0 -0.0066895944556831866 -0.0016872761059249786 0 -0.00049398158032523665 -0.00068025336995372664 0 -0.0035634759451086506 0.0013689491538498081 0 -0.0035634759451086506 0.0013689491538498081 0 -0.011627919111631232 0.00047258333228101802 0 -0.013100933727409668 0.0021313286280774967 0 -0.01396468837257241 0.0020719145830153528 0 -0.013895896422299275 0.0026707199592392226 0 -0.0035634759451086506 0.0013689491538498081 0 -0.0065679365019329508 0.0024081093743700817 0 -0.0065542635954627835 -0.0025033148212569669 0 -0.0066895944556831866 -0.0016872761059249786 0 -0.0072814029665290141 -0.0018840916785182529 0 -0.0044577105044083781 -0.0048039877919346862 0 -0.0055535188509367815 -0.0032767516125774589 0 -0.0044113870746436152 -0.0036146948171094178 0 -0.00049398158032523665 -0.00068025336995372664 0 -0.0067035364303834367 -0.0028143142051292674 0 -0.0055535188509367815 -0.0032767516125774589 0 -0.0044113870746436152 -0.0036146948171094178 0 -0.0047403594851652374 -0.0026414724524636882 0 -0.01396468837257241 0.0020719145830153528 0 -0.014533273571626376 0.0025569999156961299 0 -0.014575323986092126 0.0021809642970850125 0 -0.01396468837257241 0.0020719145830153528 0 -0.013895896422299275 0.0026707199592392226 0 -0.014533273571626376 0.0025569999156961299 0 -0.013895896422299275 0.0026707199592392226 0 -0.014533273571626376 0.0025569999156961299 0 -0.01453493871322932 0.0028726671128277638 0 -0.014533273571626376 0.0025569999156961299 0 -0.01453493871322932 0.0028726671128277638 0 -0.014835768251527107 0.0027459489237061235 0 -0.011627919111631232 0.00047258333228101802 0 -0.010787048002927348 0.00058881683930309006 0 -0.0072814029665290141 -0.0018840916785182529 0 -0.0079441911124555446 -0.0013391391568465657 0 -0.0072260027583301847 -0.0010128271033690609 0 -0.0068479264505872097 -0.0013602597836742233 0 -0.0076549512028463423 -0.00032818528607153407 0 -0.0072260027583301847 -0.0010128271033690609 0 -0.0080405899941650462 -0.00078146490565866465 0 -0.0076709893545787305 -0.00025527124383249944 0 -0.0079441911124555446 -0.0013391391568465657 0 -0.0072260027583301847 -0.0010128271033690609 0 -0.0080405899941650462 -0.00078146490565866465 0 -0.0079441911124555446 -0.0013391391568465657 0 -0.0080405899941650462 -0.00078146490565866465 0 -0.008775298985608259 -0.00070257834147528341 0 -0.0037511732650754286 -0.0029037308637118713 0 -0.0047403594851652374 -0.0026414724524636882 0 -0.0049395105186036559 -0.0016382034228652315 0 -0.0037511732650754286 -0.0029037308637118713 0 -0.0044113870746436152 -0.0036146948171094178 0 -0.0047403594851652374 -0.0026414724524636882 0 -0.0055535188509367815 -0.0032767516125774589 0 -0.0066122014853052845 -0.0018179544178708058 0 -0.0047403594851652374 -0.0026414724524636882 0 -0.0066122014853052845 -0.0018179544178708058 0 -0.0047403594851652374 -0.0026414724524636882 0 -0.0049395105186036559 -0.0016382034228652315 0 -0.0067035364303834367 -0.0028143142051292674 0 -0.0068479264505872097 -0.0013602597836742233 0 -0.0066895944556831866 -0.0016872761059249786 0 -0.0072814029665290141 -0.0018840916785182529 0 -0.0072260027583301847 -0.0010128271033690609 0 -0.0066122014853052845 -0.0018179544178708058 0 -0.0049395105186036559 -0.0016382034228652315 0 -0.0062558837176347739 -0.00057745612464450843 0 -0.0037008640323279193 -0.0013336031180146703 0 -0.0049395105186036559 -0.0016382034228652315 0 -0.0045845704007928655 -0.00058798960097276615 0 -0.0049395105186036559 -0.0016382034228652315 0 -0.0045845704007928655 -0.00058798960097276615 0 -0.0062558837176347739 -0.00057745612464450843 0 -0.0038802849238700043 0.00017443634246584538 0 -0.0045845704007928655 -0.00058798960097276615 0 -0.0052940639634933935 0.00024308139650129095 0 -0.0047284147312467986 0.00089477820203311348 0 -0.0052940639634933935 0.00024308139650129095 0 -0.0058034013126471024 0.00095623912481269827 0 -0.0038802849238700043 0.00017443634246584538 0 -0.0047284147312467986 0.00089477820203311348 0 -0.0052940639634933935 0.00024308139650129095 0 -0.0052940639634933935 0.00024308139650129095 0 -0.0063919205349214853 0.00025092929151426373 0 -0.0058034013126471024 0.00095623912481269827 0 -0.0063919205349214853 0.00025092929151426373 0 -0.0058034013126471024 0.00095623912481269827 0 -0.0069349309572034803 0.00089161168672503301 0 -0.0052940639634933935 0.00024308139650129095 0 -0.0063919205349214853 0.00025092929151426373 0 -0.0062558837176347739 -0.00057745612464450843 0 -0.0045845704007928655 -0.00058798960097276615 0 -0.0052940639634933935 0.00024308139650129095 0 -0.0062558837176347739 -0.00057745612464450843 0 -0.0066122014853052845 -0.0018179544178708058 0 -0.0062558837176347739 -0.00057745612464450843 0 -0.0076709893545787305 -0.00025527124383249944 0 -0.0063919205349214853 0.00025092929151426373 0 -0.0062558837176347739 -0.00057745612464450843 0 -0.0076709893545787305 -0.00025527124383249944 0 -0.0080405899941650462 -0.00078146490565866465 0 -0.0076709893545787305 -0.00025527124383249944 0 -0.0088160795123660048 0.00014591960755593164 0 -0.0076709893545787305 -0.00025527124383249944 0 -0.0079430554756194822 0.00093107538663710543 0 -0.0069349309572034803 0.00089161168672503301 0 -0.0076709893545787305 -0.00025527124383249944 0 -0.0079430554756194822 0.00093107538663710543 0 -0.0088160795123660048 0.00014591960755593164 0 -0.0063919205349214853 0.00025092929151426373 0 -0.0076709893545787305 -0.00025527124383249944 0 -0.0069349309572034803 0.00089161168672503301 0 -0.011075037506924904 0.00037103155324504642 0 -0.010463843664680273 0.0010752024409204145 0 -0.0069349309572034803 0.00089161168672503301 0 -0.0068053732925564651 0.0018538636044482348 0 -0.0062173505235069964 0.0015359511332878636 0 -0.0079430554756194822 0.00093107538663710543 0 -0.0069349309572034803 0.00089161168672503301 0 -0.0068053732925564651 0.0018538636044482348 0 -0.014600891783661403 -9.0470305992576092e-05 0 -0.014744968558269334 0.00095181198115561986 0 -0.01543674779769311 0.00035020973802357241 0 -0.014600891783661403 -9.0470305992576092e-05 0 -0.013646354103153919 0.0004957611799964863 0 -0.014744968558269334 0.00095181198115561986 0 -0.014325847897483772 0.0017224922768481106 0 -0.013646354103153919 0.0004957611799964863 0 -0.014744968558269334 0.00095181198115561986 0 -0.013238831687401987 0.0019103726460426439 0 -0.014325847897483772 0.0017224922768481106 0 -0.013646354103153919 0.0004957611799964863 0 -0.0068053732925564651 0.0018538636044482348 0 -0.0062208069228731318 0.0021648350543571723 0 -0.0056390452376283645 0.0027309731680936534 0 -0.013238831687401987 0.0019103726460426439 0 -0.013646354103153919 0.0004957611799964863 0 -0.012364915235101149 0.0012707931268591223 0 -0.010463843664680273 0.0010752024409204145 0 -0.0076059758744770282 0.0021746308531617182 0 -0.0062208069228731318 0.0021648350543571723 0 -0.0056045631496910936 0.0027438970240911513 0 -0.005317069773335046 0.0018087492925936914 0 -0.0059777375538698869 0.0027011790006205936 0 -0.0076059758744770282 0.0021746308531617182 0 -0.0046719671680557793 0.0034509043594130669 0 -0.0056045631496910936 0.0027438970240911513 0 -0.0047145081120242198 0.0025475070659186998 0 -0.0039211951685718723 0.0017694141523323702 0 -0.0047145081120242198 0.0025475070659186998 0 -0.005317069773335046 0.0018087492925936914 0 -0.0056045631496910936 0.0027438970240911513 0 -0.0047145081120242198 0.0025475070659186998 0 -0.005317069773335046 0.0018087492925936914 0 -0.0039211951685718723 0.0017694141523323702 0 -0.0047284147312467986 0.00089477820203311348 0 -0.005317069773335046 0.0018087492925936914 0 -0.0047284147312467986 0.00089477820203311348 0 -0.0058034013126471024 0.00095623912481269827 0 -0.005317069773335046 0.0018087492925936914 0 -0.0058034013126471024 0.00095623912481269827 0 -0.0069349309572034803 0.00089161168672503301 0 -0.0062173505235069964 0.0015359511332878636 0 -0.0058034013126471024 0.00095623912481269827 0 -0.005317069773335046 0.0018087492925936914 0 -0.0062173505235069964 0.0015359511332878636 0 -0.0068053732925564651 0.0018538636044482348 0 -0.0062208069228731318 0.0021648350543571723 0 -0.0062173505235069964 0.0015359511332878636 0 -0.0062208069228731318 0.0021648350543571723 0 -0.005317069773335046 0.0018087492925936914 0 -0.0062173505235069964 0.0015359511332878636 0 -0.015601833135760641 0.0019856091132692153 0 -0.015731182608932963 0.0018801678415433086 0 -0.015506907042046278 0.0020526641586727274 0 -0.01527794608421152 0.0020116301038786252 0 -0.015731182608932963 0.0018801678415433086 0 -0.015506907042046278 0.0020526641586727274 0 -0.015850778140519051 0.0017367245693095806 0 -0.016148492982910195 0.002043996386793511 0 -0.015731182608932963 0.0018801678415433086 0 -0.016148492982910195 0.002043996386793511 0 -0.015731182608932963 0.0018801678415433086 0 -0.015835387102320249 0.001927441419670624 0 -0.015601833135760641 0.0019856091132692153 0 -0.015731182608932963 0.0018801678415433086 0 -0.015835387102320249 0.001927441419670624 0 -0.015601833135760641 0.0019856091132692153 0 -0.015835387102320249 0.001927441419670624 0 -0.015669690078429128 0.0019217892281561746 0 -0.015835387102320249 0.001927441419670624 0 -0.015669690078429128 0.0019217892281561746 0 -0.015576681276477451 0.0019292863644449958 0 -0.014961709250229011 0.0019193493532178828 0 -0.014744968558269334 0.00095181198115561986 0 -0.015413561909607125 0.0014363054453237307 0 -0.015669690078429128 0.0019217892281561746 0 -0.015576681276477451 0.0019292863644449958 0 -0.015675263631289689 0.001948852089312624 0 -0.014744968558269334 0.00095181198115561986 0 -0.015413561909607125 0.0014363054453237307 0 -0.01543674779769311 0.00035020973802357241 0 -0.015471704868387354 0.0017147563483431967 0 -0.015724960803417717 0.0011093102583944201 0 -0.015601833135760641 0.0019856091132692153 0 -0.015669690078429128 0.0019217892281561746 0 -0.015675263631289689 0.001948852089312624 0 -0.015601833135760641 0.0019856091132692153 0 -0.015675263631289689 0.001948852089312624 0 -0.015576290324211279 0.0021135572945093629 0 -0.015601833135760641 0.0019856091132692153 0 -0.015576290324211279 0.0021135572945093629 0 -0.015479899298647449 0.0021691252327492956 0 -0.015576290324211279 0.0021135572945093629 0 -0.015485232891919394 0.0022667760996649966 0 -0.015574223642543126 0.002221436520225121 0 -0.015576290324211279 0.0021135572945093629 0 -0.015479899298647449 0.0021691252327492956 0 -0.015485232891919394 0.0022667760996649966 0 -0.015675263631289689 0.001948852089312624 0 -0.015576290324211279 0.0021135572945093629 0 -0.015653494588055757 0.0021906943362221534 0 -0.011075037506924904 0.00037103155324504642 0 -0.013429853428483714 0.00092121980992010356 0 -0.014600891783661403 -9.0470305992576092e-05 0 -0.01543674779769311 0.00035020973802357241 0 -0.015429624641158518 -0.00070258404879340814 0 -0.015724960803417717 0.0011093102583944201 0 -0.013429853428483714 0.00092121980992010356 0 -0.015576290324211279 0.0021135572945093629 0 -0.015653494588055757 0.0021906943362221534 0 -0.015574223642543126 0.002221436520225121 0 -0.013429853428483714 0.00092121980992010356 0 -0.013473452749548006 0.0013903299339524827 0 -0.0080405899941650462 -0.00078146490565866465 0 -0.0088160795123660048 0.00014591960755593164 0 -0.008775298985608259 -0.00070257834147528341 0 -0.015653494588055757 0.0021906943362221534 0 -0.015528747748611536 0.0023388175172095768 0 -0.015597274382975297 0.0025911529911168264 0 -0.015653494588055757 0.0021906943362221534 0 -0.015574223642543126 0.002221436520225121 0 -0.015528747748611536 0.0023388175172095768 0 -0.015528747748611536 0.0023388175172095768 0 -0.015424733835927856 0.0024458023333817475 0 -0.015597274382975297 0.0025911529911168264 0 -0.015508806986849314 0.0028286877302648346 0 -0.013473452749548006 0.0013903299339524827 0 -0.015485232891919394 0.0022667760996649966 0 -0.015424733835927856 0.0024458023333817475 0 -0.015372030612221409 0.0023568661009156938 0 -0.015479899298647449 0.0021691252327492956 0 -0.015485232891919394 0.0022667760996649966 0 -0.015372030612221409 0.0023568661009156938 0 -0.015485232891919394 0.0022667760996649966 0 -0.015528747748611536 0.0023388175172095768 0 -0.015424733835927856 0.0024458023333817475 0 -0.015485232891919394 0.0022667760996649966 0 -0.015574223642543126 0.002221436520225121 0 -0.015528747748611536 0.0023388175172095768 0 -0.015424733835927856 0.0024458023333817475 0 -0.015372030612221409 0.0023568661009156938 0 -0.015295804389531296 0.0025256170982476457 0 -0.015372030612221409 0.0023568661009156938 0 -0.015269386325288899 0.0024409649389530441 0 -0.015295804389531296 0.0025256170982476457 0 -0.015372030612221409 0.0023568661009156938 0 -0.015269386325288899 0.0024409649389530441 0 -0.015360215260507014 0.0022532548227130935 0 -0.015269386325288899 0.0024409649389530441 0 -0.015360215260507014 0.0022532548227130935 0 -0.015213672645646107 0.0023655377045803624 0 -0.015479899298647449 0.0021691252327492956 0 -0.015372030612221409 0.0023568661009156938 0 -0.015360215260507014 0.0022532548227130935 0 -0.015601833135760641 0.0019856091132692153 0 -0.015479899298647449 0.0021691252327492956 0 -0.015506907042046278 0.0020526641586727274 0 -0.015479899298647449 0.0021691252327492956 0 -0.015360215260507014 0.0022532548227130935 0 -0.015506907042046278 0.0020526641586727274 0 -0.015360215260507014 0.0022532548227130935 0 -0.015506907042046278 0.0020526641586727274 0 -0.015272974465698877 0.0021815947312065183 0 -0.01527794608421152 0.0020116301038786252 0 -0.015506907042046278 0.0020526641586727274 0 -0.015272974465698877 0.0021815947312065183 0 -0.015030538204757658 0.0023301556228824353 0 -0.015272974465698877 0.0021815947312065183 0 -0.015213672645646107 0.0023655377045803624 0 -0.015030538204757658 0.0023301556228824353 0 -0.015213672645646107 0.0023655377045803624 0 -0.015057064209782034 0.0024960983177554331 0 -0.015360215260507014 0.0022532548227130935 0 -0.015272974465698877 0.0021815947312065183 0 -0.015213672645646107 0.0023655377045803624 0 -0.015057064209782034 0.0024960983177554331 0 -0.015154183042039771 0.0025419249400925503 0 -0.015057472106923753 0.0026235255041560678 0 -0.015213672645646107 0.0023655377045803624 0 -0.015057064209782034 0.0024960983177554331 0 -0.015154183042039771 0.0025419249400925503 0 -0.015269386325288899 0.0024409649389530441 0 -0.015209980868431059 0.0025667962902744612 0 -0.015154183042039771 0.0025419249400925503 0 -0.015269386325288899 0.0024409649389530441 0 -0.015213672645646107 0.0023655377045803624 0 -0.015154183042039771 0.0025419249400925503 0 -0.015269386325288899 0.0024409649389530441 0 -0.015209980868431059 0.0025667962902744612 0 -0.015295804389531296 0.0025256170982476457 0 -0.015209980868431059 0.0025667962902744612 0 -0.015155807340805544 0.0026442402318084045 0 -0.01521847392536773 0.002625917239524868 0 -0.015209980868431059 0.0025667962902744612 0 -0.015154183042039771 0.0025419249400925503 0 -0.015155807340805544 0.0026442402318084045 0 -0.015154183042039771 0.0025419249400925503 0 -0.015155807340805544 0.0026442402318084045 0 -0.015057472106923753 0.0026235255041560678 0 -0.015155807340805544 0.0026442402318084045 0 -0.015070773219616404 0.0027060325543296743 0 -0.015109365078719017 0.0026997769952269743 0 -0.015155807340805544 0.0026442402318084045 0 -0.015057472106923753 0.0026235255041560678 0 -0.015070773219616404 0.0027060325543296743 0 -0.015057472106923753 0.0026235255041560678 0 -0.01495870260479867 0.0027203323388442203 0 -0.015070773219616404 0.0027060325543296743 0 -0.014941024209213923 0.0026292166354178513 0 -0.015057472106923753 0.0026235255041560678 0 -0.01495870260479867 0.0027203323388442203 0 -0.014941024209213923 0.0026292166354178513 0 -0.015057064209782034 0.0024960983177554331 0 -0.015057472106923753 0.0026235255041560678 0 -0.010787048002927348 0.00058881683930309006 0 -0.013473452749548006 0.0013903299339524827 0 -0.01453493871322932 0.0028726671128277638 0 -0.015052734893508894 0.0030525562184925185 0 -0.015064092684233973 0.0028019731015355739 0 -0.01532780351438905 0.0025946933316401554 0 -0.015216848992062213 0.0026753173786317605 0 -0.015064092684233973 0.0028019731015355739 0 -0.013473452749548006 0.0013903299339524827 0 -0.014731934802562937 0.0030670430597497926 0 -0.015216848992062213 0.0026753173786317605 0 -0.01521847392536773 0.002625917239524868 0 -0.015126768207487278 0.0027238200345461767 0 -0.015424733835927856 0.0024458023333817475 0 -0.01532780351438905 0.0025946933316401554 0 -0.015216848992062213 0.0026753173786317605 0 -0.015424733835927856 0.0024458023333817475 0 -0.015216848992062213 0.0026753173786317605 0 -0.015295804389531296 0.0025256170982476457 0 -0.015209980868431059 0.0025667962902744612 0 -0.015295804389531296 0.0025256170982476457 0 -0.01521847392536773 0.002625917239524868 0 -0.015216848992062213 0.0026753173786317605 0 -0.015295804389531296 0.0025256170982476457 0 -0.01521847392536773 0.002625917239524868 0 -0.015155807340805544 0.0026442402318084045 0 -0.01521847392536773 0.002625917239524868 0 -0.015126768207487278 0.0027238200345461767 0 -0.015155807340805544 0.0026442402318084045 0 -0.015126768207487278 0.0027238200345461767 0 -0.015109365078719017 0.0026997769952269743 0 -0.015216848992062213 0.0026753173786317605 0 -0.015126768207487278 0.0027238200345461767 0 -0.015064092684233973 0.0028019731015355739 0 -0.015126768207487278 0.0027238200345461767 0 -0.014835768251527107 0.0027459489237061235 0 -0.015064092684233973 0.0028019731015355739 0 -0.01453493871322932 0.0028726671128277638 0 -0.014835768251527107 0.0027459489237061235 0 -0.015064092684233973 0.0028019731015355739 0 -0.015126768207487278 0.0027238200345461767 0 -0.014835768251527107 0.0027459489237061235 0 -0.014876228889327823 0.0026503155272155792 0 -0.014533273571626376 0.0025569999156961299 0 -0.014835768251527107 0.0027459489237061235 0 -0.014876228889327823 0.0026503155272155792 0 -0.014533273571626376 0.0025569999156961299 0 -0.014876228889327823 0.0026503155272155792 0 -0.014807918648568185 0.0024855437910246956 0 -0.014876228889327823 0.0026503155272155792 0 -0.015039575548277236 0.0026645806278250031 0 -0.014807918648568185 0.0024855437910246956 0 -0.015126768207487278 0.0027238200345461767 0 -0.015039575548277236 0.0026645806278250031 0 -0.015109365078719017 0.0026997769952269743 0 -0.015126768207487278 0.0027238200345461767 0 -0.014876228889327823 0.0026503155272155792 0 -0.015039575548277236 0.0026645806278250031 0 -0.015039575548277236 0.0026645806278250031 0 -0.015109365078719017 0.0026997769952269743 0 -0.015064782147697365 0.002727592920030089 0 -0.015039575548277236 0.0026645806278250031 0 -0.015029678446570828 0.0025915119388438572 0 -0.015064782147697365 0.002727592920030089 0 -0.015029678446570828 0.0025915119388438572 0 -0.014807918648568185 0.0024855437910246956 0 -0.014954212523864169 0.0023551030252097027 0 -0.015039575548277236 0.0026645806278250031 0 -0.015029678446570828 0.0025915119388438572 0 -0.014807918648568185 0.0024855437910246956 0 -0.014533273571626376 0.0025569999156961299 0 -0.014807918648568185 0.0024855437910246956 0 -0.014575323986092126 0.0021809642970850125 0 -0.015000285883270507 0.0027769585645242268 0 -0.014871169083263584 0.0028495529154470294 0 -0.014997244138086464 0.0028704050155462769 0 -0.015000285883270507 0.0027769585645242268 0 -0.014871169083263584 0.0028495529154470294 0 -0.01495870260479867 0.0027203323388442203 0 -0.015000285883270507 0.0027769585645242268 0 -0.01495870260479867 0.0027203323388442203 0 -0.015070773219616404 0.0027060325543296743 0 -0.015000285883270507 0.0027769585645242268 0 -0.015070773219616404 0.0027060325543296743 0 -0.015064782147697365 0.002727592920030089 0 -0.015070773219616404 0.0027060325543296743 0 -0.015109365078719017 0.0026997769952269743 0 -0.015064782147697365 0.002727592920030089 0 -0.015000285883270507 0.0027769585645242268 0 -0.015064782147697365 0.002727592920030089 0 -0.014997244138086464 0.0028704050155462769 0 -0.015029678446570828 0.0025915119388438572 0 -0.015064782147697365 0.002727592920030089 0 -0.014997244138086464 0.0028704050155462769 0 -0.015029678446570828 0.0025915119388438572 0 -0.014997244138086464 0.0028704050155462769 0 -0.015001115321502676 0.0031514944527949438 0 -0.014761129151058308 0.003091746808415678 0 -0.014871169083263584 0.0028495529154470294 0 -0.014997244138086464 0.0028704050155462769 0 -0.014761129151058308 0.003091746808415678 0 -0.015001115321502676 0.0031514944527949438 0 -0.01458110292628445 0.0034701178578787823 0 -0.010892125498454501 0.0025415094061017576 0 -0.011775561071921386 0.0036866338879443738 0 -0.014761129151058308 0.003091746808415678 0 -0.014997244138086464 0.0028704050155462769 0 -0.015001115321502676 0.0031514944527949438 0 -0.0031129136734290011 0.0018060798508999049 0 -0.0021461271372214766 0.0010011174076167081 0 -0.0016484820193935048 0.0020741798182409253 0 -0.01652460049170822 0.0023630166312237117 0 -0.010892125498454501 0.0025415094061017576 0 -0.010892125498454501 0.0025415094061017576 0 -0.0079423448599884056 0.0021948955713943555 0 -0.0021461271372214766 0.0010011174076167081 0 -0.0025949790766341824 0.00054655181779508322 0 -0.0031584394993051435 0.00085484231189279075 0 -0.0031129136734290011 0.0018060798508999049 0 -0.0021461271372214766 0.0010011174076167081 0 -0.0031584394993051435 0.00085484231189279075 0 -0.0021461271372214766 0.0010011174076167081 0 -0.0025949790766341824 0.00054655181779508322 0 -0.002113788253481489 0.00011550252353809479 0 -0.0025949790766341824 0.00054655181779508322 0 -0.0031584394993051435 0.00085484231189279075 0 -0.0030948339253211647 0.00029841238852596353 0 -0.0031584394993051435 0.00085484231189279075 0 -0.0035926899349244578 0.00029309161710777671 0 -0.0043636594995124746 0.00069244505175868314 0 -0.0031129136734290011 0.0018060798508999049 0 -0.0031584394993051435 0.00085484231189279075 0 -0.0043636594995124746 0.00069244505175868314 0 -0.010892125498454501 0.0025415094061017576 0 -0.0038436401690220522 0.0018579501355706894 0 -0.014807918648568185 0.0024855437910246956 0 -0.014575323986092126 0.0021809642970850125 0 -0.014954212523864169 0.0023551030252097027 0 -0.00014700831619751708 0.0023407039105764601 0 -0.00083033217614993527 0.0011802383622031287 0 0.00033819017410870389 0.0012531523776852349 0 -0.00014700831619751708 0.0023407039105764601 0 -0.0016484820193935048 0.0020741798182409253 0 -0.00083033217614993527 0.0011802383622031287 0 -0.0073590879125468179 0.002257385606194596 0 -0.0079423448599884056 0.0021948955713943555 0 -0.015029678446570828 0.0025915119388438572 0 -0.015109112001964204 0.0023265448872562835 0 -0.014954212523864169 0.0023551030252097027 0 -0.0021461271372214766 0.0010011174076167081 0 -0.00083033217614993527 0.0011802383622031287 0 -0.0011424670399638075 0.00020655070147538535 0 -0.0021461271372214766 0.0010011174076167081 0 -0.0016484820193935048 0.0020741798182409253 0 -0.00083033217614993527 0.0011802383622031287 0 -0.00083033217614993527 0.0011802383622031287 0 -0.00017811442881866636 0.00020625384509357901 0 0.00033819017410870389 0.0012531523776852349 0 -0.00046342577080448676 -0.00041427112138196727 0 -0.0011424670399638075 0.00020655070147538535 0 -0.001228264089964091 -0.00094351338065931406 0 -0.00046342577080448676 -0.00041427112138196727 0 -0.00017811442881866636 0.00020625384509357901 0 0.00034462306249494196 -0.00062472314378925436 0 -0.00083033217614993527 0.0011802383622031287 0 -0.00017811442881866636 0.00020625384509357901 0 -0.0011424670399638075 0.00020655070147538535 0 -0.00046342577080448676 -0.00041427112138196727 0 -0.00017811442881866636 0.00020625384509357901 0 -0.0011424670399638075 0.00020655070147538535 0 -0.002113788253481489 0.00011550252353809479 0 -0.001228264089964091 -0.00094351338065931406 0 -0.0025951326690684742 -0.00022878362280708223 0 -0.0011424670399638075 0.00020655070147538535 0 -0.002113788253481489 0.00011550252353809479 0 -0.001228264089964091 -0.00094351338065931406 0 -0.0021461271372214766 0.0010011174076167081 0 -0.0011424670399638075 0.00020655070147538535 0 -0.002113788253481489 0.00011550252353809479 0 0.0050945840731383054 0.0011645439055226298 0 0.0041927206927329028 0.0016235383181023397 0 0.0042888038533789143 0.0011089329219203105 0 0.0014905411430547449 0.00016540280887727382 0 0.0024004833013528356 0.0009326873922897356 0 0.0050945840731383054 0.0011645439055226298 0 0.0042888038533789143 0.0011089329219203105 0 0.0051540647501089523 0.00067098446909652509 0 0.0074536628035938926 0.0021954637428844939 0 0.0076440316986009921 0.0013044926519514442 0 0.0050945840731383054 0.0011645439055226298 0 0.0051540647501089523 0.00067098446909652509 0 0.0060169436782848522 0.00070012229334341083 0 0.0014905411430547449 0.00016540280887727382 0 0.0041446654655352766 -0.00011304832288063762 0 -0.00046342577080448676 -0.00041427112138196727 0 -0.001228264089964091 -0.00094351338065931406 0 -0.00010918780178753569 -0.0009194360977415162 0 -0.001228264089964091 -0.00094351338065931406 0 0.00018258929890628545 -0.0016550477900696271 0 0.00017621759291238786 -0.0015080357179988004 0 -0.001228264089964091 -0.00094351338065931406 0 -0.00010918780178753569 -0.0009194360977415162 0 0.00017621759291238786 -0.0015080357179988004 0 -0.00046342577080448676 -0.00041427112138196727 0 -0.00010918780178753569 -0.0009194360977415162 0 0.00034462306249494196 -0.00062472314378925436 0 0.0075703739680771888 0.0028235422471070983 0 0.0075891970565991063 0.0023931167379893994 0 0.0070431155560739403 0.0028134126486146593 0 0.0078012000393920802 0.0024755665173092538 0 0.0075703739680771888 0.0028235422471070983 0 0.0075891970565991063 0.0023931167379893994 0 0.0078012000393920802 0.0024755665173092538 0 0.0075703739680771888 0.0028235422471070983 0 0.0080501006781068217 0.0025745318896169254 0 0.00093295113608906949 0.0010982247921593094 0 -0.0038436401690220522 0.0018579501355706894 0 -0.0031584394993051435 0.00085484231189279075 0 -0.0035926899349244578 0.00029309161710777671 0 -0.0030948339253211647 0.00029841238852596353 0 0.00093295113608906949 0.0010982247921593094 0 -0.0028844930984230871 0.00071187855437932249 0 -0.0035426162666231656 0.00029830704287461644 0 -0.0030948339253211647 0.00029841238852596353 0 -0.0025976995919763492 -0.00021421453577676852 0 -0.0025949790766341824 0.00054655181779508322 0 -0.0030948339253211647 0.00029841238852596353 0 -0.0027156419008624315 0.00026646806404224163 0 -0.0027156419008624315 0.00026646806404224163 0 -0.0025143800985571356 0.00022486975872497062 0 -0.0026306268286084619 -2.851734659728504e-05 0 -0.0030948339253211647 0.00029841238852596353 0 -0.0027156419008624315 0.00026646806404224163 0 -0.0026306268286084619 -2.851734659728504e-05 0 -0.002113788253481489 0.00011550252353809479 0 -0.0025143800985571356 0.00022486975872497062 0 -0.0026306268286084619 -2.851734659728504e-05 0 -0.0025949790766341824 0.00054655181779508322 0 -0.0027156419008624315 0.00026646806404224163 0 -0.0025143800985571356 0.00022486975872497062 0 -0.0025949790766341824 0.00054655181779508322 0 -0.002113788253481489 0.00011550252353809479 0 -0.0025143800985571356 0.00022486975872497062 0 -0.002113788253481489 0.00011550252353809479 0 -0.0025951326690684742 -0.00022878362280708223 0 -0.0026306268286084619 -2.851734659728504e-05 0 -0.0030948339253211647 0.00029841238852596353 0 -0.0025976995919763492 -0.00021421453577676852 0 -0.0026306268286084619 -2.851734659728504e-05 0 0.00093295113608906949 0.0010982247921593094 0 0.0024004833013528356 0.0009326873922897356 0 0.0024004833013528356 0.0009326873922897356 0 0.001967172824918558 0.00080024375101363763 0 0.0080501006781068217 0.0025745318896169254 0 0.0079705403700912891 0.0023084795088421277 0 0.0081196863792762624 0.0022298904141497575 0 0.0078012000393920802 0.0024755665173092538 0 0.0080501006781068217 0.0025745318896169254 0 0.0079705403700912891 0.0023084795088421277 0 0.0078224081321773675 0.0021244437133582216 0 0.0074536628035938926 0.0021954637428844939 0 0.0024004833013528356 0.0009326873922897356 0 0.0074536628035938926 0.0021954637428844939 0 0.0079705403700912891 0.0023084795088421277 0 0.0081571602522312776 0.0022225770331667219 0 0.0078922661191859096 0.0018625933176061645 0 0.0079705403700912891 0.0023084795088421277 0 0.0075891970565991063 0.0023931167379893994 0 0.0078922661191859096 0.0018625933176061645 0 0.0075891970565991063 0.0023931167379893994 0 0.0078922661191859096 0.0018625933176061645 0 0.0072508373955906891 0.0020763145013784337 0 0.0078012000393920802 0.0024755665173092538 0 0.0079705403700912891 0.0023084795088421277 0 0.0075891970565991063 0.0023931167379893994 0 0.0074567444866137826 0.0013363149047249236 0 0.0078922661191859096 0.0018625933176061645 0 0.0072508373955906891 0.0020763145013784337 0 0.0074567444866137826 0.0013363149047249236 0 0.0079773225150067961 0.001179722726779774 0 0.0078922661191859096 0.0018625933176061645 0 0.0090973923709068462 0.00164754748969983 0 0.0091122366461066986 0.0010723568000059192 0 0.0079773225150067961 0.001179722726779774 0 0.0082992929105835649 0.0016134247373898035 0 0.0084257858109744749 0.0010149452586625494 0 0.0074536628035938926 0.0021954637428844939 0 0.0090973923709068462 0.00164754748969983 0 0.0081571602522312776 0.0022225770331667219 0 0.0082992929105835649 0.0016134247373898035 0 0.0078922661191859096 0.0018625933176061645 0 0.0079773225150067961 0.001179722726779774 0 0.0082992929105835649 0.0016134247373898035 0 0.0078922661191859096 0.0018625933176061645 0 0.009615418245229471 0.002340125991094383 0 0.0097456643071081352 0.0017154029769751891 0 0.010255567664711931 0.0020194840092194995 0 0.0097456643071081352 0.0017154029769751891 0 0.010255567664711931 0.0020194840092194995 0 0.010275770473855686 0.0014703758622253104 0 0.010255567664711931 0.0020194840092194995 0 0.010275770473855686 0.0014703758622253104 0 0.010862848970166162 0.0016962553343859584 0 0.0051540647501089523 0.00067098446909652509 0 0.0060382672210425072 0.00023237817280661409 0 0.0060169436782848522 0.00070012229334341083 0 0.0076440316986009921 0.0013044926519514442 0 0.0084781064541205025 0.0011492941537031907 0 0.010563400657085185 0.0012233042473367246 0 0.010275770473855686 0.0014703758622253104 0 0.010862848970166162 0.0016962553343859584 0 0.010563400657085185 0.0012233042473367246 0 0.010858171261887912 0.0010034061288115945 0 0.010862848970166162 0.0016962553343859584 0 0.010563400657085185 0.0012233042473367246 0 0.010275770473855686 0.0014703758622253104 0 0.0102796474589281 0.0011128800012420955 0 0.0097456643071081352 0.0017154029769751891 0 0.010275770473855686 0.0014703758622253104 0 0.0098760036596641752 0.001121500310876768 0 0.010275770473855686 0.0014703758622253104 0 0.0098760036596641752 0.001121500310876768 0 0.0102796474589281 0.0011128800012420955 0 0.0098760036596641752 0.001121500310876768 0 0.010141661907950572 0.0008634236281387965 0 0.0099774207674070657 0.00048125258493317096 0 0.010141661907950572 0.0008634236281387965 0 0.010527462543037323 0.00087074981264380054 0 0.0099774207674070657 0.00048125258493317096 0 0.0091122366461066986 0.0010723568000059192 0 0.0098770366694198742 0.00052904545256301149 0 0.0102796474589281 0.0011128800012420955 0 0.010141661907950572 0.0008634236281387965 0 0.010527462543037323 0.00087074981264380054 0 0.0098760036596641752 0.001121500310876768 0 0.0102796474589281 0.0011128800012420955 0 0.010141661907950572 0.0008634236281387965 0 0.010527462543037323 0.00087074981264380054 0 0.010486675688364595 0.00071763077412403248 0 0.010858171261887912 0.0010034061288115945 0 0.012649976190349854 0.00026363427615281172 0 0.01371665640032927 0.001107697867570279 0 0.010563400657085185 0.0012233042473367246 0 0.010527462543037323 0.00087074981264380054 0 0.010858171261887912 0.0010034061288115945 0 0.010563400657085185 0.0012233042473367246 0 0.0102796474589281 0.0011128800012420955 0 0.010527462543037323 0.00087074981264380054 0 0.015069669898642109 3.745157679664827e-05 0 0.015163474767866983 -8.5608516728744182e-07 0 0.015145980097547404 0.00011435985610306957 0 0.015069669898642109 3.745157679664827e-05 0 0.015163474767866983 -8.5608516728744182e-07 0 0.015100333960639268 -6.5112438963948384e-05 0 0.010486675688364595 0.00071763077412403248 0 0.010467681421156763 0.00065147833946626493 0 0.010464409440533255 0.00060678737033682633 0 0.010527462543037323 0.00087074981264380054 0 0.010486675688364595 0.00071763077412403248 0 0.010435715271567446 0.00066682340214000162 0 0.010611008084928557 0.00089308720150289768 0 0.0098770366694198742 0.00052904545256301149 0 0.015069669898642109 3.745157679664827e-05 0 0.015007361815698212 -1.2878591492416388e-05 0 0.015048673008484371 -5.593991659824428e-05 0 0.012649976190349854 0.00026363427615281172 0 0.012641523131737421 0.00038099874035653591 0 0.010486675688364595 0.00071763077412403248 0 0.010435715271567446 0.00066682340214000162 0 0.010467681421156763 0.00065147833946626493 0 0.010459451350986486 0.00065549013330733436 0 0.010467681421156763 0.00065147833946626493 0 0.010464409440533255 0.00060678737033682633 0 0.0098770366694198742 0.00052904545256301149 0 0.0099799163950124812 0.00056514058677086746 0 0.0085339885743222887 0.00043725693395221549 0 0.0081723346450192184 0.00018185580815698187 0 0.0081416695705836539 0.00066725177764966189 0 0.010459451350986486 0.00065549013330733436 0 0.010495754215289409 0.00059410087207595807 0 0.010464409440533255 0.00060678737033682633 0 0.0098770366694198742 0.00052904545256301149 0 0.0090891994055175562 0.00012629822508884191 0 0.0081723346450192184 0.00018185580815698187 0 0.0076560556958981439 0.00061334280557211575 0 0.0081416695705836539 0.00066725177764966189 0 0.014067771285191931 0.00043744992494163876 0 0.014361647713250257 -0.0011392776801037842 0 0.013736410226416808 -0.00062534129053545113 0 0.010758685337009627 0.00048282866618703146 0 0.012141155189951168 -0.00028074296582583061 0 0.0081723346450192184 0.00018185580815698187 0 0.0076560556958981439 0.00061334280557211575 0 0.0078344824178443045 -7.0157672900097282e-05 0 0.0079773225150067961 0.001179722726779774 0 0.0076560556958981439 0.00061334280557211575 0 0.0081416695705836539 0.00066725177764966189 0 0.010510455105336141 0.001686398186618676 0 0.010758685337009627 0.00048282866618703146 0 0.0074567444866137826 0.0013363149047249236 0 0.0079773225150067961 0.001179722726779774 0 0.0076560556958981439 0.00061334280557211575 0 0.0084257858109744749 0.0010149452586625494 0 0.0085339885743222887 0.00043725693395221549 0 0.0081416695705836539 0.00066725177764966189 0 0.0079773225150067961 0.001179722726779774 0 0.0084257858109744749 0.0010149452586625494 0 0.0081416695705836539 0.00066725177764966189 0 0.01714851509787935 0.0015967137027422485 0 0.0169119523289336 0.0017651657177905544 0 0.016689056140578196 0.0016355977552161395 0 0.0169119523289336 0.0017651657177905544 0 0.017077973000559993 0.0018998505763177329 0 0.01670835878052045 0.0018891771269659411 0 0.01714851509787935 0.0015967137027422485 0 0.0169119523289336 0.0017651657177905544 0 0.017077973000559993 0.0018998505763177329 0 0.01714851509787935 0.0015967137027422485 0 0.017077973000559993 0.0018998505763177329 0 0.017469834796819093 0.0017439304886334008 0 0.017077973000559993 0.0018998505763177329 0 0.017469834796819093 0.0017439304886334008 0 0.017479529161680947 0.0020261047615147297 0 0.017469834796819093 0.0017439304886334008 0 0.017591178494535013 0.0015401765026740804 0 0.017959144799618649 0.0015805520046924353 0 0.017469834796819093 0.0017439304886334008 0 0.017479529161680947 0.0020261047615147297 0 0.017959144799618649 0.0015805520046924353 0 0.01714851509787935 0.0015967137027422485 0 0.017469834796819093 0.0017439304886334008 0 0.017591178494535013 0.0015401765026740804 0 0.017458704034939928 0.001348526909817968 0 0.017264316195563695 0.0010861472800835358 0 0.017899456455529875 0.0012177942541614821 0 0.01714851509787935 0.0015967137027422485 0 0.017591178494535013 0.0015401765026740804 0 0.017458704034939928 0.001348526909817968 0 0.017591178494535013 0.0015401765026740804 0 0.017458704034939928 0.001348526909817968 0 0.017821188880719506 0.001400820348404948 0 0.017458704034939928 0.001348526909817968 0 0.017821188880719506 0.001400820348404948 0 0.017899456455529875 0.0012177942541614821 0 0.01714851509787935 0.0015967137027422485 0 0.017012841411303149 0.001308986119261227 0 0.016689056140578196 0.0016355977552161395 0 0.017458704034939928 0.001348526909817968 0 0.017012841411303149 0.001308986119261227 0 0.017264316195563695 0.0010861472800835358 0 0.01714851509787935 0.0015967137027422485 0 0.017458704034939928 0.001348526909817968 0 0.017012841411303149 0.001308986119261227 0 0.017012841411303149 0.001308986119261227 0 0.016661153661664135 0.0012297784958360575 0 0.016886765971542487 0.00096738650760491154 0 0.016661153661664135 0.0012297784958360575 0 0.016165525939023172 0.001211648215422945 0 0.016689056140578196 0.0016355977552161395 0 0.017012841411303149 0.001308986119261227 0 0.016661153661664135 0.0012297784958360575 0 0.016689056140578196 0.0016355977552161395 0 0.016661153661664135 0.0012297784958360575 0 0.016165525939023172 0.001211648215422945 0 0.016539962145874641 0.00094552651690868472 0 0.015826290468269871 0.0005831686590331358 0 0.01371665640032927 0.001107697867570279 0 0.016165525939023172 0.001211648215422945 0 0.016146450200828853 0.0018020621017899828 0 0.016689056140578196 0.0016355977552161395 0 0.016146450200828853 0.0018020621017899828 0 0.016689056140578196 0.0016355977552161395 0 0.01670835878052045 0.0018891771269659411 0 0.0169119523289336 0.0017651657177905544 0 0.016689056140578196 0.0016355977552161395 0 0.01670835878052045 0.0018891771269659411 0 0.016146450200828853 0.0018020621017899828 0 0.01670835878052045 0.0018891771269659411 0 0.01662519794359861 0.0021429796314647669 0 0.017077973000559993 0.0018998505763177329 0 0.016159397300913599 0.0022650518456037898 0 0.016549272792984258 0.0025435857724751057 0 0.017915050861434384 0.0017025737538827921 0 0.013509166527583058 0.0017186677419316792 0 0.017077973000559993 0.0018998505763177329 0 0.01670835878052045 0.0018891771269659411 0 0.01662519794359861 0.0021429796314647669 0 0.0086555147683427935 -0.00067133303094046414 0 0.0094431817185725193 -8.0228770203296857e-05 0 0.0081182804070838253 0.00060037755064701174 0 0.013509166527583058 0.0017186677419316792 0 0.0077415734276248035 -0.00095708124295141943 0 0.011683034560464531 0.00086071258699432958 0 0.012465300856995621 0.0014483284557828731 0 0.011641294885824736 0.0018523399825664229 0 0.01371665640032927 0.001107697867570279 0 0.013509166527583058 0.0017186677419316792 0 0.013509166527583058 0.0017186677419316792 0 0.0084781064541205025 0.0011492941537031907 0 0.01371665640032927 0.001107697867570279 0 0.0084781064541205025 0.0011492941537031907 0 0.0086555147683427935 -0.00067133303094046414 0 0.0068225326764005476 0.00024123281004649765 0 0.0081182804070838253 0.00060037755064701174 0 0.0068225326764005476 0.00024123281004649765 0 0.0067875377362441218 0.0012750079725672903 0 0.0081182804070838253 0.00060037755064701174 0 0.0041446654655352766 -0.00011304832288063762 0 0.0043666039927392295 -0.0005580881302350674 0 0.00080589366442936679 -0.0015675843075621451 0 0.00018258665969905321 -0.0016553353789924086 0 0.001113679452431219 -0.0021238134950737051 0 0.0084781064541205025 0.0011492941537031907 0 0.0041446654655352766 -0.00011304832288063762 0 0.00080589366442936679 -0.0015675843075621451 0 0.00018258665969905321 -0.0016553353789924086 0 0.00017621759291238786 -0.0015080357179988004 0 0.0041446654655352766 -0.00011304832288063762 0 0.0039603830870458484 -0.00035272752341423291 0 0.0020652677061014351 -0.0026019111588556011 0 0.001113679452431219 -0.0021238134950737051 0 0.0017435692506394677 -0.0016391912684128726 0 0.0077415734276248035 -0.00095708124295141943 0 0.0043666039927392295 -0.0005580881302350674 0 0.00080589366442936679 -0.0015675843075621451 0 0.001113679452431219 -0.0021238134950737051 0 0.0017435692506394677 -0.0016391912684128726 0 0.0020652677061014351 -0.0026019111588556011 0 0.0017435692506394677 -0.0016391912684128726 0 0.0031154733952238377 -0.0017867991664842812 0 0.0077415734276248035 -0.00095708124295141943 0 0.001396323279334198 -0.0029223442437221578 0 0.0022812096975916834 -0.0024694372587975712 0 0.0031154733952238377 -0.0017867991664842812 0 0.0036277608339080757 -0.0031917524692939006 0 0.0077415734276248035 -0.00095708124295141943 0 0.010864997921553919 -0.00054102649585779537 0 0.017077973000559993 0.0018998505763177329 0 0.016549272792984258 0.0025435857724751057 0 0.017479529161680947 0.0020261047615147297 0 0.0031154733952238377 -0.0017867991664842812 0 0.0036277608339080757 -0.0031917524692939006 0 0.0044305444156371131 -0.0025965723053664853 0 0.0031154733952238377 -0.0017867991664842812 0 0.0044305444156371131 -0.0025965723053664853 0 0.0042773456620603641 -0.0016730774830261122 0 0.0031154733952238377 -0.0017867991664842812 0 0.0034981904620102352 -0.00069367434608470216 0 0.0042773456620603641 -0.0016730774830261122 0 0.0034981904620102352 -0.00069367434608470216 0 0.0043712874042432046 -0.0008121371272628398 0 0.0042773456620603641 -0.0016730774830261122 0 0.0034981904620102352 -0.00069367434608470216 0 0.0039406772710740747 0.00010692766969090345 0 0.0043712874042432046 -0.0008121371272628398 0 0.0034981904620102352 -0.00069367434608470216 0 0.0023193596616941587 -0.00094606295490961634 0 0.0026451469395799747 -0.0001622162005255444 0 0.0031154733952238377 -0.0017867991664842812 0 0.0034981904620102352 -0.00069367434608470216 0 0.0023193596616941587 -0.00094606295490961634 0 0.0017435692506394677 -0.0016391912684128726 0 0.0031154733952238377 -0.0017867991664842812 0 0.0023193596616941587 -0.00094606295490961634 0 0.0023193596616941587 -0.00094606295490961634 0 0.0026451469395799747 -0.0001622162005255444 0 0.0018072959361246504 -0.00013089133247931077 0 0.0026451469395799747 -0.0001622162005255444 0 0.0018072959361246504 -0.00013089133247931077 0 0.0023500881381623893 0.0005965819862334764 0 0.0026451469395799747 -0.0001622162005255444 0 0.0032012938135025028 0.00051103052304879925 0 0.0023500881381623893 0.0005965819862334764 0 0.0034981904620102352 -0.00069367434608470216 0 0.0026451469395799747 -0.0001622162005255444 0 0.0032012938135025028 0.00051103052304879925 0 0.0034981904620102352 -0.00069367434608470216 0 0.0032012938135025028 0.00051103052304879925 0 0.0039406772710740747 0.00010692766969090345 0 0.0032012938135025028 0.00051103052304879925 0 0.0039406772710740747 0.00010692766969090345 0 0.0039949917947510833 0.00087106497092532577 0 -0.00010918780178753569 -0.0009194360977415162 0 0.00034462306249494196 -0.00062472314378925436 0 0.00052133520086811169 -0.0011240426138242731 0 0.00080589366442936679 -0.0015675843075621451 0 0.00017621759291238786 -0.0015080357179988004 0 0.00052133520086811169 -0.0011240426138242731 0 -0.00010918780178753569 -0.0009194360977415162 0 0.00017621759291238786 -0.0015080357179988004 0 0.00052133520086811169 -0.0011240426138242731 0 0.00080589366442936679 -0.0015675843075621451 0 0.00052133520086811169 -0.0011240426138242731 0 0.001202835429810056 -0.00091708761054942669 0 0.00034462306249494196 -0.00062472314378925436 0 0.00052133520086811169 -0.0011240426138242731 0 0.001202835429810056 -0.00091708761054942669 0 0.0017435692506394677 -0.0016391912684128726 0 0.0023193596616941587 -0.00094606295490961634 0 0.001202835429810056 -0.00091708761054942669 0 0.0023193596616941587 -0.00094606295490961634 0 0.001202835429810056 -0.00091708761054942669 0 0.0018072959361246504 -0.00013089133247931077 0 0.00080589366442936679 -0.0015675843075621451 0 0.0017435692506394677 -0.0016391912684128726 0 0.001202835429810056 -0.00091708761054942669 0 0.001202835429810056 -0.00091708761054942669 0 0.0018072959361246504 -0.00013089133247931077 0 0.00083806873894434622 0.00013737192967743479 0 0.0018072959361246504 -0.00013089133247931077 0 0.00083806873894434622 0.00013737192967743479 0 0.0015442712184284644 0.0010232701668061283 0 0.0018072959361246504 -0.00013089133247931077 0 0.0015442712184284644 0.0010232701668061283 0 0.0023500881381623893 0.0005965819862334764 0 0.00034462306249494196 -0.00062472314378925436 0 0.001202835429810056 -0.00091708761054942669 0 0.00083806873894434622 0.00013737192967743479 0 -0.00017811442881866636 0.00020625384509357901 0 0.00083806873894434622 0.00013737192967743479 0 0.00033819017410870389 0.0012531523776852349 0 -0.00017811442881866636 0.00020625384509357901 0 0.00034462306249494196 -0.00062472314378925436 0 0.00083806873894434622 0.00013737192967743479 0 0.00083806873894434622 0.00013737192967743479 0 0.00033819017410870389 0.0012531523776852349 0 0.0015442712184284644 0.0010232701668061283 0 0.0013727010505486992 0.0025861451763984087 0 0.0015442712184284644 0.0010232701668061283 0 0.0027590121406646227 0.0016287248383278553 0 0.0013727010505486992 0.0025861451763984087 0 0.00033819017410870389 0.0012531523776852349 0 0.0015442712184284644 0.0010232701668061283 0 -0.0065679365019329508 0.0024081093743700817 0 -0.0073590879125468179 0.002257385606194596 0 0.0013727010505486992 0.0025861451763984087 0 -0.00014700831619751708 0.0023407039105764601 0 0.00033819017410870389 0.0012531523776852349 0 0.0032012938135025028 0.00051103052304879925 0 0.0034635565603205747 0.0012363104124681308 0 0.0027590121406646227 0.0016287248383278553 0 0.0034635565603205747 0.0012363104124681308 0 0.0039949917947510833 0.00087106497092532577 0 0.0039229406194861696 0.0018076070849348885 0 0.0032012938135025028 0.00051103052304879925 0 0.0034635565603205747 0.0012363104124681308 0 0.0039949917947510833 0.00087106497092532577 0 0.0015442712184284644 0.0010232701668061283 0 0.0023500881381623893 0.0005965819862334764 0 0.0027590121406646227 0.0016287248383278553 0 0.0032012938135025028 0.00051103052304879925 0 0.0023500881381623893 0.0005965819862334764 0 0.0027590121406646227 0.0016287248383278553 0 0.0028909374948432429 0.0028165864698170219 0 0.0013727010505486992 0.0025861451763984087 0 0.0027590121406646227 0.0016287248383278553 0 0.0034635565603205747 0.0012363104124681308 0 0.0027590121406646227 0.0016287248383278553 0 0.0039229406194861696 0.0018076070849348885 0 -0.0035634759451086506 0.0013689491538498081 0 0.0053215622449228452 0.0014354635142403043 0 0.0028909374948432429 0.0028165864698170219 0 0.0027590121406646227 0.0016287248383278553 0 0.0039229406194861696 0.0018076070849348885 0 0.0036755745427708292 0.0029727744760500788 0 0.0039229406194861696 0.0018076070849348885 0 0.0047245219761118951 0.0014854330451184324 0 0.0043901070302631191 0.001384303231405424 0 0.0049398518421420691 0.0011612606240903917 0 0.0049344579465349552 0.00074730444784331794 0 -0.00049398158032523665 -0.00068025336995372664 0 0.0053669565127229708 0.0014263160076608418 0 0.0049398518421420691 0.0011612606240903917 0 0.0049344579465349552 0.00074730444784331794 0 0.0052748305237488753 0.0010502997445333707 0 0.0039949917947510833 0.00087106497092532577 0 0.0039229406194861696 0.0018076070849348885 0 0.0047245219761118951 0.0014854330451184324 0 0.0039949917947510833 0.00087106497092532577 0 0.0047245219761118951 0.0014854330451184324 0 0.0046938268121754882 -3.2903423856519536e-06 0 0.0047245219761118951 0.0014854330451184324 0 0.0046938268121754882 -3.2903423856519536e-06 0 0.0054420367944470688 0.00017800112002938447 0 0.0053669565127229708 0.0014263160076608418 0 0.0052752883846444738 0.00018039814969830225 0 0.0049344579465349552 0.00074730444784331794 0 0.0056164716512611332 0.00074440919970692181 0 0.0054420367944470688 0.00017800112002938447 0 0.0049344579465349552 0.00074730444784331794 0 0.0052748305237488753 0.0010502997445333707 0 0.0056164716512611332 0.00074440919970692181 0 0.0052748305237488753 0.0010502997445333707 0 0.0057213104023975782 0.0011784693324506791 0 0.0056164716512611332 0.00074440919970692181 0 0.0057213104023975782 0.0011784693324506791 0 0.0063641968917026804 0.0010581791147047908 0 0.0056164716512611332 0.00074440919970692181 0 0.010218933856697161 0.0017288394506597819 0 0.0097728050195722352 0.0011300059387499494 0 0.0063641968917026804 0.0010581791147047908 0 0.0061901350724019935 0.00041254989196553953 0 0.0056164716512611332 0.00074440919970692181 0 0.013517623415837404 0.0016717405510468999 0 0.013397980037864502 0.0020392432404513776 0 0.013172398522425958 0.0021389685158733685 0 0.0061901350724019935 0.00041254989196553953 0 0.0056164716512611332 0.00074440919970692181 0 0.0054420367944470688 0.00017800112002938447 0 0.006036627907102847 -0.00031727803250339808 0 0.0054159615285177256 -0.00037561355790769352 0 0.0054420367944470688 0.00017800112002938447 0 0.0061901350724019935 0.00041254989196553953 0 0.006036627907102847 -0.00031727803250339808 0 0.0054420367944470688 0.00017800112002938447 0 0.0097728050195722352 0.0011300059387499494 0 0.0097355798613789572 0.00067983053247409593 0 0.013397980037864502 0.0020392432404513776 0 0.013477530505839726 0.0017271804795854662 0 0.01355909089319713 0.0018549747620629586 0 0.013477530505839726 0.0017271804795854662 0 0.01355909089319713 0.0018549747620629586 0 0.013716756153515973 0.0015303264534530659 0 0.006036627907102847 -0.00031727803250339808 0 0.0056012914401150854 -0.00071235227981563689 0 0.0058135304914728398 -0.0011346084994003098 0 0.0097355798613789572 0.00067983053247409593 0 0.0098755610918870515 0.00036588863277958695 0 0.006036627907102847 -0.00031727803250339808 0 0.0054159615285177256 -0.00037561355790769352 0 0.0056012914401150854 -0.00071235227981563689 0 0.0054159615285177256 -0.00037561355790769352 0 0.0046938268121754882 -3.2903423856519536e-06 0 0.0052111749938750004 -0.00097470180373305561 0 0.0054159615285177256 -0.00037561355790769352 0 0.0056012914401150854 -0.00071235227981563689 0 0.0052111749938750004 -0.00097470180373305561 0 0.0043712874042432046 -0.0008121371272628398 0 0.0046938268121754882 -3.2903423856519536e-06 0 0.0054746298073384877 -0.0018234973919199712 0 0.0043712874042432046 -0.0008121371272628398 0 0.0042773456620603641 -0.0016730774830261122 0 0.0054746298073384877 -0.0018234973919199712 0 0.0048143738167725327 4.0621932358857982e-05 0 0.0050372844897580019 -0.0016541139306132286 0 0.0039406772710740747 0.00010692766969090345 0 0.0043712874042432046 -0.0008121371272628398 0 0.0046938268121754882 -3.2903423856519536e-06 0 0.0039406772710740747 0.00010692766969090345 0 0.0039949917947510833 0.00087106497092532577 0 0.0046938268121754882 -3.2903423856519536e-06 0 0.0054159615285177256 -0.00037561355790769352 0 0.0046938268121754882 -3.2903423856519536e-06 0 0.0054420367944470688 0.00017800112002938447 0 0.0079275017046825762 0.0039236066618723118 0 0.0095684144586777077 0.0024129226316709908 0 0.0076120317921904426 0.0023158800966220205 0 0.0079275017046825762 0.0039236066618723118 0 0.0095684144586777077 0.0024129226316709908 0 0.010599835740444234 0.0040049191999193025 0 0.0084947317613813991 0.0010785577994793895 0 0.0095684144586777077 0.0024129226316709908 0 0.0076120317921904426 0.0023158800966220205 0 0.010711491112792489 0.00097114773757636316 0 0.0095684144586777077 0.0024129226316709908 0 0.012645709142596707 0.0022443817072868035 0 0.010711491112792489 0.00097114773757636316 0 0.0084947317613813991 0.0010785577994793895 0 0.0095684144586777077 0.0024129226316709908 0 0.0095684144586777077 0.0024129226316709908 0 0.010599835740444234 0.0040049191999193025 0 0.012645709142596707 0.0022443817072868035 0 0.012192568064309113 0.0029876718629713995 0 0.01266253329378229 0.0023387167340708278 0 0.013713854027997189 0.0021530364538322887 0 0.012645709142596707 0.0022443817072868035 0 0.013172398522425958 0.0021389685158733685 0 0.012418794596159308 0.0009505361356556539 0 0.010711491112792489 0.00097114773757636316 0 0.012645709142596707 0.0022443817072868035 0 0.013517623415837404 0.0016717405510468999 0 0.012645709142596707 0.0022443817072868035 0 0.013172398522425958 0.0021389685158733685 0 0.012418794596159308 0.0009505361356556539 0 0.013517623415837404 0.0016717405510468999 0 0.012645709142596707 0.0022443817072868035 0 0.013397980037864502 0.0020392432404513776 0 0.013172398522425958 0.0021389685158733685 0 0.01355909089319713 0.0018549747620629586 0 0.01355909089319713 0.0018549747620629586 0 0.014046089872662955 0.001345805342219385 0 0.013716756153515973 0.0015303264534530659 0 0.01355909089319713 0.0018549747620629586 0 0.014010757677513381 0.0015905095402782112 0 0.014046089872662955 0.001345805342219385 0 0.01355909089319713 0.0018549747620629586 0 0.014010757677513381 0.0015905095402782112 0 0.013745622828917021 0.0018909756600092691 0 0.013713854027997189 0.0021530364538322887 0 0.013172398522425958 0.0021389685158733685 0 0.013745622828917021 0.0018909756600092691 0 0.013172398522425958 0.0021389685158733685 0 0.01355909089319713 0.0018549747620629586 0 0.013745622828917021 0.0018909756600092691 0 0.012192568064309113 0.0029876718629713995 0 0.011574440513190993 0.0037533124462657877 0 0.014010757677513381 0.0015905095402782112 0 0.013745622828917021 0.0018909756600092691 0 0.014314053903228107 0.0018822744450596313 0 0.013713854027997189 0.0021530364538322887 0 0.013745622828917021 0.0018909756600092691 0 0.014314053903228107 0.0018822744450596313 0 0.014010757677513381 0.0015905095402782112 0 0.014381291457928606 0.0014846796326161323 0 0.014314053903228107 0.0018822744450596313 0 0.011574440513190993 0.0037533124462657877 0 0.010597098253467673 0.0024111439875439586 0 0.014381291457928606 0.0014846796326161323 0 0.014314053903228107 0.0018822744450596313 0 0.014663410170135362 0.001618220036882709 0 0.0089435148856108274 0.005288021203064229 0 0.0076592716960881711 0.0051829790472571469 0 0.0074007494150354356 0.0065686995978723088 0 0.0079275017046825762 0.0039236066618723118 0 0.010599835740444234 0.0040049191999193025 0 0.0089435148856108274 0.005288021203064229 0 0.0079275017046825762 0.0039236066618723118 0 0.0089435148856108274 0.005288021203064229 0 0.0076592716960881711 0.0051829790472571469 0 0.014595171013571594 0.0011633886413654278 0 0.014450461353418527 0.0011850936926784124 0 0.014569163333210421 0.00082451599191086383 0 0.014595171013571594 0.0011633886413654278 0 0.014573933868412794 0.0013310087700214043 0 0.014450461353418527 0.0011850936926784124 0 0.014381291457928606 0.0014846796326161323 0 0.014573933868412794 0.0013310087700214043 0 0.014450461353418527 0.0011850936926784124 0 0.014381291457928606 0.0014846796326161323 0 0.014573933868412794 0.0013310087700214043 0 0.014663410170135362 0.001618220036882709 0 0.014010757677513381 0.0015905095402782112 0 0.014381291457928606 0.0014846796326161323 0 0.014245647127182955 0.0013406555779696175 0 0.014381291457928606 0.0014846796326161323 0 0.014245647127182955 0.0013406555779696175 0 0.014450461353418527 0.0011850936926784124 0 0.014245647127182955 0.0013406555779696175 0 0.014450461353418527 0.0011850936926784124 0 0.014383346561041184 0.0010410032478749404 0 0.014450461353418527 0.0011850936926784124 0 0.014383346561041184 0.0010410032478749404 0 0.014569163333210421 0.00082451599191086383 0 0.014383346561041184 0.0010410032478749404 0 0.014046089872662955 0.001345805342219385 0 0.014319303980109287 0.00096813561538729479 0 0.014010757677513381 0.0015905095402782112 0 0.014245647127182955 0.0013406555779696175 0 0.014046089872662955 0.001345805342219385 0 0.014245647127182955 0.0013406555779696175 0 0.014383346561041184 0.0010410032478749404 0 0.014046089872662955 0.001345805342219385 0 0.014046089872662955 0.001345805342219385 0 0.013716756153515973 0.0015303264534530659 0 0.013910490316841866 0.0012469801715554926 0 0.014046089872662955 0.001345805342219385 0 0.014319303980109287 0.00096813561538729479 0 0.013910490316841866 0.0012469801715554926 0 0.014319303980109287 0.00096813561538729479 0 0.014609386172377153 0.00069458906630336863 0 0.014622971744609345 0.00070317852662425792 0 0.014609386172377153 0.00069458906630336863 0 0.014651108474122853 0.00067011243386583404 0 0.015347414595045999 0.00038501301874733899 0 0.014609386172377153 0.00069458906630336863 0 0.014622971744609345 0.00070317852662425792 0 0.015347414595045999 0.00038501301874733899 0 0.014609386172377153 0.00069458906630336863 0 0.014569163333210421 0.00082451599191086383 0 0.014651108474122853 0.00067011243386583404 0 0.014383346561041184 0.0010410032478749404 0 0.014609386172377153 0.00069458906630336863 0 0.014569163333210421 0.00082451599191086383 0 0.014383346561041184 0.0010410032478749404 0 0.014319303980109287 0.00096813561538729479 0 0.014609386172377153 0.00069458906630336863 0 0.019552331648250865 0.0034480559234216735 0 0.01955113455421496 0.0033923912848586417 0 0.019354411455335788 0.0034828836642888427 0 0.016919611141956146 0.0020415519979295844 0 0.017020565526653122 0.0021028727797072736 0 0.019552331648250865 0.0034480559234216735 0 0.019623618657070654 0.0033921761316349362 0 0.019594149048990029 0.00341555391572145 0 0.019552331648250865 0.0034480559234216735 0 0.019623618657070654 0.0033921761316349362 0 0.01955113455421496 0.0033923912848586417 0 0.017781722211760938 0.0025231743003592544 0 0.016919611141956146 0.0020415519979295844 0 0.019588806272887366 0.0033543370305552508 0 0.019552331648250865 0.0034480559234216735 0 0.019594149048990029 0.00341555391572145 0 0.0052111749938750004 -0.00097470180373305561 0 0.0058135304914728398 -0.0011346084994003098 0 0.0056005177687808516 -0.0018963296025503015 0 0.0053839590671653408 -0.0028896604325805118 0 0.0054746298073384877 -0.0018234973919199712 0 0.0062512621579911562 -0.0036281708476016911 0 0.0050372844897580019 -0.0016541139306132286 0 0.0080445670807455499 -0.0013532187192755788 0 0.0053839590671653408 -0.0028896604325805118 0 0.0057509161245217133 -0.0035267153159743432 0 0.0062512621579911562 -0.0036281708476016911 0 0.0053839590671653408 -0.0028896604325805118 0 0.0044305444156371131 -0.0025965723053664853 0 0.0051220027236200836 -0.0039440002761414296 0 0.0053839590671653408 -0.0028896604325805118 0 0.0044305444156371131 -0.0025965723053664853 0 0.0054746298073384877 -0.0018234973919199712 0 0.0036277608339080757 -0.0031917524692939006 0 0.0044305444156371131 -0.0025965723053664853 0 0.0051220027236200836 -0.0039440002761414296 0 0.0044305444156371131 -0.0025965723053664853 0 0.0042773456620603641 -0.0016730774830261122 0 0.0054746298073384877 -0.0018234973919199712 0 0.0056012914401150854 -0.00071235227981563689 0 0.0052111749938750004 -0.00097470180373305561 0 0.0058135304914728398 -0.0011346084994003098 0 0.013477530505839726 0.0017271804795854662 0 0.013561315317602246 0.0013974578442510631 0 0.013716756153515973 0.0015303264534530659 0 0.013561315317602246 0.0013974578442510631 0 0.013716756153515973 0.0015303264534530659 0 0.013910490316841866 0.0012469801715554926 0 0.013910490316841866 0.0012469801715554926 0 0.013773396106713541 0.0011513934368510054 0 0.014062605930302372 0.00092555007827987501 0 0.014319303980109287 0.00096813561538729479 0 0.013910490316841866 0.0012469801715554926 0 0.014062605930302372 0.00092555007827987501 0 0.0098755610918870515 0.00036588863277958695 0 0.0080445670807455499 -0.0013532187192755788 0 0.013561315317602246 0.0013974578442510631 0 0.013910490316841866 0.0012469801715554926 0 0.013773396106713541 0.0011513934368510054 0 0.013561315317602246 0.0013974578442510631 0 0.013773396106713541 0.0011513934368510054 0 0.013505518770219929 0.00098089807447326633 0 0.014062605930302372 0.00092555007827987501 0 0.013697745025022471 0.0006069137026242235 0 0.013505518770219929 0.00098089807447326633 0 0.013773396106713541 0.0011513934368510054 0 0.014062605930302372 0.00092555007827987501 0 0.013505518770219929 0.00098089807447326633 0 0.013602435739308555 -0.0012358003441449012 0 0.0080445670807455499 -0.0013532187192755788 0 0.014319303980109287 0.00096813561538729479 0 0.014062605930302372 0.00092555007827987501 0 0.014622971744609345 0.00070317852662425792 0 0.014622971744609345 0.00070317852662425792 0 0.014227227317028931 0.00043146416407451645 0 0.015347414595045999 0.00038501301874733899 0 0.014062605930302372 0.00092555007827987501 0 0.014622971744609345 0.00070317852662425792 0 0.014227227317028931 0.00043146416407451645 0 0.015813421791756575 -0.00013053549743727712 0 0.015240525283288517 0.00033857295332435022 0 0.014062605930302372 0.00092555007827987501 0 0.014227227317028931 0.00043146416407451645 0 0.013697745025022471 0.0006069137026242235 0 0.018021524096607705 0.0013244782175127442 0 0.018008362372832709 0.001293123544451522 0 0.017883668571930918 0.0012442753928846924 0 0.013602435739308555 -0.0012358003441449012 0 0.017780487013781841 0.00073777428343830404 0 0.016947798470706883 -0.00048951843605589916 0 0.018155773296370161 -0.0011087071516259902 0 0.017742700017049223 0.0002331115433611232 0 0.015813421791756575 -0.00013053549743727712 0 0.013602435739308555 -0.0012358003441449012 0 0.018021524096607705 0.0013244782175127442 0 0.017959144799618649 0.0015805520046924353 0 0.017994001411985171 0.0013318349288818226 0 0.018021524096607705 0.0013244782175127442 0 0.017994001411985171 0.0013318349288818226 0 0.018008362372832709 0.001293123544451522 0 0.0053839590671653408 -0.0028896604325805118 0 0.0057509161245217133 -0.0035267153159743432 0 0.0051220027236200836 -0.0039440002761414296 0 0.0057509161245217133 -0.0035267153159743432 0 0.0062512621579911562 -0.0036281708476016911 0 0.0051220027236200836 -0.0039440002761414296 0 0.013602435739308555 -0.0012358003441449012 0 0.011252959381546405 -0.0011669431853368007 0 0.0066921782894455049 -0.0046854082833386905 0 0.0062512621579911562 -0.0036281708476016911 0 0.0051220027236200836 -0.0039440002761414296 0 0.010864997921553919 -0.00054102649585779537 0 0.011252959381546405 -0.0011669431853368007 0 0.017591178494535013 0.0015401765026740804 0 0.017959144799618649 0.0015805520046924353 0 0.017821188880719506 0.001400820348404948 0 0.017821188880719506 0.001400820348404948 0 0.017994001411985171 0.0013318349288818226 0 0.017899456455529875 0.0012177942541614821 0 0.017959144799618649 0.0015805520046924353 0 0.017821188880719506 0.001400820348404948 0 0.017994001411985171 0.0013318349288818226 0 0.018023972184140175 0.001326367019835907 0 0.017899456455529875 0.0012177942541614821 0 0.01808846277338377 0.0013884664798937798 0 0.017994001411985171 0.0013318349288818226 0 0.018023972184140175 0.001326367019835907 0 0.017899456455529875 0.0012177942541614821 0 0.017994001411985171 0.0013318349288818226 0 0.018023972184140175 0.001326367019835907 0 0.018046044749061439 0.0013298740815214812 0 0.018023972184140175 0.001326367019835907 0 0.018111761913893631 0.0014151856462678693 0 0.018046044749061439 0.0013298740815214812 0 0.018023972184140175 0.001326367019835907 0 0.018097855062874632 0.0014498199817172327 0 0.01808846277338377 0.0013884664798937798 0 0.018097855062874632 0.0014498199817172327 0 0.018274152447477533 0.0016375694678776402 0 0.018097535062820747 0.001486866478118683 0 0.018023972184140175 0.001326367019835907 0 0.018097855062874632 0.0014498199817172327 0 0.018111761913893631 0.0014151856462678693 0 0.018097855062874632 0.0014498199817172327 0 0.018097535062820747 0.001486866478118683 0 0.01808846277338377 0.0013884664798937798 0 0.018097855062874632 0.0014498199817172327 0 0.018274152447477533 0.0016375694678776402 0 0.018111761913893631 0.0014151856462678693 0 0.018274152447477533 0.0016375694678776402 0 0.018111761913893631 0.0014151856462678693 0 0.018027921022730702 0.0013444310653961497 0 0.018111761913893631 0.0014151856462678693 0 0.018027921022730702 0.0013444310653961497 0 0.018046044749061439 0.0013298740815214812 0 0.017994001411985171 0.0013318349288818226 0 0.018046044749061439 0.0013298740815214812 0 0.018008362372832709 0.001293123544451522 0 0.018027921022730702 0.0013444310653961497 0 0.018046044749061439 0.0013298740815214812 0 0.018008362372832709 0.001293123544451522 0 0.018027921022730702 0.0013444310653961497 0 0.018008362372832709 0.001293123544451522 0 0.017883668571930918 0.0012442753928846924 0 0.017742700017049223 0.0002331115433611232 0 0.016602587705549843 0.00079288216073864935 0 0.017505262198317564 0.0014146711947945125 0 0.017780487013781841 0.00073777428343830404 0 0.017541290666761342 0.0013819074762381148 0 0.018027921022730702 0.0013444310653961497 0 0.017883668571930918 0.0012442753928846924 0 0.017505262198317564 0.0014146711947945125 0 0.016602587705549843 0.00079288216073864935 0 0.015347414595045999 0.00038501301874733899 0 0.015825015757620919 0.0018038812083983628 0 0.016947798470706883 -0.00048951843605589916 0 0.016602587705549843 0.00079288216073864935 0 0.015347414595045999 0.00038501301874733899 0 0.016947798470706883 -0.00048951843605589916 0 0.017742700017049223 0.0002331115433611232 0 0.016602587705549843 0.00079288216073864935 0 0.017505262198317564 0.0014146711947945125 0 0.017949327689674902 0.0020787514120867135 0 0.015825015757620919 0.0018038812083983628 0 0.016602587705549843 0.00079288216073864935 0 0.017505262198317564 0.0014146711947945125 0 0.015825015757620919 0.0018038812083983628 0 0.018274152447477533 0.0016375694678776402 0 0.018027921022730702 0.0013444310653961497 0 0.017505262198317564 0.0014146711947945125 0 0.018274152447477533 0.0016375694678776402 0 0.017505262198317564 0.0014146711947945125 0 0.017949327689674902 0.0020787514120867135 0 0.017949327689674902 0.0020787514120867135 0 0.018026648516035273 0.0026628947457494941 0 0.018573644861578496 0.0022802667760729377 0 0.018274152447477533 0.0016375694678776402 0 0.017949327689674902 0.0020787514120867135 0 0.018573644861578496 0.0022802667760729377 0 0.017949327689674902 0.0020787514120867135 0 0.018026648516035273 0.0026628947457494941 0 0.015825015757620919 0.0018038812083983628 0 0.017896073087268746 0.0026441463756274744 0 0.017336315028554965 0.0024903635669552208 0 0.018026648516035273 0.0026628947457494941 0 0.018573644861578496 0.0022802667760729377 0 0.018720237985651846 0.0026119894141404558 0 0.019053701454536259 0.0024593144383541995 0 0.018573644861578496 0.0022802667760729377 0 0.018720237985651846 0.0026119894141404558 0 0.019371730345601051 0.0025684293826075395 0 0.019053701454536259 0.0024593144383541995 0 0.019287738852167394 0.0021566316760285209 0 0.019053701454536259 0.0024593144383541995 0 0.019287738852167394 0.0021566316760285209 0 0.018573644861578496 0.0022802667760729377 0 0.018274152447477533 0.0016375694678776402 0 0.018106661667737351 0.0015033801319417612 0 0.018097535062820747 0.001486866478118683 0 0.018106661667737351 0.0015033801319417612 0 0.018097535062820747 0.001486866478118683 0 0.018156910185577028 0.0015607574847439352 0 0.018274152447477533 0.0016375694678776402 0 0.019287738852167394 0.0021566316760285209 0 0.018573644861578496 0.0022802667760729377 0 0.01831246961519585 0.0016433887432703406 0 0.018691998043753044 0.0018348208801348049 0 0.019679237554207214 0.0032854107643177882 0 0.019501028354454709 0.0032668966501850781 0 0.019767392127018522 0.0031044073699852642 0 0.019679237554207214 0.0032854107643177882 0 0.019767392127018522 0.0031044073699852642 0 0.019772674018468002 0.0031913293417069398 0 0.019623618657070654 0.0033921761316349362 0 0.019679237554207214 0.0032854107643177882 0 0.01955113455421496 0.0033923912848586417 0 0.01955113455421496 0.0033923912848586417 0 0.019501028354454709 0.0032668966501850781 0 0.019354411455335788 0.0034828836642888427 0 0.019679237554207214 0.0032854107643177882 0 0.01955113455421496 0.0033923912848586417 0 0.019501028354454709 0.0032668966501850781 0 0.019501028354454709 0.0032668966501850781 0 0.019354411455335788 0.0034828836642888427 0 0.018825159302247849 0.0033310600667911636 0 0.014651108474122853 0.00067011243386583404 0 0.015347414595045999 0.00038501301874733899 0 0.015825015757620919 0.0018038812083983628 0 0.017020565526653122 0.0021028727797072736 0 0.017336315028554965 0.0024903635669552208 0 0.018026648516035273 0.0026628947457494941 0 0.018825159302247849 0.0033310600667911636 0 0.018981701477370536 0.0029560387066941548 0 0.018026648516035273 0.0026628947457494941 0 0.018981701477370536 0.0029560387066941548 0 0.01889301989801713 0.0024943300425232916 0 0.018981701477370536 0.0029560387066941548 0 0.019665210001761559 0.0029273055224340204 0 0.01889301989801713 0.0024943300425232916 0 0.019665210001761559 0.0029273055224340204 0 0.019934931809367843 0.0030453877809169566 0 0.020187093807904753 0.0030324163404081305 0 0.019681830512311548 0.0029320958209334033 0 0.019549173810009837 0.0028018637175453083 0 0.019501028354454709 0.0032668966501850781 0 0.018825159302247849 0.0033310600667911636 0 0.018981701477370536 0.0029560387066941548 0 0.019501028354454709 0.0032668966501850781 0 0.018981701477370536 0.0029560387066941548 0 0.019665210001761559 0.0029273055224340204 0 0.019501028354454709 0.0032668966501850781 0 0.019665210001761559 0.0029273055224340204 0 0.019767392127018522 0.0031044073699852642 0 0.019665210001761559 0.0029273055224340204 0 0.019881900554083391 0.0030459541378427767 0 0.019934931809367843 0.0030453877809169566 0 0.019665210001761559 0.0029273055224340204 0 0.019881900554083391 0.0030459541378427767 0 0.019767392127018522 0.0031044073699852642 0 0.019881900554083391 0.0030459541378427767 0 0.019767392127018522 0.0031044073699852642 0 0.019833913785302519 0.0031102801415841433 0 0.020007612044186208 0.0031014810567645871 0 0.020115108754232943 0.0031424575798007222 0 0.020215286259013723 0.0031934189294464377 0 0.020007612044186208 0.0031014810567645871 0 0.019934931809367843 0.0030453877809169566 0 0.020115108754232943 0.0031424575798007222 0 0.019881900554083391 0.0030459541378427767 0 0.020007612044186208 0.0031014810567645871 0 0.019934931809367843 0.0030453877809169566 0 0.019934931809367843 0.0030453877809169566 0 0.020115108754232943 0.0031424575798007222 0 0.020194007505954969 0.0031474983525789802 0 0.018026648516035273 0.0026628947457494941 0 0.01889301989801713 0.0024943300425232916 0 0.018533286950410358 0.0025625902481806501 0 0.020115108754232943 0.0031424575798007222 0 0.020194007505954969 0.0031474983525789802 0 0.020341881399537746 0.003231872662830362 0 0.020194007505954969 0.0031474983525789802 0 0.020369741032608819 0.003223364394935071 0 0.020341881399537746 0.003231872662830362 0 0.019934931809367843 0.0030453877809169566 0 0.020194007505954969 0.0031474983525789802 0 0.020187093807904753 0.0030324163404081305 0 0.019549173810009837 0.0028018637175453083 0 0.019464218754188981 0.0029001384646867054 0 0.020194007505954969 0.0031474983525789802 0 0.020187093807904753 0.0030324163404081305 0 0.020369741032608819 0.003223364394935071 0 0.020401057198056065 0.0032710181448458268 0 0.02050859752807456 0.0032084391246862808 0 0.020341881399537746 0.003231872662830362 0 0.020369741032608819 0.003223364394935071 0 0.020401057198056065 0.0032710181448458268 0 0.020341881399537746 0.003231872662830362 0 0.02050859752807456 0.0032084391246862808 0 0.020366477977513071 0.0031776227406991038 0 0.020565713936729128 0.0030939545917849157 0 0.020401057198056065 0.0032710181448458268 0 0.02050859752807456 0.0032084391246862808 0 0.020366477977513071 0.0031776227406991038 0 0.02050859752807456 0.0032084391246862808 0 0.020341881399537746 0.003231872662830362 0 0.020493285014980645 0.0032913165606983795 0 0.020341881399537746 0.003231872662830362 0 0.020493285014980645 0.0032913165606983795 0 0.020215286259013723 0.0031934189294464377 0 0.020115108754232943 0.0031424575798007222 0 0.020341881399537746 0.003231872662830362 0 0.020215286259013723 0.0031934189294464377 0 0.020493285014980645 0.0032913165606983795 0 0.020215286259013723 0.0031934189294464377 0 0.02014113986369806 0.0034078956745323317 0 0.01907820910895798 0.0028128088303208173 0 0.019464117243357587 0.0029223647744224864 0 0.0195134889124364 0.0030446156121807792 0 0.01907820910895798 0.0028128088303208173 0 0.019464117243357587 0.0029223647744224864 0 0.01921764117770924 0.0027395218346208563 0 0.019464117243357587 0.0029223647744224864 0 0.01921764117770924 0.0027395218346208563 0 0.019595996953686703 0.0028119545176429387 0 0.019371730345601051 0.0025684293826075395 0 0.019053701454536259 0.0024593144383541995 0 0.01921764117770924 0.0027395218346208563 0 0.019371730345601051 0.0025684293826075395 0 0.01921764117770924 0.0027395218346208563 0 0.019595996953686703 0.0028119545176429387 0 0.019053701454536259 0.0024593144383541995 0 0.01921764117770924 0.0027395218346208563 0 0.018720237985651846 0.0026119894141404558 0 0.01907820910895798 0.0028128088303208173 0 0.01921764117770924 0.0027395218346208563 0 0.018720237985651846 0.0026119894141404558 0 0.01907820910895798 0.0028128088303208173 0 0.018720237985651846 0.0026119894141404558 0 0.018616256716278829 0.002674478967235936 0 0.018026648516035273 0.0026628947457494941 0 0.018533286950410358 0.0025625902481806501 0 0.018616256716278829 0.002674478967235936 0 0.018026648516035273 0.0026628947457494941 0 0.018720237985651846 0.0026119894141404558 0 0.018616256716278829 0.002674478967235936 0 0.018533286950410358 0.0025625902481806501 0 0.018616256716278829 0.002674478967235936 0 0.018870937336143149 0.0029818374903344482 0 0.019464218754188981 0.0029001384646867054 0 0.019572446824001832 0.0031290491318066295 0 0.01907820910895798 0.0028128088303208173 0 0.018616256716278829 0.002674478967235936 0 0.018870937336143149 0.0029818374903344482 0 0.018870937336143149 0.0029818374903344482 0 0.019775243921377198 0.0031731759634761065 0 0.0195134889124364 0.0030446156121807792 0 0.019572446824001832 0.0031290491318066295 0 0.019711939568978827 0.003160017722621642 0 0.01907820910895798 0.0028128088303208173 0 0.018870937336143149 0.0029818374903344482 0 0.0195134889124364 0.0030446156121807792 0 0.020369741032608819 0.003223364394935071 0 0.020401057198056065 0.0032710181448458268 0 0.020270915909468713 0.0033591961693405985 0 0.020401057198056065 0.0032710181448458268 0 0.020270915909468713 0.0033591961693405985 0 0.020366477977513071 0.0031776227406991038 0 0.020270915909468713 0.0033591961693405985 0 0.020366477977513071 0.0031776227406991038 0 0.019775243921377198 0.0031731759634761065 0 0.019775243921377198 0.0031731759634761065 0 0.0195134889124364 0.0030446156121807792 0 0.019772969588999184 0.0030478424282521701 0 0.0195134889124364 0.0030446156121807792 0 0.019653419999214779 0.0030153841605664029 0 0.019772969588999184 0.0030478424282521701 0 0.019464117243357587 0.0029223647744224864 0 0.019653419999214779 0.0030153841605664029 0 0.019639600356586837 0.0029589815801364171 0 0.019464117243357587 0.0029223647744224864 0 0.0195134889124364 0.0030446156121807792 0 0.019653419999214779 0.0030153841605664029 0 0.019653419999214779 0.0030153841605664029 0 0.019772969588999184 0.0030478424282521701 0 0.019766412423286719 0.0029722649718198608 0 0.019653419999214779 0.0030153841605664029 0 0.019766412423286719 0.0029722649718198608 0 0.019721949815924587 0.0029762488357864638 0 0.019766412423286719 0.0029722649718198608 0 0.019745221914473584 0.0029082576704199206 0 0.019721949815924587 0.0029762488357864638 0 0.019745221914473584 0.0029082576704199206 0 0.019737551810984709 0.0029556845885207825 0 0.019721949815924587 0.0029762488357864638 0 0.019737551810984709 0.0029556845885207825 0 0.019721949815924587 0.0029762488357864638 0 0.019703003048617697 0.0029245123480097575 0 0.019653419999214779 0.0030153841605664029 0 0.019721949815924587 0.0029762488357864638 0 0.019639600356586837 0.0029589815801364171 0 0.019721949815924587 0.0029762488357864638 0 0.019639600356586837 0.0029589815801364171 0 0.019703003048617697 0.0029245123480097575 0 0.019464117243357587 0.0029223647744224864 0 0.019639600356586837 0.0029589815801364171 0 0.019595996953686703 0.0028119545176429387 0 0.019639600356586837 0.0029589815801364171 0 0.019595996953686703 0.0028119545176429387 0 0.019703003048617697 0.0029245123480097575 0 0.019595996953686703 0.0028119545176429387 0 0.019703003048617697 0.0029245123480097575 0 0.019795069243272775 0.0028714033742516568 0 0.019737551810984709 0.0029556845885207825 0 0.019703003048617697 0.0029245123480097575 0 0.019795069243272775 0.0028714033742516568 0 0.019353581133627042 0.0025722419331454514 0 0.01939879490768167 0.0025106570689290473 0 0.019247509197387717 0.0023996122230517778 0 0.019595996953686703 0.0028119545176429387 0 0.019795069243272775 0.0028714033742516568 0 0.019700941083498229 0.0025256880461393964 0 0.019666383429676124 0.0028004850918728211 0 0.018889063828725162 0.0021518405992132015 0 0.018935612755549027 0.0022697802505732842 0 0.018889063828725162 0.0021518405992132015 0 0.018529342991937033 0.0020591679921310203 0 0.018226186104819613 0.0017909127347278747 0 0.01842148669393362 0.0017966828665497883 0 0.019371730345601051 0.0025684293826075395 0 0.019595996953686703 0.0028119545176429387 0 0.019700941083498229 0.0025256880461393964 0 0.018951265822745408 0.0019594206231019068 0 0.018955947863814705 0.0023710144492184383 0 0.019294847902582336 0.002154915872568833 0 0.018951265822745408 0.0019594206231019068 0 0.018747204222261366 0.0019774068125237862 0 0.018955947863814705 0.0023710144492184383 0 0.018951265822745408 0.0019594206231019068 0 0.018747204222261366 0.0019774068125237862 0 0.018729353176873201 0.001739228758469774 0 0.018747204222261366 0.0019774068125237862 0 0.018529342991937033 0.0020591679921310203 0 0.018955947863814705 0.0023710144492184383 0 0.018747204222261366 0.0019774068125237862 0 0.018529342991937033 0.0020591679921310203 0 0.018584144010621449 0.0018315088754679112 0 0.018529342991937033 0.0020591679921310203 0 0.01842148669393362 0.0017966828665497883 0 0.018584144010621449 0.0018315088754679112 0 0.01939879490768167 0.0025106570689290473 0 0.019428077380677727 0.0025895763275885927 0 0.019495813730623111 0.0026061946956801962 0 0.019428077380677727 0.0025895763275885927 0 0.019495813730623111 0.0026061946956801962 0 0.019438481109744436 0.0026744307407050799 0 0.019353581133627042 0.0025722419331454514 0 0.019428077380677727 0.0025895763275885927 0 0.019438481109744436 0.0026744307407050799 0 0.018935612755549027 0.0022697802505732842 0 0.019235344876321545 0.0024872159113470071 0 0.019353581133627042 0.0025722419331454514 0 0.01939879490768167 0.0025106570689290473 0 0.019428077380677727 0.0025895763275885927 0 0.019495813730623111 0.0026061946956801962 0 0.019438481109744436 0.0026744307407050799 0 0.019517816133749779 0.0026879943752127263 0 0.019737551810984709 0.0029556845885207825 0 0.019795069243272775 0.0028714033742516568 0 0.019707878977244558 0.0029671265206013707 0 0.019666383429676124 0.0028004850918728211 0 0.0195556135461343 0.0027875471550497959 0 0.019745221914473584 0.0029082576704199206 0 0.019737551810984709 0.0029556845885207825 0 0.019707878977244558 0.0029671265206013707 0 0.019745221914473584 0.0029082576704199206 0 0.019707878977244558 0.0029671265206013707 0 0.01956942795476482 0.0027835582327145922 0 0.019438481109744436 0.0026744307407050799 0 0.019517816133749779 0.0026879943752127263 0 0.01956942795476482 0.0027835582327145922 0 0.019517816133749779 0.0026879943752127263 0 0.019547453373886619 0.0027395933199828191 0 0.01956942795476482 0.0027835582327145922 0 0.0195556135461343 0.0027875471550497959 0 0.019572586090666939 0.0027948786030485596 0 0.019517816133749779 0.0026879943752127263 0 0.019547453373886619 0.0027395933199828191 0 0.019535780370001501 0.002691197467621136 0 0.019547453373886619 0.0027395933199828191 0 0.019535780370001501 0.002691197467621136 0 0.019556087352775163 0.0027304470832747569 0 0.019556087352775163 0.0027304470832747569 0 0.019580524684976064 0.0026995699319194732 0 0.019587312614124219 0.0027381554469778783 0 0.019535780370001501 0.002691197467621136 0 0.019556087352775163 0.0027304470832747569 0 0.019580524684976064 0.0026995699319194732 0 0.019580524684976064 0.0026995699319194732 0 0.019631597921892788 0.0027340175681893016 0 0.019587312614124219 0.0027381554469778783 0 0.019580524684976064 0.0026995699319194732 0 0.019570710065993688 0.0026491170785062391 0 0.019644087526179927 0.0026295791164350065 0 0.019580524684976064 0.0026995699319194732 0 0.019644087526179927 0.0026295791164350065 0 0.019631597921892788 0.0027340175681893016 0 0.019535780370001501 0.002691197467621136 0 0.019580524684976064 0.0026995699319194732 0 0.019570710065993688 0.0026491170785062391 0 0.01965121317774169 0.0025584313092846226 0 0.019676719268216892 0.0024948462096405642 0 0.019644087526179927 0.0026295791164350065 0 0.019601426854477726 0.0025682519265033 0 0.019725137163729145 0.0024372589285696971 0 0.019570710065993688 0.0026491170785062391 0 0.019601426854477726 0.0025682519265033 0 0.019495601424031214 0.0026321104346247975 0 0.019570710065993688 0.0026491170785062391 0 0.019644087526179927 0.0026295791164350065 0 0.019601426854477726 0.0025682519265033 0 0.019601426854477726 0.0025682519265033 0 0.019495601424031214 0.0026321104346247975 0 0.019463590543700008 0.0023985923086915716 0 0.019495813730623111 0.0026061946956801962 0 0.019517816133749779 0.0026879943752127263 0 0.019495601424031214 0.0026321104346247975 0 0.019235344876321545 0.0024872159113470071 0 0.019466741529220427 0.0026227672339827362 0 0.019517816133749779 0.0026879943752127263 0 0.019535780370001501 0.002691197467621136 0 0.019495601424031214 0.0026321104346247975 0 0.019535780370001501 0.002691197467621136 0 0.019570710065993688 0.0026491170785062391 0 0.019495601424031214 0.0026321104346247975 0 0.019484147908444792 0.00031302835197126292 0 0.019574184847531872 0.00052743434327440285 0 0.01968210698420059 0.00022152358187480021 0 0.019484147908444792 0.00031302835197126292 0 0.019274141357083899 0.00035935401505103885 0 0.019289865237015029 0.00012430165243209601 0 0.019484147908444792 0.00031302835197126292 0 0.019274141357083899 0.00035935401505103885 0 0.019424378545451294 0.00044380694140549386 0 0.019385205696640342 0.0015568577011260435 0 0.019555630571801371 0.0013128805256418092 0 0.019644087526179927 0.0026295791164350065 0 0.019631597921892788 0.0027340175681893016 0 0.019703099175635581 0.002516583444162287 0 0.019289865237015029 0.00012430165243209601 0 0.019474565552254665 0.00010631071399281176 0 0.019347916854980177 -8.5378750041694573e-05 0 0.019484147908444792 0.00031302835197126292 0 0.019289865237015029 0.00012430165243209601 0 0.019474565552254665 0.00010631071399281176 0 0.019644087526179927 0.0026295791164350065 0 0.019703099175635581 0.002516583444162287 0 0.019610387351310363 0.0023455729400045922 0 0.019484147908444792 0.00031302835197126292 0 0.019474565552254665 0.00010631071399281176 0 0.01968210698420059 0.00022152358187480021 0 0.019474565552254665 0.00010631071399281176 0 0.019573430033686012 -3.9952621772260557e-05 0 0.01968210698420059 0.00022152358187480021 0 0.017984999912141367 -0.00038084912856119153 0 0.016367058273091484 -0.0020572264427326393 0 0.019347916854980177 -8.5378750041694573e-05 0 0.019364196196146644 -0.00017027663847502962 0 0.019573430033686012 -3.9952621772260557e-05 0 0.019474565552254665 0.00010631071399281176 0 0.019347916854980177 -8.5378750041694573e-05 0 0.019573430033686012 -3.9952621772260557e-05 0 0.019703099175635581 0.002516583444162287 0 0.019772586084181514 0.0021037188389977563 0 0.019610387351310363 0.0023455729400045922 0 0.019772586084181514 0.0021037188389977563 0 0.019610387351310363 0.0023455729400045922 0 0.019600311648214051 0.0019685020843755157 0 0.019289865237015029 0.00012430165243209601 0 0.019310572044890364 -0.00011175177634118518 0 0.019347916854980177 -8.5378750041694573e-05 0 0.019555630571801371 0.0013128805256418092 0 0.018689390659249468 0.00087237348590075449 0 0.018689390659249468 0.00087237348590075449 0 0.018767331700265611 0.00070600456260678178 0 0.017167720925980862 -0.0005047755135850477 0 0.015594102907139914 -0.001015481956601845 0 0.016168536745889379 -0.0016394712890610561 0 0.016192838985960811 -0.0016646329493123107 0 0.016164877408629433 -0.0016786529652679618 0 0.015119637476205049 -0.00052495970969912507 0 0.015050328917314702 -0.00057584232945418487 0 0.01500607537636555 -0.00044565877285127612 0 0.018689390659249468 0.00087237348590075449 0 0.018488627299474227 0.0013653928379614027 0 0.017791485824038403 0.00068505897024874712 0 0.017837281087184784 0.00043051221415478405 0 0.017513308171612011 0.00046934479070434115 0 0.017517551555993296 0.00021689236218329765 0 0.017837281087184784 0.00043051221415478405 0 0.017513308171612011 0.00046934479070434115 0 0.016462149150575388 2.5299478731064444e-05 0 0.017167720925980862 -0.0005047755135850477 0 0.016462149150575388 2.5299478731064444e-05 0 0.018488627299474227 0.0013653928379614027 0 0.016168536745889379 -0.0016394712890610561 0 0.01617751307499745 -0.0016352210152454842 0 0.016192838985960811 -0.0016646329493123107 0 0.019305188973136576 -0.00011404552017197266 0 0.019347916854980177 -8.5378750041694573e-05 0 0.019315586419311279 -0.00020097537568998335 0 0.019347916854980177 -8.5378750041694573e-05 0 0.019315586419311279 -0.00020097537568998335 0 0.019364196196146644 -0.00017027663847502962 0 0.017167720925980862 -0.0005047755135850477 0 0.017984999912141367 -0.00038084912856119153 0 0.018689390659249468 0.00087237348590075449 0 0.017167720925980862 -0.0005047755135850477 0 0.01617751307499745 -0.0016352210152454842 0 0.016192838985960811 -0.0016646329493123107 0 0.016214804408308813 -0.0016157777707827288 0 0.015395374852549926 -0.0030333632639587401 0 0.016367058273091484 -0.0020572264427326393 0 0.018955947863814705 0.0023710144492184383 0 0.019463590543700008 0.0023985923086915716 0 0.019294847902582336 0.002154915872568833 0 0.018955947863814705 0.0023710144492184383 0 0.019495601424031214 0.0026321104346247975 0 0.019463590543700008 0.0023985923086915716 0 0.019463590543700008 0.0023985923086915716 0 0.019545031307967486 0.0021750798244335526 0 0.019294847902582336 0.002154915872568833 0 0.019725137163729145 0.0024372589285696971 0 0.019545031307967486 0.0021750798244335526 0 0.019764571866838027 0.0020629258537830878 0 0.019463590543700008 0.0023985923086915716 0 0.019725137163729145 0.0024372589285696971 0 0.019545031307967486 0.0021750798244335526 0 0.019676719268216892 0.0024948462096405642 0 0.018488627299474227 0.0013653928379614027 0 0.019601426854477726 0.0025682519265033 0 0.019463590543700008 0.0023985923086915716 0 0.019725137163729145 0.0024372589285696971 0 0.017684796783575651 0.0008127523854633942 0 0.017688795503900356 0.00073286900522624818 0 0.017893899672491248 0.00088703054332868209 0 0.019545031307967486 0.0021750798244335526 0 0.019764571866838027 0.0020629258537830878 0 0.019385007727963758 0.0017408231419611619 0 0.018488627299474227 0.0013653928379614027 0 0.018781340439995374 0.0013857857510013462 0 0.019545031307967486 0.0021750798244335526 0 0.019294847902582336 0.002154915872568833 0 0.019385007727963758 0.0017408231419611619 0 0.018951265822745408 0.0019594206231019068 0 0.019294847902582336 0.002154915872568833 0 0.019385007727963758 0.0017408231419611619 0 0.017338741157114167 0.00065962034606700467 0 0.017896939432801597 0.0010644924733795593 0 0.018951265822745408 0.0019594206231019068 0 0.019385007727963758 0.0017408231419611619 0 0.018947779445625833 0.0013981371149890003 0 0.016692608392174783 0.00034179724619309192 0 0.016691252464969178 0.00039195495059757019 0 0.017175972522638826 0.00061297181797569219 0 0.0178923402797397 0.00092382488145123498 0 0.017893899672491248 0.00088703054332868209 0 0.01808587458191763 0.0010336038282197093 0 0.018781340439995374 0.0013857857510013462 0 0.017896939432801597 0.0010644924733795593 0 0.015676265013731615 -1.2591343772646502e-06 0 0.016789340038251031 0.00026684285111246283 0 0.017684796783575651 0.0008127523854633942 0 0.0178923402797397 0.00092382488145123498 0 0.017893899672491248 0.00088703054332868209 0 0.016237677792647329 9.3990064067799432e-05 0 0.016692608392174783 0.00034179724619309192 0 0.016691252464969178 0.00039195495059757019 0 0.016462149150575388 2.5299478731064444e-05 0 0.015676265013731615 -1.2591343772646502e-06 0 0.016462149150575388 2.5299478731064444e-05 0 0.017338741157114167 0.00065962034606700467 0 0.015077727819636249 -0.00023463192852400392 0 0.015114984425873494 -0.00020864544567089099 0 0.015055963100519442 -0.00017589331702934396 0 0.015114984425873494 -0.00020864544567089099 0 0.015055963100519442 -0.00017589331702934396 0 0.015110479356135407 -0.0001448707835535836 0 0.016691252464969178 0.00039195495059757019 0 0.017175972522638826 0.00061297181797569219 0 0.017173914749943377 0.0007049553698340738 0 0.015114984425873494 -0.00020864544567089099 0 0.015110479356135407 -0.0001448707835535836 0 0.015174785316723199 -0.00017540311752204166 0 0.014843193874490429 -0.003848988422018459 0 0.015333929498841195 -0.0029474677579951628 0 0.014648613835908066 -0.0031920582793728046 0 0.015395374852549926 -0.0030333632639587401 0 0.015378952516320384 -0.0016272267886549619 0 0.016192838985960811 -0.0016646329493123107 0 0.016164877408629433 -0.0016786529652679618 0 0.016163823156332191 -0.0017170702144342616 0 0.015594102907139914 -0.001015481956601845 0 0.015378952516320384 -0.0016272267886549619 0 0.016462149150575388 2.5299478731064444e-05 0 0.014920006151387312 -0.00033396083362248046 0 0.015119637476205049 -0.00052495970969912507 0 0.01500607537636555 -0.00044565877285127612 0 0.015086963922060014 -0.0003180024304551938 0 0.01500607537636555 -0.00044565877285127612 0 0.015086963922060014 -0.0003180024304551938 0 0.014961585492081892 -0.0003121940113256434 0 0.015086963922060014 -0.0003180024304551938 0 0.014961585492081892 -0.0003121940113256434 0 0.015018049916121236 -0.00022923316597470619 0 0.015333929498841195 -0.0029474677579951628 0 0.014877658083713295 -0.0026157924324390781 0 0.014648613835908066 -0.0031920582793728046 0 0.014877658083713295 -0.0026157924324390781 0 0.015157862338711558 -0.0019190332795389583 0 0.014333454749434118 -0.0024718163534324274 0 0.015378952516320384 -0.0016272267886549619 0 0.013600402719742093 -0.00084131177802241946 0 0.015333929498841195 -0.0029474677579951628 0 0.014877658083713295 -0.0026157924324390781 0 0.015157862338711558 -0.0019190332795389583 0 0.013600402719742093 -0.00084131177802241946 0 0.014163535964310943 -0.0024980539989644672 0 0.014632267030007317 -0.0010964033935272378 0 0.014805241189296671 -0.00056179663997161003 0 0.014496317933235751 -0.00037943917784324135 0 0.014961585492081892 -0.0003121940113256434 0 0.014989219049614361 -0.00015601853776673431 0 0.015018049916121236 -0.00022923316597470619 0 0.015086963922060014 -0.0003180024304551938 0 0.015018049916121236 -0.00022923316597470619 0 0.015021343474497238 -0.00011284047789599183 0 0.015378952516320384 -0.0016272267886549619 0 0.014912793126116739 -0.00021814089637746408 0 0.014920006151387312 -0.00033396083362248046 0 0.015062404541472531 -8.663272786197499e-05 0 0.014989219049614361 -0.00015601853776673431 0 0.015018049916121236 -0.00022923316597470619 0 0.015021343474497238 -0.00011284047789599183 0 0.012641523131737421 0.00038099874035653591 0 0.013600402719742093 -0.00084131177802241946 0 0.010495754215289409 0.00059410087207595807 0 0.010464409440533255 0.00060678737033682633 0 0.010603546269301703 0.00067421978483370886 0 0.014912793126116739 -0.00021814089637746408 0 0.014954326645713025 -0.00013109559475639744 0 0.014805241189296671 -0.00056179663997161003 0 0.01496830049008 -5.7142839990418709e-05 0 0.014496317933235751 -0.00037943917784324135 0 0.015007361815698212 -1.2878591492416388e-05 0 0.01496830049008 -5.7142839990418709e-05 0 0.014496317933235751 -0.00037943917784324135 0 0.014989219049614361 -0.00015601853776673431 0 0.01500474458424916 -8.5029229957785265e-05 0 0.01496830049008 -5.7142839990418709e-05 0 0.014989219049614361 -0.00015601853776673431 0 0.01500474458424916 -8.5029229957785265e-05 0 0.015021343474497238 -0.00011284047789599183 0 0.01500474458424916 -8.5029229957785265e-05 0 0.015007361815698212 -1.2878591492416388e-05 0 0.01496830049008 -5.7142839990418709e-05 0 0.0090891994055175562 0.00012629822508884191 0 0.012141155189951168 -0.00028074296582583061 0 0.014834341599568149 -0.0014029787347655048 0 0.014756720159490047 -0.0010256278614393561 0 0.013498449410872209 -0.0019435496877473152 0 0.013600402719742093 -0.00084131177802241946 0 0.012141155189951168 -0.00028074296582583061 0 0.010495754215289409 0.00059410087207595807 0 0.010603546269301703 0.00067421978483370886 0 0.010607069088786485 0.00063434649000068254 0 0.014361647713250257 -0.0011392776801037842 0 0.013438382881072285 -0.0012539781919072947 0 0.013736410226416808 -0.00062534129053545113 0 0.015110479356135407 -0.0001448707835535836 0 0.015170679167084863 -9.9784132915814021e-05 0 0.015174785316723199 -0.00017540311752204166 0 0.015110479356135407 -0.0001448707835535836 0 0.015100333960639268 -6.5112438963948384e-05 0 0.015170679167084863 -9.9784132915814021e-05 0 0.015110479356135407 -0.0001448707835535836 0 0.015064898535906868 -0.00011831983621871808 0 0.015100333960639268 -6.5112438963948384e-05 0 0.015055963100519442 -0.00017589331702934396 0 0.015021343474497238 -0.00011284047789599183 0 0.015064898535906868 -0.00011831983621871808 0 0.015055963100519442 -0.00017589331702934396 0 0.015110479356135407 -0.0001448707835535836 0 0.015064898535906868 -0.00011831983621871808 0 0.015069669898642109 3.745157679664827e-05 0 0.015048673008484371 -5.593991659824428e-05 0 0.015100333960639268 -6.5112438963948384e-05 0 0.015064898535906868 -0.00011831983621871808 0 0.015048673008484371 -5.593991659824428e-05 0 0.015100333960639268 -6.5112438963948384e-05 0 0.015021343474497238 -0.00011284047789599183 0 0.015064898535906868 -0.00011831983621871808 0 0.015048673008484371 -5.593991659824428e-05 0 0.01500474458424916 -8.5029229957785265e-05 0 0.015021343474497238 -0.00011284047789599183 0 0.015048673008484371 -5.593991659824428e-05 0 0.01500474458424916 -8.5029229957785265e-05 0 0.015007361815698212 -1.2878591492416388e-05 0 0.015048673008484371 -5.593991659824428e-05 0 0.015163474767866983 -8.5608516728744182e-07 0 0.015100333960639268 -6.5112438963948384e-05 0 0.015170679167084863 -9.9784132915814021e-05 0 0.016165525939023172 0.001211648215422945 0 0.016178707626124972 0.000587271282317464 0 0.016539962145874641 0.00094552651690868472 0 0.015826290468269871 0.0005831686590331358 0 0.015574546736690734 0.00017777731447644716 0 0.016178707626124972 0.000587271282317464 0 0.016731382414598473 0.00063603470031577147 0 0.016539962145874641 0.00094552651690868472 0 0.016178707626124972 0.000587271282317464 0 0.016657329325825164 0.00027193891446054369 0 0.016198978957026228 -3.4230049938681583e-05 0 0.015574546736690734 0.00017777731447644716 0 0.016789340038251031 0.00026684285111246283 0 0.017662564089736217 0.00081218188943519979 0 0.017633575491944949 0.00080692903955265007 0 0.017784233773314478 0.00089662816358870314 0 0.016178707626124972 0.000587271282317464 0 0.016657329325825164 0.00027193891446054369 0 0.016731382414598473 0.00063603470031577147 0 0.016657329325825164 0.00027193891446054369 0 0.016731382414598473 0.00063603470031577147 0 0.017137295752856621 0.00057615330091113329 0 0.017107161405892038 0.00051364640333336105 0 0.01773118579225472 0.00093152755737865866 0 0.018485761873218286 0.0014062077779677894 0 0.018502080950512499 0.001399051200606188 0 0.018419427458085478 0.0014092981510752853 0 0.018485761873218286 0.0014062077779677894 0 0.018419427458085478 0.0014092981510752853 0 0.018449135440748481 0.0014578580395276861 0 0.016731382414598473 0.00063603470031577147 0 0.016539962145874641 0.00094552651690868472 0 0.016886765971542487 0.00096738650760491154 0 0.016731382414598473 0.00063603470031577147 0 0.016886765971542487 0.00096738650760491154 0 0.017137295752856621 0.00057615330091113329 0 0.016661153661664135 0.0012297784958360575 0 0.016539962145874641 0.00094552651690868472 0 0.016886765971542487 0.00096738650760491154 0 0.017012841411303149 0.001308986119261227 0 0.016886765971542487 0.00096738650760491154 0 0.017264316195563695 0.0010861472800835358 0 0.016886765971542487 0.00096738650760491154 0 0.017264316195563695 0.0010861472800835358 0 0.017137295752856621 0.00057615330091113329 0 0.017264316195563695 0.0010861472800835358 0 0.017474869653080163 0.00081899592612474893 0 0.017137295752856621 0.00057615330091113329 0 0.017830571589794682 0.0010700739596840017 0 0.01773118579225472 0.00093152755737865866 0 0.017264316195563695 0.0010861472800835358 0 0.017899456455529875 0.0012177942541614821 0 0.017474869653080163 0.00081899592612474893 0 0.017899456455529875 0.0012177942541614821 0 0.018179071552763458 0.0012919409505559871 0 0.01808846277338377 0.0013884664798937798 0 0.017904093591195103 0.0011794565170806714 0 0.017830571589794682 0.0010700739596840017 0 0.018179071552763458 0.0012919409505559871 0 0.01808846277338377 0.0013884664798937798 0 0.018216283337732449 0.0013917547110899285 0 0.018216283337732449 0.0013917547110899285 0 0.018251232110872637 0.0014629458488840789 0 0.0181729838963809 0.0014711760550680916 0 0.01808846277338377 0.0013884664798937798 0 0.018216283337732449 0.0013917547110899285 0 0.0181729838963809 0.0014711760550680916 0 0.018097535062820747 0.001486866478118683 0 0.01808846277338377 0.0013884664798937798 0 0.0181729838963809 0.0014711760550680916 0 0.018179071552763458 0.0012919409505559871 0 0.018216283337732449 0.0013917547110899285 0 0.018319287781820959 0.0013355501383397585 0 0.018216283337732449 0.0013917547110899285 0 0.018319287781820959 0.0013355501383397585 0 0.018329758266490373 0.0014266573564262889 0 0.018216283337732449 0.0013917547110899285 0 0.018329758266490373 0.0014266573564262889 0 0.018251232110872637 0.0014629458488840789 0 0.018502080950512499 0.001399051200606188 0 0.018319287781820959 0.0013355501383397585 0 0.018419427458085478 0.0014092981510752853 0 0.018092585832734907 0.0011194199862501195 0 0.01773118579225472 0.00093152755737865866 0 0.018319287781820959 0.0013355501383397585 0 0.018329758266490373 0.0014266573564262889 0 0.018419427458085478 0.0014092981510752853 0 0.018329758266490373 0.0014266573564262889 0 0.018419427458085478 0.0014092981510752853 0 0.018392559389671399 0.0014642687829787766 0 0.018419427458085478 0.0014092981510752853 0 0.018392559389671399 0.0014642687829787766 0 0.018449135440748481 0.0014578580395276861 0 0.018329758266490373 0.0014266573564262889 0 0.018392559389671399 0.0014642687829787766 0 0.018337728379130159 0.0015178821924377707 0 0.018392559389671399 0.0014642687829787766 0 0.018432243104336325 0.0015134918809497442 0 0.018449135440748481 0.0014578580395276861 0 0.018392559389671399 0.0014642687829787766 0 0.018432243104336325 0.0015134918809497442 0 0.018337728379130159 0.0015178821924377707 0 0.018329758266490373 0.0014266573564262889 0 0.018337728379130159 0.0015178821924377707 0 0.018251232110872637 0.0014629458488840789 0 0.018337728379130159 0.0015178821924377707 0 0.018251232110872637 0.0014629458488840789 0 0.018240034589702477 0.0015243480801048199 0 0.018337728379130159 0.0015178821924377707 0 0.018240034589702477 0.0015243480801048199 0 0.018310663061051426 0.001634323772757841 0 0.018337728379130159 0.0015178821924377707 0 0.018401954807589754 0.0015890304278492597 0 0.018310663061051426 0.001634323772757841 0 0.018432243104336325 0.0015134918809497442 0 0.018401954807589754 0.0015890304278492597 0 0.018492619232385384 0.0015820967528278078 0 0.018432243104336325 0.0015134918809497442 0 0.018337728379130159 0.0015178821924377707 0 0.018401954807589754 0.0015890304278492597 0 0.018097535062820747 0.001486866478118683 0 0.0181729838963809 0.0014711760550680916 0 0.018156910185577028 0.0015607574847439352 0 0.018240034589702477 0.0015243480801048199 0 0.0181729838963809 0.0014711760550680916 0 0.018156910185577028 0.0015607574847439352 0 0.018251232110872637 0.0014629458488840789 0 0.018240034589702477 0.0015243480801048199 0 0.0181729838963809 0.0014711760550680916 0 0.018240034589702477 0.0015243480801048199 0 0.018156910185577028 0.0015607574847439352 0 0.018310663061051426 0.001634323772757841 0 0.018691998043753044 0.0018348208801348049 0 0.018889063828725162 0.0021518405992132015 0 0.019371730345601051 0.0025684293826075395 0 0.019287738852167394 0.0021566316760285209 0 0.019700941083498229 0.0025256880461393964 0 0.018106661667737351 0.0015033801319417612 0 0.018156910185577028 0.0015607574847439352 0 0.018190674081538481 0.001661353452836598 0 0.018080130788545833 0.0013920504591040769 0 0.018889063828725162 0.0021518405992132015 0 0.018156910185577028 0.0015607574847439352 0 0.018226186104819613 0.0017909127347278747 0 0.018310663061051426 0.001634323772757841 0 0.018401954807589754 0.0015890304278492597 0 0.018310663061051426 0.001634323772757841 0 0.018467118611908265 0.0016866911036722517 0 0.018310663061051426 0.001634323772757841 0 0.01842148669393362 0.0017966828665497883 0 0.018467118611908265 0.0016866911036722517 0 0.018226186104819613 0.0017909127347278747 0 0.018310663061051426 0.001634323772757841 0 0.01842148669393362 0.0017966828665497883 0 0.01842148669393362 0.0017966828665497883 0 0.018584144010621449 0.0018315088754679112 0 0.018467118611908265 0.0016866911036722517 0 0.018467118611908265 0.0016866911036722517 0 0.018595635969517573 0.0016619616392093987 0 0.018492619232385384 0.0015820967528278078 0 0.018584144010621449 0.0018315088754679112 0 0.018467118611908265 0.0016866911036722517 0 0.018595635969517573 0.0016619616392093987 0 0.018595635969517573 0.0016619616392093987 0 0.018729353176873201 0.001739228758469774 0 0.018707259288363413 0.001596551019139948 0 0.018584144010621449 0.0018315088754679112 0 0.018595635969517573 0.0016619616392093987 0 0.018729353176873201 0.001739228758469774 0 0.018747204222261366 0.0019774068125237862 0 0.018584144010621449 0.0018315088754679112 0 0.018729353176873201 0.001739228758469774 0 0.018951265822745408 0.0019594206231019068 0 0.018729353176873201 0.001739228758469774 0 0.018885054846020901 0.0015810435302502596 0 0.019119404847524557 0.0021001226814964416 0 0.017896939432801597 0.0010644924733795593 0 0.018729353176873201 0.001739228758469774 0 0.018707259288363413 0.001596551019139948 0 0.018885054846020901 0.0015810435302502596 0 0.018707259288363413 0.001596551019139948 0 0.018772875789780135 0.001507903407574908 0 0.018885054846020901 0.0015810435302502596 0 0.017633575491944949 0.00080692903955265007 0 0.017541310767442506 0.00072651752961295417 0 0.017483137628159163 0.00071534620069801057 0 0.017107161405892038 0.00051364640333336105 0 0.016789340038251031 0.00026684285111246283 0 0.018287481045429592 0.0012477264995809725 0 0.017896939432801597 0.0010644924733795593 0 0.017896939432801597 0.0010644924733795593 0 0.016789340038251031 0.00026684285111246283 0 0.017541310767442506 0.00072651752961295417 0 0.017483919653907408 0.00068555692004633679 0 0.017483137628159163 0.00071534620069801057 0 0.017662564089736217 0.00081218188943519979 0 0.017633575491944949 0.00080692903955265007 0 0.017541310767442506 0.00072651752961295417 0 0.018092585832734907 0.0011194199862501195 0 0.018287481045429592 0.0012477264995809725 0 0.018485761873218286 0.0014062077779677894 0 0.018772875789780135 0.001507903407574908 0 0.018530537678209259 0.0014956971380107012 0 0.018485761873218286 0.0014062077779677894 0 0.018502080950512499 0.001399051200606188 0 0.018582395740676095 0.0014501313845403695 0 0.018647819448550297 0.0014935166272811394 0 0.018287481045429592 0.0012477264995809725 0 0.018485761873218286 0.0014062077779677894 0 0.018449135440748481 0.0014578580395276861 0 0.018530537678209259 0.0014956971380107012 0 0.018432243104336325 0.0015134918809497442 0 0.018449135440748481 0.0014578580395276861 0 0.018530537678209259 0.0014956971380107012 0 0.018530537678209259 0.0014956971380107012 0 0.018492619232385384 0.0015820967528278078 0 0.01860091456005171 0.0015511782388254176 0 0.018432243104336325 0.0015134918809497442 0 0.018530537678209259 0.0014956971380107012 0 0.018492619232385384 0.0015820967528278078 0 0.018401954807589754 0.0015890304278492597 0 0.018467118611908265 0.0016866911036722517 0 0.018492619232385384 0.0015820967528278078 0 0.018595635969517573 0.0016619616392093987 0 0.018492619232385384 0.0015820967528278078 0 0.01860091456005171 0.0015511782388254176 0 0.018772875789780135 0.001507903407574908 0 0.018530537678209259 0.0014956971380107012 0 0.01860091456005171 0.0015511782388254176 0 0.018707259288363413 0.001596551019139948 0 0.018772875789780135 0.001507903407574908 0 0.01860091456005171 0.0015511782388254176 0 0.018595635969517573 0.0016619616392093987 0 0.018707259288363413 0.001596551019139948 0 0.01860091456005171 0.0015511782388254176 0 0.011206885469394705 -0.00040564215317934931 0 0.0089862183762315102 -0.00013158574335571412 0 0.01304102513921245 -0.0016929884660974025 0 0.0096229148201213838 -0.00041082860133320569 0 0.010555734544361425 -0.0004266228800855597 0 0.011812712858772138 -0.00011812130461032941 0 0.012258019235373271 -0.00045052174869777685 0 0.011206885469394705 -0.00040564215317934931 0 0.011812712858772138 -0.00011812130461032941 0 0.011206885469394705 -0.00040564215317934931 0 0.01064744060062766 -4.855788499662764e-05 0 0.012258019235373271 -0.00045052174869777685 0 0.012596561623410215 -0.00028336486106985168 0 0.013192071372051967 -0.00053973505405436445 0 0.011812712858772138 -0.00011812130461032941 0 0.012258019235373271 -0.00045052174869777685 0 0.012596561623410215 -0.00028336486106985168 0 0.012258019235373271 -0.00045052174869777685 0 0.012534741526689815 -0.00085929874982656085 0 0.013192071372051967 -0.00053973505405436445 0 0.012534741526689815 -0.00085929874982656085 0 0.011206885469394705 -0.00040564215317934931 0 0.01304102513921245 -0.0016929884660974025 0 0.012258019235373271 -0.00045052174869777685 0 0.012534741526689815 -0.00085929874982656085 0 0.011206885469394705 -0.00040564215317934931 0 0.012534741526689815 -0.00085929874982656085 0 0.013215859078021228 -0.0012586221596973244 0 0.01304102513921245 -0.0016929884660974025 0 0.0089862183762315102 -0.00013158574335571412 0 0.010391916113226634 8.096956858279643e-07 0 0.0080451006961571852 -3.2874539342162067e-06 0 0.0089862183762315102 -0.00013158574335571412 0 0.01064744060062766 -4.855788499662764e-05 0 0.010391916113226634 8.096956858279643e-07 0 0.011206885469394705 -0.00040564215317934931 0 0.0089862183762315102 -0.00013158574335571412 0 0.01064744060062766 -4.855788499662764e-05 0 0.01064744060062766 -4.855788499662764e-05 0 0.010391916113226634 8.096956858279643e-07 0 0.01213237060855194 0.00018798229058182046 0 0.011812712858772138 -0.00011812130461032941 0 0.01064744060062766 -4.855788499662764e-05 0 0.01213237060855194 0.00018798229058182046 0 0.011812712858772138 -0.00011812130461032941 0 0.01213237060855194 0.00018798229058182046 0 0.013054794427252631 2.406466414120923e-05 0 0.011812712858772138 -0.00011812130461032941 0 0.012596561623410215 -0.00028336486106985168 0 0.013054794427252631 2.406466414120923e-05 0 0.013054794427252631 2.406466414120923e-05 0 0.013753120550956021 -0.000350470401034899 0 0.01419920283121727 0.00023795136476016183 0 0.013054794427252631 2.406466414120923e-05 0 0.013753120550956021 -0.000350470401034899 0 0.013192071372051967 -0.00053973505405436445 0 0.012596561623410215 -0.00028336486106985168 0 0.013054794427252631 2.406466414120923e-05 0 0.013192071372051967 -0.00053973505405436445 0 0.013753120550956021 -0.000350470401034899 0 0.0143771614276022 -2.4029391075667309e-05 0 0.01419920283121727 0.00023795136476016183 0 0.013711971129497558 -0.00084762008431348446 0 0.013913569324498045 -0.0009587705073946048 0 0.014005496279344108 -0.00088892774776451217 0 0.013753120550956021 -0.000350470401034899 0 0.014546976666117666 -0.00018713023001830646 0 0.0143771614276022 -2.4029391075667309e-05 0 0.013753120550956021 -0.000350470401034899 0 0.013711971129497558 -0.00084762008431348446 0 0.014005496279344108 -0.00088892774776451217 0 0.013782130178345677 -0.00036003725207726088 0 0.014149662097106691 -0.0004888213530857739 0 0.013711971129497558 -0.00084762008431348446 0 0.013215859078021228 -0.0012586221596973244 0 0.013913569324498045 -0.0009587705073946048 0 0.013753120550956021 -0.000350470401034899 0 0.013192071372051967 -0.00053973505405436445 0 0.013711971129497558 -0.00084762008431348446 0 0.012534741526689815 -0.00085929874982656085 0 0.013192071372051967 -0.00053973505405436445 0 0.013215859078021228 -0.0012586221596973244 0 0.013192071372051967 -0.00053973505405436445 0 0.013711971129497558 -0.00084762008431348446 0 0.013215859078021228 -0.0012586221596973244 0 0.007507829098400364 0.00095968581833900924 0 0.0072783076035173736 0.0011346763643204571 0 0.0076221944132170384 0.0010660605890240996 0 0.0064927440790024304 0.0012021205802638878 0 0.0074191421090371535 0.00023129547193181835 0 0.0061062352904634231 0.0010947443273649398 0 0.0056404469836188291 0.00076310006402277781 0 0.0052941029259878803 0.00095668904968680484 0 0.010555734544361425 -0.0004266228800855597 0 0.0104746172666886 8.0166640024723383e-05 0 0.010905505759353536 -0.00034859171598136337 0 0.010555734544361425 -0.0004266228800855597 0 0.007507829098400364 0.00095968581833900924 0 0.0072049417368650207 0.0010657161461660833 0 0.0072783076035173736 0.0011346763643204571 0 0.013215859078021228 -0.0012586221596973244 0 0.013150073688382617 -0.0013415261656825538 0 0.013913569324498045 -0.0009587705073946048 0 0.0072049417368650207 0.0010657161461660833 0 0.0072783076035173736 0.0011346763643204571 0 0.0071473835624585079 0.0010679456697277208 0 0.0061062352904634231 0.0010947443273649398 0 0.0066014567206312989 0.00072077502420261441 0 0.0071473835624585079 0.0010679456697277208 0 0.0064927440790024304 0.0012021205802638878 0 0.0072214671504839435 0.0010355099628526258 0 0.0061062352904634231 0.0010947443273649398 0 0.0066014567206312989 0.00072077502420261441 0 0.0060339261794343652 0.00060080918171244576 0 0.0066014567206312989 0.00072077502420261441 0 0.0060339261794343652 0.00060080918171244576 0 0.0064722344294819373 0.00036694475403931955 0 0.0061062352904634231 0.0010947443273649398 0 0.0056404469836188291 0.00076310006402277781 0 0.0060339261794343652 0.00060080918171244576 0 0.0056404469836188291 0.00076310006402277781 0 0.0060339261794343652 0.00060080918171244576 0 0.0055168622836270637 0.00049365408791296993 0 0.0056404469836188291 0.00076310006402277781 0 0.0055168622836270637 0.00049365408791296993 0 0.0052889944685410809 0.00057556716398605035 0 0.0055168622836270637 0.00049365408791296993 0 0.0052889944685410809 0.00057556716398605035 0 0.0049802628205263275 0.00030566292827858166 0 0.0052889944685410809 0.00057556716398605035 0 0.0051571456905409882 0.00037951651046453814 0 0.0049802628205263275 0.00030566292827858166 0 0.0052889944685410809 0.00057556716398605035 0 0.0052941029259878803 0.00095668904968680484 0 0.0051571456905409882 0.00037951651046453814 0 0.0056404469836188291 0.00076310006402277781 0 0.0052889944685410809 0.00057556716398605035 0 0.0052941029259878803 0.00095668904968680484 0 0.0089862183762315102 -0.00013158574335571412 0 0.010161977376739937 -0.00030381820482754926 0 0.0098131976188436873 -0.0006394143078687402 0 0.0074191421090371535 0.00023129547193181835 0 0.0059924945628286978 0.00022778566352730733 0 0.010555734544361425 -0.0004266228800855597 0 0.0074191421090371535 0.00023129547193181835 0 0.0066565016944698146 -0.00021093313865560561 0 0.0080364752112486795 1.4622463260150965e-08 0 0.0070150422203441283 0.00015260997410716659 0 0.0074191421090371535 0.00023129547193181835 0 0.0080417058300818137 -5.911002887062434e-07 0 0.0089862183762315102 -0.00013158574335571412 0 0.0098131976188436873 -0.0006394143078687402 0 0.0080451006961571852 -3.2874539342162067e-06 0 0.0051571456905409882 0.00037951651046453814 0 0.0055665490453686173 1.2311673841002294e-06 0 0.0049802628205263275 0.00030566292827858166 0 0.0080364752112486795 1.4622463260150965e-08 0 0.0070150422203441283 0.00015260997410716659 0 0.0055743498177325832 -8.9082361519442445e-09 0 0.0059924945628286978 0.00022778566352730733 0 0.005570836567205438 3.5172042804429066e-07 0 0.0055665490453686173 1.2311673841002294e-06 0 0.0049802628205263275 0.00030566292827858166 0 0.0035986866611591182 -0.00014831132818690656 0 0.0055168622836270637 0.00049365408791296993 0 0.0049802628205263275 0.00030566292827858166 0 0.005898214400885048 0.00015409781434320283 0 0.0049802628205263275 0.00030566292827858166 0 0.0055118696773346718 -0.0004621207549099779 0 0.005898214400885048 0.00015409781434320283 0 0.0034963807471634703 -0.00023363972897484628 0 0.0027035945516485508 -0.00042386450285524771 0 0.0049802628205263275 0.00030566292827858166 0 0.0035986866611591182 -0.00014831132818690656 0 0.0055118696773346718 -0.0004621207549099779 0 0.0035986866611591182 -0.00014831132818690656 0 0.0013028824060069104 0.00010896328392641105 0 -0.00019401449965068829 -0.00056644759993633768 0 0.0055665490453686173 1.2311673841002294e-06 0 0.0032453006825721455 -1.4966555781781611e-06 0 0.0035986866611591182 -0.00014831132818690656 0 0.0032453006825721455 -1.4966555781781611e-06 0 0.0035986866611591182 -0.00014831132818690656 0 0.0013028824060069104 0.00010896328392641105 0 0.0032453006825721455 -1.4966555781781611e-06 0 0.0013028824060069104 0.00010896328392641105 0 0.00091887586161851231 1.1414800847347648e-06 0 0.0013028824060069104 0.00010896328392641105 0 -0.00068085662921179917 0.00034901508160569989 0 -0.00019401449965068829 -0.00056644759993633768 0 0.0013028824060069104 0.00010896328392641105 0 -0.00043584278545623779 0.00036723314265392574 0 -0.00068085662921179917 0.00034901508160569989 0 0.0013028824060069104 0.00010896328392641105 0 -0.00043584278545623779 0.00036723314265392574 0 0.00091887586161851231 1.1414800847347648e-06 0 -0.0012514766120362804 0.00048197647547734701 0 -0.00068085662921179917 0.00034901508160569989 0 -0.00096157061871689773 0.000546459620807694 0 -0.00090961304392745215 0.00038846467803668516 0 -0.0012514766120362804 0.00048197647547734701 0 -0.00096157061871689773 0.000546459620807694 0 -0.0012514766120362804 0.00048197647547734701 0 -0.00043584278545623779 0.00036723314265392574 0 -0.00068085662921179917 0.00034901508160569989 0 -0.00068085662921179917 0.00034901508160569989 0 -0.0009492856050088436 0.00041594473781242613 0 -0.00096157061871689773 0.000546459620807694 0 -0.00068085662921179917 0.00034901508160569989 0 -0.0009492856050088436 0.00041594473781242613 0 -0.00019401449965068829 -0.00056644759993633768 0 0.0066352227199407907 -0.00030899714816616454 0 0.0055118696773346718 -0.0004621207549099779 0 0.005898214400885048 0.00015409781434320283 0 0.0028740570610099867 3.2307159138823966e-05 0 0.0027035945516485508 -0.00042386450285524771 0 0.0060339261794343652 0.00060080918171244576 0 0.0055168622836270637 0.00049365408791296993 0 0.005898214400885048 0.00015409781434320283 0 0.0066352227199407907 -0.00030899714816616454 0 0.005898214400885048 0.00015409781434320283 0 0.0064722344294819373 0.00036694475403931955 0 0.0060339261794343652 0.00060080918171244576 0 0.005898214400885048 0.00015409781434320283 0 0.0064722344294819373 0.00036694475403931955 0 0.0066014567206312989 0.00072077502420261441 0 0.0064722344294819373 0.00036694475403931955 0 0.0071571407507498774 0.00048930366190771382 0 0.0066352227199407907 -0.00030899714816616454 0 0.0064722344294819373 0.00036694475403931955 0 0.0071571407507498774 0.00048930366190771382 0 0.0071571407507498774 0.00048930366190771382 0 0.0079453396250135679 0.0004952646236758431 0 0.0076459028827509847 0.00077868782089635699 0 0.0071571407507498774 0.00048930366190771382 0 0.0076172812170401619 -6.959819623755368e-05 0 0.0079453396250135679 0.0004952646236758431 0 0.0028740570610099867 3.2307159138823966e-05 0 0.0035683341913715118 0.00049457330403237002 0 0.0066352227199407907 -0.00030899714816616454 0 0.0071571407507498774 0.00048930366190771382 0 0.0076172812170401619 -6.959819623755368e-05 0 -0.0009492856050088436 0.00041594473781242613 0 -0.00050070990775585064 0.0010640653147491617 0 -0.00096157061871689773 0.000546459620807694 0 -0.00050070990775585064 0.0010640653147491617 0 -0.00061982220709614721 0.00058568929244228775 0 -0.00096157061871689773 0.000546459620807694 0 -0.00050070990775585064 0.0010640653147491617 0 -0.00061982220709614721 0.00058568929244228775 0 -3.5574787238670942e-05 0.00069596034734999178 0 -0.00090961304392745215 0.00038846467803668516 0 -0.00061982220709614721 0.00058568929244228775 0 -0.00096157061871689773 0.000546459620807694 0 0.00025205275887910762 0.00022003685260357038 0 0.0006423223923476076 0.00077531445118101956 0 -3.5574787238670942e-05 0.00069596034734999178 0 -0.00025111704336445756 0.0002376338831477119 0 -0.00061982220709614721 0.00058568929244228775 0 -3.5574787238670942e-05 0.00069596034734999178 0 -0.00050070990775585064 0.0010640653147491617 0 -3.5574787238670942e-05 0.00069596034734999178 0 0.00046348181345410682 0.0014475000436496264 0 0.0006423223923476076 0.00077531445118101956 0 -3.5574787238670942e-05 0.00069596034734999178 0 0.00046348181345410682 0.0014475000436496264 0 0.0084156849916862345 0.00030643698623262334 0 0.0084244495312143439 0.00064068901139746593 0 0.0086768073286137837 0.00068054205018359428 0 0.0084156849916862345 0.00030643698623262334 0 0.0079453396250135679 0.0004952646236758431 0 0.0084244495312143439 0.00064068901139746593 0 0.0035683341913715118 0.00049457330403237002 0 0.0044311839589873748 0.00088139841679708278 0 0.0076172812170401619 -6.959819623755368e-05 0 0.0084156849916862345 0.00030643698623262334 0 0.0079453396250135679 0.0004952646236758431 0 0.0079453396250135679 0.0004952646236758431 0 0.0079498924564156692 0.00087399754692334629 0 0.0076459028827509847 0.00077868782089635699 0 0.0079453396250135679 0.0004952646236758431 0 0.0082217907672489238 0.00078287524023865204 0 0.0079498924564156692 0.00087399754692334629 0 0.0079453396250135679 0.0004952646236758431 0 0.0084244495312143439 0.00064068901139746593 0 0.0082217907672489238 0.00078287524023865204 0 0.0084244495312143439 0.00064068901139746593 0 0.0082217907672489238 0.00078287524023865204 0 0.0084377708138400863 0.00086357962679912135 0 0.0084244495312143439 0.00064068901139746593 0 0.0084377708138400863 0.00086357962679912135 0 0.0086927592354813787 0.00076395537019085071 0 0.008246647531976601 0.0010024280426283322 0 0.0080034268262266679 0.0012484370275474461 0 0.0085595256432583061 0.001182898957837024 0 0.0082217907672489238 0.00078287524023865204 0 0.0084377708138400863 0.00086357962679912135 0 0.008246647531976601 0.0010024280426283322 0 0.0084377708138400863 0.00086357962679912135 0 0.008246647531976601 0.0010024280426283322 0 0.0085595256432583061 0.001182898957837024 0 0.01359152077380405 -0.0001966366838109785 0 0.014063035249004449 1.9375380771151846e-05 0 0.012981962628806229 0.0010297520086216293 0 0.014579137631547601 0.00020214177829088782 0 0.014063035249004449 1.9375380771151846e-05 0 0.012981962628806229 0.0010297520086216293 0 0.010399143629830788 0.00037486388843787597 0 0.01104435537721923 0.00052472036406795103 0 0.014220109787628209 -0.00034218007470379012 0 0.01104435537721923 0.00052472036406795103 0 0.013259352547531104 -0.00076076192840532635 0 0.013110448595094443 -0.00048768916464277774 0 0.012102609254415607 -0.0003416502162254575 0 0.014579137631547601 0.00020214177829088782 0 0.014063035249004449 1.9375380771151846e-05 0 0.014407483362456142 4.0247145969516757e-05 0 0.0080034268262266679 0.0012484370275474461 0 0.0079498924564156692 0.00087399754692334629 0 0.0076605242141746677 0.0010299088614851393 0 0.008246647531976601 0.0010024280426283322 0 0.0080034268262266679 0.0012484370275474461 0 0.0079498924564156692 0.00087399754692334629 0 0.0082217907672489238 0.00078287524023865204 0 0.008246647531976601 0.0010024280426283322 0 0.0079498924564156692 0.00087399754692334629 0 0.0079498924564156692 0.00087399754692334629 0 0.0076459028827509847 0.00077868782089635699 0 0.0076605242141746677 0.0010299088614851393 0 0.0071571407507498774 0.00048930366190771382 0 0.0076459028827509847 0.00077868782089635699 0 0.0074018276805957123 0.00094098808658224563 0 0.0074018276805957123 0.00094098808658224563 0 0.0076605242141746677 0.0010299088614851393 0 0.0073048338162329937 0.0012318670769100725 0 0.0076459028827509847 0.00077868782089635699 0 0.0074018276805957123 0.00094098808658224563 0 0.0076605242141746677 0.0010299088614851393 0 0.0066014567206312989 0.00072077502420261441 0 0.0071571407507498774 0.00048930366190771382 0 0.0071473835624585079 0.0010679456697277208 0 0.0071571407507498774 0.00048930366190771382 0 0.0074018276805957123 0.00094098808658224563 0 0.0071473835624585079 0.0010679456697277208 0 0.0074018276805957123 0.00094098808658224563 0 0.0071473835624585079 0.0010679456697277208 0 0.0073048338162329937 0.0012318670769100725 0 0.0072049417368650207 0.0010657161461660833 0 0.0071473835624585079 0.0010679456697277208 0 0.0073048338162329937 0.0012318670769100725 0 0.013913569324498045 -0.0009587705073946048 0 0.013832313640683574 -0.00067647299006654081 0 0.014005496279344108 -0.00088892774776451217 0 0.0104746172666886 8.0166640024723383e-05 0 0.010613526774421215 0.00025960574271654912 0 0.013259352547531104 -0.00076076192840532635 0 0.013110448595094443 -0.00048768916464277774 0 0.013832313640683574 -0.00067647299006654081 0 0.013259352547531104 -0.00076076192840532635 0 0.013832313640683574 -0.00067647299006654081 0 0.014005496279344108 -0.00088892774776451217 0 0.0080034268262266679 0.0012484370275474461 0 0.0076605242141746677 0.0010299088614851393 0 0.0073048338162329937 0.0012318670769100725 0 0.010399143629830788 0.00037486388843787597 0 0.010613526774421215 0.00025960574271654912 0 0.014579137631547601 0.00020214177829088782 0 0.014543417568806812 2.338459481092683e-05 0 0.014546976666117666 -0.00018713023001830646 0 0.014543417568806812 2.338459481092683e-05 0 0.014554050274167203 -4.9715817754038795e-05 0 0.014546976666117666 -0.00018713023001830646 0 0.014220109787628209 -0.00034218007470379012 0 0.014149662097106691 -0.0004888213530857739 0 0.014543417568806812 2.338459481092683e-05 0 0.014554050274167203 -4.9715817754038795e-05 0 0.01452807724969556 -1.8228359601265105e-05 0 0.014554050274167203 -4.9715817754038795e-05 0 0.014546976666117666 -0.00018713023001830646 0 0.014551848002091521 -2.5569544476022782e-05 0 0.014546976666117666 -0.00018713023001830646 0 0.0143771614276022 -2.4029391075667309e-05 0 0.014551848002091521 -2.5569544476022782e-05 0 0.0143771614276022 -2.4029391075667309e-05 0 0.014551848002091521 -2.5569544476022782e-05 0 0.014589185412397834 0.00015268288239868449 0 0.014551848002091521 -2.5569544476022782e-05 0 0.014567216048352427 6.4655965300566961e-05 0 0.014589185412397834 0.00015268288239868449 0 0.014551848002091521 -2.5569544476022782e-05 0 0.01452807724969556 -1.8228359601265105e-05 0 0.014567216048352427 6.4655965300566961e-05 0 0.014554050274167203 -4.9715817754038795e-05 0 0.014551848002091521 -2.5569544476022782e-05 0 0.01452807724969556 -1.8228359601265105e-05 0 0.01452807724969556 -1.8228359601265105e-05 0 0.014567216048352427 6.4655965300566961e-05 0 0.014515550720822815 4.4379600802763961e-05 0 0.014515550720822815 4.4379600802763961e-05 0 0.014422864760224446 -2.5618239753870898e-06 0 0.01440535393976628 3.139461735011026e-05 0 0.01452807724969556 -1.8228359601265105e-05 0 0.014515550720822815 4.4379600802763961e-05 0 0.014422864760224446 -2.5618239753870898e-06 0 0.01452807724969556 -1.8228359601265105e-05 0 0.014422864760224446 -2.5618239753870898e-06 0 0.014416376048005971 -2.6711102957844757e-05 0 0.014422864760224446 -2.5618239753870898e-06 0 0.014416376048005971 -2.6711102957844757e-05 0 0.014239605401917968 -3.6748865519894838e-05 0 0.014422864760224446 -2.5618239753870898e-06 0 0.014239605401917968 -3.6748865519894838e-05 0 0.01440535393976628 3.139461735011026e-05 0 0.014239605401917968 -3.6748865519894838e-05 0 0.014326487365755224 4.0704038213161119e-05 0 0.01440535393976628 3.139461735011026e-05 0 0.014168017044552818 1.9523571338588957e-05 0 0.014239605401917968 -3.6748865519894838e-05 0 0.014326487365755224 4.0704038213161119e-05 0 0.014168017044552818 1.9523571338588957e-05 0 0.014239605401917968 -3.6748865519894838e-05 0 0.013972630822205361 -3.9231205968426753e-05 0 0.014239605401917968 -3.6748865519894838e-05 0 0.014014362742772672 -8.8566915044918152e-05 0 0.014327188094583871 -3.3990136078907072e-05 0 0.014239605401917968 -3.6748865519894838e-05 0 0.014014362742772672 -8.8566915044918152e-05 0 0.013972630822205361 -3.9231205968426753e-05 0 0.014014362742772672 -8.8566915044918152e-05 0 0.01359152077380405 -0.0001966366838109785 0 0.013972630822205361 -3.9231205968426753e-05 0 0.014014362742772672 -8.8566915044918152e-05 0 0.01359152077380405 -0.0001966366838109785 0 0.014063035249004449 1.9375380771151846e-05 0 0.014014362742772672 -8.8566915044918152e-05 0 0.014063035249004449 1.9375380771151846e-05 0 0.014327188094583871 -3.3990136078907072e-05 0 0.014063035249004449 1.9375380771151846e-05 0 0.014407483362456142 4.0247145969516757e-05 0 0.014327188094583871 -3.3990136078907072e-05 0 0.014543417568806812 2.338459481092683e-05 0 0.014407483362456142 4.0247145969516757e-05 0 0.014327188094583871 -3.3990136078907072e-05 0 0.014579137631547601 0.00020214177829088782 0 0.014543417568806812 2.338459481092683e-05 0 0.014407483362456142 4.0247145969516757e-05 0 0.014543417568806812 2.338459481092683e-05 0 0.01452807724969556 -1.8228359601265105e-05 0 0.014416376048005971 -2.6711102957844757e-05 0 0.014543417568806812 2.338459481092683e-05 0 0.014416376048005971 -2.6711102957844757e-05 0 0.014327188094583871 -3.3990136078907072e-05 0 0.014416376048005971 -2.6711102957844757e-05 0 0.014239605401917968 -3.6748865519894838e-05 0 0.014327188094583871 -3.3990136078907072e-05 0 0.014143015095184392 -0.00015532062881111277 0 0.014043453009595933 -8.572847423093595e-05 0 0.014053171582099939 -0.0003037714945662175 0 0.014171540423534789 -5.3474159833356677e-05 0 0.014043453009595933 -8.572847423093595e-05 0 0.014161769228837204 1.3264010426471039e-05 0 0.014171540423534789 -5.3474159833356677e-05 0 0.014143015095184392 -0.00015532062881111277 0 0.014043453009595933 -8.572847423093595e-05 0 0.014143015095184392 -0.00015532062881111277 0 0.0142230070679382 -0.00012855749151467131 0 0.014163723842276989 -0.00022686791333584568 0 0.014171540423534789 -5.3474159833356677e-05 0 0.014143015095184392 -0.00015532062881111277 0 0.0142230070679382 -0.00012855749151467131 0 0.01359152077380405 -0.0001966366838109785 0 0.014043453009595933 -8.572847423093595e-05 0 0.014053171582099939 -0.0003037714945662175 0 0.01359152077380405 -0.0001966366838109785 0 0.014043453009595933 -8.572847423093595e-05 0 0.013972630822205361 -3.9231205968426753e-05 0 0.014043453009595933 -8.572847423093595e-05 0 0.013972630822205361 -3.9231205968426753e-05 0 0.014161769228837204 1.3264010426471039e-05 0 0.014168017044552818 1.9523571338588957e-05 0 0.013972630822205361 -3.9231205968426753e-05 0 0.014161769228837204 1.3264010426471039e-05 0 0.014168017044552818 1.9523571338588957e-05 0 0.014161769228837204 1.3264010426471039e-05 0 0.014243177611196613 6.7831778887902426e-05 0 0.014171540423534789 -5.3474159833356677e-05 0 0.014161769228837204 1.3264010426471039e-05 0 0.014259763895024544 4.2066266014656293e-05 0 0.014161769228837204 1.3264010426471039e-05 0 0.014259763895024544 4.2066266014656293e-05 0 0.014243177611196613 6.7831778887902426e-05 0 0.014351423638136596 -7.5006072842463418e-05 0 0.0142230070679382 -0.00012855749151467131 0 0.014259763895024544 4.2066266014656293e-05 0 0.014171540423534789 -5.3474159833356677e-05 0 0.0142230070679382 -0.00012855749151467131 0 0.014259763895024544 4.2066266014656293e-05 0 0.019450772752330901 0.0030864025401459304 0 0.01949407434730099 0.0031112702633270019 0 0.019493775768824835 0.003112509818669239 0 0.014757793827992079 0.00097970717204769338 0 0.017341586206732335 0.0015254203300710029 0 0.014757793827992079 0.00097970717204769338 0 0.010205264268807909 -0.0013089160161543589 0 0.014351423638136596 -7.5006072842463418e-05 0 0.0142230070679382 -0.00012855749151467131 0 0.014289286983102823 -0.00022186975572621568 0 0.0142230070679382 -0.00012855749151467131 0 0.014218270806637042 -0.00023424747584277182 0 0.014163723842276989 -0.00022686791333584568 0 0.0142230070679382 -0.00012855749151467131 0 0.014218270806637042 -0.00023424747584277182 0 0.014289286983102823 -0.00022186975572621568 0 0.014218270806637042 -0.00023424747584277182 0 0.014165575808666059 -0.00028372122057613555 0 0.014163723842276989 -0.00022686791333584568 0 0.014218270806637042 -0.00023424747584277182 0 0.014289286983102823 -0.00022186975572621568 0 0.014216033153086229 -0.00032490807629434931 0 0.0067906277267681418 -0.0012288846946023892 0 0.0069481686609314712 -0.00037022316842931686 0 0.0064268740339766921 -0.00057175094290073329 0 0.010205264268807909 -0.0013089160161543589 0 0.0094835875050039015 0.00018298145685192082 0 0.0069481686609314712 -0.00037022316842931686 0 0.0063458139232339282 -7.5004290884755914e-05 0 0.0064268740339766921 -0.00057175094290073329 0 0.0094835875050039015 0.00018298145685192082 0 0.011624345206405555 9.1316222278599055e-05 0 0.014218270806637042 -0.00023424747584277182 0 0.014216033153086229 -0.00032490807629434931 0 0.014165575808666059 -0.00028372122057613555 0 0.0083359224988107487 0.00072216503546770514 0 0.0084520316758099085 0.00067854508447956399 0 0.0084151083107955413 0.00074157677712630426 0 0.0084520316758099085 0.00067854508447956399 0 0.0086434360068374291 0.00080708209853157188 0 0.0084151083107955413 0.00074157677712630426 0 0.0089027686951610799 0.00082968730770143688 0 0.0092534948706692807 0.00089960092978768409 0 0.0089176026192725327 0.00084860772622627511 0 0.0086434360068374291 0.00080708209853157188 0 0.0089027686951610799 0.00082968730770143688 0 0.0089176026192725327 0.00084860772622627511 0 0.0089027686951610799 0.00082968730770143688 0 0.0089125888175622305 0.00082622978316410339 0 0.0087906812462030005 0.00075595019967507316 0 0.0089027686951610799 0.00082968730770143688 0 0.0092534948706692807 0.00089960092978768409 0 0.0089125888175622305 0.00082622978316410339 0 0.0084520316758099085 0.00067854508447956399 0 0.0086434360068374291 0.00080708209853157188 0 0.0089176026192725327 0.00084860772622627511 0 0.0084520316758099085 0.00067854508447956399 0 0.009486110243275607 0.00072784750252028233 0 0.0089176026192725327 0.00084860772622627511 0 0.0092534948706692807 0.00089960092978768409 0 0.009486110243275607 0.00072784750252028233 0 0.0089176026192725327 0.00084860772622627511 0 0.0084520316758099085 0.00067854508447956399 0 0.009486110243275607 0.00072784750252028233 0 0.010567046906618395 7.2063889452417959e-06 0 0.014165575808666059 -0.00028372122057613555 0 0.014053171582099939 -0.0003037714945662175 0 0.014163723842276989 -0.00022686791333584568 0 0.011624345206405555 9.1316222278599055e-05 0 0.012243458964962321 -4.10545603045067e-05 0 0.014143015095184392 -0.00015532062881111277 0 0.014053171582099939 -0.0003037714945662175 0 0.014163723842276989 -0.00022686791333584568 0 0.01359152077380405 -0.0001966366838109785 0 0.010567046906618395 7.2063889452417959e-06 0 0.012981962628806229 0.0010297520086216293 0 0.013350310352770676 -0.00025027153923254522 0 0.012243458964962321 -4.10545603045067e-05 0 0.009486110243275607 0.00072784750252028233 0 0.010567046906618395 7.2063889452417959e-06 0 0.012981962628806229 0.0010297520086216293 0 0.0085595256432583061 0.001182898957837024 0 0.0089125888175622305 0.00082622978316410339 0 0.0086927592354813787 0.00076395537019085071 0 0.0086822162362668546 0.0011036873824822682 0 0.01104435537721923 0.00052472036406795103 0 0.0092534948706692807 0.00089960092978768409 0 0.0085595256432583061 0.001182898957837024 0 0.0089125888175622305 0.00082622978316410339 0 0.0092534948706692807 0.00089960092978768409 0 0.009486110243275607 0.00072784750252028233 0 0.010405757158615905 0.00062079254945961919 0 0.0099639370848257913 0.00081126560608633556 0 0.01104435537721923 0.00052472036406795103 0 0.0084377708138400863 0.00086357962679912135 0 0.0085595256432583061 0.001182898957837024 0 0.0086927592354813787 0.00076395537019085071 0 0.0084244495312143439 0.00064068901139746593 0 0.0086927592354813787 0.00076395537019085071 0 0.0086768073286137837 0.00068054205018359428 0 0.0086927592354813787 0.00076395537019085071 0 0.0087906812462030005 0.00075595019967507316 0 0.0086768073286137837 0.00068054205018359428 0 0.0089125888175622305 0.00082622978316410339 0 0.0086927592354813787 0.00076395537019085071 0 0.0087906812462030005 0.00075595019967507316 0 0.0089027686951610799 0.00082968730770143688 0 0.0087906812462030005 0.00075595019967507316 0 0.0085300405484872496 0.00077350120262439253 0 0.0086434360068374291 0.00080708209853157188 0 0.0089027686951610799 0.00082968730770143688 0 0.0085300405484872496 0.00077350120262439253 0 0.0087906812462030005 0.00075595019967507316 0 0.0086171085231299752 0.00076241270226638899 0 0.0086768073286137837 0.00068054205018359428 0 0.0086171085231299752 0.00076241270226638899 0 0.008407797309587163 0.00080676368657687006 0 0.0085300405484872496 0.00077350120262439253 0 0.0087906812462030005 0.00075595019967507316 0 0.0086171085231299752 0.00076241270226638899 0 0.0085300405484872496 0.00077350120262439253 0 0.0086171085231299752 0.00076241270226638899 0 0.0086768073286137837 0.00068054205018359428 0 0.0086912422592899663 0.00096721181120302342 0 0.0086171085231299752 0.00076241270226638899 0 0.0086912422592899663 0.00096721181120302342 0 0.008407797309587163 0.00080676368657687006 0 0.0084156849916862345 0.00030643698623262334 0 0.0086768073286137837 0.00068054205018359428 0 0.0086912422592899663 0.00096721181120302342 0 0.0012698608839190443 0.00018148906167325413 0 0.0006423223923476076 0.00077531445118101956 0 0.0016993817812227122 0.0016552552995398675 0 0.0006423223923476076 0.00077531445118101956 0 0.00046348181345410682 0.0014475000436496264 0 0.0016993817812227122 0.0016552552995398675 0 0.0044311839589873748 0.00088139841679708278 0 0.0051640896738452272 0.0013130724864553257 0 0.0012698608839190443 0.00018148906167325413 0 0.0016993817812227122 0.0016552552995398675 0 0.002372872601525057 0.0011095064724942893 0 0.0024979953990706535 0.00035592086058642831 0 0.0012698608839190443 0.00018148906167325413 0 0.002372872601525057 0.0011095064724942893 0 0.002372872601525057 0.0011095064724942893 0 0.0031329898187626476 0.0017442703869672599 0 0.0037408881247521595 0.00064974025855139524 0 0.0024979953990706535 0.00035592086058642831 0 0.002372872601525057 0.0011095064724942893 0 0.0037408881247521595 0.00064974025855139524 0 0.0051640896738452272 0.0013130724864553257 0 0.0053124815088662286 0.0016607956072723356 0 0.0016993817812227122 0.0016552552995398675 0 0.002372872601525057 0.0011095064724942893 0 0.0031329898187626476 0.0017442703869672599 0 0.0075276529741301768 0.001672456090293569 0 0.0065607246322723582 0.00077022926697831748 0 0.0079515629605574276 0.00084491669639041097 0 0.0065607246322723582 0.00077022926697831748 0 0.0079515629605574276 0.00084491669639041097 0 0.0070326370363369122 0.0001863100216794644 0 0.0086912422592899663 0.00096721181120302342 0 0.0075276529741301768 0.001672456090293569 0 0.0079515629605574276 0.00084491669639041097 0 0.0086912422592899663 0.00096721181120302342 0 0.0079515629605574276 0.00084491669639041097 0 0.008407797309587163 0.00080676368657687006 0 0.0079515629605574276 0.00084491669639041097 0 0.008407797309587163 0.00080676368657687006 0 0.0085300405484872496 0.00077350120262439253 0 0.0079515629605574276 0.00084491669639041097 0 0.0084151083107955413 0.00074157677712630426 0 0.0085300405484872496 0.00077350120262439253 0 0.0083359224988107487 0.00072216503546770514 0 0.0079515629605574276 0.00084491669639041097 0 0.0084151083107955413 0.00074157677712630426 0 0.0086434360068374291 0.00080708209853157188 0 0.0084151083107955413 0.00074157677712630426 0 0.0085300405484872496 0.00077350120262439253 0 0.0094835875050039015 0.00018298145685192082 0 0.0076248929995656519 0.00065272936278964555 0 0.0065607246322723582 0.00077022926697831748 0 0.0070326370363369122 0.0001863100216794644 0 0.0063458139232339282 -7.5004290884755914e-05 0 0.0073920448036703199 -0.00083143001839221589 0 0.0079515629605574276 0.00084491669639041097 0 0.0070326370363369122 0.0001863100216794644 0 0.0094835875050039015 0.00018298145685192082 0 0.0060000291195547008 0.0001270521522983801 0 0.0073920448036703199 -0.00083143001839221589 0 0.0070326370363369122 0.0001863100216794644 0 0.0063458139232339282 -7.5004290884755914e-05 0 0.0063458139232339282 -7.5004290884755914e-05 0 0.0057711545825465628 -0.00014612785546541017 0 0.0055931150353821053 0.00058081699226288086 0 0.0063458139232339282 -7.5004290884755914e-05 0 0.0057711545825465628 -0.00014612785546541017 0 0.0064268740339766921 -0.00057175094290073329 0 0.0057711545825465628 -0.00014612785546541017 0 0.005226962796019888 0.0002714971569798434 0 0.0055931150353821053 0.00058081699226288086 0 0.005226962796019888 0.0002714971569798434 0 0.0049539792054202267 9.994792252800437e-05 0 0.0053040179675777812 -0.00028226978889041553 0 0.0057711545825465628 -0.00014612785546541017 0 0.005226962796019888 0.0002714971569798434 0 0.0053040179675777812 -0.00028226978889041553 0 0.004968540099903827 0.000965126514468665 0 0.0055931150353821053 0.00058081699226288086 0 0.0049571439554853842 0.0015751008438561634 0 0.005226962796019888 0.0002714971569798434 0 0.004968540099903827 0.000965126514468665 0 0.0047877857430492768 0.00045372923959590675 0 0.005226962796019888 0.0002714971569798434 0 0.004968540099903827 0.000965126514468665 0 0.0055931150353821053 0.00058081699226288086 0 0.0065607246322723582 0.00077022926697831748 0 0.0063458139232339282 -7.5004290884755914e-05 0 0.0055931150353821053 0.00058081699226288086 0 0.0065607246322723582 0.00077022926697831748 0 0.0055931150353821053 0.00058081699226288086 0 0.0049571439554853842 0.0015751008438561634 0 0.0031329898187626476 0.0017442703869672599 0 0.0049571439554853842 0.0015751008438561634 0 0.0037408881247521595 0.00064974025855139524 0 0.0053124815088662286 0.0016607956072723356 0 0.0050027652184693643 0.0016098412741602475 0 0.0075276529741301768 0.001672456090293569 0 0.0065607246322723582 0.00077022926697831748 0 0.0049571439554853842 0.0015751008438561634 0 0.004968540099903827 0.000965126514468665 0 0.0049571439554853842 0.0015751008438561634 0 0.0048802282400977389 0.0013704135436160062 0 0.0048207180576694889 0.00090024914273061421 0 0.0049571439554853842 0.0015751008438561634 0 0.0048802282400977389 0.0013704135436160062 0 0.0048207180576694889 0.00090024914273061421 0 0.0049571439554853842 0.0015751008438561634 0 0.0037408881247521595 0.00064974025855139524 0 0.0065027185775642432 0.0010699133453832466 0 0.0076120317921904426 0.0023158800966220205 0 0.0055328365676578159 0.0028045056161763353 0 0.0065027185775642432 0.0010699133453832466 0 0.0084947317613813991 0.0010785577994793895 0 0.0076120317921904426 0.0023158800966220205 0 0.0065027185775642432 0.0010699133453832466 0 0.0048207180576694889 0.00090024914273061421 0 0.0055328365676578159 0.0028045056161763353 0 0.0048175713571618761 0.0010049124810194879 0 0.005242615928221863 0.0020840489960882247 0 0.004968540099903827 0.000965126514468665 0 0.0048802282400977389 0.0013704135436160062 0 0.0044797582453371823 0.00091989225572603882 0 0.005242615928221863 0.0020840489960882247 0 0.0050750636785406632 0.0027190674027831579 0 0.0079275017046825762 0.0039236066618723118 0 0.0076120317921904426 0.0023158800966220205 0 0.0055328365676578159 0.0028045056161763353 0 0.0079275017046825762 0.0039236066618723118 0 0.0055328365676578159 0.0028045056161763353 0 0.0064481152663588732 0.0047220779949466857 0 0.0050750636785406632 0.0027190674027831579 0 0.010597098253467673 0.0024111439875439586 0 0.0064481152663588732 0.0047220779949466857 0 0.0076592716960881711 0.0051829790472571469 0 0.0074007494150354356 0.0065686995978723088 0 0.0079275017046825762 0.0039236066618723118 0 0.0064481152663588732 0.0047220779949466857 0 0.0076592716960881711 0.0051829790472571469 0 0.004968540099903827 0.000965126514468665 0 0.0044797582453371823 0.00091989225572603882 0 0.0047877857430492768 0.00045372923959590675 0 0.0044797582453371823 0.00091989225572603882 0 0.0047877857430492768 0.00045372923959590675 0 0.0044908641567165423 0.00033081674680604983 0 0.0047877857430492768 0.00045372923959590675 0 0.0046816381892325655 4.8521213632505537e-05 0 0.0049539792054202267 9.994792252800437e-05 0 0.005226962796019888 0.0002714971569798434 0 0.0047877857430492768 0.00045372923959590675 0 0.0049539792054202267 9.994792252800437e-05 0 0.0047877857430492768 0.00045372923959590675 0 0.0046816381892325655 4.8521213632505537e-05 0 0.0044908641567165423 0.00033081674680604983 0 0.0046816381892325655 4.8521213632505537e-05 0 0.0044908641567165423 0.00033081674680604983 0 0.0044046350070312797 -3.5442037455082869e-06 0 0.0046816381892325655 4.8521213632505537e-05 0 0.0043496681299087054 -8.2555716997536604e-05 0 0.0048722229138004952 -0.00022044232277341995 0 0.0049539792054202267 9.994792252800437e-05 0 0.0048722229138004952 -0.00022044232277341995 0 0.0053040179675777812 -0.00028226978889041553 0 0.0046816381892325655 4.8521213632505537e-05 0 0.0049539792054202267 9.994792252800437e-05 0 0.0048722229138004952 -0.00022044232277341995 0 0.0044797582453371823 0.00091989225572603882 0 0.0044908641567165423 0.00033081674680604983 0 0.0041012847454907362 0.00019068927659139149 0 0.0046816381892325655 4.8521213632505537e-05 0 0.0044046350070312797 -3.5442037455082869e-06 0 0.0043496681299087054 -8.2555716997536604e-05 0 0.0044908641567165423 0.00033081674680604983 0 0.0044046350070312797 -3.5442037455082869e-06 0 0.0041012847454907362 0.00019068927659139149 0 0.0044046350070312797 -3.5442037455082869e-06 0 0.0043625679735210029 -6.8491479524317273e-05 0 0.0041012847454907362 0.00019068927659139149 0 0.013038554375863978 0.001849361393247487 0 0.010597098253467673 0.0024111439875439586 0 0.012021999408335803 0.0009999800898872948 0 0.013038554375863978 0.001849361393247487 0 0.017781722211760938 0.0025231743003592544 0 0.013038554375863978 0.001849361393247487 0 0.014573933868412794 0.0013310087700214043 0 0.014709569696159469 0.0014588101867579644 0 0.014622800742407347 0.0015286356623124991 0 0.014834977717235376 0.001634990314309725 0 0.010597098253467673 0.0024111439875439586 0 0.014595171013571594 0.0011633886413654278 0 0.014573933868412794 0.0013310087700214043 0 0.014709569696159469 0.0014588101867579644 0 0.019588806272887366 0.0033543370305552508 0 0.019396067995455867 0.0031801795510385858 0 0.019417048489009821 0.0032389153621020369 0 0.019588806272887366 0.0033543370305552508 0 0.019417048489009821 0.0032389153621020369 0 0.019547004599514042 0.0033699795767350819 0 0.019588806272887366 0.0033543370305552508 0 0.019547004599514042 0.0033699795767350819 0 0.019594149048990029 0.00341555391572145 0 0.019417048489009821 0.0032389153621020369 0 0.019547004599514042 0.0033699795767350819 0 0.019568648782189599 0.0034126338972064419 0 0.019417048489009821 0.0032389153621020369 0 0.019363580865744936 0.0032360259421370129 0 0.0193816988348996 0.0032055497492745008 0 0.019431037449454704 0.0032347980888399754 0 0.01948003033606405 0.0032968759872891817 0 0.019363580865744936 0.0032360259421370129 0 0.019428589332948897 0.0031726579892267788 0 0.0193816988348996 0.0032055497492745008 0 0.013038554375863978 0.001849361393247487 0 0.012090490266065453 0.0012158525072692708 0 0.019396067995455867 0.0031801795510385858 0 0.019417048489009821 0.0032389153621020369 0 0.019363580865744936 0.0032360259421370129 0 0.0043496681299087054 -8.2555716997536604e-05 0 0.00505040714032711 -0.00082259561457152103 0 0.0048722229138004952 -0.00022044232277341995 0 0.00505040714032711 -0.00082259561457152103 0 0.0048722229138004952 -0.00022044232277341995 0 0.0053040179675777812 -0.00028226978889041553 0 0.0057711545825465628 -0.00014612785546541017 0 0.0053040179675777812 -0.00028226978889041553 0 0.0056924619701872389 -0.00064713047137139807 0 0.00505040714032711 -0.00082259561457152103 0 0.0053040179675777812 -0.00028226978889041553 0 0.0056924619701872389 -0.00064713047137139807 0 0.0056924619701872389 -0.00064713047137139807 0 0.0064268740339766921 -0.00057175094290073329 0 0.0058634146430691569 -0.0014929709340433747 0 0.0057711545825465628 -0.00014612785546541017 0 0.0056924619701872389 -0.00064713047137139807 0 0.0064268740339766921 -0.00057175094290073329 0 0.0067906277267681418 -0.0012288846946023892 0 0.0064268740339766921 -0.00057175094290073329 0 0.0058634146430691569 -0.0014929709340433747 0 0.012090490266065453 0.0012158525072692708 0 0.012422517832351359 0.00087924650492175206 0 0.019363580865744936 0.0032360259421370129 0 0.019415299811522124 0.0031895418103393973 0 0.019428589332948897 0.0031726579892267788 0 0.00505040714032711 -0.00082259561457152103 0 0.0056924619701872389 -0.00064713047137139807 0 0.0058634146430691569 -0.0014929709340433747 0 0.019415299811522124 0.0031895418103393973 0 0.019428589332948897 0.0031726579892267788 0 0.019475169884734599 0.0031369472305676346 0 0.014757793827992079 0.00097970717204769338 0 0.012422517832351359 0.00087924650492175206 0 0.0066478263982876632 -0.0020986325972843756 0 0.0067906277267681418 -0.0012288846946023892 0 0.0058634146430691569 -0.0014929709340433747 0 0.019455032083744998 0.0031442497497448391 0 0.019415299811522124 0.0031895418103393973 0 0.019475169884734599 0.0031369472305676346 0 0.014757793827992079 0.00097970717204769338 0 0.020885133723664517 0.0042034320515226533 0 0.019455032083744998 0.0031442497497448391 0 0.019475169884734599 0.0031369472305676346 0 0.01950088599839455 0.0031172088625666776 0 0.019428589332948897 0.0031726579892267788 0 0.019475169884734599 0.0031369472305676346 0 0.019452494826636586 0.0031381235968569194 0 0.019746212150751657 0.0033736650935171286 0 0.019652429936031696 0.0033982363669336014 0 0.01974193388843375 0.0032892427765610008 0 0.019746212150751657 0.0033736650935171286 0 0.019652429936031696 0.0033982363669336014 0 0.019568648782189599 0.0034126338972064419 0 0.019623618657070654 0.0033921761316349362 0 0.019652429936031696 0.0033982363669336014 0 0.019594149048990029 0.00341555391572145 0 0.019652429936031696 0.0033982363669336014 0 0.019594149048990029 0.00341555391572145 0 0.019568648782189599 0.0034126338972064419 0 0.019547004599514042 0.0033699795767350819 0 0.019594149048990029 0.00341555391572145 0 0.019568648782189599 0.0034126338972064419 0 0.019428589332948897 0.0031726579892267788 0 0.019452494826636586 0.0031381235968569194 0 0.0193816988348996 0.0032055497492745008 0 0.019598493681839156 0.0032533365579795505 0 0.01948003033606405 0.0032968759872891817 0 0.019863533064495058 0.0032093072602753896 0 0.019806263514271248 0.0031903741201441673 0 0.01974193388843375 0.0032892427765610008 0 0.019863533064495058 0.0032093072602753896 0 0.019806263514271248 0.0031903741201441673 0 0.019841432672042775 0.0031216356709753484 0 0.019806263514271248 0.0031903741201441673 0 0.019772674018468002 0.0031913293417069398 0 0.01974193388843375 0.0032892427765610008 0 0.019679237554207214 0.0032854107643177882 0 0.019772674018468002 0.0031913293417069398 0 0.01974193388843375 0.0032892427765610008 0 0.019623618657070654 0.0033921761316349362 0 0.019679237554207214 0.0032854107643177882 0 0.01974193388843375 0.0032892427765610008 0 0.019623618657070654 0.0033921761316349362 0 0.019652429936031696 0.0033982363669336014 0 0.01974193388843375 0.0032892427765610008 0 0.019598493681839156 0.0032533365579795505 0 0.019720582168593279 0.0031709077609995695 0 0.019746212150751657 0.0033736650935171286 0 0.019863533064495058 0.0032093072602753896 0 0.01974193388843375 0.0032892427765610008 0 0.019475169884734599 0.0031369472305676346 0 0.019452494826636586 0.0031381235968569194 0 0.019542052229844099 0.003123814544468145 0 0.019452494826636586 0.0031381235968569194 0 0.019578654100490034 0.0031159239991985208 0 0.019542052229844099 0.003123814544468145 0 0.019475169884734599 0.0031369472305676346 0 0.019542052229844099 0.003123814544468145 0 0.01950088599839455 0.0031172088625666776 0 0.01950088599839455 0.0031172088625666776 0 0.019499934846777076 0.0031033585096162269 0 0.019510012699363356 0.0031016484601890351 0 0.019542052229844099 0.003123814544468145 0 0.01950088599839455 0.0031172088625666776 0 0.019499934846777076 0.0031033585096162269 0 0.019578654100490034 0.0031159239991985208 0 0.019542052229844099 0.003123814544468145 0 0.019768792138673247 0.00309564318440221 0 0.019566972275503167 0.0031112496629333687 0 0.019627570396021574 0.003095193447570129 0 0.019578654100490034 0.0031159239991985208 0 0.019768792138673247 0.00309564318440221 0 0.019829849786446391 0.0030941698185235388 0 0.019720582168593279 0.0031709077609995695 0 0.019808890212471095 0.0031112500755779062 0 0.019499934846777076 0.0031033585096162269 0 0.019501224669585492 0.0030480359590048852 0 0.019516233432230766 0.003079135778069867 0 0.019768792138673247 0.00309564318440221 0 0.019829456470737528 0.0031055060785897975 0 0.019829849786446391 0.0030941698185235388 0 0.019627570396021574 0.003095193447570129 0 0.019681861967901827 0.0030524625633739691 0 0.019499934846777076 0.0031033585096162269 0 0.019516233432230766 0.003079135778069867 0 0.019510012699363356 0.0031016484601890351 0 0.019829456470737528 0.0031055060785897975 0 0.019829849786446391 0.0030941698185235388 0 0.019870503812006394 0.0031151205133517954 0 0.019829849786446391 0.0030941698185235388 0 0.019895569381885227 0.0030895280983483783 0 0.019870503812006394 0.0031151205133517954 0 0.019895569381885227 0.0030895280983483783 0 0.019841432672042775 0.0031216356709753484 0 0.019833913785302519 0.0031102801415841433 0 0.019829849786446391 0.0030941698185235388 0 0.019895569381885227 0.0030895280983483783 0 0.019841432672042775 0.0031216356709753484 0 0.019863533064495058 0.0032093072602753896 0 0.019829849786446391 0.0030941698185235388 0 0.019841432672042775 0.0031216356709753484 0 0.019806263514271248 0.0031903741201441673 0 0.019841432672042775 0.0031216356709753484 0 0.019833913785302519 0.0031102801415841433 0 0.019806263514271248 0.0031903741201441673 0 0.019772674018468002 0.0031913293417069398 0 0.019833913785302519 0.0031102801415841433 0 0.019767392127018522 0.0031044073699852642 0 0.019772674018468002 0.0031913293417069398 0 0.019833913785302519 0.0031102801415841433 0 0.019881900554083391 0.0030459541378427767 0 0.019895569381885227 0.0030895280983483783 0 0.019833913785302519 0.0031102801415841433 0 0.020007612044186208 0.0031014810567645871 0 0.019895569381885227 0.0030895280983483783 0 0.019969763859443015 0.0031313740582991881 0 0.019881900554083391 0.0030459541378427767 0 0.020007612044186208 0.0031014810567645871 0 0.019895569381885227 0.0030895280983483783 0 0.019895569381885227 0.0030895280983483783 0 0.019969763859443015 0.0031313740582991881 0 0.0199215061263005 0.003144835694093461 0 0.019895569381885227 0.0030895280983483783 0 0.0199215061263005 0.003144835694093461 0 0.019870503812006394 0.0031151205133517954 0 0.019969763859443015 0.0031313740582991881 0 0.019972822885212474 0.0032027332620886413 0 0.0199215061263005 0.003144835694093461 0 0.020007612044186208 0.0031014810567645871 0 0.019969763859443015 0.0031313740582991881 0 0.020041657511695309 0.0032069727988628368 0 0.020007612044186208 0.0031014810567645871 0 0.020215286259013723 0.0031934189294464377 0 0.020041657511695309 0.0032069727988628368 0 0.019986592680135789 0.0031372121075790072 0 0.020069042882162436 0.0032402247634330528 0 0.020103797518785022 0.0032690567922710949 0 0.019972822885212474 0.0032027332620886413 0 0.019964445682539422 0.0032802490398782555 0 0.019969763859443015 0.0031313740582991881 0 0.020103797518785022 0.0032690567922710949 0 0.019972822885212474 0.0032027332620886413 0 0.020103797518785022 0.0032690567922710949 0 0.020017990379037537 0.0033796162478392428 0 0.020099930727895055 0.0034329679971329325 0 0.020103797518785022 0.0032690567922710949 0 0.020017990379037537 0.0033796162478392428 0 0.019964445682539422 0.0032802490398782555 0 0.020069042882162436 0.0032402247634330528 0 0.020166745975595764 0.0034165181609159233 0 0.020215286259013723 0.0031934189294464377 0 0.020041657511695309 0.0032069727988628368 0 0.02014113986369806 0.0034078956745323317 0 0.020103797518785022 0.0032690567922710949 0 0.02019159852379938 0.0034240994902378242 0 0.020099930727895055 0.0034329679971329325 0 0.019901958034792614 0.0033184536231532172 0 0.019894133915464487 0.0032776750750127199 0 0.019885087165442062 0.0032895495522792997 0 0.019901958034792614 0.0033184536231532172 0 0.01989431367091361 0.0033154310608519665 0 0.019885087165442062 0.0032895495522792997 0 0.0199233226093447 0.0032975931106899079 0 0.019901958034792614 0.0033184536231532172 0 0.019894133915464487 0.0032776750750127199 0 0.019894133915464487 0.0032776750750127199 0 0.019877846627272027 0.0032680241978949262 0 0.019885087165442062 0.0032895495522792997 0 0.019901958034792614 0.0033184536231532172 0 0.019895469246151039 0.0033549332397245111 0 0.019909203914935229 0.0033590270271483024 0 0.019901958034792614 0.0033184536231532172 0 0.019895469246151039 0.0033549332397245111 0 0.019874963939729168 0.0033660292789500011 0 0.020383267278709403 0.0041645525737416967 0 0.023026615538569002 0.0036858550340590603 0 0.019895469246151039 0.0033549332397245111 0 0.019909203914935229 0.0033590270271483024 0 0.01989185194904438 0.0033817659866372082 0 0.019895469246151039 0.0033549332397245111 0 0.019874963939729168 0.0033660292789500011 0 0.01989185194904438 0.0033817659866372082 0 0.0199233226093447 0.0032975931106899079 0 0.019901958034792614 0.0033184536231532172 0 0.019955818657893674 0.0033678681744357085 0 0.019909203914935229 0.0033590270271483024 0 0.019955818657893674 0.0033678681744357085 0 0.019906135157708105 0.0033966197497407105 0 0.019901958034792614 0.0033184536231532172 0 0.019909203914935229 0.0033590270271483024 0 0.019955818657893674 0.0033678681744357085 0 0.019955818657893674 0.0033678681744357085 0 0.020017990379037537 0.0033796162478392428 0 0.019964445682539422 0.0032802490398782555 0 0.0199233226093447 0.0032975931106899079 0 0.019955818657893674 0.0033678681744357085 0 0.019964445682539422 0.0032802490398782555 0 0.0199233226093447 0.0032975931106899079 0 0.019964445682539422 0.0032802490398782555 0 0.019906105834865899 0.0032516203615533964 0 0.019964445682539422 0.0032802490398782555 0 0.019917115576632116 0.0032083825821300044 0 0.019906105834865899 0.0032516203615533964 0 0.019972822885212474 0.0032027332620886413 0 0.019964445682539422 0.0032802490398782555 0 0.019917115576632116 0.0032083825821300044 0 0.019917115576632116 0.0032083825821300044 0 0.019906105834865899 0.0032516203615533964 0 0.019875954607566432 0.003206469430115468 0 0.0199233226093447 0.0032975931106899079 0 0.019906105834865899 0.0032516203615533964 0 0.019894133915464487 0.0032776750750127199 0 0.019906105834865899 0.0032516203615533964 0 0.019894133915464487 0.0032776750750127199 0 0.019879426674934579 0.0032463992193972734 0 0.019894133915464487 0.0032776750750127199 0 0.019879426674934579 0.0032463992193972734 0 0.019877846627272027 0.0032680241978949262 0 0.019906105834865899 0.0032516203615533964 0 0.019879426674934579 0.0032463992193972734 0 0.019875954607566432 0.003206469430115468 0 0.019875954607566432 0.003206469430115468 0 0.019874175996100831 0.003153821114089492 0 0.019837115132908773 0.0031571113367692936 0 0.019917115576632116 0.0032083825821300044 0 0.019875954607566432 0.003206469430115468 0 0.019874175996100831 0.003153821114089492 0 0.019917115576632116 0.0032083825821300044 0 0.019874175996100831 0.003153821114089492 0 0.0199215061263005 0.003144835694093461 0 0.019972822885212474 0.0032027332620886413 0 0.019917115576632116 0.0032083825821300044 0 0.0199215061263005 0.003144835694093461 0 0.019874175996100831 0.003153821114089492 0 0.0199215061263005 0.003144835694093461 0 0.019870503812006394 0.0031151205133517954 0 0.019829456470737528 0.0031055060785897975 0 0.019874175996100831 0.003153821114089492 0 0.019837115132908773 0.0031571113367692936 0 0.019829456470737528 0.0031055060785897975 0 0.019874175996100831 0.003153821114089492 0 0.019870503812006394 0.0031151205133517954 0 0.019528668818222145 0.0029906065387403742 0 0.01957033620871499 0.0030359864625763302 0 0.019532873568896773 0.0030484508441835948 0 0.019501224669585492 0.0030480359590048852 0 0.019528668818222145 0.0029906065387403742 0 0.019532873568896773 0.0030484508441835948 0 0.019681861967901827 0.0030524625633739691 0 0.019579667496535304 0.0031682984869141053 0 0.019528668818222145 0.0029906065387403742 0 0.019595774759623364 0.002987611138598537 0 0.01957033620871499 0.0030359864625763302 0 0.023617495185995312 0.0018802754972623225 0 0.023335973767672893 0.0015039686980767217 0 0.023566924806819031 0.0015710274605563285 0 0.019528668818222145 0.0029906065387403742 0 0.019595774759623364 0.002987611138598537 0 0.019565967302832443 0.0029309539470073398 0 0.021814257485171139 0.0023100334792619608 0 0.020536654775635529 0.0027820367918979468 0 0.019579667496535304 0.0031682984869141053 0 0.020536654775635529 0.0027820367918979468 0 0.019875954607566432 0.003206469430115468 0 0.019837115132908773 0.0031571113367692936 0 0.019857640359390156 0.0032229855263892684 0 0.019837115132908773 0.0031571113367692936 0 0.019857640359390156 0.0032229855263892684 0 0.019836491174866546 0.0032328172339862486 0 0.019879426674934579 0.0032463992193972734 0 0.019875954607566432 0.003206469430115468 0 0.019857640359390156 0.0032229855263892684 0 0.019879426674934579 0.0032463992193972734 0 0.019857640359390156 0.0032229855263892684 0 0.019866255012755709 0.0032511657658258219 0 0.019879426674934579 0.0032463992193972734 0 0.019866255012755709 0.0032511657658258219 0 0.019877846627272027 0.0032680241978949262 0 0.019866255012755709 0.0032511657658258219 0 0.019871528149537118 0.0032731721975715368 0 0.019877846627272027 0.0032680241978949262 0 0.019858876441502672 0.003265824567384485 0 0.019852472234992296 0.0032500357881758454 0 0.019849182756118352 0.0032380995373155609 0 0.019871528149537118 0.0032731721975715368 0 0.019858876441502672 0.003265824567384485 0 0.019852472234992296 0.0032500357881758454 0 0.019866255012755709 0.0032511657658258219 0 0.019871528149537118 0.0032731721975715368 0 0.019852472234992296 0.0032500357881758454 0 0.020375711183882695 0.002879662190306206 0 0.020536654775635529 0.0027820367918979468 0 0.019857640359390156 0.0032229855263892684 0 0.019852472234992296 0.0032500357881758454 0 0.019836491174866546 0.0032328172339862486 0 0.019857640359390156 0.0032229855263892684 0 0.019866255012755709 0.0032511657658258219 0 0.019852472234992296 0.0032500357881758454 0 0.023335973767672893 0.0015039686980767217 0 0.023566924806819031 0.0015710274605563285 0 0.023438971636857733 0.0012921831808103269 0 0.023566924806819031 0.0015710274605563285 0 0.023438971636857733 0.0012921831808103269 0 0.023706976434584699 0.0014708475539391762 0 0.023901197408333758 0.0020537404074807224 0 0.025296428206926031 0.0014309758938074897 0 0.020536654775635529 0.0027820367918979468 0 0.023901197408333758 0.0020537404074807224 0 0.019858876441502672 0.003265824567384485 0 0.019849182756118352 0.0032380995373155609 0 0.019848299406910609 0.0032665975271531518 0 0.023901197408333758 0.0020537404074807224 0 0.026583383614519302 0.0012153567507214621 0 0.026446457959690309 0.0010885643260020476 0 0.026887870819081332 0.00092702390294807722 0 0.026702263141543302 0.00057305326083487488 0 0.025573935340493386 0.0035836975432072611 0 0.025453065192705113 0.0028242716743883309 0 0.026131460052312549 0.0024180104371017562 0 0.023901197408333758 0.0020537404074807224 0 0.023026615538569002 0.0036858550340590603 0 0.025573935340493386 0.0035836975432072611 0 0.025453065192705113 0.0028242716743883309 0 0.024596813652721313 0.0028935832244142172 0 0.019858876441502672 0.003265824567384485 0 0.019848299406910609 0.0032665975271531518 0 0.01989431367091361 0.0033154310608519665 0 0.019848299406910609 0.0032665975271531518 0 0.019896504505909064 0.0033234594115812322 0 0.01989431367091361 0.0033154310608519665 0 0.023026615538569002 0.0036858550340590603 0 0.023051286455183746 0.004652683388291075 0 0.023026615538569002 0.0036858550340590603 0 0.022854571387666219 0.0036389458831803711 0 0.019901958034792614 0.0033184536231532172 0 0.019896831215607803 0.0033178271734461452 0 0.01989431367091361 0.0033154310608519665 0 0.019871528149537118 0.0032731721975715368 0 0.019858876441502672 0.003265824567384485 0 0.01989431367091361 0.0033154310608519665 0 0.019871528149537118 0.0032731721975715368 0 0.01989431367091361 0.0033154310608519665 0 0.019885087165442062 0.0032895495522792997 0 0.019871528149537118 0.0032731721975715368 0 0.019877846627272027 0.0032680241978949262 0 0.019885087165442062 0.0032895495522792997 0 0.027348832131002049 0.001030673653728102 0 0.026887870819081332 0.00092702390294807722 0 0.027143868093450346 0.00054250025335614315 0 0.027348832131002049 0.001030673653728102 0 0.026887870819081332 0.00092702390294807722 0 0.026785124213390448 0.0013176342691049617 0 0.026446457959690309 0.0010885643260020476 0 0.026887870819081332 0.00092702390294807722 0 0.026785124213390448 0.0013176342691049617 0 0.025296428206926031 0.0014309758938074897 0 0.026321171315691599 0.00046324651882498607 0 0.027042524005231446 -0.001011258288821512 0 0.026681975990869376 -0.00034886766903145517 0 0.027353633855236946 -0.0005827844009640219 0 0.027348832131002049 0.001030673653728102 0 0.026785124213390448 0.0013176342691049617 0 0.027113149416784946 0.0015447618623362627 0 0.027265101405917626 2.2452886802391558e-05 0 0.026321171315691599 0.00046324651882498607 0 0.026681975990869376 -0.00034886766903145517 0 0.027047069639735497 -4.231810959761867e-05 0 0.027353633855236946 -0.0005827844009640219 0 0.026430994490200001 -0.00046607868324730181 0 0.026659193324629883 0.00035895923853330249 0 0.027047069639735497 -4.231810959761867e-05 0 0.026321171315691599 0.00046324651882498607 0 0.026917262177847512 -0.0001506257042206991 0 0.023617495185995312 0.0018802754972623225 0 0.023566924806819031 0.0015710274605563285 0 0.023735403638526657 0.0017077172484064593 0 0.023976769305871105 0.0016497941916741232 0 0.023735403638526657 0.0017077172484064593 0 0.023768628398811279 0.00209013141138914 0 0.023566924806819031 0.0015710274605563285 0 0.023706976434584699 0.0014708475539391762 0 0.023735403638526657 0.0017077172484064593 0 0.023706976434584699 0.0014708475539391762 0 0.023976769305871105 0.0016497941916741232 0 0.023735403638526657 0.0017077172484064593 0 0.026000391266920546 0.00048858688217833293 0 0.026659193324629883 0.00035895923853330249 0 0.026265108708005445 0.00084619130160841353 0 0.019595774759623364 0.002987611138598537 0 0.019608515703139113 0.0030155865911528326 0 0.01957033620871499 0.0030359864625763302 0 0.026321171315691599 0.00046324651882498607 0 0.023076980891166266 0.0015363882470942137 0 0.023617495185995312 0.0018802754972623225 0 0.023735403638526657 0.0017077172484064593 0 0.023768628398811279 0.00209013141138914 0 0.021814257485171139 0.0023100334792619608 0 0.023076980891166266 0.0015363882470942137 0 0.026430994490200001 -0.00046607868324730181 0 0.026000391266920546 0.00048858688217833293 0 0.026659193324629883 0.00035895923853330249 0 0.026265108708005445 0.00084619130160841353 0 0.026900070672539248 0.001554548137824929 0 0.026985014443359486 0.00079111805642761762 0 0.026659193324629883 0.00035895923853330249 0 0.026265108708005445 0.00084619130160841353 0 0.026985014443359486 0.00079111805642761762 0 0.019629170217321395 0.0030721935563535136 0 0.019579931910392173 0.0030727417703144558 0 0.019613866305782001 0.003035081604714844 0 0.020735216993027335 0.0024274529225708605 0 0.023408495702116863 0.002071753786714238 0 0.026791153832087102 0.0016456463158984909 0 0.026265108708005445 0.00084619130160841353 0 0.026900070672539248 0.001554548137824929 0 0.020735216993027335 0.0024274529225708605 0 0.0209578889853092 0.0014397978442435972 0 0.019579931910392173 0.0030727417703144558 0 0.019576494998740361 0.0030554375311539835 0 0.019542580373370345 0.0030761666954920415 0 0.019579931910392173 0.0030727417703144558 0 0.019576494998740361 0.0030554375311539835 0 0.019613866305782001 0.003035081604714844 0 0.019576494998740361 0.0030554375311539835 0 0.019613866305782001 0.003035081604714844 0 0.01957033620871499 0.0030359864625763302 0 0.019608515703139113 0.0030155865911528326 0 0.019613866305782001 0.003035081604714844 0 0.01957033620871499 0.0030359864625763302 0 0.023076980891166266 0.0015363882470942137 0 0.023408495702116863 0.002071753786714238 0 0.01957033620871499 0.0030359864625763302 0 0.019532873568896773 0.0030484508441835948 0 0.019542580373370345 0.0030761666954920415 0 0.019576494998740361 0.0030554375311539835 0 0.01957033620871499 0.0030359864625763302 0 0.019542580373370345 0.0030761666954920415 0 0.019501224669585492 0.0030480359590048852 0 0.019532873568896773 0.0030484508441835948 0 0.019516233432230766 0.003079135778069867 0 0.019532873568896773 0.0030484508441835948 0 0.019516233432230766 0.003079135778069867 0 0.019542580373370345 0.0030761666954920415 0 0.019516233432230766 0.003079135778069867 0 0.019542580373370345 0.0030761666954920415 0 0.019510012699363356 0.0031016484601890351 0 0.019579931910392173 0.0030727417703144558 0 0.019542580373370345 0.0030761666954920415 0 0.019524495939506344 0.0031019205936262438 0 0.019542580373370345 0.0030761666954920415 0 0.019524495939506344 0.0031019205936262438 0 0.019510012699363356 0.0031016484601890351 0 0.019524495939506344 0.0031019205936262438 0 0.019510012699363356 0.0031016484601890351 0 0.01949407434730099 0.0031112702633270019 0 0.01950088599839455 0.0031172088625666776 0 0.019510012699363356 0.0031016484601890351 0 0.01949407434730099 0.0031112702633270019 0 0.019450772752330901 0.0030864025401459304 0 0.01950088599839455 0.0031172088625666776 0 0.01949407434730099 0.0031112702633270019 0 0.019524495939506344 0.0031019205936262438 0 0.01949407434730099 0.0031112702633270019 0 0.019493775768824835 0.003112509818669239 0 0.019524495939506344 0.0031019205936262438 0 0.019493775768824835 0.003112509818669239 0 0.01956231661603728 0.003104414632957199 0 0.014259763895024544 4.2066266014656293e-05 0 0.014243177611196613 6.7831778887902426e-05 0 0.014277535056617958 8.0781333729355238e-05 0 0.017341586206732335 0.0015254203300710029 0 0.016331996353070689 0.0016990134329730657 0 0.014243177611196613 6.7831778887902426e-05 0 0.014277535056617958 8.0781333729355238e-05 0 0.014334765069321413 7.8928014585447149e-05 0 0.014168017044552818 1.9523571338588957e-05 0 0.014243177611196613 6.7831778887902426e-05 0 0.014334765069321413 7.8928014585447149e-05 0 0.020735216993027335 0.0024274529225708605 0 0.016331996353070689 0.0016990134329730657 0 0.019629170217321395 0.0030721935563535136 0 0.019579931910392173 0.0030727417703144558 0 0.01956231661603728 0.003104414632957199 0 0.014277535056617958 8.0781333729355238e-05 0 0.014447277146002899 0.00011301071122885685 0 0.014334765069321413 7.8928014585447149e-05 0 0.014452981484045894 9.476487618183927e-05 0 0.014277535056617958 8.0781333729355238e-05 0 0.014447277146002899 0.00011301071122885685 0 0.019579931910392173 0.0030727417703144558 0 0.019524495939506344 0.0031019205936262438 0 0.01956231661603728 0.003104414632957199 0 0.014588472719567702 0.00017181505739669568 0 0.014685261227240237 0.00024762400512053041 0 0.014717094373185668 0.00022773097931995398 0 0.014581462591810989 0.00015750799245741007 0 0.014588472719567702 0.00017181505739669568 0 0.014685261227240237 0.00024762400512053041 0 0.014581462591810989 0.00015750799245741007 0 0.014588472719567702 0.00017181505739669568 0 0.014460379223867396 0.00010254001685045254 0 0.014588472719567702 0.00017181505739669568 0 0.014447277146002899 0.00011301071122885685 0 0.01459152836501154 0.00015807923010755976 0 0.014588472719567702 0.00017181505739669568 0 0.014447277146002899 0.00011301071122885685 0 0.014460379223867396 0.00010254001685045254 0 0.014447277146002899 0.00011301071122885685 0 0.014334765069321413 7.8928014585447149e-05 0 0.014460379223867396 0.00010254001685045254 0 0.014334765069321413 7.8928014585447149e-05 0 0.014326487365755224 4.0704038213161119e-05 0 0.014460379223867396 0.00010254001685045254 0 0.014168017044552818 1.9523571338588957e-05 0 0.014334765069321413 7.8928014585447149e-05 0 0.014326487365755224 4.0704038213161119e-05 0 0.014326487365755224 4.0704038213161119e-05 0 0.01440535393976628 3.139461735011026e-05 0 0.014460379223867396 0.00010254001685045254 0 0.01440535393976628 3.139461735011026e-05 0 0.014460379223867396 0.00010254001685045254 0 0.014518429502334354 9.6516560940823802e-05 0 0.014581462591810989 0.00015750799245741007 0 0.014460379223867396 0.00010254001685045254 0 0.014518429502334354 9.6516560940823802e-05 0 0.014581462591810989 0.00015750799245741007 0 0.014518429502334354 9.6516560940823802e-05 0 0.014588234058586374 0.00012847779970560851 0 0.014515550720822815 4.4379600802763961e-05 0 0.01440535393976628 3.139461735011026e-05 0 0.014518429502334354 9.6516560940823802e-05 0 0.014567216048352427 6.4655965300566961e-05 0 0.014515550720822815 4.4379600802763961e-05 0 0.014588234058586374 0.00012847779970560851 0 0.014515550720822815 4.4379600802763961e-05 0 0.014518429502334354 9.6516560940823802e-05 0 0.014588234058586374 0.00012847779970560851 0 0.014588234058586374 0.00012847779970560851 0 0.014589185412397834 0.00015268288239868449 0 0.014685261227240237 0.00024762400512053041 0 0.014567216048352427 6.4655965300566961e-05 0 0.014588234058586374 0.00012847779970560851 0 0.014589185412397834 0.00015268288239868449 0 0.014589185412397834 0.00015268288239868449 0 0.014705510273190302 0.00033671688022889783 0 0.01419920283121727 0.00023795136476016183 0 0.014705510273190302 0.00033671688022889783 0 0.014685261227240237 0.00024762400512053041 0 0.014921412441621301 0.0003339954195709823 0 0.014589185412397834 0.00015268288239868449 0 0.014705510273190302 0.00033671688022889783 0 0.014685261227240237 0.00024762400512053041 0 0.014581462591810989 0.00015750799245741007 0 0.014588234058586374 0.00012847779970560851 0 0.014685261227240237 0.00024762400512053041 0 0.014685261227240237 0.00024762400512053041 0 0.014921412441621301 0.0003339954195709823 0 0.014717094373185668 0.00022773097931995398 0 0.014705510273190302 0.00033671688022889783 0 0.014921412441621301 0.0003339954195709823 0 0.014943335990075159 0.00045112620172413782 0 0.014921412441621301 0.0003339954195709823 0 0.01508277784218227 5.3380487830252411e-05 0 0.015433973093278014 0.00035108101680450537 0 0.014921412441621301 0.0003339954195709823 0 0.015433973093278014 0.00035108101680450537 0 0.014943335990075159 0.00045112620172413782 0 0.014921412441621301 0.0003339954195709823 0 0.014714818907544348 0.00013968241396784123 0 0.01508277784218227 5.3380487830252411e-05 0 0.014921412441621301 0.0003339954195709823 0 0.014714818907544348 0.00013968241396784123 0 0.014717094373185668 0.00022773097931995398 0 0.014714818907544348 0.00013968241396784123 0 0.014717094373185668 0.00022773097931995398 0 0.01459152836501154 0.00015807923010755976 0 0.014588472719567702 0.00017181505739669568 0 0.014717094373185668 0.00022773097931995398 0 0.01459152836501154 0.00015807923010755976 0 0.021185676934857636 0.00039705190650504805 0 0.0209578889853092 0.0014397978442435972 0 0.014714818907544348 0.00013968241396784123 0 0.01459152836501154 0.00015807923010755976 0 0.014483306630710509 0.0001022836121851081 0 0.014452981484045894 9.476487618183927e-05 0 0.014447277146002899 0.00011301071122885685 0 0.014483306630710509 0.0001022836121851081 0 0.014447277146002899 0.00011301071122885685 0 0.01459152836501154 0.00015807923010755976 0 0.014483306630710509 0.0001022836121851081 0 0.02771502857865921 0.00082816631602594724 0 0.026900070672539248 0.001554548137824929 0 0.026985014443359486 0.00079111805642761762 0 0.02771502857865921 0.00082816631602594724 0 0.026985014443359486 0.00079111805642761762 0 0.02746538088817544 0.00028505791787691165 0 0.026659193324629883 0.00035895923853330249 0 0.026985014443359486 0.00079111805642761762 0 0.02746538088817544 0.00028505791787691165 0 0.026659193324629883 0.00035895923853330249 0 0.02746538088817544 0.00028505791787691165 0 0.027047069639735497 -4.231810959761867e-05 0 0.02746538088817544 0.00028505791787691165 0 0.027808595474437137 -0.00027721449332157507 0 0.028438603096829742 8.1408904226064024e-05 0 0.02771502857865921 0.00082816631602594724 0 0.02746538088817544 0.00028505791787691165 0 0.028438603096829742 8.1408904226064024e-05 0 0.02746538088817544 0.00028505791787691165 0 0.027808595474437137 -0.00027721449332157507 0 0.027047069639735497 -4.231810959761867e-05 0 0.027808595474437137 -0.00027721449332157507 0 0.027047069639735497 -4.231810959761867e-05 0 0.027353633855236946 -0.0005827844009640219 0 0.027042524005231446 -0.001011258288821512 0 0.027353633855236946 -0.0005827844009640219 0 0.02760192962649537 -0.0010533932811258586 0 0.027808595474437137 -0.00027721449332157507 0 0.028031414623489386 -0.00082990584701570283 0 0.028415834012767909 -0.00057917159973737236 0 0.027808595474437137 -0.00027721449332157507 0 0.027353633855236946 -0.0005827844009640219 0 0.028031414623489386 -0.00082990584701570283 0 0.027353633855236946 -0.0005827844009640219 0 0.028031414623489386 -0.00082990584701570283 0 0.02760192962649537 -0.0010533932811258586 0 0.028031414623489386 -0.00082990584701570283 0 0.02760192962649537 -0.0010533932811258586 0 0.028002894611249437 -0.0014002968824852649 0 0.027265101405917626 2.2452886802391558e-05 0 0.027376208653344156 -0.00061861203046066594 0 0.027042524005231446 -0.001011258288821512 0 0.02760192962649537 -0.0010533932811258586 0 0.027394581119884031 -0.001643958446989269 0 0.02760192962649537 -0.0010533932811258586 0 0.027394581119884031 -0.001643958446989269 0 0.028002894611249437 -0.0014002968824852649 0 0.028694104920765559 -0.0010482438714486293 0 0.028997248879856614 -0.0012849580365915339 0 0.029150735921164163 -0.0013278174729554188 0 0.028694104920765559 -0.0010482438714486293 0 0.029150735921164163 -0.0013278174729554188 0 0.028002894611249437 -0.0014002968824852649 0 0.028031414623489386 -0.00082990584701570283 0 0.028694104920765559 -0.0010482438714486293 0 0.028002894611249437 -0.0014002968824852649 0 0.028031414623489386 -0.00082990584701570283 0 0.028694104920765559 -0.0010482438714486293 0 0.028415834012767909 -0.00057917159973737236 0 0.028694104920765559 -0.0010482438714486293 0 0.028957849063002868 -0.00074304776890317652 0 0.028997248879856614 -0.0012849580365915339 0 0.028694104920765559 -0.0010482438714486293 0 0.028415834012767909 -0.00057917159973737236 0 0.028957849063002868 -0.00074304776890317652 0 0.021750270401411961 8.6681307340886592e-05 0 0.02240590099336856 -0.00046964384207762768 0 0.028415834012767909 -0.00057917159973737236 0 0.028438603096829742 8.1408904226064024e-05 0 0.028957849063002868 -0.00074304776890317652 0 0.027808595474437137 -0.00027721449332157507 0 0.028415834012767909 -0.00057917159973737236 0 0.028438603096829742 8.1408904226064024e-05 0 0.021185676934857636 0.00039705190650504805 0 0.021750270401411961 8.6681307340886592e-05 0 0.01508277784218227 5.3380487830252411e-05 0 0.015915118408963216 -0.00026459972157376658 0 0.015433973093278014 0.00035108101680450537 0 0.016116891528624069 0.00039317458240962767 0 0.016500487685828583 0.00010930565428642967 0 0.015433973093278014 0.00035108101680450537 0 0.016116891528624069 0.00039317458240962767 0 0.016500487685828583 0.00010930565428642967 0 0.01772705020561911 0.00022955229284106807 0 0.016500487685828583 0.00010930565428642967 0 0.017610563726474224 -0.00060229119477573007 0 0.01772705020561911 0.00022955229284106807 0 0.016500487685828583 0.00010930565428642967 0 0.015915118408963216 -0.00026459972157376658 0 0.015433973093278014 0.00035108101680450537 0 0.028957849063002868 -0.00074304776890317652 0 0.028837654661619853 -0.0015059703955865491 0 0.028997248879856614 -0.0012849580365915339 0 0.016500487685828583 0.00010930565428642967 0 0.015915118408963216 -0.00026459972157376658 0 0.017610563726474224 -0.00060229119477573007 0 0.02240590099336856 -0.00046964384207762768 0 0.023171604859066972 -0.00099659595899030131 0 0.028837654661619853 -0.0015059703955865491 0 0.028997248879856614 -0.0012849580365915339 0 0.028916506786101089 -0.0011977266824796805 0 0.022147708037674383 -2.8685848291750303e-07 0 0.019585855379736599 -0.00014767805779871524 0 0.020296867124864129 -0.000834106746825752 0 0.023171604859066972 -0.00099659595899030131 0 0.023876753038502348 -0.0010757427978854335 0 0.017610563726474224 -0.00060229119477573007 0 0.019585855379736599 -0.00014767805779871524 0 0.020296867124864129 -0.000834106746825752 0 0.017610563726474224 -0.00060229119477573007 0 0.019585855379736599 -0.00014767805779871524 0 0.01772705020561911 0.00022955229284106807 0 0.022147708037674383 -2.8685848291750303e-07 0 0.019585855379736599 -0.00014767805779871524 0 0.0197962053339753 2.3997004077216057e-07 0 0.019585855379736599 -0.00014767805779871524 0 0.0197962053339753 2.3997004077216057e-07 0 0.01772705020561911 0.00022955229284106807 0 0.0197962053339753 2.3997004077216057e-07 0 0.01772705020561911 0.00022955229284106807 0 0.017445648165364622 5.6697897663406219e-07 0 0.016116891528624069 0.00039317458240962767 0 0.01772705020561911 0.00022955229284106807 0 0.015917955947646206 0.00030519885673883798 0 0.01772705020561911 0.00022955229284106807 0 0.017445648165364622 5.6697897663406219e-07 0 0.015917955947646206 0.00030519885673883798 0 0.017445648165364622 5.6697897663406219e-07 0 0.015094452811524372 6.5258425985886746e-07 0 0.015917955947646206 0.00030519885673883798 0 0.015094452811524372 6.5258425985886746e-07 0 0.015917955947646206 0.00030519885673883798 0 0.013947153118809424 0.00030566135899242708 0 0.015917955947646206 0.00030519885673883798 0 0.015001173739935935 0.00046217321093141618 0 0.013947153118809424 0.00030566135899242708 0 0.016116891528624069 0.00039317458240962767 0 0.015917955947646206 0.00030519885673883798 0 0.015001173739935935 0.00046217321093141618 0 0.016116891528624069 0.00039317458240962767 0 0.015315806390648565 0.00047704986980207103 0 0.015001173739935935 0.00046217321093141618 0 0.016116891528624069 0.00039317458240962767 0 0.015433973093278014 0.00035108101680450537 0 0.015315806390648565 0.00047704986980207103 0 0.015433973093278014 0.00035108101680450537 0 0.015315806390648565 0.00047704986980207103 0 0.014943335990075159 0.00045112620172413782 0 0.015315806390648565 0.00047704986980207103 0 0.014943335990075159 0.00045112620172413782 0 0.014531720297973432 0.00044966335186660941 0 0.015315806390648565 0.00047704986980207103 0 0.015001173739935935 0.00046217321093141618 0 0.014531720297973432 0.00044966335186660941 0 0.014705510273190302 0.00033671688022889783 0 0.014943335990075159 0.00045112620172413782 0 0.014531720297973432 0.00044966335186660941 0 0.014705510273190302 0.00033671688022889783 0 0.014531720297973432 0.00044966335186660941 0 0.01419920283121727 0.00023795136476016183 0 0.0143771614276022 -2.4029391075667309e-05 0 0.014589185412397834 0.00015268288239868449 0 0.01419920283121727 0.00023795136476016183 0 0.014531720297973432 0.00044966335186660941 0 0.01419920283121727 0.00023795136476016183 0 0.013528759398539284 0.0003353337681112352 0 0.013054794427252631 2.406466414120923e-05 0 0.01419920283121727 0.00023795136476016183 0 0.013528759398539284 0.0003353337681112352 0 0.01213237060855194 0.00018798229058182046 0 0.013528759398539284 0.0003353337681112352 0 0.013947153118809424 0.00030566135899242708 0 0.01213237060855194 0.00018798229058182046 0 0.013054794427252631 2.406466414120923e-05 0 0.013528759398539284 0.0003353337681112352 0 0.010391916113226634 8.096956858279643e-07 0 0.01213237060855194 0.00018798229058182046 0 0.012743927814536878 4.9410715619126732e-07 0 0.01213237060855194 0.00018798229058182046 0 0.012743927814536878 4.9410715619126732e-07 0 0.013947153118809424 0.00030566135899242708 0 0.015094452811524372 6.5258425985886746e-07 0 0.012743927814536878 4.9410715619126732e-07 0 0.013947153118809424 0.00030566135899242708 0 0.014531720297973432 0.00044966335186660941 0 0.013528759398539284 0.0003353337681112352 0 0.013947153118809424 0.00030566135899242708 0 0.015001173739935935 0.00046217321093141618 0 0.014531720297973432 0.00044966335186660941 0 0.013947153118809424 0.00030566135899242708 0 0.031580566912605711 -1.1673851874532181e-07 0 0.033057571779023777 0.00011413765060044589 0 0.036447449089960768 -0.00020170395188464353 0 0.031580566912605711 -1.1673851874532181e-07 0 0.033057571779023777 0.00011413765060044589 0 0.031380383028481243 6.5397025401162169e-05 0 0.033480422604412183 0.00024941722673925556 0 0.033057571779023777 0.00011413765060044589 0 0.035218578748761852 -0.00036451070582937641 0 0.033669092007926733 0.00013566538561179416 0 0.033480422604412183 0.00024941722673925556 0 0.035218578748761852 -0.00036451070582937641 0 0.033669092007926733 0.00013566538561179416 0 0.033269476422301721 0.00030677335634328245 0 0.033480422604412183 0.00024941722673925556 0 0.033480422604412183 0.00024941722673925556 0 0.033016873679895205 0.00029772303887495215 0 0.033057571779023777 0.00011413765060044589 0 0.033016873679895205 0.00029772303887495215 0 0.033057571779023777 0.00011413765060044589 0 0.032342438821027421 0.00020735939879146771 0 0.033269476422301721 0.00030677335634328245 0 0.033016873679895205 0.00029772303887495215 0 0.033132365112805699 0.00033466386951696208 0 0.033269476422301721 0.00030677335634328245 0 0.033480422604412183 0.00024941722673925556 0 0.033016873679895205 0.00029772303887495215 0 0.033057571779023777 0.00011413765060044589 0 0.032342438821027421 0.00020735939879146771 0 0.031380383028481243 6.5397025401162169e-05 0 0.032342438821027421 0.00020735939879146771 0 0.030525970066387853 -0.0003206027846604092 0 0.031380383028481243 6.5397025401162169e-05 0 0.032334656954721284 0.00019206859726213151 0 0.033142697222814495 -0.00016612873251263739 0 0.033016873679895205 0.00029772303887495215 0 0.032342438821027421 0.00020735939879146771 0 0.032973625275020436 0.00026334834761443355 0 0.030659162443172214 -0.00035878077414699142 0 0.031016904819870673 -0.00046484158263864563 0 0.032342438821027421 0.00020735939879146771 0 0.030525970066387853 -0.0003206027846604092 0 0.032612067114532538 -0.00052096317196362958 0 0.031580566912605711 -1.1673851874532181e-07 0 0.029773376349969655 2.6589467407438643e-05 0 0.0274782480257291 1.4911626985387413e-06 0 0.031580566912605711 -1.1673851874532181e-07 0 0.029773376349969655 2.6589467407438643e-05 0 0.031380383028481243 6.5397025401162169e-05 0 0.030525970066387853 -0.0003206027846604092 0 0.029773376349969655 2.6589467407438643e-05 0 0.031380383028481243 6.5397025401162169e-05 0 0.0274782480257291 1.4911626985387413e-06 0 0.02450712856639993 -4.2024793189013139e-06 0 0.027916521937913316 -0.00028330484354159412 0 0.030525970066387853 -0.0003206027846604092 0 0.029773376349969655 2.6589467407438643e-05 0 0.029345183634955054 -0.00017407178353843968 0 0.029773376349969655 2.6589467407438643e-05 0 0.0274782480257291 1.4911626985387413e-06 0 0.029345183634955054 -0.00017407178353843968 0 0.0274782480257291 1.4911626985387413e-06 0 0.029345183634955054 -0.00017407178353843968 0 0.027916521937913316 -0.00028330484354159412 0 0.02450712856639993 -4.2024793189013139e-06 0 0.027916521937913316 -0.00028330484354159412 0 0.027697494881400747 -0.0017373272209206259 0 0.027916521937913316 -0.00028330484354159412 0 0.027697494881400747 -0.0017373272209206259 0 0.028916506786101089 -0.0011977266824796805 0 0.022147708037674383 -2.8685848291750303e-07 0 0.024496714261976502 -2.254349149494472e-06 0 0.020296867124864129 -0.000834106746825752 0 0.024499053177754707 -4.4185986349020695e-09 0 0.023876753038502348 -0.0010757427978854335 0 0.028997248879856614 -0.0012849580365915339 0 0.028916506786101089 -0.0011977266824796805 0 0.029150735921164163 -0.0013278174729554188 0 0.028916506786101089 -0.0011977266824796805 0 0.029447202155053327 -0.00063543800640697976 0 0.029150735921164163 -0.0013278174729554188 0 0.028837654661619853 -0.0015059703955865491 0 0.027697494881400747 -0.0017373272209206259 0 0.028916506786101089 -0.0011977266824796805 0 0.027916521937913316 -0.00028330484354159412 0 0.028916506786101089 -0.0011977266824796805 0 0.029124910941761131 -0.00041011408366492216 0 0.028916506786101089 -0.0011977266824796805 0 0.029124910941761131 -0.00041011408366492216 0 0.029447202155053327 -0.00063543800640697976 0 0.029124910941761131 -0.00041011408366492216 0 0.029655710762064646 -0.00020914624978330781 0 0.029447202155053327 -0.00063543800640697976 0 0.029345183634955054 -0.00017407178353843968 0 0.027916521937913316 -0.00028330484354159412 0 0.029124910941761131 -0.00041011408366492216 0 0.029345183634955054 -0.00017407178353843968 0 0.029124910941761131 -0.00041011408366492216 0 0.029655710762064646 -0.00020914624978330781 0 0.030525970066387853 -0.0003206027846604092 0 0.029345183634955054 -0.00017407178353843968 0 0.029655710762064646 -0.00020914624978330781 0 0.030525970066387853 -0.0003206027846604092 0 0.029655710762064646 -0.00020914624978330781 0 0.029678650229368251 -0.00041751638665151554 0 0.029655710762064646 -0.00020914624978330781 0 0.029655495345855709 -0.00031739664965857028 0 0.029658232846711149 -0.00035618387060836615 0 0.029655710762064646 -0.00020914624978330781 0 0.029655495345855709 -0.00031739664965857028 0 0.029678650229368251 -0.00041751638665151554 0 0.029655495345855709 -0.00031739664965857028 0 0.029682676221038758 -0.00032252637696615318 0 0.029658232846711149 -0.00035618387060836615 0 0.029682676221038758 -0.00032252637696615318 0 0.029658232846711149 -0.00035618387060836615 0 0.029765442099290065 -0.00031868488311089421 0 0.029658232846711149 -0.00035618387060836615 0 0.029765442099290065 -0.00031868488311089421 0 0.029797563912979455 -0.00040077217982265349 0 0.029765442099290065 -0.00031868488311089421 0 0.029797563912979455 -0.00040077217982265349 0 0.029953922754437864 -0.00039025867348812935 0 0.029658232846711149 -0.00035618387060836615 0 0.029823443538267463 -0.00055549179524288139 0 0.029447202155053327 -0.00063543800640697976 0 0.029658232846711149 -0.00035618387060836615 0 0.029797563912979455 -0.00040077217982265349 0 0.029823443538267463 -0.00055549179524288139 0 0.029655710762064646 -0.00020914624978330781 0 0.029658232846711149 -0.00035618387060836615 0 0.029447202155053327 -0.00063543800640697976 0 0.029447202155053327 -0.00063543800640697976 0 0.029829278432492619 -0.00087655795481609211 0 0.029150735921164163 -0.0013278174729554188 0 0.029823443538267463 -0.00055549179524288139 0 0.029447202155053327 -0.00063543800640697976 0 0.029829278432492619 -0.00087655795481609211 0 0.029048659402157916 -0.0015083964151608015 0 0.029170016412595836 -0.0013156461101678889 0 0.028377454618231393 -0.0019423254946851121 0 0.029150735921164163 -0.0013278174729554188 0 0.028002894611249437 -0.0014002968824852649 0 0.027394581119884031 -0.001643958446989269 0 0.028002894611249437 -0.0014002968824852649 0 0.02771912114100732 -0.0023303164143516639 0 0.029823443538267463 -0.00055549179524288139 0 0.029829278432492619 -0.00087655795481609211 0 0.030097729679815759 -0.00064285634985947063 0 0.029048659402157916 -0.0015083964151608015 0 0.028878610932567775 -0.00065775010370825837 0 0.028377454618231393 -0.0019423254946851121 0 0.028002894611249437 -0.0014002968824852649 0 0.02771912114100732 -0.0023303164143516639 0 0.027376208653344156 -0.00061861203046066594 0 0.028878610932567775 -0.00065775010370825837 0 0.0275889864256951 0.00051104419519933694 0 0.027826709818406011 -7.5899176270932359e-06 0 0.027377353542059148 0.00015183424672414976 0 0.028878610932567775 -0.00065775010370825837 0 0.029562600531519431 0.00076236242979397595 0 0.027826709818406011 -7.5899176270932359e-06 0 0.027384659039500284 -0.00026993420940700762 0 0.027377353542059148 0.00015183424672414976 0 0.030277074043112837 0.00044438711802041562 0 0.030222248748424298 0.00015050583656740963 0 0.030030624551298422 0.00029839858700512085 0 0.028878610932567775 -0.00065775010370825837 0 0.030174417744374519 -0.00011868869325992238 0 0.030277074043112837 0.00044438711802041562 0 0.030392892812573888 0.00020755759343134872 0 0.030222248748424298 0.00015050583656740963 0 0.029823443538267463 -0.00055549179524288139 0 0.030097729679815759 -0.00064285634985947063 0 0.029953922754437864 -0.00039025867348812935 0 0.029797563912979455 -0.00040077217982265349 0 0.029823443538267463 -0.00055549179524288139 0 0.029953922754437864 -0.00039025867348812935 0 0.030392892812573888 0.00020755759343134872 0 0.030222248748424298 0.00015050583656740963 0 0.03042085528988361 1.8967188402740422e-06 0 0.030174417744374519 -0.00011868869325992238 0 0.031615162819438256 0.00057929808554304976 0 0.029765442099290065 -0.00031868488311089421 0 0.029953922754437864 -0.00039025867348812935 0 0.029831645012146732 -0.00024597840617423183 0 0.030392892812573888 0.00020755759343134872 0 0.030514845193061697 -3.3184850509305574e-05 0 0.03042085528988361 1.8967188402740422e-06 0 0.031059592283245098 0.00070748153289126447 0 0.031870293612910973 0.0010547772688166358 0 0.031738832809280221 0.001388605120236335 0 0.031679685674957145 0.0013272340889731236 0 0.031963508129814737 0.0011998944588631521 0 0.032629717197080257 0.0016236531709189147 0 0.031870293612910973 0.0010547772688166358 0 0.031059592283245098 0.00070748153289126447 0 0.029562600531519431 0.00076236242979397595 0 0.031738832809280221 0.001388605120236335 0 0.031679685674957145 0.0013272340889731236 0 0.031512739638119534 0.0015732281216201695 0 0.033509982977269259 0.0019593818998827959 0 0.033599927893252265 0.0022091762153482919 0 0.03337519056693674 0.0021781086877460357 0 0.033509982977269259 0.0019593818998827959 0 0.03337519056693674 0.0021781086877460357 0 0.033261760351998411 0.0020467126303678139 0 0.035575631115594787 0.0030266670921935378 0 0.034227809802575448 0.0020837813899096985 0 0.036988952968234762 0.004250573954164341 0 0.036851517751035984 0.0046672715180534697 0 0.037055396196572096 0.0045210321702796397 0 0.035180130276014195 0.0020292079274210613 0 0.035178432148360493 0.0020212495693491465 0 0.035183567566691221 0.0020226854273598851 0 0.035575631115594787 0.0030266670921935378 0 0.035952283937960031 0.0034728977674903403 0 0.035183678601816225 0.0020165337036922894 0 0.035178432148360493 0.0020212495693491465 0 0.035183567566691221 0.0020226854273598851 0 0.035183678601816225 0.0020165337036922894 0 0.035178432148360493 0.0020212495693491465 0 0.035175089366123624 0.0020142298736978603 0 0.034227809802575448 0.0020837813899096985 0 0.033342137176571404 0.00078821506656098707 0 0.03337519056693674 0.0021781086877460357 0 0.033261760351998411 0.0020467126303678139 0 0.033140892421568702 0.0021411504788265211 0 0.033166268150633053 0.0020807121970009769 0 0.033261760351998411 0.0020467126303678139 0 0.033140892421568702 0.0021411504788265211 0 0.031615162819438256 0.00057929808554304976 0 0.031870293612910973 0.0010547772688166358 0 0.033400722820737985 -0.00014453130744366885 0 0.033057462157595453 -7.2197291729165361e-05 0 0.033248055362105802 -1.7583525787580911e-05 0 0.031615162819438256 0.00057929808554304976 0 0.032174696009791913 1.8199682738782742e-05 0 0.029765442099290065 -0.00031868488311089421 0 0.029831645012146732 -0.00024597840617423183 0 0.029747036483575854 -0.00024544814745669188 0 0.029682676221038758 -0.00032252637696615318 0 0.029765442099290065 -0.00031868488311089421 0 0.029747036483575854 -0.00024544814745669188 0 0.033400722820737985 -0.00014453130744366885 0 0.033360798834062413 9.1309940200953228e-06 0 0.033248055362105802 -1.7583525787580911e-05 0 0.032194203299310109 0.00025121161401348116 0 0.032252723816655449 0.00011396040073034339 0 0.032459237576612378 0.00013744668136659387 0 0.033524361638047138 -0.00012591958617303754 0 0.033400722820737985 -0.00014453130744366885 0 0.033360798834062413 9.1309940200953228e-06 0 0.031615162819438256 0.00057929808554304976 0 0.033342137176571404 0.00078821506656098707 0 0.033342137176571404 0.00078821506656098707 0 0.032174696009791913 1.8199682738782742e-05 0 0.029682676221038758 -0.00032252637696615318 0 0.029747036483575854 -0.00024544814745669188 0 0.029678650229368251 -0.00041751638665151554 0 0.032174696009791913 1.8199682738782742e-05 0 0.031016904819870673 -0.00046484158263864563 0 0.032342438821027421 0.00020735939879146771 0 0.032612067114532538 -0.00052096317196362958 0 0.032862216007272523 -0.00013895380844964112 0 0.03345987173151501 -0.00038633269195804845 0 0.032612067114532538 -0.00052096317196362958 0 0.032862216007272523 -0.00013895380844964112 0 0.032174696009791913 1.8199682738782742e-05 0 0.033142697222814495 -0.00016612873251263739 0 0.029655495345855709 -0.00031739664965857028 0 0.029682676221038758 -0.00032252637696615318 0 0.029678650229368251 -0.00041751638665151554 0 0.032342438821027421 0.00020735939879146771 0 0.033057462157595453 -7.2197291729165361e-05 0 0.032973625275020436 0.00026334834761443355 0 0.033057462157595453 -7.2197291729165361e-05 0 0.033166925222730605 0.00015915549844577735 0 0.033248055362105802 -1.7583525787580911e-05 0 0.033057462157595453 -7.2197291729165361e-05 0 0.033166925222730605 0.00015915549844577735 0 0.032973625275020436 0.00026334834761443355 0 0.033098256168128982 0.00029615137534270178 0 0.033166925222730605 0.00015915549844577735 0 0.033143169013277733 0.00034821811238568552 0 0.033098256168128982 0.00029615137534270178 0 0.033166925222730605 0.00015915549844577735 0 0.032973625275020436 0.00026334834761443355 0 0.033166925222730605 0.00015915549844577735 0 0.033360798834062413 9.1309940200953228e-06 0 0.033143169013277733 0.00034821811238568552 0 0.033524361638047138 -0.00012591958617303754 0 0.033360798834062413 9.1309940200953228e-06 0 0.033380475698425692 0.00029740257119805071 0 0.035183678601816225 0.0020165337036922894 0 0.035175089366123624 0.0020142298736978603 0 0.035192311970920459 0.0020092608916022939 0 0.033360798834062413 9.1309940200953228e-06 0 0.033380475698425692 0.00029740257119805071 0 0.03328607614813902 0.00036654578044605015 0 0.033342137176571404 0.00078821506656098707 0 0.034271563837276628 0.001206579295039084 0 0.03334629215703435 3.280647062752674e-05 0 0.033192965302212871 0.00033515598568255431 0 0.033166925222730605 0.00015915549844577735 0 0.033360798834062413 9.1309940200953228e-06 0 0.033248055362105802 -1.7583525787580911e-05 0 0.035192311970920459 0.0020092608916022939 0 0.03519659245989562 0.0019998864189840703 0 0.035189896610296499 0.0020108903581080163 0 0.035192311970920459 0.0020092608916022939 0 0.035207009159237877 0.0019899198847233737 0 0.03519659245989562 0.0019998864189840703 0 0.033380475698425692 0.00029740257119805071 0 0.03328607614813902 0.00036654578044605015 0 0.033258196549314459 0.00068562695238047564 0 0.034271563837276628 0.001206579295039084 0 0.035270415224612578 0.0012180203039305129 0 0.033192965302212871 0.00033515598568255431 0 0.0340569748529371 0.0006572318651844745 0 0.033269476422301721 0.00030677335634328245 0 0.033132365112805699 0.00033466386951696208 0 0.033155722044332731 0.00019221117966083251 0 0.033132365112805699 0.00033466386951696208 0 0.033143169013277733 0.00034821811238568552 0 0.033155722044332731 0.00019221117966083251 0 0.033016873679895205 0.00029772303887495215 0 0.032973625275020436 0.00026334834761443355 0 0.033132365112805699 0.00033466386951696208 0 0.033098256168128982 0.00029615137534270178 0 0.032973625275020436 0.00026334834761443355 0 0.033132365112805699 0.00033466386951696208 0 0.033098256168128982 0.00029615137534270178 0 0.033132365112805699 0.00033466386951696208 0 0.033143169013277733 0.00034821811238568552 0 0.03328607614813902 0.00036654578044605015 0 0.033212406914462242 0.00069269621309805062 0 0.033258196549314459 0.00068562695238047564 0 0.033669092007926733 0.00013566538561179416 0 0.032513884234375026 0.0003052818718745795 0 0.033244501890477722 -0.0017177151491138661 0 0.033669092007926733 0.00013566538561179416 0 0.033269476422301721 0.00030677335634328245 0 0.033155722044332731 0.00019221117966083251 0 0.0340569748529371 0.0006572318651844745 0 0.035270415224612578 0.0012180203039305129 0 0.037212415527551369 0.0013976811038544415 0 0.037231849871699974 0.0013520917073364552 0 0.037134506725235349 0.0013238820241084908 0 0.037237572824887148 0.0013942732102764908 0 0.037203445538586753 0.0014000376175833332 0 0.037231849871699974 0.0013520917073364552 0 0.035270415224612578 0.0012180203039305129 0 0.035737430637456991 0.0010388002833738291 0 0.033251172904487716 0.00028259511521404589 0 0.0340569748529371 0.0006572318651844745 0 0.037037901391089964 0.0014371073357073868 0 0.037134506725235349 0.0013238820241084908 0 0.036971336072796651 0.0012157818606212695 0 0.037212415527551369 0.0013976811038544415 0 0.037037901391089964 0.0014371073357073868 0 0.037134506725235349 0.0013238820241084908 0 0.035270415224612578 0.0012180203039305129 0 0.036134797762412713 0.0017112667927639681 0 0.036134797762412713 0.0017112667927639681 0 0.036949221530209832 0.0029286101064834149 0 0.036949221530209832 0.0029286101064834149 0 0.038232055123521479 0.0019127535741459945 0 0.037037901391089964 0.0014371073357073868 0 0.036847766940710375 0.001477429983622863 0 0.036971336072796651 0.0012157818606212695 0 0.03869347080302353 0.0042896508992771388 0 0.040014108157497473 0.0029622714509387237 0 0.036949221530209832 0.0029286101064834149 0 0.03869347080302353 0.0042896508992771388 0 0.038465989541013754 0.0034479721479956974 0 0.040014108157497473 0.0029622714509387237 0 0.039059337460261766 0.0036401204624414408 0 0.038677500574867581 0.0036658534332514249 0 0.038274101226668848 0.0037564392753895348 0 0.039059337460261766 0.0036401204624414408 0 0.038677500574867581 0.0036658534332514249 0 0.038877783461940214 0.0024600666061185016 0 0.038677500574867581 0.0036658534332514249 0 0.038274101226668848 0.0037564392753895348 0 0.038904863632239647 0.002544203215527147 0 0.041369553187985644 0.0044942597115124848 0 0.041233932368099593 0.0040495928877796418 0 0.041548118252001762 0.0039145103889248606 0 0.036949221530209832 0.0029286101064834149 0 0.035952283937960031 0.0034728977674903403 0 0.036712322594268675 0.0050006899666488313 0 0.036851517751035984 0.0046672715180534697 0 0.037055117729132489 0.004971491582580605 0 0.03519659245989562 0.0019998864189840703 0 0.035193074132693798 0.0020111691396443344 0 0.035189896610296499 0.0020108903581080163 0 0.035193074132693798 0.0020111691396443344 0 0.035183567566691221 0.0020226854273598851 0 0.035189896610296499 0.0020108903581080163 0 0.035183678601816225 0.0020165337036922894 0 0.035192311970920459 0.0020092608916022939 0 0.035189896610296499 0.0020108903581080163 0 0.035183678601816225 0.0020165337036922894 0 0.035183567566691221 0.0020226854273598851 0 0.035189896610296499 0.0020108903581080163 0 0.037590928934016846 0.005009102677382634 0 0.037503379041481544 0.0046749670651240029 0 0.037807618234718329 0.0047006981758445174 0 0.037590928934016846 0.005009102677382634 0 0.037174492456865091 0.0047606676432840854 0 0.037503379041481544 0.0046749670651240029 0 0.037590928934016846 0.005009102677382634 0 0.037174492456865091 0.0047606676432840854 0 0.037037324627284596 0.0050632086509406204 0 0.039281283083195596 0.0048679811109073367 0 0.03869347080302353 0.0042896508992771388 0 0.036851517751035984 0.0046672715180534697 0 0.037174492456865091 0.0047606676432840854 0 0.037055117729132489 0.004971491582580605 0 0.037270925142754173 0.0051857454312160709 0 0.03869347080302353 0.0042896508992771388 0 0.040814916828400744 0.0046937009878707421 0 0.041369553187985644 0.0044942597115124848 0 0.041100651755767333 0.0043427221067104142 0 0.041369553187985644 0.0044942597115124848 0 0.041100651755767333 0.0043427221067104142 0 0.041233932368099593 0.0040495928877796418 0 0.041100651755767333 0.0043427221067104142 0 0.040846470261872117 0.0039489734941554689 0 0.041233932368099593 0.0040495928877796418 0 0.040814916828400744 0.0046937009878707421 0 0.041100651755767333 0.0043427221067104142 0 0.040385702121640915 0.0043495872210626493 0 0.041100651755767333 0.0043427221067104142 0 0.040385702121640915 0.0043495872210626493 0 0.040846470261872117 0.0039489734941554689 0 0.040385702121640915 0.0043495872210626493 0 0.039469328074759315 0.003964247322234409 0 0.040846470261872117 0.0039489734941554689 0 0.040385702121640915 0.0043495872210626493 0 0.039469328074759315 0.003964247322234409 0 0.039923062628005358 0.0048668562547329293 0 0.039020115884775594 0.0048821929276339276 0 0.038822081912884755 0.0048317656671951559 0 0.039469328074759315 0.003964247322234409 0 0.039923062628005358 0.0048668562547329293 0 0.038774748223335855 0.0047976575491458688 0 0.03816314145840291 0.0049446229532589354 0 0.038147343613073099 0.0045088631565034683 0 0.038774748223335855 0.0047976575491458688 0 0.040814916828400744 0.0046937009878707421 0 0.040385702121640915 0.0043495872210626493 0 0.039923062628005358 0.0048668562547329293 0 0.039281283083195596 0.0048679811109073367 0 0.039020115884775594 0.0048821929276339276 0 0.03816314145840291 0.0049446229532589354 0 0.038147343613073099 0.0045088631565034683 0 0.037807618234718329 0.0047006981758445174 0 0.037590928934016846 0.005009102677382634 0 0.03816314145840291 0.0049446229532589354 0 0.037807618234718329 0.0047006981758445174 0 0.038147343613073099 0.0045088631565034683 0 0.037628843476694367 0.0043633756536474054 0 0.037807618234718329 0.0047006981758445174 0 0.038147343613073099 0.0045088631565034683 0 0.038516183322842755 0.0043166305984202952 0 0.038774748223335855 0.0047976575491458688 0 0.038147343613073099 0.0045088631565034683 0 0.037628843476694367 0.0043633756536474054 0 0.037929313728270041 0.0038648239308368905 0 0.033197765253689497 0.0036099797217124434 0 0.033697724942101784 0.0036807951022630814 0 0.028006781633433744 0.0029382090521903998 0 0.028952860857120788 0.0032506339039613443 0 0.028410577924695413 0.0037395370246298579 0 0.038147343613073099 0.0045088631565034683 0 0.038516183322842755 0.0043166305984202952 0 0.037929313728270041 0.0038648239308368905 0 0.037415544221708168 0.0039584278098608672 0 0.037628843476694367 0.0043633756536474054 0 0.037929313728270041 0.0038648239308368905 0 0.037415544221708168 0.0039584278098608672 0 0.037628843476694367 0.0043633756536474054 0 0.037305977125275919 0.0042987383635232322 0 0.037628843476694367 0.0043633756536474054 0 0.03729239435152211 0.0044987279734837304 0 0.037305977125275919 0.0042987383635232322 0 0.037628843476694367 0.0043633756536474054 0 0.037503379041481544 0.0046749670651240029 0 0.03729239435152211 0.0044987279734837304 0 0.037628843476694367 0.0043633756536474054 0 0.037503379041481544 0.0046749670651240029 0 0.037807618234718329 0.0047006981758445174 0 0.036851517751035984 0.0046672715180534697 0 0.037174492456865091 0.0047606676432840854 0 0.037055396196572096 0.0045210321702796397 0 0.037174492456865091 0.0047606676432840854 0 0.037055396196572096 0.0045210321702796397 0 0.03729239435152211 0.0044987279734837304 0 0.037174492456865091 0.0047606676432840854 0 0.037503379041481544 0.0046749670651240029 0 0.03729239435152211 0.0044987279734837304 0 0.03729239435152211 0.0044987279734837304 0 0.037305977125275919 0.0042987383635232322 0 0.037138404691037297 0.0043653064825160941 0 0.037305977125275919 0.0042987383635232322 0 0.037138404691037297 0.0043653064825160941 0 0.03706059883497196 0.0042573223710986718 0 0.037055396196572096 0.0045210321702796397 0 0.03729239435152211 0.0044987279734837304 0 0.037138404691037297 0.0043653064825160941 0 0.036988952968234762 0.004250573954164341 0 0.037055396196572096 0.0045210321702796397 0 0.037138404691037297 0.0043653064825160941 0 0.036988952968234762 0.004250573954164341 0 0.037138404691037297 0.0043653064825160941 0 0.03706059883497196 0.0042573223710986718 0 0.03697647732553682 0.0042459910185814352 0 0.03706059883497196 0.0042573223710986718 0 0.03723884336592561 0.0035301858882424231 0 0.035575631115594787 0.0030266670921935378 0 0.03315661474922478 0.0024306070698471962 0 0.037415544221708168 0.0039584278098608672 0 0.03706059883497196 0.0042573223710986718 0 0.03723884336592561 0.0035301858882424231 0 0.035575631115594787 0.0030266670921935378 0 0.036041428724817158 0.0031770463912498275 0 0.037415544221708168 0.0039584278098608672 0 0.037305977125275919 0.0042987383635232322 0 0.03706059883497196 0.0042573223710986718 0 0.032629717197080257 0.0016236531709189147 0 0.03315661474922478 0.0024306070698471962 0 0.033509982977269259 0.0019593818998827959 0 0.033599927893252265 0.0022091762153482919 0 0.0337408384230913 0.0018692823356921521 0 0.031679685674957145 0.0013272340889731236 0 0.03140078541854565 0.0014542995093031379 0 0.031512739638119534 0.0015732281216201695 0 0.037415544221708168 0.0039584278098608672 0 0.037322820385913842 0.0034928179355049526 0 0.03723884336592561 0.0035301858882424231 0 0.031382493776128874 0.0014942054117236146 0 0.03140078541854565 0.0014542995093031379 0 0.031512739638119534 0.0015732281216201695 0 0.032424348623610814 0.0033507086623215838 0 0.031792491593539168 0.0028765972901521174 0 0.032424348623610814 0.0033507086623215838 0 0.03315661474922478 0.0024306070698471962 0 0.031792491593539168 0.0028765972901521174 0 0.03315661474922478 0.0024306070698471962 0 0.032130337041982288 0.0032890739598946087 0 0.032267347722670203 0.0033718889356409085 0 0.03234723385030721 0.0031971839440107712 0 0.030060919007120154 0.0038589829113829556 0 0.028981296825467899 0.0042924708784735166 0 0.028952860857120788 0.0032506339039613443 0 0.032424348623610814 0.0033507086623215838 0 0.033697724942101784 0.0036807951022630814 0 0.037415544221708168 0.0039584278098608672 0 0.037322820385913842 0.0034928179355049526 0 0.037929313728270041 0.0038648239308368905 0 0.030399572153711217 0.0036786874330003265 0 0.029941400137078425 0.0050129445237757607 0 0.028981296825467899 0.0042924708784735166 0 0.030399572153711217 0.0036786874330003265 0 0.030528476628610197 0.0037556681595359155 0 0.029941400137078425 0.0050129445237757607 0 0.031792491593539168 0.0028765972901521174 0 0.027947672653723259 0.002230103534685782 0 0.032424348623610814 0.0033507086623215838 0 0.028212556424900694 0.0045219344077297484 0 0.029687440171334838 0.0012941358123054435 0 0.030255230924763604 0.0016382470440939195 0 0.029094137225573115 0.002567899220284716 0 0.027384659039500284 -0.00026993420940700762 0 0.027377353542059148 0.00015183424672414976 0 0.026957266083256642 6.3236100470257157e-05 0 0.029562600531519431 0.00076236242979397595 0 0.027947672653723259 0.002230103534685782 0 0.031792491593539168 0.0028765972901521174 0 0.029562600531519431 0.00076236242979397595 0 0.027377353542059148 0.00015183424672414976 0 0.026957266083256642 6.3236100470257157e-05 0 0.027143868093450346 0.00054250025335614315 0 0.027947672653723259 0.002230103534685782 0 0.027644081086899006 0.0041614670347057845 0 0.027947672653723259 0.002230103534685782 0 0.026583383614519302 0.0012153567507214621 0 0.026957266083256642 6.3236100470257157e-05 0 0.027143868093450346 0.00054250025335614315 0 0.026702263141543302 0.00057305326083487488 0 0.026887870819081332 0.00092702390294807722 0 0.027143868093450346 0.00054250025335614315 0 0.026702263141543302 0.00057305326083487488 0 0.027348832131002049 0.001030673653728102 0 0.0275889864256951 0.00051104419519933694 0 0.027143868093450346 0.00054250025335614315 0 0.0275889864256951 0.00051104419519933694 0 0.027377353542059148 0.00015183424672414976 0 0.027143868093450346 0.00054250025335614315 0 0.025453065192705113 0.0028242716743883309 0 0.024596813652721313 0.0028935832244142172 0 0.02564368552931727 0.0020698633705390646 0 0.027524819417887016 0.0069774256943366001 0 0.02752238224989801 0.0057747338843830657 0 0.027289612506321902 0.006810159363818063 0 0.027524819417887016 0.0069774256943366001 0 0.0287538544494924 0.0059911787997153016 0 0.02752238224989801 0.0057747338843830657 0 0.023026615538569002 0.0036858550340590603 0 0.027644081086899006 0.0041614670347057845 0 0.025453065192705113 0.0028242716743883309 0 0.026131460052312549 0.0024180104371017562 0 0.02564368552931727 0.0020698633705390646 0 0.029941400137078425 0.0050129445237757607 0 0.0287538544494924 0.0059911787997153016 0 0.028981296825467899 0.0042924708784735166 0 0.026696717420224336 0.0012576025367719878 0 0.026131460052312549 0.0024180104371017562 0 0.02564368552931727 0.0020698633705390646 0 0.0287538544494924 0.0059911787997153016 0 0.02809767673281624 0.0046766233727107177 0 0.028981296825467899 0.0042924708784735166 0 0.02752238224989801 0.0057747338843830657 0 0.02809767673281624 0.0046766233727107177 0 0.027130072021684912 0.0047179638255246637 0 0.0287538544494924 0.0059911787997153016 0 0.02752238224989801 0.0057747338843830657 0 0.02809767673281624 0.0046766233727107177 0 0.02809767673281624 0.0046766233727107177 0 0.028410577924695413 0.0037395370246298579 0 0.027713870988535255 0.0036971611341167095 0 0.02809767673281624 0.0046766233727107177 0 0.027713870988535255 0.0036971611341167095 0 0.027130072021684912 0.0047179638255246637 0 0.02809767673281624 0.0046766233727107177 0 0.028981296825467899 0.0042924708784735166 0 0.028410577924695413 0.0037395370246298579 0 0.028981296825467899 0.0042924708784735166 0 0.028952860857120788 0.0032506339039613443 0 0.028410577924695413 0.0037395370246298579 0 0.028006781633433744 0.0029382090521903998 0 0.028410577924695413 0.0037395370246298579 0 0.027713870988535255 0.0036971611341167095 0 0.027542304611742442 0.0036859504224406882 0 0.026779718554268216 0.0026427111000448394 0 0.027713870988535255 0.0036971611341167095 0 0.025568157134854188 0.0029758049532655879 0 0.026860816617045109 0.004035376030032089 0 0.027713870988535255 0.0036971611341167095 0 0.027411731667397212 0.0032351441154006939 0 0.02763264070526673 0.0031061533059509013 0 0.027713870988535255 0.0036971611341167095 0 0.025568157134854188 0.0029758049532655879 0 0.025421472940624634 0.002419890857115168 0 0.025450609530098596 0.0028343219011777911 0 0.024551629292383241 0.0029749546091621922 0 0.024998969061925998 0.002073861480665861 0 0.025991569768698399 0.0028452875423084804 0 0.026360539959333861 0.0024876886882868807 0 0.025991569768698399 0.0028452875423084804 0 0.026779718554268216 0.0026427111000448394 0 0.026265141058319855 0.0026932626993821174 0 0.026318644379843714 0.0027920120003601511 0 0.026289465783643155 0.0027776279066209419 0 0.025991569768698399 0.0028452875423084804 0 0.026059269031101479 0.0037639671364002873 0 0.025568157134854188 0.0029758049532655879 0 0.026116206033332885 0.0039997416947983398 0 0.026860816617045109 0.004035376030032089 0 0.025494892184837741 0.002854090038013987 0 0.026116206033332885 0.0039997416947983398 0 0.025784585808464395 0.0038780491834873596 0 0.025991569768698399 0.0028452875423084804 0 0.025846599286053509 0.003593712858591639 0 0.025180479759268532 0.0035311526287232745 0 0.024781304611825587 0.0040514190681553309 0 0.024551629292383241 0.0029749546091621922 0 0.025450609530098596 0.0028343219011777911 0 0.025180479759268532 0.0035311526287232745 0 0.024551629292383241 0.0029749546091621922 0 0.025450609530098596 0.0028343219011777911 0 0.025180479759268532 0.0035311526287232745 0 0.025784585808464395 0.0038780491834873596 0 0.019978200380051509 0.0035247880124987603 0 0.020083428092607495 0.0035753235990584322 0 0.020085403377333194 0.0036490747248524953 0 0.026186565996539415 0.0045579578382164586 0 0.026275939234783247 0.0055656308140944405 0 0.024781304611825587 0.0040514190681553309 0 0.023211325487498682 0.0046377457134302857 0 0.022406347377389106 0.0038548621649659863 0 0.025488034789345096 0.0040186644923772222 0 0.026186565996539415 0.0045579578382164586 0 0.024781304611825587 0.0040514190681553309 0 0.025180479759268532 0.0035311526287232745 0 0.025488034789345096 0.0040186644923772222 0 0.024781304611825587 0.0040514190681553309 0 0.025180479759268532 0.0035311526287232745 0 0.025488034789345096 0.0040186644923772222 0 0.025784585808464395 0.0038780491834873596 0 0.025488034789345096 0.0040186644923772222 0 0.025784585808464395 0.0038780491834873596 0 0.026186565996539415 0.0045579578382164586 0 0.026116206033332885 0.0039997416947983398 0 0.025784585808464395 0.0038780491834873596 0 0.026186565996539415 0.0045579578382164586 0 0.027713870988535255 0.0036971611341167095 0 0.026860816617045109 0.004035376030032089 0 0.027130072021684912 0.0047179638255246637 0 0.026116206033332885 0.0039997416947983398 0 0.026186565996539415 0.0045579578382164586 0 0.026860816617045109 0.004035376030032089 0 0.026186565996539415 0.0045579578382164586 0 0.026860816617045109 0.004035376030032089 0 0.027130072021684912 0.0047179638255246637 0 0.02752238224989801 0.0057747338843830657 0 0.027130072021684912 0.0047179638255246637 0 0.026275939234783247 0.0055656308140944405 0 0.026186565996539415 0.0045579578382164586 0 0.027130072021684912 0.0047179638255246637 0 0.026275939234783247 0.0055656308140944405 0 0.019978200380051509 0.0035247880124987603 0 0.020040455094192604 0.003474397777171474 0 0.020083428092607495 0.0035753235990584322 0 0.019955818657893674 0.0033678681744357085 0 0.020017990379037537 0.0033796162478392428 0 0.020040455094192604 0.003474397777171474 0 0.019955818657893674 0.0033678681744357085 0 0.019978200380051509 0.0035247880124987603 0 0.020040455094192604 0.003474397777171474 0 0.019955818657893674 0.0033678681744357085 0 0.019978200380051509 0.0035247880124987603 0 0.019906135157708105 0.0033966197497407105 0 0.02752238224989801 0.0057747338843830657 0 0.026275939234783247 0.0055656308140944405 0 0.027289612506321902 0.006810159363818063 0 0.023211325487498682 0.0046377457134302857 0 0.023051286455183746 0.004652683388291075 0 0.019978200380051509 0.0035247880124987603 0 0.019892837098896037 0.0033847465897552985 0 0.019906135157708105 0.0033966197497407105 0 0.019909203914935229 0.0033590270271483024 0 0.01989185194904438 0.0033817659866372082 0 0.019906135157708105 0.0033966197497407105 0 0.023051286455183746 0.004652683388291075 0 0.022142814522594634 0.0040953093088692428 0 0.02019159852379938 0.0034240994902378242 0 0.020099930727895055 0.0034329679971329325 0 0.020115611373192298 0.0035304032090471074 0 0.020017990379037537 0.0033796162478392428 0 0.020040455094192604 0.003474397777171474 0 0.020099930727895055 0.0034329679971329325 0 0.020040455094192604 0.003474397777171474 0 0.020099930727895055 0.0034329679971329325 0 0.020115611373192298 0.0035304032090471074 0 0.020040455094192604 0.003474397777171474 0 0.020115611373192298 0.0035304032090471074 0 0.020083428092607495 0.0035753235990584322 0 0.020115611373192298 0.0035304032090471074 0 0.02017798162941311 0.0035642795554693858 0 0.020150797723923367 0.0036100082128640147 0 0.020115611373192298 0.0035304032090471074 0 0.020083428092607495 0.0035753235990584322 0 0.020150797723923367 0.0036100082128640147 0 0.02019159852379938 0.0034240994902378242 0 0.020115611373192298 0.0035304032090471074 0 0.02017798162941311 0.0035642795554693858 0 0.02019159852379938 0.0034240994902378242 0 0.02017798162941311 0.0035642795554693858 0 0.020246773671226653 0.0035840773765768818 0 0.020166745975595764 0.0034165181609159233 0 0.020236560552995223 0.0035727782345032037 0 0.02017798162941311 0.0035642795554693858 0 0.020221365012667167 0.0036413432671589391 0 0.020246773671226653 0.0035840773765768818 0 0.02017798162941311 0.0035642795554693858 0 0.020221365012667167 0.0036413432671589391 0 0.020150797723923367 0.0036100082128640147 0 0.020172535902360216 0.003658824847966135 0 0.020221365012667167 0.0036413432671589391 0 0.020150797723923367 0.0036100082128640147 0 0.020083428092607495 0.0035753235990584322 0 0.020150797723923367 0.0036100082128640147 0 0.020127602709063146 0.0036419935512823159 0 0.020172535902360216 0.003658824847966135 0 0.020150797723923367 0.0036100082128640147 0 0.020127602709063146 0.0036419935512823159 0 0.020127602709063146 0.0036419935512823159 0 0.020085403377333194 0.0036490747248524953 0 0.020147948706565794 0.0036785256049295259 0 0.020083428092607495 0.0035753235990584322 0 0.020127602709063146 0.0036419935512823159 0 0.020085403377333194 0.0036490747248524953 0 0.024781304611825587 0.0040514190681553309 0 0.024551629292383241 0.0029749546091621922 0 0.023028988833714549 0.002063930779633755 0 0.022406347377389106 0.0038548621649659863 0 0.021666591442075781 0.0025990071731330847 0 0.020172535902360216 0.003658824847966135 0 0.020147948706565794 0.0036785256049295259 0 0.02017627754680534 0.0037316365373447581 0 0.020085403377333194 0.0036490747248524953 0 0.020147948706565794 0.0036785256049295259 0 0.02017627754680534 0.0037316365373447581 0 0.020172535902360216 0.003658824847966135 0 0.020127602709063146 0.0036419935512823159 0 0.020147948706565794 0.0036785256049295259 0 0.024551629292383241 0.0029749546091621922 0 0.023932191223359961 0.0022755580771304362 0 0.023028988833714549 0.002063930779633755 0 0.024551629292383241 0.0029749546091621922 0 0.023932191223359961 0.0022755580771304362 0 0.024998969061925998 0.002073861480665861 0 0.02101760829673829 0.0032261065167461067 0 0.021666591442075781 0.0025990071731330847 0 0.020172535902360216 0.003658824847966135 0 0.020221365012667167 0.0036413432671589391 0 0.02017627754680534 0.0037316365373447581 0 0.021845169569836616 0.0027521556660449623 0 0.022310424596979815 0.0020647406850770804 0 0.021826654285895145 0.0022587867111199342 0 0.021845169569836616 0.0027521556660449623 0 0.022310424596979815 0.0020647406850770804 0 0.022815116217024822 0.0019508799040476013 0 0.022310424596979815 0.0020647406850770804 0 0.021826654285895145 0.0022587867111199342 0 0.02185787821169468 0.0019415470876468887 0 0.022156642189243743 0.0017007318418815341 0 0.022406855689782706 0.0011919720491758122 0 0.02163690831952654 0.0015854844591763496 0 0.022310424596979815 0.0020647406850770804 0 0.022156642189243743 0.0017007318418815341 0 0.02185787821169468 0.0019415470876468887 0 0.022310424596979815 0.0020647406850770804 0 0.022815116217024822 0.0019508799040476013 0 0.022798773533251916 0.0018699950580934768 0 0.022310424596979815 0.0020647406850770804 0 0.022156642189243743 0.0017007318418815341 0 0.022798773533251916 0.0018699950580934768 0 0.021666591442075781 0.0025990071731330847 0 0.021743513237247495 0.0025735318190820973 0 0.022974182712473271 0.0021262646392772259 0 0.022798773533251916 0.0018699950580934768 0 0.023169713384827748 0.0018184762633218275 0 0.022156642189243743 0.0017007318418815341 0 0.022798773533251916 0.0018699950580934768 0 0.022406855689782706 0.0011919720491758122 0 0.022798773533251916 0.0018699950580934768 0 0.022406855689782706 0.0011919720491758122 0 0.023169713384827748 0.0018184762633218275 0 0.026051416501180039 0.0027455464470466603 0 0.025963857974535189 0.0024328798694602991 0 0.026336876606416093 0.0025708007407917936 0 0.029477835186536842 0.0029147053148273396 0 0.028812018347821169 0.0026673344378416431 0 0.029282866261025893 0.0042158961633628486 0 0.027956079230329403 0.0025795725462757807 0 0.032424576418821995 0.003963774189445734 0 0.027785066984056674 0.0026183464297996738 0 0.026360539959333861 0.0024876886882868807 0 0.026051416501180039 0.0027455464470466603 0 0.026336876606416093 0.0025708007407917936 0 0.026551988971084212 0.0029773620423925728 0 0.024209427873314364 0.0019337560556349329 0 0.026360539959333861 0.0024876886882868807 0 0.029477835186536842 0.0029147053148273396 0 0.028516369116818274 0.0012362278104995927 0 0.028812018347821169 0.0026673344378416431 0 0.023932191223359961 0.0022755580771304362 0 0.023169713384827748 0.0018184762633218275 0 0.024998969061925998 0.002073861480665861 0 0.022406855689782706 0.0011919720491758122 0 0.023169713384827748 0.0018184762633218275 0 0.024998969061925998 0.002073861480665861 0 0.023932191223359961 0.0022755580771304362 0 0.023028988833714549 0.002063930779633755 0 0.023169713384827748 0.0018184762633218275 0 0.021666591442075781 0.0025990071731330847 0 0.021943443209578133 0.0022774137383201345 0 0.028516369116818274 0.0012362278104995927 0 0.028336885863478989 0.0011505355952312537 0 0.028812018347821169 0.0026673344378416431 0 0.026779718554268216 0.0026427111000448394 0 0.027956079230329403 0.0025795725462757807 0 0.027411731667397212 0.0032351441154006939 0 0.027529601204262306 0.0030524471651026505 0 0.027474188806071675 0.0029849383866546782 0 0.026360539959333861 0.0024876886882868807 0 0.026779718554268216 0.0026427111000448394 0 0.027411731667397212 0.0032351441154006939 0 0.027529601204262306 0.0030524471651026505 0 0.02763264070526673 0.0031061533059509013 0 0.028006781633433744 0.0029382090521903998 0 0.027713870988535255 0.0036971611341167095 0 0.02763264070526673 0.0031061533059509013 0 0.028006781633433744 0.0029382090521903998 0 0.02763264070526673 0.0031061533059509013 0 0.027595587298958155 0.0029197230969350996 0 0.033197765253689497 0.0036099797217124434 0 0.033170018853090032 0.0038004531616058186 0 0.038516183322842755 0.0043166305984202952 0 0.038612770471652291 0.0047313734918597054 0 0.038774748223335855 0.0047976575491458688 0 0.027529601204262306 0.0030524471651026505 0 0.02763264070526673 0.0031061533059509013 0 0.027595587298958155 0.0029197230969350996 0 0.027529601204262306 0.0030524471651026505 0 0.027595587298958155 0.0029197230969350996 0 0.027474188806071675 0.0029849383866546782 0 0.027595587298958155 0.0029197230969350996 0 0.027474188806071675 0.0029849383866546782 0 0.027517653756994144 0.0029097126999506106 0 0.038612770471652291 0.0047313734918597054 0 0.038425456937878105 0.0045680793179509686 0 0.038102642517167856 0.0046039412160185766 0 0.033170018853090032 0.0038004531616058186 0 0.032424576418821995 0.003963774189445734 0 0.038425456937878105 0.0045680793179509686 0 0.038516564905281124 0.0042888258783070335 0 0.038059098302971342 0.0044377564251803182 0 0.038612770471652291 0.0047313734918597054 0 0.038425456937878105 0.0045680793179509686 0 0.038774748223335855 0.0047976575491458688 0 0.038425456937878105 0.0045680793179509686 0 0.038774748223335855 0.0047976575491458688 0 0.038516564905281124 0.0042888258783070335 0 0.039469328074759315 0.003964247322234409 0 0.038774748223335855 0.0047976575491458688 0 0.038516564905281124 0.0042888258783070335 0 0.040025007434027975 0.0041524024681836363 0 0.039537569376988276 0.0045037935335561947 0 0.040710875885583218 0.004276711928570931 0 0.040064620120414396 0.0047450586263928203 0 0.040402548738483972 0.0041895050935719831 0 0.039537569376988276 0.0045037935335561947 0 0.037431323282765501 0.0044747252297824124 0 0.040064620120414396 0.0047450586263928203 0 0.039217685879600617 0.0050422565200442214 0 0.039583447077898827 0.0044671277201105662 0 0.038865571214014925 0.0045727881418574038 0 0.038932540196048422 0.0047281368013348752 0 0.038948987472808012 0.0042234919996021227 0 0.037431323282765501 0.0044747252297824124 0 0.039396298789795989 0.0044920243921714202 0 0.038865571214014925 0.0045727881418574038 0 0.038852917022129146 0.0044753784095138052 0 0.038948987472808012 0.0042234919996021227 0 0.039217685879600617 0.0050422565200442214 0 0.038948987472808012 0.0042234919996021227 0 0.03928003506164543 0.0043714575345136682 0 0.039217685879600617 0.0050422565200442214 0 0.03928003506164543 0.0043714575345136682 0 0.039583447077898827 0.0044671277201105662 0 0.038843114689686126 0.004674928367845616 0 0.038865571214014925 0.0045727881418574038 0 0.038932540196048422 0.0047281368013348752 0 0.038843114689686126 0.004674928367845616 0 0.038865571214014925 0.0045727881418574038 0 0.038760579676973085 0.0046325544033669307 0 0.038865571214014925 0.0045727881418574038 0 0.038852917022129146 0.0044753784095138052 0 0.038804107922207121 0.0045346834387507539 0 0.038852917022129146 0.0044753784095138052 0 0.038806282780707628 0.0044355532666388838 0 0.03885924666872554 0.0043879324718409229 0 0.038852917022129146 0.0044753784095138052 0 0.038775232374855778 0.0044911843005299426 0 0.038806282780707628 0.0044355532666388838 0 0.038775232374855778 0.0044911843005299426 0 0.038806282780707628 0.0044355532666388838 0 0.03874986953894842 0.0044362493712610312 0 0.038775232374855778 0.0044911843005299426 0 0.03874986953894842 0.0044362493712610312 0 0.038682734036801246 0.004528506670576261 0 0.038775232374855778 0.0044911843005299426 0 0.038682734036801246 0.004528506670576261 0 0.038733641195418229 0.0045463894731633172 0 0.038682734036801246 0.004528506670576261 0 0.038733641195418229 0.0045463894731633172 0 0.038655208486823349 0.0045772711660719027 0 0.038733641195418229 0.0045463894731633172 0 0.038804107922207121 0.0045346834387507539 0 0.038760579676973085 0.0046325544033669307 0 0.038852917022129146 0.0044753784095138052 0 0.038775232374855778 0.0044911843005299426 0 0.038804107922207121 0.0045346834387507539 0 0.038775232374855778 0.0044911843005299426 0 0.038733641195418229 0.0045463894731633172 0 0.038804107922207121 0.0045346834387507539 0 0.03874986953894842 0.0044362493712610312 0 0.038485333498942897 0.0045998032102810534 0 0.038786605802894419 0.004357097571600751 0 0.03874986953894842 0.0044362493712610312 0 0.038682734036801246 0.004528506670576261 0 0.038485333498942897 0.0045998032102810534 0 0.038682734036801246 0.004528506670576261 0 0.038485333498942897 0.0045998032102810534 0 0.038655208486823349 0.0045772711660719027 0 0.032253618307119591 0.0036163992369929593 0 0.033916718699852758 0.0044338327206865985 0 0.038485333498942897 0.0045998032102810534 0 0.0386535979966037 0.0046521513502304516 0 0.038683768001742919 0.0047129440806704071 0 0.038485333498942897 0.0045998032102810534 0 0.038655208486823349 0.0045772711660719027 0 0.0386535979966037 0.0046521513502304516 0 0.038865571214014925 0.0045727881418574038 0 0.038804107922207121 0.0045346834387507539 0 0.038760579676973085 0.0046325544033669307 0 0.038760579676973085 0.0046325544033669307 0 0.038701213062075378 0.0046023472102710598 0 0.0386535979966037 0.0046521513502304516 0 0.038733641195418229 0.0045463894731633172 0 0.038760579676973085 0.0046325544033669307 0 0.038701213062075378 0.0046023472102710598 0 0.038733641195418229 0.0045463894731633172 0 0.038655208486823349 0.0045772711660719027 0 0.038701213062075378 0.0046023472102710598 0 0.038655208486823349 0.0045772711660719027 0 0.038701213062075378 0.0046023472102710598 0 0.0386535979966037 0.0046521513502304516 0 0.038760579676973085 0.0046325544033669307 0 0.0386535979966037 0.0046521513502304516 0 0.038683731279444945 0.0046982439338355154 0 0.034523581919734009 0.004875576625780983 0 0.033916718699852758 0.0044338327206865985 0 0.038843114689686126 0.004674928367845616 0 0.038760579676973085 0.0046325544033669307 0 0.03880622599246808 0.0047605040451535637 0 0.038760579676973085 0.0046325544033669307 0 0.038683731279444945 0.0046982439338355154 0 0.03880622599246808 0.0047605040451535637 0 0.030317484516779035 0.0034936824236911791 0 0.025127603754895526 0.0027771542595868507 0 0.032946082971066916 0.0041672746078605591 0 0.032512330861030544 0.0033528471204613093 0 0.031894186215504279 0.0035198436546933854 0 0.025963857974535189 0.0024328798694602991 0 0.026127540965932856 0.0021371071921227826 0 0.025675917176945173 0.0022415500200843731 0 0.025963857974535189 0.0024328798694602991 0 0.026336876606416093 0.0025708007407917936 0 0.026127540965932856 0.0021371071921227826 0 0.033916718699852758 0.0044338327206865985 0 0.033724767830478786 0.0040457599309881888 0 0.030840168304735478 0.0030452844803082121 0 0.031259134255238109 0.0038336359767503539 0 0.028085106132414703 0.0046789618157999915 0 0.029590897322797554 0.0022853375507000538 0 0.030840168304735478 0.0030452844803082121 0 0.028085106132414703 0.0046789618157999915 0 0.030317484516779035 0.0034936824236911791 0 0.033724767830478786 0.0040457599309881888 0 0.033916718699852758 0.0044338327206865985 0 0.030317484516779035 0.0034936824236911791 0 0.038425456937878105 0.0045680793179509686 0 0.038102642517167856 0.0046039412160185766 0 0.038059098302971342 0.0044377564251803182 0 0.029477835186536842 0.0029147053148273396 0 0.030440523579618014 0.0046328568687322314 0 0.029282866261025893 0.0042158961633628486 0 0.027785066984056674 0.0026183464297996738 0 0.030317484516779035 0.0034936824236911791 0 0.032424576418821995 0.003963774189445734 0 0.037431323282765501 0.0044747252297824124 0 0.032424576418821995 0.003963774189445734 0 0.033724767830478786 0.0040457599309881888 0 0.034248747883678987 0.0041720894128745474 0 0.034383825785016073 0.0046328575156365567 0 0.034810701836364831 0.0045168676144314631 0 0.037431323282765501 0.0044747252297824124 0 0.033724767830478786 0.0040457599309881888 0 0.030440523579618014 0.0046328568687322314 0 0.029282866261025893 0.0042158961633628486 0 0.030125501601855908 0.0047204378006748164 0 0.038843114689686126 0.004674928367845616 0 0.038932540196048422 0.0047281368013348752 0 0.03880622599246808 0.0047605040451535637 0 0.039133972915296876 0.0041000757060391099 0 0.039498138847425812 0.0040959765651880625 0 0.039160092256639516 0.003714793632198829 0 0.038900399473621464 0.0042003362930174227 0 0.039133972915296876 0.0041000757060391099 0 0.039160092256639516 0.003714793632198829 0 0.038030146927956726 0.0042861146744494934 0 0.037982902483320487 0.0054875593699036185 0 0.039160092256639516 0.003714793632198829 0 0.039034334122898813 0.0049497128595449589 0 0.038978910401843946 0.0037951011036798676 0 0.038030146927956726 0.0042861146744494934 0 0.03692713087700731 0.0043398699692369482 0 0.037355838695213493 0.0030853653162600976 0 0.03692713087700731 0.0043398699692369482 0 0.037522051640362812 0.0048178070574303403 0 0.037152851966912336 0.0051613528652027256 0 0.038030146927956726 0.0042861146744494934 0 0.037522051640362812 0.0048178070574303403 0 0.037982902483320487 0.0054875593699036185 0 0.038030146927956726 0.0042861146744494934 0 0.03692713087700731 0.0043398699692369482 0 0.037522051640362812 0.0048178070574303403 0 0.038485333498942897 0.0045998032102810534 0 0.038900399473621464 0.0042003362930174227 0 0.038786605802894419 0.004357097571600751 0 0.036839284709046766 0.0071771011274183692 0 0.037982902483320487 0.0054875593699036185 0 0.037145887701323141 0.0059450843176191105 0 0.032253618307119591 0.0036163992369929593 0 0.039034334122898813 0.0049497128595449589 0 0.037522051640362812 0.0048178070574303403 0 0.037982902483320487 0.0054875593699036185 0 0.037152851966912336 0.0051613528652027256 0 0.038900399473621464 0.0042003362930174227 0 0.038872553689368566 0.0042838971152221626 0 0.038948987472808012 0.0042234919996021227 0 0.037982902483320487 0.0054875593699036185 0 0.037152851966912336 0.0051613528652027256 0 0.037145887701323141 0.0059450843176191105 0 0.037152851966912336 0.0051613528652027256 0 0.037145887701323141 0.0059450843176191105 0 0.036606794175999949 0.0059469953502712123 0 0.036839284709046766 0.0071771011274183692 0 0.037145887701323141 0.0059450843176191105 0 0.036606794175999949 0.0059469953502712123 0 0.038852917022129146 0.0044753784095138052 0 0.03885924666872554 0.0043879324718409229 0 0.038948987472808012 0.0042234919996021227 0 0.038900399473621464 0.0042003362930174227 0 0.038872553689368566 0.0042838971152221626 0 0.038786605802894419 0.004357097571600751 0 0.038852259101748061 0.0043349137774029711 0 0.03885924666872554 0.0043879324718409229 0 0.038948987472808012 0.0042234919996021227 0 0.038852259101748061 0.0043349137774029711 0 0.038872553689368566 0.0042838971152221626 0 0.038948987472808012 0.0042234919996021227 0 0.038852259101748061 0.0043349137774029711 0 0.038872553689368566 0.0042838971152221626 0 0.038786605802894419 0.004357097571600751 0 0.038806282780707628 0.0044355532666388838 0 0.03874986953894842 0.0044362493712610312 0 0.038786605802894419 0.004357097571600751 0 0.038806282780707628 0.0044355532666388838 0 0.038786605802894419 0.004357097571600751 0 0.03885924666872554 0.0043879324718409229 0 0.038852259101748061 0.0043349137774029711 0 0.038786605802894419 0.004357097571600751 0 0.03885924666872554 0.0043879324718409229 0 0.038948987472808012 0.0042234919996021227 0 0.039133972915296876 0.0041000757060391099 0 0.03928003506164543 0.0043714575345136682 0 0.038900399473621464 0.0042003362930174227 0 0.038948987472808012 0.0042234919996021227 0 0.039133972915296876 0.0041000757060391099 0 0.039133972915296876 0.0041000757060391099 0 0.03928003506164543 0.0043714575345136682 0 0.039498138847425812 0.0040959765651880625 0 0.03928003506164543 0.0043714575345136682 0 0.039583447077898827 0.0044671277201105662 0 0.039498138847425812 0.0040959765651880625 0 0.040064620120414396 0.0047450586263928203 0 0.039583447077898827 0.0044671277201105662 0 0.039972377607736073 0.0041998732092644528 0 0.039583447077898827 0.0044671277201105662 0 0.039972377607736073 0.0041998732092644528 0 0.039498138847425812 0.0040959765651880625 0 0.040064620120414396 0.0047450586263928203 0 0.039972377607736073 0.0041998732092644528 0 0.040402548738483972 0.0041895050935719831 0 0.039972377607736073 0.0041998732092644528 0 0.040402548738483972 0.0041895050935719831 0 0.040375579589677017 0.003896125481701478 0 0.039972377607736073 0.0041998732092644528 0 0.040375579589677017 0.003896125481701478 0 0.039938694234118305 0.003734346881537886 0 0.040375579589677017 0.003896125481701478 0 0.039938694234118305 0.003734346881537886 0 0.040880353207997683 0.0033518456158842438 0 0.039972377607736073 0.0041998732092644528 0 0.039938694234118305 0.003734346881537886 0 0.039498138847425812 0.0040959765651880625 0 0.039938694234118305 0.003734346881537886 0 0.039498138847425812 0.0040959765651880625 0 0.039160092256639516 0.003714793632198829 0 0.039938694234118305 0.003734346881537886 0 0.040065086581749156 0.0031190161863110144 0 0.039160092256639516 0.003714793632198829 0 0.039938694234118305 0.003734346881537886 0 0.040065086581749156 0.0031190161863110144 0 0.040880353207997683 0.0033518456158842438 0 0.040065086581749156 0.0031190161863110144 0 0.040592448734879577 0.0028584647208729956 0 0.040880353207997683 0.0033518456158842438 0 0.039816905635547489 0.0029165764458326192 0 0.039503641088429603 0.0023280025286056549 0 0.040065086581749156 0.0031190161863110144 0 0.039479753290775882 0.0027248165248695798 0 0.040106027441646146 0.0026978562264429826 0 0.040065086581749156 0.0031190161863110144 0 0.040592448734879577 0.0028584647208729956 0 0.040106027441646146 0.0026978562264429826 0 0.038030146927956726 0.0042861146744494934 0 0.039160092256639516 0.003714793632198829 0 0.037355838695213493 0.0030853653162600976 0 0.039160092256639516 0.003714793632198829 0 0.037355838695213493 0.0030853653162600976 0 0.038581456682117425 0.0013975393269481588 0 0.040065086581749156 0.0031190161863110144 0 0.039160092256639516 0.003714793632198829 0 0.038581456682117425 0.0013975393269481588 0 0.037355838695213493 0.0030853653162600976 0 0.038581456682117425 0.0013975393269481588 0 0.03614258944528545 0.0017745025645314976 0 0.038581456682117425 0.0013975393269481588 0 0.036875142103895531 -0.00019315422419048607 0 0.03614258944528545 0.0017745025645314976 0 0.039503641088429603 0.0023280025286056549 0 0.035373168885751066 0.00014241494714972914 0 0.039479753290775882 0.0027248165248695798 0 0.038553466958543385 0.0019992874000078369 0 0.039159285099645016 0.001951902069269454 0 0.039479753290775882 0.0027248165248695798 0 0.039159285099645016 0.001951902069269454 0 0.039833447100893114 0.0019735340391420701 0 0.039479753290775882 0.0027248165248695798 0 0.039833447100893114 0.0019735340391420701 0 0.040106027441646146 0.0026978562264429826 0 0.039159285099645016 0.001951902069269454 0 0.039422279241490013 0.0014509163315154408 0 0.039833447100893114 0.0019735340391420701 0 0.039159285099645016 0.001951902069269454 0 0.038714894599112655 0.0015239390409517962 0 0.039422279241490013 0.0014509163315154408 0 0.038553466958543385 0.0019992874000078369 0 0.039159285099645016 0.001951902069269454 0 0.038714894599112655 0.0015239390409517962 0 0.035373168885751066 0.00014241494714972914 0 0.037707611237552362 0.0013898971235631729 0 0.04217842183448383 -0.0015464779939078804 0 0.037819053697646543 0.00087741082809064718 0 0.039391674467922362 -0.00089654823289594596 0 0.038714894599112655 0.0015239390409517962 0 0.039109078276237601 0.0010397912276513908 0 0.038056289636285136 0.0015572313238729962 0 0.042632727371659955 9.8977146859791619e-05 0 0.034172606252066598 -0.00089999055784668663 0 0.038714894599112655 0.0015239390409517962 0 0.039109078276237601 0.0010397912276513908 0 0.039422279241490013 0.0014509163315154408 0 0.042632727371659955 9.8977146859791619e-05 0 0.042777378129155913 -0.00061526870243086031 0 0.039109078276237601 0.0010397912276513908 0 0.039422279241490013 0.0014509163315154408 0 0.040260297007086811 0.0007548696465579448 0 0.042632727371659955 9.8977146859791619e-05 0 0.042369464153956267 0.00052021054293220918 0 0.044979651101550382 2.2083420388735247e-06 0 0.044991613621533845 2.6261484955595501e-07 0 0.044999040389442059 7.6948123771875311e-07 0 0.042632727371659955 9.8977146859791619e-05 0 0.04517337800570085 -7.4559835640801417e-05 0 0.044331843198804947 0.00027685031343291502 0 0.044909723799307237 0.00011028157135324059 0 0.044713645235840774 5.3950099939688148e-05 0 0.044991613621533845 2.6261484955595501e-07 0 0.044999992083232958 9.6766950729676132e-11 0 0.044999961369841579 -8.0688351739321505e-09 0 0.044991613621533845 2.6261484955595501e-07 0 0.044999992083232958 9.6766950729676132e-11 0 0.044999040389442059 7.6948123771875311e-07 0 0.044979651101550382 2.2083420388735247e-06 0 0.044999961369841579 -8.0688351739321505e-09 0 0.04496599002346853 -9.7382159273908863e-07 0 0.044979651101550382 2.2083420388735247e-06 0 0.044991613621533845 2.6261484955595501e-07 0 0.044999961369841579 -8.0688351739321505e-09 0 0.044999712656399481 3.0001375634395516e-09 0 0.044909723799307237 0.00011028157135324059 0 0.045005750267617897 3.4399835596588344e-06 0 0.042369464153956267 0.00052021054293220918 0 0.043530491426260261 9.7129553116444937e-05 0 0.040260297007086811 0.0007548696465579448 0 0.041159561403931795 0.0011381537691819532 0 0.041950615188616439 0.0001664024830986192 0 0.044999712656399481 3.0001375634395516e-09 0 0.044909723799307237 0.00011028157135324059 0 0.044713645235840774 5.3950099939688148e-05 0 0.044999603858246931 1.8034299457877194e-07 0 0.04517337800570085 -7.4559835640801417e-05 0 0.044999992083232958 9.6766950729676132e-11 0 0.045000004557550176 1.7504610871522172e-10 0 0.044999040389442059 7.6948123771875311e-07 0 0.040260297007086811 0.0007548696465579448 0 0.040576806083510247 0.0016763224099034023 0 0.039833447100893114 0.0019735340391420701 0 0.039422279241490013 0.0014509163315154408 0 0.040260297007086811 0.0007548696465579448 0 0.039833447100893114 0.0019735340391420701 0 0.041159561403931795 0.0011381537691819532 0 0.040576806083510247 0.0016763224099034023 0 0.041919676739168826 0.0019061220554404158 0 0.040260297007086811 0.0007548696465579448 0 0.041159561403931795 0.0011381537691819532 0 0.040576806083510247 0.0016763224099034023 0 0.040576806083510247 0.0016763224099034023 0 0.040680162047608694 0.0023841469624982905 0 0.041919676739168826 0.0019061220554404158 0 0.040576806083510247 0.0016763224099034023 0 0.039833447100893114 0.0019735340391420701 0 0.040680162047608694 0.0023841469624982905 0 0.039833447100893114 0.0019735340391420701 0 0.040106027441646146 0.0026978562264429826 0 0.040680162047608694 0.0023841469624982905 0 0.040592448734879577 0.0028584647208729956 0 0.040680162047608694 0.0023841469624982905 0 0.0413998564626403 0.0026077752354931798 0 0.040592448734879577 0.0028584647208729956 0 0.040106027441646146 0.0026978562264429826 0 0.040680162047608694 0.0023841469624982905 0 0.040680162047608694 0.0023841469624982905 0 0.0413998564626403 0.0026077752354931798 0 0.041919676739168826 0.0019061220554404158 0 0.0413998564626403 0.0026077752354931798 0 0.04211489836890768 0.0022997138075673391 0 0.042075565047851829 0.0030472077941238458 0 0.04211489836890768 0.0022997138075673391 0 0.041919676739168826 0.0019061220554404158 0 0.042340280363603627 0.0018386449996580438 0 0.0413998564626403 0.0026077752354931798 0 0.04211489836890768 0.0022997138075673391 0 0.041919676739168826 0.0019061220554404158 0 0.041159561403931795 0.0011381537691819532 0 0.041919676739168826 0.0019061220554404158 0 0.041950615188616439 0.0001664024830986192 0 0.042035525755583558 0.0019238307872185203 0 0.043419801309968108 0.0019498570430204934 0 0.041919676739168826 0.0019061220554404158 0 0.043638605841103226 0.00091453671156479664 0 0.044460572076415059 0.0019806945824080041 0 0.041919676739168826 0.0019061220554404158 0 0.043638605841103226 0.00091453671156479664 0 0.041950615188616439 0.0001664024830986192 0 0.043530491426260261 9.7129553116444937e-05 0 0.044999508897567653 6.0796379325126624e-09 0 0.045005750267617897 3.4399835596588344e-06 0 0.045000120609474933 1.049473617928162e-08 0 0.044999928519010947 -7.5374824194300721e-09 0 0.043638605841103226 0.00091453671156479664 0 0.041950615188616439 0.0001664024830986192 0 0.044997430808210968 -1.0269752345228737e-06 0 0.044999712656399481 3.0001375634395516e-09 0 0.045005750267617897 3.4399835596588344e-06 0 0.045000120609474933 1.049473617928162e-08 0 0.044979861603366325 -1.1128910983685371e-05 0 0.045002168924747531 -1.6128888855799574e-07 0 0.044911313070137529 -7.2519059055213832e-06 0 0.043638605841103226 0.00091453671156479664 0 0.044997430808210968 -1.0269752345228737e-06 0 0.044830620336888449 0.00064602884292799616 0 0.045317774097398858 0.00046424017590319255 0 0.045000068834684888 7.3218486369510001e-08 0 0.045001665868579885 4.9751392039711339e-07 0 0.044997430808210968 -1.0269752345228737e-06 0 0.044830620336888449 0.00064602884292799616 0 0.045614740398350687 0.00073466266464142596 0 0.045001665868579885 4.9751392039711339e-07 0 0.044830620336888449 0.00064602884292799616 0 0.043638605841103226 0.00091453671156479664 0 0.044830620336888449 0.00064602884292799616 0 0.044460572076415059 0.0019806945824080041 0 0.045614740398350687 0.00073466266464142596 0 0.044830620336888449 0.00064602884292799616 0 0.044460572076415059 0.0019806945824080041 0 0.045614740398350687 0.00073466266464142596 0 0.044460572076415059 0.0019806945824080041 0 0.046309495052988016 0.0016963190644911875 0 0.042340280363603627 0.0018386449996580438 0 0.04298005739547759 0.0017261400130734741 0 0.042721087161003514 0.0020954085887202527 0 0.043419801309968108 0.0019498570430204934 0 0.044418227720557979 0.0010446666609758785 0 0.045317774097398858 0.00046424017590319255 0 0.044418227720557979 0.0010446666609758785 0 0.04298005739547759 0.0017261400130734741 0 0.042984322109321675 0.0020660046863223143 0 0.042721087161003514 0.0020954085887202527 0 0.042721087161003514 0.0020954085887202527 0 0.042453349224259126 0.0022214638513669712 0 0.042682605826710282 0.002401204586210784 0 0.042984322109321675 0.0020660046863223143 0 0.042721087161003514 0.0020954085887202527 0 0.042932989742045742 0.0024139403314824013 0 0.04211489836890768 0.0022997138075673391 0 0.042340280363603627 0.0018386449996580438 0 0.042453349224259126 0.0022214638513669712 0 0.042340280363603627 0.0018386449996580438 0 0.042721087161003514 0.0020954085887202527 0 0.042453349224259126 0.0022214638513669712 0 0.04211489836890768 0.0022997138075673391 0 0.042417915451196192 0.0025118823576224742 0 0.042075565047851829 0.0030472077941238458 0 0.042417915451196192 0.0025118823576224742 0 0.042731560267272393 0.0026631134824323128 0 0.042075565047851829 0.0030472077941238458 0 0.04211489836890768 0.0022997138075673391 0 0.042453349224259126 0.0022214638513669712 0 0.042417915451196192 0.0025118823576224742 0 0.042453349224259126 0.0022214638513669712 0 0.042417915451196192 0.0025118823576224742 0 0.042682605826710282 0.002401204586210784 0 0.042417915451196192 0.0025118823576224742 0 0.042682605826710282 0.002401204586210784 0 0.042731560267272393 0.0026631134824323128 0 0.042932989742045742 0.0024139403314824013 0 0.042795378812654432 0.002704433307547177 0 0.043193008850097005 0.0023684973456620695 0 0.042932989742045742 0.0024139403314824013 0 0.042682605826710282 0.002401204586210784 0 0.042799552860328029 0.0025271042234946413 0 0.042721087161003514 0.0020954085887202527 0 0.042932989742045742 0.0024139403314824013 0 0.042682605826710282 0.002401204586210784 0 0.042682605826710282 0.002401204586210784 0 0.042799552860328029 0.0025271042234946413 0 0.042731560267272393 0.0026631134824323128 0 0.042799552860328029 0.0025271042234946413 0 0.042731560267272393 0.0026631134824323128 0 0.042795378812654432 0.002704433307547177 0 0.042272342655621103 0.0027919817536333634 0 0.042104704867683376 0.0027284468547985469 0 0.042932989742045742 0.0024139403314824013 0 0.042799552860328029 0.0025271042234946413 0 0.042795378812654432 0.002704433307547177 0 0.04122713562428932 0.0032555559034553663 0 0.041261007509780741 0.0034630327055107418 0 0.041104033294172337 0.0034544533291053906 0 0.04122713562428932 0.0032555559034553663 0 0.041261007509780741 0.0034630327055107418 0 0.041468569012724603 0.003400477082490526 0 0.041261007509780741 0.0034630327055107418 0 0.041133032502145513 0.0035769840887040442 0 0.041104033294172337 0.0034544533291053906 0 0.041261007509780741 0.0034630327055107418 0 0.041133032502145513 0.0035769840887040442 0 0.04127786619849786 0.0036090749124824541 0 0.041261007509780741 0.0034630327055107418 0 0.04127786619849786 0.0036090749124824541 0 0.041369284338426272 0.003510787014943137 0 0.041104033294172337 0.0034544533291053906 0 0.040973181141200112 0.0033791284152789518 0 0.040964261754841788 0.0036238941843541707 0 0.041133032502145513 0.0035769840887040442 0 0.041104033294172337 0.0034544533291053906 0 0.040964261754841788 0.0036238941843541707 0 0.042731560267272393 0.0026631134824323128 0 0.042814734496777043 0.002718400459804815 0 0.042075565047851829 0.0030472077941238458 0 0.04122713562428932 0.0032555559034553663 0 0.041104033294172337 0.0034544533291053906 0 0.040973181141200112 0.0033791284152789518 0 0.042104704867683376 0.0027284468547985469 0 0.041481873842788924 0.0032403664006895212 0 0.041481873842788924 0.0032403664006895212 0 0.040941110314220423 0.0033445747766531805 0 0.0413998564626403 0.0026077752354931798 0 0.042075565047851829 0.0030472077941238458 0 0.040880353207997683 0.0033518456158842438 0 0.040592448734879577 0.0028584647208729956 0 0.0413998564626403 0.0026077752354931798 0 0.040880353207997683 0.0033518456158842438 0 0.040973181141200112 0.0033791284152789518 0 0.040880353207997683 0.0033518456158842438 0 0.040964261754841788 0.0036238941843541707 0 0.040964261754841788 0.0036238941843541707 0 0.040748383528251567 0.0039027646974850983 0 0.040846470261872117 0.0039489734941554689 0 0.040880353207997683 0.0033518456158842438 0 0.040964261754841788 0.0036238941843541707 0 0.040748383528251567 0.0039027646974850983 0 0.040375579589677017 0.003896125481701478 0 0.040880353207997683 0.0033518456158842438 0 0.040748383528251567 0.0039027646974850983 0 0.040402548738483972 0.0041895050935719831 0 0.040375579589677017 0.003896125481701478 0 0.040748383528251567 0.0039027646974850983 0 0.040710875885583218 0.004276711928570931 0 0.040402548738483972 0.0041895050935719831 0 0.040748383528251567 0.0039027646974850983 0 0.040710875885583218 0.004276711928570931 0 0.040748383528251567 0.0039027646974850983 0 0.040846470261872117 0.0039489734941554689 0 0.040025007434027975 0.0041524024681836363 0 0.040792522283574481 0.0039542424634519784 0 0.040846470261872117 0.0039489734941554689 0 0.041233932368099593 0.0040495928877796418 0 0.041100331686632963 0.0037534707572965779 0 0.041233932368099593 0.0040495928877796418 0 0.041100331686632963 0.0037534707572965779 0 0.041363827078550491 0.0037552031052018311 0 0.041100331686632963 0.0037534707572965779 0 0.04127786619849786 0.0036090749124824541 0 0.041363827078550491 0.0037552031052018311 0 0.041133032502145513 0.0035769840887040442 0 0.041100331686632963 0.0037534707572965779 0 0.04127786619849786 0.0036090749124824541 0 0.041133032502145513 0.0035769840887040442 0 0.040964261754841788 0.0036238941843541707 0 0.041100331686632963 0.0037534707572965779 0 0.040964261754841788 0.0036238941843541707 0 0.040846470261872117 0.0039489734941554689 0 0.041100331686632963 0.0037534707572965779 0 0.039224176904391575 0.0017444874766263658 0 0.039573018881905765 0.0025183859132571216 0 0.040094708684447235 0.0013838174739565804 0 0.038232055123521479 0.0019127535741459945 0 0.039875081396164372 0.00062431197134065299 0 0.040686702629865332 0.0025266794346820508 0 0.040507136481435273 0.0024039323625455761 0 0.041006535454658689 0.0018761521797277937 0 0.041012816969169856 0.0031968923501392637 0 0.040014108157497473 0.0029622714509387237 0 0.041570227572292957 0.0036466831416393278 0 0.041363827078550491 0.0037552031052018311 0 0.041548118252001762 0.0039145103889248606 0 0.041570227572292957 0.0036466831416393278 0 0.04144957151676356 0.0036090266606356282 0 0.041363827078550491 0.0037552031052018311 0 0.040686702629865332 0.0025266794346820508 0 0.040507136481435273 0.0024039323625455761 0 0.040364091345495859 0.0031719792420941374 0 0.04127786619849786 0.0036090749124824541 0 0.04144957151676356 0.0036090266606356282 0 0.041363827078550491 0.0037552031052018311 0 0.039936932333649332 0.0022175264401758342 0 0.040014108157497473 0.0029622714509387237 0 0.041233932368099593 0.0040495928877796418 0 0.041363827078550491 0.0037552031052018311 0 0.041548118252001762 0.0039145103889248606 0 0.039059337460261766 0.0036401204624414408 0 0.038877783461940214 0.0024600666061185016 0 0.039573018881905765 0.0025183859132571216 0 0.039224176904391575 0.0017444874766263658 0 0.038877783461940214 0.0024600666061185016 0 0.039573018881905765 0.0025183859132571216 0 0.037134506725235349 0.0013238820241084908 0 0.036971336072796651 0.0012157818606212695 0 0.037155791457360414 0.0012004245355592233 0 0.037231849871699974 0.0013520917073364552 0 0.037134506725235349 0.0013238820241084908 0 0.037155791457360414 0.0012004245355592233 0 0.0340569748529371 0.0006572318651844745 0 0.037139188253805439 -0.00037103105625638959 0 0.037231849871699974 0.0013520917073364552 0 0.037155791457360414 0.0012004245355592233 0 0.037335240629948849 0.0011417455309419295 0 0.037237572824887148 0.0013942732102764908 0 0.037231849871699974 0.0013520917073364552 0 0.037335240629948849 0.0011417455309419295 0 0.039717135095367499 -0.0022123238469843889 0 0.0418605459078044 -0.00068009184306768225 0 0.040428940704245152 -0.00028687945887081014 0 0.037139188253805439 -0.00037103105625638959 0 0.039875081396164372 0.00062431197134065299 0 0.037155791457360414 0.0012004245355592233 0 0.037335240629948849 0.0011417455309419295 0 0.037100352109429621 0.00096889357079601676 0 0.039717135095367499 -0.0022123238469843889 0 0.040428940704245152 -0.00028687945887081014 0 0.038895322241863206 -0.00019705837204827084 0 0.036971336072796651 0.0012157818606212695 0 0.037155791457360414 0.0012004245355592233 0 0.037100352109429621 0.00096889357079601676 0 0.0418605459078044 -0.00068009184306768225 0 0.041325071808906259 0.00024885269014458019 0 0.040428940704245152 -0.00028687945887081014 0 0.041495546139920639 -0.00010065698402159208 0 0.041325071808906259 0.00024885269014458019 0 0.041738261576126923 0.00015932857625181775 0 0.041325071808906259 0.00024885269014458019 0 0.041640348186376346 0.00030701021630270261 0 0.041738261576126923 0.00015932857625181775 0 0.039875081396164372 0.00062431197134065299 0 0.04156203281130582 -0.00033189019643404443 0 0.040428940704245152 -0.00028687945887081014 0 0.040426400676514158 0.0003741547284707751 0 0.038895322241863206 -0.00019705837204827084 0 0.041325071808906259 0.00024885269014458019 0 0.040428940704245152 -0.00028687945887081014 0 0.040426400676514158 0.0003741547284707751 0 0.041325071808906259 0.00024885269014458019 0 0.040426400676514158 0.0003741547284707751 0 0.041242166910036557 0.00053905576457023024 0 0.040426400676514158 0.0003741547284707751 0 0.041242166910036557 0.00053905576457023024 0 0.041410381688567588 0.00053676237643385553 0 0.041325071808906259 0.00024885269014458019 0 0.041574617123357138 0.00041173503712174447 0 0.041640348186376346 0.00030701021630270261 0 0.041574617123357138 0.00041173503712174447 0 0.041640348186376346 0.00030701021630270261 0 0.041703098663409641 0.00038862193140737936 0 0.041574617123357138 0.00041173503712174447 0 0.041680301941763531 0.0004616454255503255 0 0.041703098663409641 0.00038862193140737936 0 0.041325071808906259 0.00024885269014458019 0 0.041242166910036557 0.00053905576457023024 0 0.041574617123357138 0.00041173503712174447 0 0.041242166910036557 0.00053905576457023024 0 0.041574617123357138 0.00041173503712174447 0 0.041607079008782896 0.00059759040663941978 0 0.041574617123357138 0.00041173503712174447 0 0.041607079008782896 0.00059759040663941978 0 0.041680301941763531 0.0004616454255503255 0 0.041607079008782896 0.00059759040663941978 0 0.041712524067415255 0.00055401651691719313 0 0.041680301941763531 0.0004616454255503255 0 0.041965927766053013 0.0022265687119622148 0 0.041761023894806737 0.0020867315457463584 0 0.042119321180285225 0.0013766768143220331 0 0.041463063842398083 0.001857499985399071 0 0.041931092908727916 0.00084130963188004074 0 0.041776085867507508 0.00051655370829050079 0 0.041928773509449062 0.00024411898885606261 0 0.041795868913046617 0.00067015835938730747 0 0.041712524067415255 0.00055401651691719313 0 0.041776085867507508 0.00051655370829050079 0 0.041733572191100431 0.00046995519479013165 0 0.041712524067415255 0.00055401651691719313 0 0.041776085867507508 0.00051655370829050079 0 0.04174345636151916 0.00059728775144925824 0 0.041776085867507508 0.00051655370829050079 0 0.041733572191100431 0.00046995519479013165 0 0.041791158734215982 0.00038687175568457921 0 0.041712524067415255 0.00055401651691719313 0 0.041733572191100431 0.00046995519479013165 0 0.041680301941763531 0.0004616454255503255 0 0.041791158734215982 0.00038687175568457921 0 0.041762071011332558 0.00029773852509324468 0 0.041928773509449062 0.00024411898885606261 0 0.041776085867507508 0.00051655370829050079 0 0.041791158734215982 0.00038687175568457921 0 0.041928773509449062 0.00024411898885606261 0 0.041733572191100431 0.00046995519479013165 0 0.041680301941763531 0.0004616454255503255 0 0.041703098663409641 0.00038862193140737936 0 0.041733572191100431 0.00046995519479013165 0 0.041703098663409641 0.00038862193140737936 0 0.041791158734215982 0.00038687175568457921 0 0.041703098663409641 0.00038862193140737936 0 0.041791158734215982 0.00038687175568457921 0 0.041762071011332558 0.00029773852509324468 0 0.041640348186376346 0.00030701021630270261 0 0.041703098663409641 0.00038862193140737936 0 0.041762071011332558 0.00029773852509324468 0 0.041738261576126923 0.00015932857625181775 0 0.041928773509449062 0.00024411898885606261 0 0.041765268389172425 0.00010421698063093529 0 0.041012816969169856 0.0031968923501392637 0 0.041463063842398083 0.001857499985399071 0 0.041640348186376346 0.00030701021630270261 0 0.041762071011332558 0.00029773852509324468 0 0.041738261576126923 0.00015932857625181775 0 0.040507136481435273 0.0024039323625455761 0 0.040647595255556654 0.0016307185191904187 0 0.041006535454658689 0.0018761521797277937 0 0.041762071011332558 0.00029773852509324468 0 0.041738261576126923 0.00015932857625181775 0 0.041928773509449062 0.00024411898885606261 0 0.039224176904391575 0.0017444874766263658 0 0.040094708684447235 0.0013838174739565804 0 0.039575742999932086 0.0010287849999058409 0 0.040989909933789606 0.00078149056107266665 0 0.040771765452947258 0.0011365116655537321 0 0.041463063842398083 0.001857499985399071 0 0.040771765452947258 0.0011365116655537321 0 0.039936932333649332 0.0022175264401758342 0 0.040771765452947258 0.0011365116655537321 0 0.039875081396164372 0.00062431197134065299 0 0.040771765452947258 0.0011365116655537321 0 0.041495546139920639 -0.00010065698402159208 0 0.041738261576126923 0.00015932857625181775 0 0.041771789280395488 8.7480187057603845e-05 0 0.041397781777602234 0.0038054827208365573 0 0.041756178691945929 0.0026855755772528071 0 0.041261007509780741 0.0034630327055107418 0 0.041369284338426272 0.003510787014943137 0 0.041468569012724603 0.003400477082490526 0 0.04144957151676356 0.0036090266606356282 0 0.041369284338426272 0.003510787014943137 0 0.041468569012724603 0.003400477082490526 0 0.04144957151676356 0.0036090266606356282 0 0.041646780411677548 0.0032679043341297602 0 0.041519065883726648 0.00317870772485707 0 0.041570227572292957 0.0036466831416393278 0 0.04144957151676356 0.0036090266606356282 0 0.041646780411677548 0.0032679043341297602 0 0.04127786619849786 0.0036090749124824541 0 0.04144957151676356 0.0036090266606356282 0 0.041369284338426272 0.003510787014943137 0 0.041463063842398083 0.001857499985399071 0 0.041756178691945929 0.0026855755772528071 0 0.041898393489934675 0.0022783911080276132 0 0.042267386668938985 0.002530432950923808 0 0.042350640069172898 0.0021066690643905144 0 0.042104704867683376 0.0027284468547985469 0 0.041756178691945929 0.0026855755772528071 0 0.041756178691945929 0.0026855755772528071 0 0.042569659345169687 0.0015494922285931561 0 0.042795378812654432 0.002704433307547177 0 0.043193008850097005 0.0023684973456620695 0 0.043440872341138088 0.0024424110019345534 0 0.042104704867683376 0.0027284468547985469 0 0.042569659345169687 0.0015494922285931561 0 0.045002168924747531 -1.6128888855799574e-07 0 0.044911313070137529 -7.2519059055213832e-06 0 0.044995070780707691 3.490841227816749e-07 0 0.043193008850097005 0.0023684973456620695 0 0.043440872341138088 0.0024424110019345534 0 0.043452561756433097 0.0023820550409296339 0 0.041761023894806737 0.0020867315457463584 0 0.042119321180285225 0.0013766768143220331 0 0.041930627778312822 0.0012287842184881227 0 0.041735053023468575 0.0006275395646348226 0 0.041759147100066243 0.00064296194288127485 0 0.041752686433213546 0.00064736963123931143 0 0.041712524067415255 0.00055401651691719313 0 0.041735053023468575 0.0006275395646348226 0 0.04174345636151916 0.00059728775144925824 0 0.041776085867507508 0.00051655370829050079 0 0.04174345636151916 0.00059728775144925824 0 0.041770796627796015 0.00063238961917834989 0 0.041735053023468575 0.0006275395646348226 0 0.04174345636151916 0.00059728775144925824 0 0.041770796627796015 0.00063238961917834989 0 0.041735053023468575 0.0006275395646348226 0 0.041759147100066243 0.00064296194288127485 0 0.041770796627796015 0.00063238961917834989 0 0.041776085867507508 0.00051655370829050079 0 0.041795868913046617 0.00067015835938730747 0 0.041770796627796015 0.00063238961917834989 0 0.041931092908727916 0.00084130963188004074 0 0.042383967914275976 0.0013490294568157257 0 0.041931092908727916 0.00084130963188004074 0 0.041897248310065152 0.00079625261156720303 0 0.041643879160320009 0.00095894699856620587 0 0.041588707761261196 0.00081530836100642933 0 0.041685938890801348 0.00062804252960723425 0 0.041931092908727916 0.00084130963188004074 0 0.041758150626697341 0.00066631335444279583 0 0.042119321180285225 0.0013766768143220331 0 0.041930627778312822 0.0012287842184881227 0 0.041993880671805192 0.0012053762710183518 0 0.042569659345169687 0.0015494922285931561 0 0.042383967914275976 0.0013490294568157257 0 0.041549637788527424 0.00083058111903598923 0 0.041516998802881101 0.00078717038949145169 0 0.041588707761261196 0.00081530836100642933 0 0.042383967914275976 0.0013490294568157257 0 0.042319160127870833 0.0013497798286204632 0 0.042684118311677989 0.0015124751275655654 0 0.042808485219821391 0.0014665616423069447 0 0.042716769694997249 0.0013419230160331996 0 0.042569659345169687 0.0015494922285931561 0 0.042673370488348253 0.0013902322088019021 0 0.042383967914275976 0.0013490294568157257 0 0.042673370488348253 0.0013902322088019021 0 0.041516998802881101 0.00078717038949145169 0 0.041588707761261196 0.00081530836100642933 0 0.041685938890801348 0.00062804252960723425 0 0.041643879160320009 0.00095894699856620587 0 0.041546364855695135 0.00083142352684960081 0 0.041588707761261196 0.00081530836100642933 0 0.041759147100066243 0.00064296194288127485 0 0.041685938890801348 0.00062804252960723425 0 0.041752686433213546 0.00064736963123931143 0 0.042673370488348253 0.0013902322088019021 0 0.043683160265361662 0.00032795757486931364 0 0.041516998802881101 0.00078717038949145169 0 0.041726629140820197 0.00032034028122626668 0 0.041590496115649939 -1.4410622763732238e-05 0 0.041516998802881101 0.00078717038949145169 0 0.041685938890801348 0.00062804252960723425 0 0.041726629140820197 0.00032034028122626668 0 0.041685938890801348 0.00062804252960723425 0 0.041726629140820197 0.00032034028122626668 0 0.041834574190702252 0.00058367503739932417 0 0.041685938890801348 0.00062804252960723425 0 0.041834574190702252 0.00058367503739932417 0 0.041752686433213546 0.00064736963123931143 0 0.043623434418988562 0.0010300118923914534 0 0.043621091028516898 0.0010169857043430984 0 0.043635235576967503 0.00099867726955627325 0 0.042984322109321675 0.0020660046863223143 0 0.043193008850097005 0.0023684973456620695 0 0.043218482579955572 0.0020576146639172932 0 0.042984322109321675 0.0020660046863223143 0 0.042932989742045742 0.0024139403314824013 0 0.043193008850097005 0.0023684973456620695 0 0.042673370488348253 0.0013902322088019021 0 0.043466870728791282 0.001570977150396098 0 0.043193008850097005 0.0023684973456620695 0 0.043452561756433097 0.0023820550409296339 0 0.043218482579955572 0.0020576146639172932 0 0.04298005739547759 0.0017261400130734741 0 0.042984322109321675 0.0020660046863223143 0 0.043218482579955572 0.0020576146639172932 0 0.044418227720557979 0.0010446666609758785 0 0.043466870728791282 0.001570977150396098 0 0.043619344626253075 0.0010060763719395901 0 0.043621091028516898 0.0010169857043430984 0 0.043635235576967503 0.00099867726955627325 0 0.044979861603366325 -1.1128910983685371e-05 0 0.044958014035660639 -2.4931639975139149e-05 0 0.044911313070137529 -7.2519059055213832e-06 0 0.044418227720557979 0.0010446666609758785 0 0.043683160265361662 0.00032795757486931364 0 0.044958014035660639 -2.4931639975139149e-05 0 0.04491115592559785 -1.5917610750596897e-05 0 0.044911313070137529 -7.2519059055213832e-06 0 0.043683160265361662 0.00032795757486931364 0 0.04339891844732241 -8.9128014304955811e-05 0 0.041726629140820197 0.00032034028122626668 0 0.041590496115649939 -1.4410622763732238e-05 0 0.042138888604634918 -0.00018280511321153782 0 0.044917102541484233 -5.2690210663537753e-05 0 0.044911313070137529 -7.2519059055213832e-06 0 0.044761617315129863 -4.8528479085024941e-05 0 0.043683160265361662 0.00032795757486931364 0 0.044002470548877431 2.933440825843808e-05 0 0.044911313070137529 -7.2519059055213832e-06 0 0.044995070780707691 3.490841227816749e-07 0 0.044761617315129863 -4.8528479085024941e-05 0 0.044995070780707691 3.490841227816749e-07 0 0.044761617315129863 -4.8528479085024941e-05 0 0.043926490916923966 -0.00012137626212452037 0 0.041726629140820197 0.00032034028122626668 0 0.042138888604634918 -0.00018280511321153782 0 0.042106500715857927 0.00045254138996651626 0 0.042138888604634918 -0.00018280511321153782 0 0.042672243159522921 0.00024750821909762515 0 0.042106500715857927 0.00045254138996651626 0 0.04339891844732241 -8.9128014304955811e-05 0 0.043841968914591752 -0.000130003417726138 0 0.042672243159522921 0.00024750821909762515 0 0.043926490916923966 -0.00012137626212452037 0 0.042470118132718553 0.00044980827967896055 0 0.042138888604634918 -0.00018280511321153782 0 0.042672243159522921 0.00024750821909762515 0 0.043926490916923966 -0.00012137626212452037 0 0.042672243159522921 0.00024750821909762515 0 0.042470118132718553 0.00044980827967896055 0 0.042106500715857927 0.00045254138996651626 0 0.042470118132718553 0.00044980827967896055 0 0.041852669079382801 0.00062812488520967832 0 0.041687979379080246 0.00061549786875381661 0 0.042470118132718553 0.00044980827967896055 0 0.042106500715857927 0.00045254138996651626 0 0.041852669079382801 0.00062812488520967832 0 0.041726629140820197 0.00032034028122626668 0 0.042106500715857927 0.00045254138996651626 0 0.041834574190702252 0.00058367503739932417 0 0.042106500715857927 0.00045254138996651626 0 0.041834574190702252 0.00058367503739932417 0 0.041852669079382801 0.00062812488520967832 0 0.041834574190702252 0.00058367503739932417 0 0.041752686433213546 0.00064736963123931143 0 0.041852669079382801 0.00062812488520967832 0 0.041607079008782896 0.00059759040663941978 0 0.041752686433213546 0.00064736963123931143 0 0.041852669079382801 0.00062812488520967832 0 0.041607079008782896 0.00059759040663941978 0 0.041852669079382801 0.00062812488520967832 0 0.041687979379080246 0.00061549786875381661 0 0.041242166910036557 0.00053905576457023024 0 0.041607079008782896 0.00059759040663941978 0 0.041687979379080246 0.00061549786875381661 0 0.041607079008782896 0.00059759040663941978 0 0.041712524067415255 0.00055401651691719313 0 0.041735053023468575 0.0006275395646348226 0 0.041607079008782896 0.00059759040663941978 0 0.041735053023468575 0.0006275395646348226 0 0.041752686433213546 0.00064736963123931143 0 0.042470118132718553 0.00044980827967896055 0 0.041687979379080246 0.00061549786875381661 0 0.041410381688567588 0.00053676237643385553 0 0.041242166910036557 0.00053905576457023024 0 0.041687979379080246 0.00061549786875381661 0 0.041410381688567588 0.00053676237643385553 0 0.044995070780707691 3.490841227816749e-07 0 0.043188664542239984 0.00018868665082901674 0 0.044997233312580889 4.4013004303945835e-07 0 0.044997233312580889 4.4013004303945835e-07 0 0.041249107887989647 0.00024286034365724038 0 0.037227112815151731 2.464950781154664e-07 0 0.041410381688567588 0.00053676237643385553 0 0.041249107887989647 0.00024286034365724038 0 0.039275882315496141 0.00020439463547458346 0 0.041410381688567588 0.00053676237643385553 0 0.043188664542239984 0.00018868665082901674 0 0.041249107887989647 0.00024286034365724038 0 0.042470118132718553 0.00044980827967896055 0 0.041410381688567588 0.00053676237643385553 0 0.043188664542239984 0.00018868665082901674 0 0.043926490916923966 -0.00012137626212452037 0 0.042470118132718553 0.00044980827967896055 0 0.043188664542239984 0.00018868665082901674 0 0.044995070780707691 3.490841227816749e-07 0 0.043926490916923966 -0.00012137626212452037 0 0.043188664542239984 0.00018868665082901674 0 0.043188664542239984 0.00018868665082901674 0 0.044997233312580889 4.4013004303945835e-07 0 0.041249107887989647 0.00024286034365724038 0 0.031580566912605711 -1.1673851874532181e-07 0 0.037227112815151731 2.464950781154664e-07 0 0.036447449089960768 -0.00020170395188464353 0 0.037227112815151731 2.464950781154664e-07 0 0.039275882315496141 0.00020439463547458346 0 0.036447449089960768 -0.00020170395188464353 0 0.041249107887989647 0.00024286034365724038 0 0.037227112815151731 2.464950781154664e-07 0 0.039275882315496141 0.00020439463547458346 0 0.040426400676514158 0.0003741547284707751 0 0.041410381688567588 0.00053676237643385553 0 0.039275882315496141 0.00020439463547458346 0 0.040426400676514158 0.0003741547284707751 0 0.039275882315496141 0.00020439463547458346 0 0.038895322241863206 -0.00019705837204827084 0 0.039275882315496141 0.00020439463547458346 0 0.038895322241863206 -0.00019705837204827084 0 0.036447449089960768 -0.00020170395188464353 0 0.038895322241863206 -0.00019705837204827084 0 0.036447449089960768 -0.00020170395188464353 0 0.037022598528835396 -0.00028663969528858001 0 0.033057571779023777 0.00011413765060044589 0 0.036447449089960768 -0.00020170395188464353 0 0.035218578748761852 -0.00036451070582937641 0 0.037698505596481045 -0.00045868824292609163 0 0.038895322241863206 -0.00019705837204827084 0 0.037022598528835396 -0.00028663969528858001 0 0.037139188253805439 -0.00037103105625638959 0 0.039059199930924049 -0.00067695868109101276 0 0.037698505596481045 -0.00045868824292609163 0 0.037022598528835396 -0.00028663969528858001 0 0.035218578748761852 -0.00036451070582937641 0 0.037139188253805439 -0.00037103105625638959 0 0.034813884334808524 -0.00080770904264707726 0 0.033669092007926733 0.00013566538561179416 0 0.033244501890477722 -0.0017177151491138661 0 0.035218578748761852 -0.00036451070582937641 0 0.036447449089960768 -0.00020170395188464353 0 0.037022598528835396 -0.00028663969528858001 0 0.035218578748761852 -0.00036451070582937641 0 0.019853404017665721 0.002219430673637422 0 0.019964209783278997 0.0019643249215896843 0 0.019943592828034852 0.0019925827971685101 0 0.019826568152325131 0.0022035082604354552 0 0.020234460994080695 0.0020008915055896408 0 0.0199665920365199 0.0019260395756991496 0 0.019964209783278997 0.0019643249215896843 0 0.019920008790347228 0.0018585860993317531 0 0.020163121468993978 0.0018384354793127943 0 0.020006070700603781 0.001655649568015544 0 0.019920008790347228 0.0018585860993317531 0 0.019781630709092026 0.0019220756837088067 0 0.019770048870288551 0.0017278275782752206 0 0.019920008790347228 0.0018585860993317531 0 0.020006070700603781 0.001655649568015544 0 0.019770048870288551 0.0017278275782752206 0 0.019781630709092026 0.0019220756837088067 0 0.019826568152325131 0.0022035082604354552 0 0.01976663139911029 0.002085240507926829 0 0.019943592828034852 0.0019925827971685101 0 0.019781630709092026 0.0019220756837088067 0 0.019826568152325131 0.0022035082604354552 0 0.0199665920365199 0.0019260395756991496 0 0.019777599098637858 0.0019217187978211212 0 0.019826568152325131 0.0022035082604354552 0 0.019732984648956575 0.0022602511842551268 0 0.019739934398230314 0.0023818221976896013 0 0.019826568152325131 0.0022035082604354552 0 0.019804533807259814 0.0023353251977587639 0 0.019739934398230314 0.0023818221976896013 0 0.019826568152325131 0.0022035082604354552 0 0.01976663139911029 0.002085240507926829 0 0.019732984648956575 0.0022602511842551268 0 0.019826568152325131 0.0022035082604354552 0 0.019830891175214936 0.0022505909715615641 0 0.019804533807259814 0.0023353251977587639 0 0.019826568152325131 0.0022035082604354552 0 0.019830891175214936 0.0022505909715615641 0 0.01982929010659298 0.0021838618680698036 0 0.019830891175214936 0.0022505909715615641 0 0.019863495614293871 0.0023233055953191585 0 0.019804533807259814 0.0023353251977587639 0 0.019863495614293871 0.0023233055953191585 0 0.019900137619535432 0.0022249196945724014 0 0.019997933466337218 0.0023128232164047018 0 0.019830891175214936 0.0022505909715615641 0 0.019900137619535432 0.0022249196945724014 0 0.01982929010659298 0.0021838618680698036 0 0.019830891175214936 0.0022505909715615641 0 0.019863495614293871 0.0023233055953191585 0 0.019900137619535432 0.0022249196945724014 0 0.019997933466337218 0.0023128232164047018 0 0.020050625409396543 0.0020492047678077091 0 0.020256075748811098 0.0022290795035265847 0 0.019900137619535432 0.0022249196945724014 0 0.019997933466337218 0.0023128232164047018 0 0.020050625409396543 0.0020492047678077091 0 0.020236109624259334 0.0018809345834709076 0 0.019725930538100671 0.0018633246085268652 0 0.020064824664122221 0.0016878218376388647 0 0.020119256990399209 0.0019749314706429752 0 0.019964209783278997 0.0019643249215896843 0 0.019964209783278997 0.0019643249215896843 0 0.020273399967404394 0.0016501374138025765 0 0.020163121468993978 0.0018384354793127943 0 0.020210980355880818 0.0015277363527630222 0 0.020483883317466044 0.0016281353707941113 0 0.019900137619535432 0.0022249196945724014 0 0.020050625409396543 0.0020492047678077091 0 0.01982929010659298 0.0021838618680698036 0 0.020210980355880818 0.0015277363527630222 0 0.020483883317466044 0.0016281353707941113 0 0.020438125136554328 0.0012553136893010508 0 0.020273399967404394 0.0016501374138025765 0 0.020618256430713688 0.0014505786554256765 0 0.020236109624259334 0.0018809345834709076 0 0.020064824664122221 0.0016878218376388647 0 0.020419533698391362 0.0014994164536936223 0 0.020483883317466044 0.0016281353707941113 0 0.020438125136554328 0.0012553136893010508 0 0.020808012703035565 0.0013987145728169531 0 0.020438125136554328 0.0012553136893010508 0 0.020287490607368269 0.00088503453025363553 0 0.020538852537848082 0.00095571014082868652 0 0.020438125136554328 0.0012553136893010508 0 0.020808012703035565 0.0013987145728169531 0 0.020742501204077137 0.0010736582971678055 0 0.020438125136554328 0.0012553136893010508 0 0.020742501204077137 0.0010736582971678055 0 0.020538852537848082 0.00095571014082868652 0 0.020210980355880818 0.0015277363527630222 0 0.020438125136554328 0.0012553136893010508 0 0.019999768760695397 0.0012835374566959135 0 0.020438125136554328 0.0012553136893010508 0 0.019999768760695397 0.0012835374566959135 0 0.020287490607368269 0.00088503453025363553 0 0.021494015466142897 0.00044119937491665699 0 0.022666870714546622 -0.00052382616381612941 0 0.023065191433980482 -0.00043529613965920738 0 0.022433359672612833 -0.0016676966061491775 0 0.024529178998525587 -0.0018128807253798495 0 0.020210980355880818 0.0015277363527630222 0 0.019999768760695397 0.0012835374566959135 0 0.020006070700603781 0.001655649568015544 0 0.020163121468993978 0.0018384354793127943 0 0.020210980355880818 0.0015277363527630222 0 0.020006070700603781 0.001655649568015544 0 0.019999768760695397 0.0012835374566959135 0 0.020006070700603781 0.001655649568015544 0 0.019770048870288551 0.0017278275782752206 0 0.02144429531214621 0.00092843336988274671 0 0.021533565420950949 -0.0005462565846476755 0 0.020086050504684073 0.00045052230942052644 0 0.023065191433980482 -0.00043529613965920738 0 0.02144429531214621 0.00092843336988274671 0 0.021533565420950949 -0.0005462565846476755 0 0.021494015466142897 0.00044119937491665699 0 0.020618450010266142 0.0012996660835705364 0 0.023065191433980482 -0.00043529613965920738 0 0.021533565420950949 -0.0005462565846476755 0 0.022433359672612833 -0.0016676966061491775 0 0.022381711953287579 0.00024250992006311588 0 0.031983296896051935 -0.00061696994783642445 0 0.021533565420950949 -0.0005462565846476755 0 0.020086050504684073 0.00045052230942052644 0 0.020724763957962588 -0.001925359819911359 0 0.026669546946982651 -0.00018834454399688442 0 0.026920975496366881 2.4403467252299152e-05 0 0.027124183748967572 -0.00049885075451486141 0 0.034394684146351641 0.0005555048884128761 0 0.031983296896051935 -0.00061696994783642445 0 0.026669546946982651 -0.00018834454399688442 0 0.026598479058400275 0.000153633837844925 0 0.026920975496366881 2.4403467252299152e-05 0 0.02144429531214621 0.00092843336988274671 0 0.020086050504684073 0.00045052230942052644 0 0.019776839847597778 0.001979341758668038 0 0.041072905164683857 0.0014410569408782143 0 0.038520029959730202 0.0012237831974690461 0 0.038989592617428792 0.0029743400063187687 0 0.041072905164683857 0.0014410569408782143 0 0.038520029959730202 0.0012237831974690461 0 0.040368402470227861 0.00018496849821517128 0 0.034394684146351641 0.0005555048884128761 0 0.032504791513673623 0.0015674659628571481 0 0.026669546946982651 -0.00018834454399688442 0 0.026598479058400275 0.000153633837844925 0 0.026316655753896023 9.8109326299775101e-05 0 0.038520029959730202 0.0012237831974690461 0 0.038989592617428792 0.0029743400063187687 0 0.036747670481647038 0.0024244667966914074 0 0.032504791513673623 0.0015674659628571481 0 0.031687637634054876 0.0024551363298390091 0 0.026316655753896023 9.8109326299775101e-05 0 0.026428904570758659 0.00034993266057363448 0 0.026179250299707409 0.00044636783755337835 0 0.026316655753896023 9.8109326299775101e-05 0 0.026179250299707409 0.00044636783755337835 0 0.026019823739056137 0.00033790088952112481 0 0.026598479058400275 0.000153633837844925 0 0.026316655753896023 9.8109326299775101e-05 0 0.026428904570758659 0.00034993266057363448 0 0.026428904570758659 0.00034993266057363448 0 0.026179250299707409 0.00044636783755337835 0 0.026345519013156338 0.00058897838132621603 0 0.026428904570758659 0.00034993266057363448 0 0.026708723201212745 0.00043842364322039059 0 0.026345519013156338 0.00058897838132621603 0 0.026179250299707409 0.00044636783755337835 0 0.026102250162269958 0.00062782917482701451 0 0.026345519013156338 0.00058897838132621603 0 0.022381711953287579 0.00024250992006311588 0 0.023262269482753634 0.0013090522909977608 0 0.019781630709092026 0.0019220756837088067 0 0.019770048870288551 0.0017278275782752206 0 0.019776839847597778 0.001979341758668038 0 0.020618450010266142 0.0012996660835705364 0 0.019860480645654408 0.0019314312166422904 0 0.020086050504684073 0.00045052230942052644 0 0.019776839847597778 0.001979341758668038 0 0.019529391460056313 0.0022728752782864895 0 0.019781630709092026 0.0019220756837088067 0 0.019776839847597778 0.001979341758668038 0 0.01976663139911029 0.002085240507926829 0 0.026598479058400275 0.000153633837844925 0 0.026428904570758659 0.00034993266057363448 0 0.026708723201212745 0.00043842364322039059 0 0.026598479058400275 0.000153633837844925 0 0.026920975496366881 2.4403467252299152e-05 0 0.026708723201212745 0.00043842364322039059 0 0.019529391460056313 0.0022728752782864895 0 0.019732984648956575 0.0022602511842551268 0 0.019641049510814693 0.0023843207752244425 0 0.019776839847597778 0.001979341758668038 0 0.019529391460056313 0.0022728752782864895 0 0.01976663139911029 0.002085240507926829 0 0.019529391460056313 0.0022728752782864895 0 0.01976663139911029 0.002085240507926829 0 0.019732984648956575 0.0022602511842551268 0 0.019529391460056313 0.0022728752782864895 0 0.019641049510814693 0.0023843207752244425 0 0.01955351122225386 0.0024749420891481242 0 0.019641049510814693 0.0023843207752244425 0 0.01955351122225386 0.0024749420891481242 0 0.019651212891372508 0.0024862222177352514 0 0.026708723201212745 0.00043842364322039059 0 0.026537443499068059 0.00075980708062520447 0 0.026345519013156338 0.00058897838132621603 0 0.023262269482753634 0.0013090522909977608 0 0.023242863006946304 0.0016700628215861027 0 0.026537443499068059 0.00075980708062520447 0 0.026336972281238602 0.00091769544141701595 0 0.026406961188780772 0.0010431333164205711 0 0.023242863006946304 0.0016700628215861027 0 0.021369116724866077 0.001474424015601218 0 0.01955351122225386 0.0024749420891481242 0 0.019621731929681939 0.0025564231738068677 0 0.019602816081494449 0.0026004589783991099 0 0.01955351122225386 0.0024749420891481242 0 0.019621731929681939 0.0025564231738068677 0 0.019651212891372508 0.0024862222177352514 0 0.026102250162269958 0.00062782917482701451 0 0.026179582325914094 0.00073927864118070088 0 0.026345519013156338 0.00058897838132621603 0 0.026102250162269958 0.00062782917482701451 0 0.026179582325914094 0.00073927864118070088 0 0.026003932781457795 0.00075842861505702192 0 0.026537443499068059 0.00075980708062520447 0 0.026345519013156338 0.00058897838132621603 0 0.026340558482248162 0.00076329122448066651 0 0.026179582325914094 0.00073927864118070088 0 0.026345519013156338 0.00058897838132621603 0 0.026340558482248162 0.00076329122448066651 0 0.026537443499068059 0.00075980708062520447 0 0.026340558482248162 0.00076329122448066651 0 0.026336972281238602 0.00091769544141701595 0 0.026340558482248162 0.00076329122448066651 0 0.02621425985825929 0.00086651687860752084 0 0.026336972281238602 0.00091769544141701595 0 0.026179582325914094 0.00073927864118070088 0 0.026340558482248162 0.00076329122448066651 0 0.02621425985825929 0.00086651687860752084 0 0.026179582325914094 0.00073927864118070088 0 0.02621425985825929 0.00086651687860752084 0 0.026083466471649972 0.00083987295625221519 0 0.02621425985825929 0.00086651687860752084 0 0.026083466471649972 0.00083987295625221519 0 0.026120755797704173 0.00093262538154480462 0 0.026179582325914094 0.00073927864118070088 0 0.026083466471649972 0.00083987295625221519 0 0.026003932781457795 0.00075842861505702192 0 0.026101603360594208 0.0010637171300861771 0 0.026205680729217574 0.0010128967048806433 0 0.026303174914092901 0.0010601920904836264 0 0.025649178063699384 0.0010277933591531633 0 0.022842716651652242 0.0010758330910127882 0 0.026019316484337755 0.00099923100946530175 0 0.026101603360594208 0.0010637171300861771 0 0.026071413005170272 0.00097582780841240122 0 0.026101603360594208 0.0010637171300861771 0 0.026126323308243372 0.00099481360205003568 0 0.026071413005170272 0.00097582780841240122 0 0.026019316484337755 0.00099923100946530175 0 0.026071413005170272 0.00097582780841240122 0 0.025998211831690436 0.00095074843144932761 0 0.026071413005170272 0.00097582780841240122 0 0.02603286263666264 0.00090857306500352457 0 0.026120755797704173 0.00093262538154480462 0 0.026071413005170272 0.00097582780841240122 0 0.02603286263666264 0.00090857306500352457 0 0.025998211831690436 0.00095074843144932761 0 0.026083466471649972 0.00083987295625221519 0 0.02603286263666264 0.00090857306500352457 0 0.026120755797704173 0.00093262538154480462 0 0.026126323308243372 0.00099481360205003568 0 0.026071413005170272 0.00097582780841240122 0 0.026120755797704173 0.00093262538154480462 0 0.02621425985825929 0.00086651687860752084 0 0.026120755797704173 0.00093262538154480462 0 0.026205680729217574 0.0010128967048806433 0 0.026101603360594208 0.0010637171300861771 0 0.026126323308243372 0.00099481360205003568 0 0.026205680729217574 0.0010128967048806433 0 0.026126323308243372 0.00099481360205003568 0 0.026120755797704173 0.00093262538154480462 0 0.026205680729217574 0.0010128967048806433 0 0.026205680729217574 0.0010128967048806433 0 0.026336972281238602 0.00091769544141701595 0 0.026303174914092901 0.0010601920904836264 0 0.02621425985825929 0.00086651687860752084 0 0.026205680729217574 0.0010128967048806433 0 0.026336972281238602 0.00091769544141701595 0 0.026336972281238602 0.00091769544141701595 0 0.026303174914092901 0.0010601920904836264 0 0.026406961188780772 0.0010431333164205711 0 0.022842716651652242 0.0010758330910127882 0 0.020385895895586155 0.0017074479569136323 0 0.022842716651652242 0.0010758330910127882 0 0.021369116724866077 0.001474424015601218 0 0.019274141357083899 0.00035935401505103885 0 0.01936738667081361 0.00057449879503956966 0 0.019258254315114909 0.00058188874316459488 0 0.019274141357083899 0.00035935401505103885 0 0.01936738667081361 0.00057449879503956966 0 0.019424378545451294 0.00044380694140549386 0 0.022842716651652242 0.0010758330910127882 0 0.022040403170184675 0.00061208789534071952 0 0.01936738667081361 0.00057449879503956966 0 0.019424378545451294 0.00044380694140549386 0 0.019574184847531872 0.00052743434327440285 0 0.019484147908444792 0.00031302835197126292 0 0.019424378545451294 0.00044380694140549386 0 0.019574184847531872 0.00052743434327440285 0 0.024467725428547506 0.0010305064600247143 0 0.023053222562048434 0.0010509395870859769 0 0.024534937910352585 0.00077208548753218513 0 0.019320382494493672 0.0026858817000900421 0 0.019746216629972006 0.0026117117791276886 0 0.019664434782484225 0.0026490666487921626 0 0.019651289441031887 0.0026262621693038802 0 0.01981452078277424 0.002603603793886087 0 0.019621731929681939 0.0025564231738068677 0 0.019602816081494449 0.0026004589783991099 0 0.019640098205254624 0.0026399816507166954 0 0.019664434782484225 0.0026490666487921626 0 0.019651289441031887 0.0026262621693038802 0 0.019640098205254624 0.0026399816507166954 0 0.019546534058318483 0.0027417827168192657 0 0.019591320028630305 0.0027596762690553674 0 0.019562866796424928 0.0027464127694225259 0 0.01955351122225386 0.0024749420891481242 0 0.019602816081494449 0.0026004589783991099 0 0.019551784987643022 0.0026011809306426209 0 0.019320382494493672 0.0026858817000900421 0 0.021369116724866077 0.001474424015601218 0 0.019477524445944125 0.0027148857892280425 0 0.020385895895586155 0.0017074479569136323 0 0.019651289441031887 0.0026262621693038802 0 0.019818259841711927 0.0025853998650682067 0 0.01981452078277424 0.002603603793886087 0 0.022743913416524063 0.0013811179919933885 0 0.020903128628014508 0.0014383792968992648 0 0.02083686804789639 0.0017840477626684978 0 0.020385895895586155 0.0017074479569136323 0 0.021369116724866077 0.001474424015601218 0 0.019591320028630305 0.0027596762690553674 0 0.019567790688074856 0.0027443733528008519 0 0.019562866796424928 0.0027464127694225259 0 0.019591320028630305 0.0027596762690553674 0 0.019587312614124219 0.0027381554469778783 0 0.019567790688074856 0.0027443733528008519 0 0.019631597921892788 0.0027340175681893016 0 0.019591320028630305 0.0027596762690553674 0 0.019587312614124219 0.0027381554469778783 0 0.019385205696640342 0.0015568577011260435 0 0.020385895895586155 0.0017074479569136323 0 0.019556087352775163 0.0027304470832747569 0 0.019587312614124219 0.0027381554469778783 0 0.019567790688074856 0.0027443733528008519 0 0.019547453373886619 0.0027395933199828191 0 0.019556087352775163 0.0027304470832747569 0 0.019553571123291726 0.0027464637502604135 0 0.019556087352775163 0.0027304470832747569 0 0.019567790688074856 0.0027443733528008519 0 0.019553571123291726 0.0027464637502604135 0 0.019546534058318483 0.0027417827168192657 0 0.019562866796424928 0.0027464127694225259 0 0.019553571123291726 0.0027464637502604135 0 0.019567790688074856 0.0027443733528008519 0 0.019562866796424928 0.0027464127694225259 0 0.019553571123291726 0.0027464637502604135 0 0.019546534058318483 0.0027417827168192657 0 0.019553571123291726 0.0027464637502604135 0 0.019561637615659024 0.0027520884418130885 0 0.019547453373886619 0.0027395933199828191 0 0.019553571123291726 0.0027464637502604135 0 0.019561637615659024 0.0027520884418130885 0 0.019546534058318483 0.0027417827168192657 0 0.019561637615659024 0.0027520884418130885 0 0.019627968450349621 0.0026934114150095056 0 0.019547453373886619 0.0027395933199828191 0 0.01956942795476482 0.0027835582327145922 0 0.019561637615659024 0.0027520884418130885 0 0.01956942795476482 0.0027835582327145922 0 0.019673951458932346 0.0027629297482114103 0 0.019627968450349621 0.0026934114150095056 0 0.01956942795476482 0.0027835582327145922 0 0.019561637615659024 0.0027520884418130885 0 0.019627968450349621 0.0026934114150095056 0 0.019745221914473584 0.0029082576704199206 0 0.019673951458932346 0.0027629297482114103 0 0.019741046635864842 0.002805825448407503 0 0.019745221914473584 0.0029082576704199206 0 0.01956942795476482 0.0027835582327145922 0 0.019673951458932346 0.0027629297482114103 0 0.019673951458932346 0.0027629297482114103 0 0.019741046635864842 0.002805825448407503 0 0.019731610132157028 0.0027298042436788039 0 0.019673951458932346 0.0027629297482114103 0 0.019696900574467463 0.0026696958570321949 0 0.019627968450349621 0.0026934114150095056 0 0.019673951458932346 0.0027629297482114103 0 0.019731610132157028 0.0027298042436788039 0 0.019696900574467463 0.0026696958570321949 0 0.019696900574467463 0.0026696958570321949 0 0.019673263328359874 0.0026292218332926503 0 0.01970977411458058 0.0025778386016406486 0 0.019731610132157028 0.0027298042436788039 0 0.019696900574467463 0.0026696958570321949 0 0.019761973160076132 0.0026570751318309477 0 0.019696900574467463 0.0026696958570321949 0 0.019761973160076132 0.0026570751318309477 0 0.01975726456786232 0.0025800759496913432 0 0.019651289441031887 0.0026262621693038802 0 0.019627968450349621 0.0026934114150095056 0 0.019640098205254624 0.0026399816507166954 0 0.019477524445944125 0.0027148857892280425 0 0.01967886204352147 0.0026872495429213577 0 0.019673263328359874 0.0026292218332926503 0 0.019640098205254624 0.0026399816507166954 0 0.019665356830861524 0.0025615643279939325 0 0.019627968450349621 0.0026934114150095056 0 0.019673263328359874 0.0026292218332926503 0 0.019640098205254624 0.0026399816507166954 0 0.019696900574467463 0.0026696958570321949 0 0.019627968450349621 0.0026934114150095056 0 0.019673263328359874 0.0026292218332926503 0 0.019621731929681939 0.0025564231738068677 0 0.019640098205254624 0.0026399816507166954 0 0.019665356830861524 0.0025615643279939325 0 0.019621731929681939 0.0025564231738068677 0 0.019651212891372508 0.0024862222177352514 0 0.019665356830861524 0.0025615643279939325 0 0.019651212891372508 0.0024862222177352514 0 0.019665356830861524 0.0025615643279939325 0 0.019705673472060217 0.0024952880603887617 0 0.019665356830861524 0.0025615643279939325 0 0.019705673472060217 0.0024952880603887617 0 0.01970977411458058 0.0025778386016406486 0 0.019673263328359874 0.0026292218332926503 0 0.019665356830861524 0.0025615643279939325 0 0.01970977411458058 0.0025778386016406486 0 0.019696900574467463 0.0026696958570321949 0 0.01970977411458058 0.0025778386016406486 0 0.01975726456786232 0.0025800759496913432 0 0.019761973160076132 0.0026570751318309477 0 0.01975726456786232 0.0025800759496913432 0 0.019806689793206836 0.002542739936252883 0 0.01975726456786232 0.0025800759496913432 0 0.019758967434436659 0.0024650532646057211 0 0.019806689793206836 0.002542739936252883 0 0.01970977411458058 0.0025778386016406486 0 0.01975726456786232 0.0025800759496913432 0 0.019758967434436659 0.0024650532646057211 0 0.019705673472060217 0.0024952880603887617 0 0.01970977411458058 0.0025778386016406486 0 0.019758967434436659 0.0024650532646057211 0 0.019758967434436659 0.0024650532646057211 0 0.01982110136381544 0.0024223339642976032 0 0.019806689793206836 0.002542739936252883 0 0.019758967434436659 0.0024650532646057211 0 0.01982110136381544 0.0024223339642976032 0 0.019804533807259814 0.0023353251977587639 0 0.019863495614293871 0.0023233055953191585 0 0.01982110136381544 0.0024223339642976032 0 0.019804533807259814 0.0023353251977587639 0 0.019758967434436659 0.0024650532646057211 0 0.019804533807259814 0.0023353251977587639 0 0.019739934398230314 0.0023818221976896013 0 0.019732984648956575 0.0022602511842551268 0 0.019641049510814693 0.0023843207752244425 0 0.019739934398230314 0.0023818221976896013 0 0.019651212891372508 0.0024862222177352514 0 0.019705673472060217 0.0024952880603887617 0 0.019739934398230314 0.0023818221976896013 0 0.019641049510814693 0.0023843207752244425 0 0.019651212891372508 0.0024862222177352514 0 0.019739934398230314 0.0023818221976896013 0 0.019705673472060217 0.0024952880603887617 0 0.019758967434436659 0.0024650532646057211 0 0.019739934398230314 0.0023818221976896013 0 0.019997933466337218 0.0023128232164047018 0 0.019993193770094037 0.0024826361575603115 0 0.020205634886368586 0.0024326130218617261 0 0.019993193770094037 0.0024826361575603115 0 0.019890370155622384 0.0024457955965918017 0 0.019902829231776376 0.0025706429723861843 0 0.019997933466337218 0.0023128232164047018 0 0.019993193770094037 0.0024826361575603115 0 0.019890370155622384 0.0024457955965918017 0 0.019863495614293871 0.0023233055953191585 0 0.019997933466337218 0.0023128232164047018 0 0.019890370155622384 0.0024457955965918017 0 0.019863495614293871 0.0023233055953191585 0 0.01982110136381544 0.0024223339642976032 0 0.019890370155622384 0.0024457955965918017 0 0.01982110136381544 0.0024223339642976032 0 0.019890370155622384 0.0024457955965918017 0 0.019806689793206836 0.002542739936252883 0 0.019806689793206836 0.002542739936252883 0 0.01983526883369776 0.0026685181171610451 0 0.019902829231776376 0.0025706429723861843 0 0.019890370155622384 0.0024457955965918017 0 0.019806689793206836 0.002542739936252883 0 0.019902829231776376 0.0025706429723861843 0 0.019761973160076132 0.0026570751318309477 0 0.019806689793206836 0.002542739936252883 0 0.01983526883369776 0.0026685181171610451 0 0.019921100926195822 0.0026888770227199181 0 0.019969363906789363 0.002801822621756352 0 0.020040644172449083 0.0026219448698362666 0 0.019921100926195822 0.0026888770227199181 0 0.019902829231776376 0.0025706429723861843 0 0.020040644172449083 0.0026219448698362666 0 0.019993193770094037 0.0024826361575603115 0 0.019902829231776376 0.0025706429723861843 0 0.020040644172449083 0.0026219448698362666 0 0.01983526883369776 0.0026685181171610451 0 0.019921100926195822 0.0026888770227199181 0 0.019902829231776376 0.0025706429723861843 0 0.019921100926195822 0.0026888770227199181 0 0.019852652962811416 0.0027824649672800782 0 0.019969363906789363 0.002801822621756352 0 0.019852652962811416 0.0027824649672800782 0 0.019851632539286561 0.0029151615987675129 0 0.019969363906789363 0.002801822621756352 0 0.01983526883369776 0.0026685181171610451 0 0.019921100926195822 0.0026888770227199181 0 0.019852652962811416 0.0027824649672800782 0 0.019761973160076132 0.0026570751318309477 0 0.01983526883369776 0.0026685181171610451 0 0.019784255725005785 0.0027516440379261827 0 0.01983526883369776 0.0026685181171610451 0 0.019852652962811416 0.0027824649672800782 0 0.019784255725005785 0.0027516440379261827 0 0.019852652962811416 0.0027824649672800782 0 0.019784255725005785 0.0027516440379261827 0 0.01978602373081801 0.0028578545490409979 0 0.019731610132157028 0.0027298042436788039 0 0.019761973160076132 0.0026570751318309477 0 0.019784255725005785 0.0027516440379261827 0 0.019741046635864842 0.002805825448407503 0 0.019731610132157028 0.0027298042436788039 0 0.019784255725005785 0.0027516440379261827 0 0.019766412423286719 0.0029722649718198608 0 0.019745221914473584 0.0029082576704199206 0 0.01978602373081801 0.0028578545490409979 0 0.019741046635864842 0.002805825448407503 0 0.019784255725005785 0.0027516440379261827 0 0.01978602373081801 0.0028578545490409979 0 0.019745221914473584 0.0029082576704199206 0 0.019741046635864842 0.002805825448407503 0 0.01978602373081801 0.0028578545490409979 0 0.019772969588999184 0.0030478424282521701 0 0.019766412423286719 0.0029722649718198608 0 0.019851632539286561 0.0029151615987675129 0 0.019852652962811416 0.0027824649672800782 0 0.01978602373081801 0.0028578545490409979 0 0.019851632539286561 0.0029151615987675129 0 0.019766412423286719 0.0029722649718198608 0 0.01978602373081801 0.0028578545490409979 0 0.019851632539286561 0.0029151615987675129 0 0.019772969588999184 0.0030478424282521701 0 0.019851632539286561 0.0029151615987675129 0 0.020018516455137216 0.0029447006593576889 0 0.019969363906789363 0.002801822621756352 0 0.020018516455137216 0.0029447006593576889 0 0.020124522180938839 0.0027622152448281245 0 0.019851632539286561 0.0029151615987675129 0 0.019969363906789363 0.002801822621756352 0 0.020018516455137216 0.0029447006593576889 0 0.020018516455137216 0.0029447006593576889 0 0.020124522180938839 0.0027622152448281245 0 0.020351884025615011 0.0027389222667495092 0 0.019775243921377198 0.0031731759634761065 0 0.019772969588999184 0.0030478424282521701 0 0.020018516455137216 0.0029447006593576889 0 0.020366477977513071 0.0031776227406991038 0 0.019775243921377198 0.0031731759634761065 0 0.020394859925385228 0.0029654091811064289 0 0.019775243921377198 0.0031731759634761065 0 0.020018516455137216 0.0029447006593576889 0 0.020394859925385228 0.0029654091811064289 0 0.020366477977513071 0.0031776227406991038 0 0.020394859925385228 0.0029654091811064289 0 0.020565713936729128 0.0030939545917849157 0 0.020394859925385228 0.0029654091811064289 0 0.020664442499424149 0.0027885211215518302 0 0.020775235717907209 0.0029716877098443853 0 0.020394859925385228 0.0029654091811064289 0 0.020565713936729128 0.0030939545917849157 0 0.020775235717907209 0.0029716877098443853 0 0.020394859925385228 0.0029654091811064289 0 0.020664442499424149 0.0027885211215518302 0 0.020351884025615011 0.0027389222667495092 0 0.020018516455137216 0.0029447006593576889 0 0.020394859925385228 0.0029654091811064289 0 0.020351884025615011 0.0027389222667495092 0 0.020625951000185161 0.0026225323131681571 0 0.020664442499424149 0.0027885211215518302 0 0.020942922263609505 0.0024816066508894681 0 0.020625951000185161 0.0026225323131681571 0 0.020563891588016098 0.0024571212667755583 0 0.020351884025615011 0.0027389222667495092 0 0.020625951000185161 0.0026225323131681571 0 0.020664442499424149 0.0027885211215518302 0 0.020351884025615011 0.0027389222667495092 0 0.020664442499424149 0.0027885211215518302 0 0.020942922263609505 0.0024816066508894681 0 0.021059699417624724 0.0027022474152389713 0 0.020664442499424149 0.0027885211215518302 0 0.020775235717907209 0.0029716877098443853 0 0.021059699417624724 0.0027022474152389713 0 0.020625951000185161 0.0026225323131681571 0 0.020942922263609505 0.0024816066508894681 0 0.020563891588016098 0.0024571212667755583 0 0.020942922263609505 0.0024816066508894681 0 0.020563891588016098 0.0024571212667755583 0 0.020887288096005482 0.0021988584876009199 0 0.020563891588016098 0.0024571212667755583 0 0.020205634886368586 0.0024326130218617261 0 0.020247860431932448 0.002611771961505189 0 0.020563891588016098 0.0024571212667755583 0 0.020205634886368586 0.0024326130218617261 0 0.020506609009439961 0.0022730508191890265 0 0.019993193770094037 0.0024826361575603115 0 0.020205634886368586 0.0024326130218617261 0 0.020040644172449083 0.0026219448698362666 0 0.020205634886368586 0.0024326130218617261 0 0.020040644172449083 0.0026219448698362666 0 0.020247860431932448 0.002611771961505189 0 0.020040644172449083 0.0026219448698362666 0 0.020124522180938839 0.0027622152448281245 0 0.020247860431932448 0.002611771961505189 0 0.019969363906789363 0.002801822621756352 0 0.020040644172449083 0.0026219448698362666 0 0.020124522180938839 0.0027622152448281245 0 0.020563891588016098 0.0024571212667755583 0 0.020351884025615011 0.0027389222667495092 0 0.020247860431932448 0.002611771961505189 0 0.020124522180938839 0.0027622152448281245 0 0.020351884025615011 0.0027389222667495092 0 0.020247860431932448 0.002611771961505189 0 0.02014113986369806 0.0034078956745323317 0 0.020306902785886063 0.0035188278379230443 0 0.020246773671226653 0.0035840773765768818 0 0.02101760829673829 0.0032261065167461067 0 0.020744192057384373 0.0032952527116961658 0 0.020221365012667167 0.0036413432671589391 0 0.020306902785886063 0.0035188278379230443 0 0.020246773671226653 0.0035840773765768818 0 0.020493285014980645 0.0032913165606983795 0 0.02014113986369806 0.0034078956745323317 0 0.020306902785886063 0.0035188278379230443 0 0.020493285014980645 0.0032913165606983795 0 0.020768769633274911 0.0031468441024636333 0 0.020664915852249961 0.0031244242975181306 0 0.020543503530422558 0.0032895797197777898 0 0.020744192057384373 0.0032952527116961658 0 0.020493285014980645 0.0032913165606983795 0 0.021156337395218817 0.003150350345245881 0 0.020768769633274911 0.0031468441024636333 0 0.020768769633274911 0.0031468441024636333 0 0.02083381044806638 0.0029330218122890443 0 0.020664915852249961 0.0031244242975181306 0 0.021156337395218817 0.003150350345245881 0 0.020768769633274911 0.0031468441024636333 0 0.02083381044806638 0.0029330218122890443 0 0.021156337395218817 0.003150350345245881 0 0.02083381044806638 0.0029330218122890443 0 0.021283595937221289 0.0027909820448430182 0 0.02083381044806638 0.0029330218122890443 0 0.020664915852249961 0.0031244242975181306 0 0.020775235717907209 0.0029716877098443853 0 0.02050859752807456 0.0032084391246862808 0 0.020493285014980645 0.0032913165606983795 0 0.020664915852249961 0.0031244242975181306 0 0.020664915852249961 0.0031244242975181306 0 0.020565713936729128 0.0030939545917849157 0 0.020775235717907209 0.0029716877098443853 0 0.02050859752807456 0.0032084391246862808 0 0.020664915852249961 0.0031244242975181306 0 0.020565713936729128 0.0030939545917849157 0 0.020775235717907209 0.0029716877098443853 0 0.021059699417624724 0.0027022474152389713 0 0.021671898450680776 0.002696538961834151 0 0.020843777539366021 0.0029227218571045649 0 0.02116950854122426 0.0026196258280700587 0 0.021059699417624724 0.0027022474152389713 0 0.021671898450680776 0.002696538961834151 0 0.021549259285866568 0.0023167241294362994 0 0.020942922263609505 0.0024816066508894681 0 0.021059699417624724 0.0027022474152389713 0 0.021549259285866568 0.0023167241294362994 0 0.021671898450680776 0.002696538961834151 0 0.0223083466364409 0.0022652013354596177 0 0.021549259285866568 0.0023167241294362994 0 0.02116950854122426 0.0026196258280700587 0 0.021475957626441926 0.0019594548482369102 0 0.02083381044806638 0.0029330218122890443 0 0.020775235717907209 0.0029716877098443853 0 0.020631716718090592 0.0026199671162120265 0 0.02083381044806638 0.0029330218122890443 0 0.020631716718090592 0.0026199671162120265 0 0.021079088783300975 0.0025180484500325166 0 0.02083381044806638 0.0029330218122890443 0 0.021079088783300975 0.0025180484500325166 0 0.021283595937221289 0.0027909820448430182 0 0.020631716718090592 0.0026199671162120265 0 0.021079088783300975 0.0025180484500325166 0 0.020815497118521254 0.0018150866948659736 0 0.021079088783300975 0.0025180484500325166 0 0.02145053475021835 0.0020931344692537305 0 0.020815497118521254 0.0018150866948659736 0 0.021079088783300975 0.0025180484500325166 0 0.021487259467207278 0.0024973323588913946 0 0.02145053475021835 0.0020931344692537305 0 0.02145053475021835 0.0020931344692537305 0 0.021826654285895145 0.0022587867111199342 0 0.02185787821169468 0.0019415470876468887 0 0.021845169569836616 0.0027521556660449623 0 0.021487259467207278 0.0024973323588913946 0 0.021826654285895145 0.0022587867111199342 0 0.021487259467207278 0.0024973323588913946 0 0.02145053475021835 0.0020931344692537305 0 0.021826654285895145 0.0022587867111199342 0 0.021845169569836616 0.0027521556660449623 0 0.021156337395218817 0.003150350345245881 0 0.021283595937221289 0.0027909820448430182 0 0.021845169569836616 0.0027521556660449623 0 0.021487259467207278 0.0024973323588913946 0 0.021283595937221289 0.0027909820448430182 0 0.021079088783300975 0.0025180484500325166 0 0.021487259467207278 0.0024973323588913946 0 0.021283595937221289 0.0027909820448430182 0 0.022406855689782706 0.0011919720491758122 0 0.021276321837114174 0.00086546029613179755 0 0.02163690831952654 0.0015854844591763496 0 0.025963857974535189 0.0024328798694602991 0 0.025505439841003619 0.0024952662104012853 0 0.025675917176945173 0.0022415500200843731 0 0.024209427873314364 0.0019337560556349329 0 0.023032012103182432 0.001974398570329809 0 0.026051416501180039 0.0027455464470466603 0 0.025963857974535189 0.0024328798694602991 0 0.025505439841003619 0.0024952662104012853 0 0.02145053475021835 0.0020931344692537305 0 0.02163690831952654 0.0015854844591763496 0 0.020815497118521254 0.0018150866948659736 0 0.022156642189243743 0.0017007318418815341 0 0.02163690831952654 0.0015854844591763496 0 0.02185787821169468 0.0019415470876468887 0 0.02145053475021835 0.0020931344692537305 0 0.02163690831952654 0.0015854844591763496 0 0.02185787821169468 0.0019415470876468887 0 0.021276321837114174 0.00086546029613179755 0 0.02163690831952654 0.0015854844591763496 0 0.020815497118521254 0.0018150866948659736 0 0.022759502092600747 0.0018464338667230642 0 0.0223083466364409 0.0022652013354596177 0 0.022575965657259701 0.0017397207676461044 0 0.023032012103182432 0.001974398570329809 0 0.021475957626441926 0.0019594548482369102 0 0.0223083466364409 0.0022652013354596177 0 0.022192325774198277 0.0018663710094038452 0 0.022575965657259701 0.0017397207676461044 0 0.023032012103182432 0.001974398570329809 0 0.022612274067523017 0.0017667527948051496 0 0.022975834073681572 0.0019800835641946503 0 0.022575965657259701 0.0017397207676461044 0 0.022916935645949685 0.0016462763207756839 0 0.022192325774198277 0.0018663710094038452 0 0.022448587391103617 0.0016282131980941443 0 0.022575965657259701 0.0017397207676461044 0 0.0223083466364409 0.0022652013354596177 0 0.022192325774198277 0.0018663710094038452 0 0.021549259285866568 0.0023167241294362994 0 0.021549259285866568 0.0023167241294362994 0 0.021701125240374711 0.0019028110693727325 0 0.021291421099278337 0.0021446946749607409 0 0.022192325774198277 0.0018663710094038452 0 0.021549259285866568 0.0023167241294362994 0 0.021701125240374711 0.0019028110693727325 0 0.022192325774198277 0.0018663710094038452 0 0.021701125240374711 0.0019028110693727325 0 0.022026521687638693 0.0015882734443334239 0 0.021701125240374711 0.0019028110693727325 0 0.022026521687638693 0.0015882734443334239 0 0.021702778096074786 0.0015762226779281851 0 0.022026521687638693 0.0015882734443334239 0 0.022118991952446765 0.0013326350359982423 0 0.02230640640666133 0.001393588918552892 0 0.022026521687638693 0.0015882734443334239 0 0.022118991952446765 0.0013326350359982423 0 0.021702778096074786 0.0015762226779281851 0 0.022118991952446765 0.0013326350359982423 0 0.021702778096074786 0.0015762226779281851 0 0.021941024066988557 0.0011808365080828536 0 0.022287148077932813 0.0011105239350340868 0 0.022118991952446765 0.0013326350359982423 0 0.021941024066988557 0.0011808365080828536 0 0.022287148077932813 0.0011105239350340868 0 0.021941024066988557 0.0011808365080828536 0 0.022152967009529682 0.00093285939106798514 0 0.022287148077932813 0.0011105239350340868 0 0.022118991952446765 0.0013326350359982423 0 0.022350843596733425 0.0012237440630690326 0 0.022350843596733425 0.0012237440630690326 0 0.022537095498076715 0.0012173609296381933 0 0.02230640640666133 0.001393588918552892 0 0.022118991952446765 0.0013326350359982423 0 0.022350843596733425 0.0012237440630690326 0 0.02230640640666133 0.001393588918552892 0 0.022350843596733425 0.0012237440630690326 0 0.022523818376937278 0.0010796288178047248 0 0.022537095498076715 0.0012173609296381933 0 0.022287148077932813 0.0011105239350340868 0 0.022350843596733425 0.0012237440630690326 0 0.022523818376937278 0.0010796288178047248 0 0.022639713967185397 0.0010693000542770917 0 0.022679998414491098 0.0011109705871391712 0 0.022725524717837658 0.0010079585464015709 0 0.022523818376937278 0.0010796288178047248 0 0.022639713967185397 0.0010693000542770917 0 0.022537095498076715 0.0012173609296381933 0 0.022639713967185397 0.0010693000542770917 0 0.022537095498076715 0.0012173609296381933 0 0.022679998414491098 0.0011109705871391712 0 0.022537095498076715 0.0012173609296381933 0 0.022643852708155849 0.0012025959719058467 0 0.022679998414491098 0.0011109705871391712 0 0.022537095498076715 0.0012173609296381933 0 0.022647163809084388 0.0012966980740490405 0 0.022643852708155849 0.0012025959719058467 0 0.022537095498076715 0.0012173609296381933 0 0.022499739785012528 0.0014411928323977482 0 0.022647163809084388 0.0012966980740490405 0 0.022537095498076715 0.0012173609296381933 0 0.022499739785012528 0.0014411928323977482 0 0.02230640640666133 0.001393588918552892 0 0.022499739785012528 0.0014411928323977482 0 0.02230640640666133 0.001393588918552892 0 0.022303542442420918 0.001572752072515211 0 0.022026521687638693 0.0015882734443334239 0 0.02230640640666133 0.001393588918552892 0 0.022303542442420918 0.001572752072515211 0 0.022192325774198277 0.0018663710094038452 0 0.022026521687638693 0.0015882734443334239 0 0.022303542442420918 0.001572752072515211 0 0.022499739785012528 0.0014411928323977482 0 0.022303542442420918 0.001572752072515211 0 0.022448587391103617 0.0016282131980941443 0 0.022192325774198277 0.0018663710094038452 0 0.022303542442420918 0.001572752072515211 0 0.022448587391103617 0.0016282131980941443 0 0.022448587391103617 0.0016282131980941443 0 0.022575965657259701 0.0017397207676461044 0 0.02268913656958366 0.0014966217748801163 0 0.022575965657259701 0.0017397207676461044 0 0.022916935645949685 0.0016462763207756839 0 0.02268913656958366 0.0014966217748801163 0 0.02268913656958366 0.0014966217748801163 0 0.022771211665713033 0.0013351985938437956 0 0.022970750062385203 0.0013260161636432894 0 0.022916935645949685 0.0016462763207756839 0 0.02268913656958366 0.0014966217748801163 0 0.022970750062385203 0.0013260161636432894 0 0.02268913656958366 0.0014966217748801163 0 0.022647163809084388 0.0012966980740490405 0 0.022771211665713033 0.0013351985938437956 0 0.022499739785012528 0.0014411928323977482 0 0.022448587391103617 0.0016282131980941443 0 0.02268913656958366 0.0014966217748801163 0 0.022499739785012528 0.0014411928323977482 0 0.02268913656958366 0.0014966217748801163 0 0.022647163809084388 0.0012966980740490405 0 0.022647163809084388 0.0012966980740490405 0 0.022771211665713033 0.0013351985938437956 0 0.022755706499742082 0.0011963338788159542 0 0.022647163809084388 0.0012966980740490405 0 0.022643852708155849 0.0012025959719058467 0 0.022755706499742082 0.0011963338788159542 0 0.022755706499742082 0.0011963338788159542 0 0.022758999684484249 0.0010587730255455863 0 0.022679998414491098 0.0011109705871391712 0 0.022643852708155849 0.0012025959719058467 0 0.022755706499742082 0.0011963338788159542 0 0.022679998414491098 0.0011109705871391712 0 0.022755706499742082 0.0011963338788159542 0 0.022758999684484249 0.0010587730255455863 0 0.022854893689764372 0.0010683996568935301 0 0.022758999684484249 0.0010587730255455863 0 0.022679998414491098 0.0011109705871391712 0 0.022725524717837658 0.0010079585464015709 0 0.022854893689764372 0.0010683996568935301 0 0.022970750062385203 0.0013260161636432894 0 0.023087630414903117 0.0010423288570507512 0 0.022755706499742082 0.0011963338788159542 0 0.022854893689764372 0.0010683996568935301 0 0.022970750062385203 0.0013260161636432894 0 0.022771211665713033 0.0013351985938437956 0 0.022755706499742082 0.0011963338788159542 0 0.022970750062385203 0.0013260161636432894 0 0.023481861791252182 0.0012401409370023722 0 0.022970750062385203 0.0013260161636432894 0 0.023087630414903117 0.0010423288570507512 0 0.032253618307119591 0.0036163992369929593 0 0.029427397279747077 0.0037812268742735619 0 0.036839284709046766 0.0071771011274183692 0 0.03566494644142934 0.0064743080132466891 0 0.036606794175999949 0.0059469953502712123 0 0.032253618307119591 0.0036163992369929593 0 0.025127603754895526 0.0027771542595868507 0 0.023481861791252182 0.0012401409370023722 0 0.022970750062385203 0.0013260161636432894 0 0.023189421118467224 0.0016090186360025671 0 0.022916935645949685 0.0016462763207756839 0 0.022970750062385203 0.0013260161636432894 0 0.023189421118467224 0.0016090186360025671 0 0.023137206372389651 0.0023689169552525064 0 0.025127603754895526 0.0027771542595868507 0 0.023032012103182432 0.001974398570329809 0 0.025127603754895526 0.0027771542595868507 0 0.022975834073681572 0.0019800835641946503 0 0.022916935645949685 0.0016462763207756839 0 0.023249207639311563 0.0015639320899308643 0 0.020236109624259334 0.0018809345834709076 0 0.020700192022124187 0.0019455149205840627 0 0.020419533698391362 0.0014994164536936223 0 0.020050625409396543 0.0020492047678077091 0 0.020700192022124187 0.0019455149205840627 0 0.020256075748811098 0.0022290795035265847 0 0.020119256990399209 0.0019749314706429752 0 0.020695359913696424 0.0019484521602684164 0 0.019997933466337218 0.0023128232164047018 0 0.020205634886368586 0.0024326130218617261 0 0.020256075748811098 0.0022290795035265847 0 0.020205634886368586 0.0024326130218617261 0 0.020256075748811098 0.0022290795035265847 0 0.020506609009439961 0.0022730508191890265 0 0.020563891588016098 0.0024571212667755583 0 0.020506609009439961 0.0022730508191890265 0 0.020887288096005482 0.0021988584876009199 0 0.020700192022124187 0.0019455149205840627 0 0.020256075748811098 0.0022290795035265847 0 0.020506609009439961 0.0022730508191890265 0 0.020700192022124187 0.0019455149205840627 0 0.020506609009439961 0.0022730508191890265 0 0.020887288096005482 0.0021988584876009199 0 0.020942922263609505 0.0024816066508894681 0 0.020887288096005482 0.0021988584876009199 0 0.021291421099278337 0.0021446946749607409 0 0.020942922263609505 0.0024816066508894681 0 0.021549259285866568 0.0023167241294362994 0 0.021291421099278337 0.0021446946749607409 0 0.020887288096005482 0.0021988584876009199 0 0.021291421099278337 0.0021446946749607409 0 0.021285902670263788 0.0018276731342844997 0 0.021701125240374711 0.0019028110693727325 0 0.021285902670263788 0.0018276731342844997 0 0.021702778096074786 0.0015762226779281851 0 0.021701125240374711 0.0019028110693727325 0 0.021291421099278337 0.0021446946749607409 0 0.021285902670263788 0.0018276731342844997 0 0.020700192022124187 0.0019455149205840627 0 0.020887288096005482 0.0021988584876009199 0 0.021285902670263788 0.0018276731342844997 0 0.020700192022124187 0.0019455149205840627 0 0.021285902670263788 0.0018276731342844997 0 0.021133062489264835 0.0015605577109883506 0 0.021285902670263788 0.0018276731342844997 0 0.021133062489264835 0.0015605577109883506 0 0.021534874114405508 0.0012949684296689821 0 0.021285902670263788 0.0018276731342844997 0 0.021702778096074786 0.0015762226779281851 0 0.021534874114405508 0.0012949684296689821 0 0.021534874114405508 0.0012949684296689821 0 0.021477785065726902 0.00090053026533431862 0 0.021843798081457352 0.00086623236603871809 0 0.021702778096074786 0.0015762226779281851 0 0.021534874114405508 0.0012949684296689821 0 0.021941024066988557 0.0011808365080828536 0 0.021534874114405508 0.0012949684296689821 0 0.021941024066988557 0.0011808365080828536 0 0.021843798081457352 0.00086623236603871809 0 0.021534874114405508 0.0012949684296689821 0 0.021291886165330121 0.0011776431361272383 0 0.021477785065726902 0.00090053026533431862 0 0.021133062489264835 0.0015605577109883506 0 0.021291886165330121 0.0011776431361272383 0 0.02099345116096166 0.0012460344337072362 0 0.021133062489264835 0.0015605577109883506 0 0.021534874114405508 0.0012949684296689821 0 0.021291886165330121 0.0011776431361272383 0 0.021291886165330121 0.0011776431361272383 0 0.021133181341810744 0.0010056481615320979 0 0.021477785065726902 0.00090053026533431862 0 0.021291886165330121 0.0011776431361272383 0 0.021133181341810744 0.0010056481615320979 0 0.02099345116096166 0.0012460344337072362 0 0.021133181341810744 0.0010056481615320979 0 0.02099345116096166 0.0012460344337072362 0 0.020916858893829545 0.0011253015754925082 0 0.020700192022124187 0.0019455149205840627 0 0.02099345116096166 0.0012460344337072362 0 0.020419533698391362 0.0014994164536936223 0 0.020700192022124187 0.0019455149205840627 0 0.021133062489264835 0.0015605577109883506 0 0.02099345116096166 0.0012460344337072362 0 0.020955471718773485 0.0012673577922531684 0 0.020618256430713688 0.0014505786554256765 0 0.02099345116096166 0.0012460344337072362 0 0.020808012703035565 0.0013987145728169531 0 0.020916858893829545 0.0011253015754925082 0 0.020808012703035565 0.0013987145728169531 0 0.020916858893829545 0.0011253015754925082 0 0.020742501204077137 0.0010736582971678055 0 0.020916858893829545 0.0011253015754925082 0 0.020742501204077137 0.0010736582971678055 0 0.020942053452290554 0.00085862007259956995 0 0.020742501204077137 0.0010736582971678055 0 0.020942053452290554 0.00085862007259956995 0 0.020747181352944555 0.00078727529310762209 0 0.020942053452290554 0.00085862007259956995 0 0.020747181352944555 0.00078727529310762209 0 0.020961877042284367 0.00051250807361565953 0 0.020747181352944555 0.00078727529310762209 0 0.020761572748455234 0.00057332218362625442 0 0.020599510859514808 0.00067275706868393458 0 0.020747181352944555 0.00078727529310762209 0 0.020761572748455234 0.00057332218362625442 0 0.020961877042284367 0.00051250807361565953 0 0.020761572748455234 0.00057332218362625442 0 0.020860157988637391 0.00039564257949054174 0 0.020961877042284367 0.00051250807361565953 0 0.020761572748455234 0.00057332218362625442 0 0.020772850142296292 0.00040120387760399624 0 0.020860157988637391 0.00039564257949054174 0 0.020761572748455234 0.00057332218362625442 0 0.020772850142296292 0.00040120387760399624 0 0.020635276381142899 0.00047300245105835926 0 0.020961877042284367 0.00051250807361565953 0 0.020942951771104026 0.00021484990464145317 0 0.021095561102679218 0.00019493498478659373 0 0.020860157988637391 0.00039564257949054174 0 0.020961877042284367 0.00051250807361565953 0 0.020942951771104026 0.00021484990464145317 0 0.020772850142296292 0.00040120387760399624 0 0.02083249761677234 0.00011513765515039343 0 0.020635276381142899 0.00047300245105835926 0 0.020942951771104026 0.00021484990464145317 0 0.02083249761677234 0.00011513765515039343 0 0.020920781527444709 0.00015069555142017588 0 0.02083249761677234 0.00011513765515039343 0 0.020959609235002258 0.00021925654894647546 0 0.021220705964413458 -0.00014437421989963806 0 0.020772850142296292 0.00040120387760399624 0 0.020860157988637391 0.00039564257949054174 0 0.02083249761677234 0.00011513765515039343 0 0.020860157988637391 0.00039564257949054174 0 0.020942951771104026 0.00021484990464145317 0 0.02083249761677234 0.00011513765515039343 0 0.021240628256833739 0.00040288673103569897 0 0.021457128424546626 0.00023812165901249414 0 0.021281644864800942 8.5768985060273364e-05 0 0.020961877042284367 0.00051250807361565953 0 0.021240628256833739 0.00040288673103569897 0 0.021095561102679218 0.00019493498478659373 0 0.021240628256833739 0.00040288673103569897 0 0.021095561102679218 0.00019493498478659373 0 0.021281644864800942 8.5768985060273364e-05 0 0.020961877042284367 0.00051250807361565953 0 0.021240628256833739 0.00040288673103569897 0 0.021217364843218761 0.00070303111721618263 0 0.021240628256833739 0.00040288673103569897 0 0.021217364843218761 0.00070303111721618263 0 0.021552559357229609 0.00054478456459761506 0 0.020942053452290554 0.00085862007259956995 0 0.020961877042284367 0.00051250807361565953 0 0.021217364843218761 0.00070303111721618263 0 0.021133181341810744 0.0010056481615320979 0 0.020916858893829545 0.0011253015754925082 0 0.020942053452290554 0.00085862007259956995 0 0.021133181341810744 0.0010056481615320979 0 0.020942053452290554 0.00085862007259956995 0 0.021217364843218761 0.00070303111721618263 0 0.021133181341810744 0.0010056481615320979 0 0.021217364843218761 0.00070303111721618263 0 0.021477785065726902 0.00090053026533431862 0 0.021477785065726902 0.00090053026533431862 0 0.021843798081457352 0.00086623236603871809 0 0.021552559357229609 0.00054478456459761506 0 0.021217364843218761 0.00070303111721618263 0 0.021477785065726902 0.00090053026533431862 0 0.021552559357229609 0.00054478456459761506 0 0.021941024066988557 0.0011808365080828536 0 0.021843798081457352 0.00086623236603871809 0 0.022152967009529682 0.00093285939106798514 0 0.021843798081457352 0.00086623236603871809 0 0.022152967009529682 0.00093285939106798514 0 0.022333482969804187 0.00062296837352223615 0 0.021843798081457352 0.00086623236603871809 0 0.021925492614164124 0.00049291059874267192 0 0.022333482969804187 0.00062296837352223615 0 0.021843798081457352 0.00086623236603871809 0 0.021925492614164124 0.00049291059874267192 0 0.021552559357229609 0.00054478456459761506 0 0.021925492614164124 0.00049291059874267192 0 0.021780636328834476 0.00020667565020953302 0 0.022122042849728581 0.00021562037291891984 0 0.021925492614164124 0.00049291059874267192 0 0.022122042849728581 0.00021562037291891984 0 0.022333482969804187 0.00062296837352223615 0 0.021925492614164124 0.00049291059874267192 0 0.021552559357229609 0.00054478456459761506 0 0.021780636328834476 0.00020667565020953302 0 0.021552559357229609 0.00054478456459761506 0 0.021457128424546626 0.00023812165901249414 0 0.021780636328834476 0.00020667565020953302 0 0.021240628256833739 0.00040288673103569897 0 0.021552559357229609 0.00054478456459761506 0 0.021457128424546626 0.00023812165901249414 0 0.021780636328834476 0.00020667565020953302 0 0.022049866647986929 -0.00014985721762620553 0 0.021476291366674231 -0.0002040447224240341 0 0.021457128424546626 0.00023812165901249414 0 0.021780636328834476 0.00020667565020953302 0 0.021476291366674231 -0.0002040447224240341 0 0.022122042849728581 0.00021562037291891984 0 0.022049866647986929 -0.00014985721762620553 0 0.022642871048415478 -6.8538074915126701e-05 0 0.021780636328834476 0.00020667565020953302 0 0.022122042849728581 0.00021562037291891984 0 0.022049866647986929 -0.00014985721762620553 0 0.022657355127490137 -0.00064830339277240762 0 0.023193801150071285 -0.00042382116866558595 0 0.022049866647986929 -0.00014985721762620553 0 0.021756794978943641 -0.00057264623849091452 0 0.0228021781704008 -0.00052607160970098916 0 0.023683171307106805 1.0270405367530599e-05 0 0.024988652919632974 -0.0003456721777869252 0 0.0228021781704008 -0.00052607160970098916 0 0.021476291366674231 -0.0002040447224240341 0 0.021756794978943641 -0.00057264623849091452 0 0.02125979958582393 -0.00031367770751466209 0 0.022049866647986929 -0.00014985721762620553 0 0.021476291366674231 -0.0002040447224240341 0 0.021756794978943641 -0.00057264623849091452 0 0.021756794978943641 -0.00057264623849091452 0 0.02125979958582393 -0.00031367770751466209 0 0.021263758056150401 -0.00060572611445384539 0 0.021476291366674231 -0.0002040447224240341 0 0.02125979958582393 -0.00031367770751466209 0 0.021161767057275495 -5.672775042773942e-05 0 0.02125979958582393 -0.00031367770751466209 0 0.020956240094883467 -0.000310135758112705 0 0.021031615136886627 -0.00010067318085941528 0 0.026831042276448874 -4.4516963352080798e-05 0 0.027504694639337489 0.0006265737566483893 0 0.02125979958582393 -0.00031367770751466209 0 0.020956240094883467 -0.000310135758112705 0 0.021263758056150401 -0.00060572611445384539 0 0.020956240094883467 -0.000310135758112705 0 0.021031615136886627 -0.00010067318085941528 0 0.020905917540895852 -9.5944933361668364e-05 0 0.02125979958582393 -0.00031367770751466209 0 0.021031615136886627 -0.00010067318085941528 0 0.021161767057275495 -5.672775042773942e-05 0 0.021031615136886627 -0.00010067318085941528 0 0.021004923811088073 8.4235043855222468e-05 0 0.021161767057275495 -5.672775042773942e-05 0 0.021031615136886627 -0.00010067318085941528 0 0.020940741509753315 5.1372151298499027e-05 0 0.021004923811088073 8.4235043855222468e-05 0 0.021031615136886627 -0.00010067318085941528 0 0.020940741509753315 5.1372151298499027e-05 0 0.020905917540895852 -9.5944933361668364e-05 0 0.020940741509753315 5.1372151298499027e-05 0 0.020920781527444709 0.00015069555142017588 0 0.021004923811088073 8.4235043855222468e-05 0 0.020940741509753315 5.1372151298499027e-05 0 0.020920781527444709 0.00015069555142017588 0 0.020959609235002258 0.00021925654894647546 0 0.020942951771104026 0.00021484990464145317 0 0.020920781527444709 0.00015069555142017588 0 0.021004923811088073 8.4235043855222468e-05 0 0.02083249761677234 0.00011513765515039343 0 0.020920781527444709 0.00015069555142017588 0 0.020959609235002258 0.00021925654894647546 0 0.021095561102679218 0.00019493498478659373 0 0.021004923811088073 8.4235043855222468e-05 0 0.021161767057275495 -5.672775042773942e-05 0 0.020942951771104026 0.00021484990464145317 0 0.021095561102679218 0.00019493498478659373 0 0.021004923811088073 8.4235043855222468e-05 0 0.021457128424546626 0.00023812165901249414 0 0.021476291366674231 -0.0002040447224240341 0 0.021281644864800942 8.5768985060273364e-05 0 0.021095561102679218 0.00019493498478659373 0 0.021281644864800942 8.5768985060273364e-05 0 0.021161767057275495 -5.672775042773942e-05 0 0.021476291366674231 -0.0002040447224240341 0 0.021281644864800942 8.5768985060273364e-05 0 0.021161767057275495 -5.672775042773942e-05 0 0.03692713087700731 0.0043398699692369482 0 0.036024075020861863 0.0052293070749417497 0 0.035319974342089888 0.0037128408154052032 0 0.03692713087700731 0.0043398699692369482 0 0.037152851966912336 0.0051613528652027256 0 0.036024075020861863 0.0052293070749417497 0 0.037152851966912336 0.0051613528652027256 0 0.036606794175999949 0.0059469953502712123 0 0.036024075020861863 0.0052293070749417497 0 0.03566494644142934 0.0064743080132466891 0 0.036606794175999949 0.0059469953502712123 0 0.036024075020861863 0.0052293070749417497 0 0.03566494644142934 0.0064743080132466891 0 0.036024075020861863 0.0052293070749417497 0 0.03446582096541128 0.0057530905816942082 0 0.022854893689764372 0.0010683996568935301 0 0.023087630414903117 0.0010423288570507512 0 0.022768755029594568 0.00094247116516245301 0 0.029427397279747077 0.0037812268742735619 0 0.026533722895001111 0.0033374715774461255 0 0.022758999684484249 0.0010587730255455863 0 0.022768755029594568 0.00094247116516245301 0 0.022725524717837658 0.0010079585464015709 0 0.022758999684484249 0.0010587730255455863 0 0.022854893689764372 0.0010683996568935301 0 0.022768755029594568 0.00094247116516245301 0 0.022768755029594568 0.00094247116516245301 0 0.022725524717837658 0.0010079585464015709 0 0.022720761878538043 0.0009542190138753712 0 0.023690445119412196 0.0013217003534996706 0 0.02342226349151677 0.00035854366221924256 0 0.024165666248060522 0.0002427036844697012 0 0.036024075020861863 0.0052293070749417497 0 0.03446582096541128 0.0057530905816942082 0 0.035319974342089888 0.0037128408154052032 0 0.026533722895001111 0.0033374715774461255 0 0.030134825811828636 0.0019390678443240359 0 0.023690445119412196 0.0013217003534996706 0 0.02342226349151677 0.00035854366221924256 0 0.022849006606946855 0.00081058974680102457 0 0.02342226349151677 0.00035854366221924256 0 0.022849006606946855 0.00081058974680102457 0 0.022775422075972728 0.00034518964419847471 0 0.022768755029594568 0.00094247116516245301 0 0.022849006606946855 0.00081058974680102457 0 0.022720761878538043 0.0009542190138753712 0 0.026533722895001111 0.0033374715774461255 0 0.021739469781984908 0.00016487377273599301 0 0.022523818376937278 0.0010796288178047248 0 0.022639713967185397 0.0010693000542770917 0 0.022720761878538043 0.0009542190138753712 0 0.022639713967185397 0.0010693000542770917 0 0.022725524717837658 0.0010079585464015709 0 0.022720761878538043 0.0009542190138753712 0 0.022523818376937278 0.0010796288178047248 0 0.022720761878538043 0.0009542190138753712 0 0.022515573351139434 0.00093954652683210234 0 0.022287148077932813 0.0011105239350340868 0 0.022523818376937278 0.0010796288178047248 0 0.022515573351139434 0.00093954652683210234 0 0.022849006606946855 0.00081058974680102457 0 0.022720761878538043 0.0009542190138753712 0 0.022515573351139434 0.00093954652683210234 0 0.022849006606946855 0.00081058974680102457 0 0.022515573351139434 0.00093954652683210234 0 0.022333482969804187 0.00062296837352223615 0 0.022287148077932813 0.0011105239350340868 0 0.022515573351139434 0.00093954652683210234 0 0.022152967009529682 0.00093285939106798514 0 0.022515573351139434 0.00093954652683210234 0 0.022152967009529682 0.00093285939106798514 0 0.022333482969804187 0.00062296837352223615 0 0.022849006606946855 0.00081058974680102457 0 0.022333482969804187 0.00062296837352223615 0 0.022775422075972728 0.00034518964419847471 0 0.022122042849728581 0.00021562037291891984 0 0.022333482969804187 0.00062296837352223615 0 0.022462475942501166 0.00025283472806834532 0 0.022333482969804187 0.00062296837352223615 0 0.022775422075972728 0.00034518964419847471 0 0.022462475942501166 0.00025283472806834532 0 0.022049866647986929 -0.00014985721762620553 0 0.022642871048415478 -6.8538074915126701e-05 0 0.0228021781704008 -0.00052607160970098916 0 0.022122042849728581 0.00021562037291891984 0 0.022462475942501166 0.00025283472806834532 0 0.022642871048415478 -6.8538074915126701e-05 0 0.022775422075972728 0.00034518964419847471 0 0.022462475942501166 0.00025283472806834532 0 0.022642871048415478 -6.8538074915126701e-05 0 0.022775422075972728 0.00034518964419847471 0 0.022642871048415478 -6.8538074915126701e-05 0 0.023113702621456494 -5.9346405099583805e-05 0 0.022642871048415478 -6.8538074915126701e-05 0 0.022925429999773792 -0.00035836442833087507 0 0.023113702621456494 -5.9346405099583805e-05 0 0.022642871048415478 -6.8538074915126701e-05 0 0.0228021781704008 -0.00052607160970098916 0 0.022925429999773792 -0.00035836442833087507 0 0.0228021781704008 -0.00052607160970098916 0 0.023091250632264464 -0.00018736491444862926 0 0.022862981908415271 -0.00050369884545885778 0 0.023683171307106805 1.0270405367530599e-05 0 0.0228021781704008 -0.00052607160970098916 0 0.023091250632264464 -0.00018736491444862926 0 0.023091250632264464 -0.00018736491444862926 0 0.022862981908415271 -0.00050369884545885778 0 0.022942727480331632 0.00060078302470446528 0 0.0228021781704008 -0.00052607160970098916 0 0.022862981908415271 -0.00050369884545885778 0 0.022925429999773792 -0.00035836442833087507 0 0.022862981908415271 -0.00050369884545885778 0 0.022925429999773792 -0.00035836442833087507 0 0.023236118138836359 -0.00045998214062659246 0 0.022862981908415271 -0.00050369884545885778 0 0.023236118138836359 -0.00045998214062659246 0 0.023368469105043567 -0.0010429041459507759 0 0.023236118138836359 -0.00045998214062659246 0 0.023716824671572 -0.00051258260425863795 0 0.023368469105043567 -0.0010429041459507759 0 0.023236118138836359 -0.00045998214062659246 0 0.023113702621456494 -5.9346405099583805e-05 0 0.023716824671572 -0.00051258260425863795 0 0.02342226349151677 0.00035854366221924256 0 0.023113702621456494 -5.9346405099583805e-05 0 0.023716824671572 -0.00051258260425863795 0 0.022925429999773792 -0.00035836442833087507 0 0.023236118138836359 -0.00045998214062659246 0 0.023113702621456494 -5.9346405099583805e-05 0 0.02342226349151677 0.00035854366221924256 0 0.022775422075972728 0.00034518964419847471 0 0.023113702621456494 -5.9346405099583805e-05 0 0.02342226349151677 0.00035854366221924256 0 0.024165666248060522 0.0002427036844697012 0 0.023716824671572 -0.00051258260425863795 0 0.024165666248060522 0.0002427036844697012 0 0.023716824671572 -0.00051258260425863795 0 0.024716235912788227 -0.00065291658942857834 0 0.023716824671572 -0.00051258260425863795 0 0.024716235912788227 -0.00065291658942857834 0 0.024005608187990638 -0.0012849962688456017 0 0.030134825811828636 0.0019390678443240359 0 0.029863160758352939 0.00048826134604790575 0 0.037355838695213493 0.0030853653162600976 0 0.035319974342089888 0.0037128408154052032 0 0.03614258944528545 0.0017745025645314976 0 0.03692713087700731 0.0043398699692369482 0 0.037355838695213493 0.0030853653162600976 0 0.035319974342089888 0.0037128408154052032 0 0.035373168885751066 0.00014241494714972914 0 0.034172606252066598 -0.00089999055784668663 0 0.038514584330101707 0.0019840238337896169 0 0.038714894599112655 0.0015239390409517962 0 0.038056289636285136 0.0015572313238729962 0 0.025265201741565387 -0.0016577442596325377 0 0.024814025834472099 -0.0020807137560662501 0 0.02459530767776939 -0.0014850195919041457 0 0.035373168885751066 0.00014241494714972914 0 0.029863160758352939 0.00048826134604790575 0 0.025265201741565387 -0.0016577442596325377 0 0.024716235912788227 -0.00065291658942857834 0 0.02459530767776939 -0.0014850195919041457 0 0.024716235912788227 -0.00065291658942857834 0 0.02459530767776939 -0.0014850195919041457 0 0.024005608187990638 -0.0012849962688456017 0 0.024005608187990638 -0.0012849962688456017 0 0.024166718594685273 -0.0018525631483823756 0 0.023538660424474164 -0.0020991089410614411 0 0.024166718594685273 -0.0018525631483823756 0 0.023538660424474164 -0.0020991089410614411 0 0.024552047822646861 -0.0023433531312904827 0 0.02459530767776939 -0.0014850195919041457 0 0.024005608187990638 -0.0012849962688456017 0 0.024166718594685273 -0.0018525631483823756 0 0.024814025834472099 -0.0020807137560662501 0 0.02459530767776939 -0.0014850195919041457 0 0.024166718594685273 -0.0018525631483823756 0 0.024814025834472099 -0.0020807137560662501 0 0.024166718594685273 -0.0018525631483823756 0 0.024552047822646861 -0.0023433531312904827 0 0.024005608187990638 -0.0012849962688456017 0 0.023538660424474164 -0.0020991089410614411 0 0.023368469105043567 -0.0010429041459507759 0 0.023538660424474164 -0.0020991089410614411 0 0.023368469105043567 -0.0010429041459507759 0 0.022769323898088306 -0.0012296716918059152 0 0.023716824671572 -0.00051258260425863795 0 0.024005608187990638 -0.0012849962688456017 0 0.023368469105043567 -0.0010429041459507759 0 0.022948786468099388 -0.00023346220892474858 0 0.022785677912867806 -0.00099578222092020678 0 0.022862981908415271 -0.00050369884545885778 0 0.023368469105043567 -0.0010429041459507759 0 0.022769323898088306 -0.0012296716918059152 0 0.023683171307106805 1.0270405367530599e-05 0 0.023091250632264464 -0.00018736491444862926 0 0.022942727480331632 0.00060078302470446528 0 0.023538660424474164 -0.0020991089410614411 0 0.022769323898088306 -0.0012296716918059152 0 0.022624561162518264 -0.0018459716798734243 0 0.022785677912867806 -0.00099578222092020678 0 0.033986863541627117 5.0070418366183663e-05 0 0.033440812434793965 -0.001341300046954524 0 0.033986863541627117 5.0070418366183663e-05 0 0.044587093024833845 -0.00040668328352124324 0 0.044884499236503519 -0.00041306168006041228 0 0.044870575272379427 -0.00014359034978617027 0 0.044884499236503519 -0.00041306168006041228 0 0.044870575272379427 -0.00014359034978617027 0 0.045019923295900273 -0.00014654628663679953 0 0.044870575272379427 -0.00014359034978617027 0 0.045000100038126087 -7.4822362400892921e-08 0 0.045019923295900273 -0.00014654628663679953 0 0.044870575272379427 -0.00014359034978617027 0 0.045000100038126087 -7.4822362400892921e-08 0 0.044999297362503715 1.6911121325138177e-07 0 0.044870575272379427 -0.00014359034978617027 0 0.044999297362503715 1.6911121325138177e-07 0 0.044517897709987764 -8.3521629368017326e-05 0 0.045000012929224627 -1.9671050027778618e-09 0 0.044990329285182429 -1.1521462352179704e-06 0 0.044999963477499044 5.1958295631765e-09 0 0.044999011589303417 -7.5843526527462569e-07 0 0.045658947711799028 0.0004665339971155757 0 0.044587093024833845 -0.00040668328352124324 0 0.044870575272379427 -0.00014359034978617027 0 0.044517897709987764 -8.3521629368017326e-05 0 0.033440812434793965 -0.001341300046954524 0 0.037505066606364157 -0.00061432662560612029 0 0.044587093024833845 -0.00040668328352124324 0 0.044517897709987764 -8.3521629368017326e-05 0 0.044097228535340552 -0.00034999192027906987 0 0.044990329285182429 -1.1521462352179704e-06 0 0.044947249096437873 -9.4571165502558367e-06 0 0.044978457799379215 -2.257916745606136e-06 0 0.045658947711799028 0.0004665339971155757 0 0.037505066606364157 -0.00061432662560612029 0 0.044990329285182429 -1.1521462352179704e-06 0 0.044999963477499044 5.1958295631765e-09 0 0.044978457799379215 -2.257916745606136e-06 0 0.044999961369841579 -8.0688351739321505e-09 0 0.044978457799379215 -2.257916745606136e-06 0 0.04496599002346853 -9.7382159273908863e-07 0 0.044999961369841579 -8.0688351739321505e-09 0 0.044999963477499044 5.1958295631765e-09 0 0.044978457799379215 -2.257916745606136e-06 0 0.044947249096437873 -9.4571165502558367e-06 0 0.044978457799379215 -2.257916745606136e-06 0 0.04496599002346853 -9.7382159273908863e-07 0 0.037819053697646543 0.00087741082809064718 0 0.03660863173629663 -0.0002413953379749443 0 0.039391674467922362 -0.00089654823289594596 0 0.037505066606364157 -0.00061432662560612029 0 0.042777378129155913 -0.00061526870243086031 0 0.034172606252066598 -0.00089999055784668663 0 0.037505066606364157 -0.00061432662560612029 0 0.044909247579977225 4.2037248681716547e-05 0 0.044894013800110599 5.9407907778401849e-05 0 0.044850855194351835 1.9096526134754123e-05 0 0.044909247579977225 4.2037248681716547e-05 0 0.044850855194351835 1.9096526134754123e-05 0 0.04492465819735314 3.6225319285084679e-05 0 0.044909247579977225 4.2037248681716547e-05 0 0.044917423267087961 5.7861161793361119e-05 0 0.044948534730035752 3.7492612233700368e-05 0 0.044909247579977225 4.2037248681716547e-05 0 0.044917423267087961 5.7861161793361119e-05 0 0.044894013800110599 5.9407907778401849e-05 0 0.04036069721653638 0.00085321926112812618 0 0.027504694639337489 0.0006265737566483893 0 0.033156167938447535 9.5701270758628745e-05 0 0.032565310554082454 0.0024564576331851948 0 0.030763234486743393 0.0017792850044878014 0 0.022657355127490137 -0.00064830339277240762 0 0.027504694639337489 0.0006265737566483893 0 0.04036069721653638 0.00085321926112812618 0 0.037666481721452323 0.00078457803919503965 0 0.035997770686758933 0.00085382261224293524 0 0.0357038630635933 0.00073810631858469409 0 0.035356196238187726 0.00096864965853523711 0 0.027504694639337489 0.0006265737566483893 0 0.037666481721452323 0.00078457803919503965 0 0.024988652919632974 -0.0003456721777869252 0 0.027182707685114146 0.00040807743065164023 0 0.025761311747409081 0.0013973546285152819 0 0.024988652919632974 -0.0003456721777869252 0 0.024142258309055999 0.00071116167111488608 0 0.025761311747409081 0.0013973546285152819 0 0.023683171307106805 1.0270405367530599e-05 0 0.022942727480331632 0.00060078302470446528 0 0.024142258309055999 0.00071116167111488608 0 0.023683171307106805 1.0270405367530599e-05 0 0.024988652919632974 -0.0003456721777869252 0 0.024142258309055999 0.00071116167111488608 0 0.022942727480331632 0.00060078302470446528 0 0.023468847973079306 0.0018682931114344856 0 0.024142258309055999 0.00071116167111488608 0 0.023468847973079306 0.0018682931114344856 0 0.024142258309055999 0.00071116167111488608 0 0.025761311747409081 0.0013973546285152819 0 0.033986863541627117 5.0070418366183663e-05 0 0.037666481721452323 0.00078457803919503965 0 0.044878833403316734 8.5339883397293187e-05 0 0.044771955039886957 4.3963574184148631e-05 0 0.044442830800596828 0.00027454271576504848 0 0.046756054352121205 -0.00099528713965177005 0 0.037666481721452323 0.00078457803919503965 0 0.044771955039886957 4.3963574184148631e-05 0 0.044850855194351835 1.9096526134754123e-05 0 0.044868822812813236 3.5099910490380712e-05 0 0.044850855194351835 1.9096526134754123e-05 0 0.044868822812813236 3.5099910490380712e-05 0 0.04492465819735314 3.6225319285084679e-05 0 0.033986863541627117 5.0070418366183663e-05 0 0.04573427148845223 0.00039336628567258821 0 0.044878833403316734 8.5339883397293187e-05 0 0.044771955039886957 4.3963574184148631e-05 0 0.044853945908860805 1.3210437284391315e-05 0 0.044771955039886957 4.3963574184148631e-05 0 0.044868822812813236 3.5099910490380712e-05 0 0.044853945908860805 1.3210437284391315e-05 0 0.045000100038126087 -7.4822362400892921e-08 0 0.045019923295900273 -0.00014654628663679953 0 0.045000074678527908 -4.2133361832261262e-09 0 0.04573427148845223 0.00039336628567258821 0 0.044999541760296136 -7.8139553773080696e-07 0 0.044868822812813236 3.5099910490380712e-05 0 0.044853945908860805 1.3210437284391315e-05 0 0.044999765233293791 8.6272992903951131e-08 0 0.044999765233293791 8.6272992903951131e-08 0 0.044999947690228151 1.4617387354329925e-08 0 0.04492465819735314 3.6225319285084679e-05 0 0.044868822812813236 3.5099910490380712e-05 0 0.044999765233293791 8.6272992903951131e-08 0 0.04492465819735314 3.6225319285084679e-05 0 0.044999947690228151 1.4617387354329925e-08 0 0.04492465819735314 3.6225319285084679e-05 0 0.044948534730035752 3.7492612233700368e-05 0 0.044909247579977225 4.2037248681716547e-05 0 0.04492465819735314 3.6225319285084679e-05 0 0.044948534730035752 3.7492612233700368e-05 0 0.044999947690228151 1.4617387354329925e-08 0 0.044948534730035752 3.7492612233700368e-05 0 0.044999947704620694 2.9171740090381226e-08 0 0.044948534730035752 3.7492612233700368e-05 0 0.044999947704620694 2.9171740090381226e-08 0 0.044954247730659598 3.6361354617775099e-05 0 0.044954247730659598 3.6361354617775099e-05 0 0.044999890992345408 1.002805727513084e-08 0 0.044928536975168333 5.356962307189764e-05 0 0.044999947704620694 2.9171740090381226e-08 0 0.044954247730659598 3.6361354617775099e-05 0 0.044999890992345408 1.002805727513084e-08 0 0.044954247730659598 3.6361354617775099e-05 0 0.044921878732736571 5.9383576708590223e-05 0 0.044911976182504081 8.0128249531263832e-05 0 0.044954247730659598 3.6361354617775099e-05 0 0.044928536975168333 5.356962307189764e-05 0 0.044911976182504081 8.0128249531263832e-05 0 0.044948534730035752 3.7492612233700368e-05 0 0.044954247730659598 3.6361354617775099e-05 0 0.044921878732736571 5.9383576708590223e-05 0 0.044917423267087961 5.7861161793361119e-05 0 0.044948534730035752 3.7492612233700368e-05 0 0.044921878732736571 5.9383576708590223e-05 0 0.045000020820229421 4.0820342454864899e-08 0 0.044936827308498462 2.5008526477818743e-05 0 0.044999890992345408 1.002805727513084e-08 0 0.045000020820229421 4.0820342454864899e-08 0 0.044936827308498462 2.5008526477818743e-05 0 0.044838098193257001 4.2165435873096419e-05 0 0.044936827308498462 2.5008526477818743e-05 0 0.044999890992345408 1.002805727513084e-08 0 0.044928536975168333 5.356962307189764e-05 0 0.044936827308498462 2.5008526477818743e-05 0 0.044928536975168333 5.356962307189764e-05 0 0.044846282038001006 6.9698013396676694e-05 0 0.044936827308498462 2.5008526477818743e-05 0 0.044846282038001006 6.9698013396676694e-05 0 0.044838098193257001 4.2165435873096419e-05 0 0.044928536975168333 5.356962307189764e-05 0 0.044846282038001006 6.9698013396676694e-05 0 0.044865744600037234 0.00010600119790926815 0 0.044865744600037234 0.00010600119790926815 0 0.044860553828465731 0.00015110453614017294 0 0.044729822292074652 0.00016498854298062951 0 0.045008505360805903 0.00038636962132433976 0 0.044673826952158234 0.00011727893608643695 0 0.044846282038001006 6.9698013396676694e-05 0 0.044865744600037234 0.00010600119790926815 0 0.044729822292074652 0.00016498854298062951 0 0.044865744600037234 0.00010600119790926815 0 0.04488230297917966 0.00011655359875582527 0 0.044860553828465731 0.00015110453614017294 0 0.04488230297917966 0.00011655359875582527 0 0.044894759631046111 0.00010170953027786379 0 0.044882398201728679 0.00011736563703350135 0 0.044865744600037234 0.00010600119790926815 0 0.04488230297917966 0.00011655359875582527 0 0.044901985507937253 9.2010402211597139e-05 0 0.04488230297917966 0.00011655359875582527 0 0.044901985507937253 9.2010402211597139e-05 0 0.044894759631046111 0.00010170953027786379 0 0.044928536975168333 5.356962307189764e-05 0 0.044865744600037234 0.00010600119790926815 0 0.044901985507937253 9.2010402211597139e-05 0 0.044928536975168333 5.356962307189764e-05 0 0.044901985507937253 9.2010402211597139e-05 0 0.044911976182504081 8.0128249531263832e-05 0 0.044901985507937253 9.2010402211597139e-05 0 0.044894759631046111 0.00010170953027786379 0 0.044911976182504081 8.0128249531263832e-05 0 0.044894759631046111 0.00010170953027786379 0 0.044882398201728679 0.00011736563703350135 0 0.044883937817404511 9.6352279991312255e-05 0 0.044878187412252531 0.00011204874145224169 0 0.044882398201728679 0.00011736563703350135 0 0.044883937817404511 9.6352279991312255e-05 0 0.04235960763164557 0.0011817176798639369 0 0.045008505360805903 0.00038636962132433976 0 0.044878187412252531 0.00011204874145224169 0 0.044882398201728679 0.00011736563703350135 0 0.044860553828465731 0.00015110453614017294 0 0.0448247771475015 0.00038019250420287103 0 0.044822382477549882 0.0003344748576270336 0 0.044816227880348468 0.00038260969680583787 0 0.04488230297917966 0.00011655359875582527 0 0.044882398201728679 0.00011736563703350135 0 0.044860553828465731 0.00015110453614017294 0 0.044339202733104169 0.00014905138000190132 0 0.044376597140420089 0.00020143973236760854 0 0.044315789295097503 0.00021654988385545003 0 0.044822382477549882 0.0003344748576270336 0 0.044766849941876033 0.0003391577568832718 0 0.044816227880348468 0.00038260969680583787 0 0.044635470024433514 0.00029899635068663083 0 0.043113102993239137 0.001108378717239308 0 0.044822382477549882 0.0003344748576270336 0 0.044766849941876033 0.0003391577568832718 0 0.044729822292074652 0.00016498854298062951 0 0.044917423267087961 5.7861161793361119e-05 0 0.044894013800110599 5.9407907778401849e-05 0 0.044875400784218616 0.00010245994449779652 0 0.044917423267087961 5.7861161793361119e-05 0 0.044921878732736571 5.9383576708590223e-05 0 0.044875400784218616 0.00010245994449779652 0 0.044921878732736571 5.9383576708590223e-05 0 0.044875400784218616 0.00010245994449779652 0 0.044911976182504081 8.0128249531263832e-05 0 0.044894759631046111 0.00010170953027786379 0 0.044911976182504081 8.0128249531263832e-05 0 0.044890626216600553 9.5682591185958175e-05 0 0.044875400784218616 0.00010245994449779652 0 0.044911976182504081 8.0128249531263832e-05 0 0.044890626216600553 9.5682591185958175e-05 0 0.044878187412252531 0.00011204874145224169 0 0.044883937817404511 9.6352279991312255e-05 0 0.044845726832053373 3.7998495955792383e-05 0 0.044875400784218616 0.00010245994449779652 0 0.044890626216600553 9.5682591185958175e-05 0 0.044845726832053373 3.7998495955792383e-05 0 0.04235960763164557 0.0011817176798639369 0 0.039849698504286921 0.00092791254772821719 0 0.044894759631046111 0.00010170953027786379 0 0.044890626216600553 9.5682591185958175e-05 0 0.044883937817404511 9.6352279991312255e-05 0 0.044890626216600553 9.5682591185958175e-05 0 0.044883937817404511 9.6352279991312255e-05 0 0.044845726832053373 3.7998495955792383e-05 0 0.044569307748429279 6.2593727426111956e-05 0 0.044875400784218616 0.00010245994449779652 0 0.044845726832053373 3.7998495955792383e-05 0 0.033156167938447535 9.5701270758628745e-05 0 0.032565310554082454 0.0024564576331851948 0 0.035722091043331322 0.0017328609348106611 0 0.04036069721653638 0.00085321926112812618 0 0.046418649270410658 0.00027877124968147344 0 0.04036069721653638 0.00085321926112812618 0 0.039849698504286921 0.00092791254772821719 0 0.020956240094883467 -0.000310135758112705 0 0.020905917540895852 -9.5944933361668364e-05 0 0.020680832982296032 -5.7226821550794981e-05 0 0.033156167938447535 9.5701270758628745e-05 0 0.035722091043331322 0.0017328609348106611 0 0.035553513171447386 -0.0016201618898624515 0 0.026831042276448874 -4.4516963352080798e-05 0 0.028383645400820029 -0.00045804555083413592 0 0.020940741509753315 5.1372151298499027e-05 0 0.020959609235002258 0.00021925654894647546 0 0.020680832982296032 -5.7226821550794981e-05 0 0.022196172590240395 0.00047987301987659209 0 0.02360968468363742 0.00093930250953426302 0 0.021385808541872817 -0.00076949279044459572 0 0.020940741509753315 5.1372151298499027e-05 0 0.020905917540895852 -9.5944933361668364e-05 0 0.020680832982296032 -5.7226821550794981e-05 0 0.020959609235002258 0.00021925654894647546 0 0.022707938852545437 0.0016123549925070022 0 0.022196172590240395 0.00047987301987659209 0 0.019587692254296737 -0.00048800453496244294 0 0.028383645400820029 -0.00045804555083413592 0 0.020959609235002258 0.00021925654894647546 0 0.022196172590240395 0.00047987301987659209 0 0.021481213830935125 3.6404174528198303e-05 0 0.031234917905368 -0.0019818214045235752 0 0.033951642351297946 -0.0039040044063557463 0 0.038277834752664747 -0.00019698262389614756 0 0.022707938852545437 0.0016123549925070022 0 0.022196172590240395 0.00047987301987659209 0 0.02360968468363742 0.00093930250953426302 0 0.028383645400820029 -0.00045804555083413592 0 0.030303061531104278 -0.0015780337396544904 0 0.030303061531104278 -0.0015780337396544904 0 0.040428320592201701 0.00058542277750742481 0 0.039285401835467318 0.0042959115854586342 0 0.031234917905368 -0.0019818214045235752 0 0.038277834752664747 -0.00019698262389614756 0 0.04235960763164557 0.0011817176798639369 0 0.028383645400820029 -0.00045804555083413592 0 0.038933479706321071 0.00098639153818671555 0 0.035722091043331322 0.0017328609348106611 0 0.035553513171447386 -0.0016201618898624515 0 0.041474262492946778 0.00020240248819005546 0 0.041980946324205806 0.00023750134416327339 0 0.042179328602880671 -0.0001296903869708553 0 0.04235960763164557 0.0011817176798639369 0 0.043113102993239137 0.001108378717239308 0 0.039285401835467318 0.0042959115854586342 0 0.038277834752664747 -0.00019698262389614756 0 0.042591354245638785 0.0035067252988254024 0 0.040428320592201701 0.00058542277750742481 0 0.043113102993239137 0.001108378717239308 0 0.041474262492946778 0.00020240248819005546 0 0.041965880179915281 0.00062891117157581216 0 0.041980946324205806 0.00023750134416327339 0 0.043113102993239137 0.001108378717239308 0 0.043556335229864823 0.00031587780553504958 0 0.041965880179915281 0.00062891117157581216 0 0.042302995167591555 0.00024163047691272616 0 0.042698997350631179 0.00050354216312235053 0 0.041980946324205806 0.00023750134416327339 0 0.042302995167591555 0.00024163047691272616 0 0.042179328602880671 -0.0001296903869708553 0 0.041965880179915281 0.00062891117157581216 0 0.041980946324205806 0.00023750134416327339 0 0.042302995167591555 0.00024163047691272616 0 0.042302995167591555 0.00024163047691272616 0 0.042179328602880671 -0.0001296903869708553 0 0.042843413377440041 -6.5580577011645149e-05 0 0.042179328602880671 -0.0001296903869708553 0 0.042433013308760016 -0.0006435513539655586 0 0.042712528734333628 -0.00071364775581983693 0 0.040914108571951179 -0.00021446029578562733 0 0.041474262492946778 0.00020240248819005546 0 0.04199174720004098 -0.00074697754140366258 0 0.041474262492946778 0.00020240248819005546 0 0.042179328602880671 -0.0001296903869708553 0 0.04199174720004098 -0.00074697754140366258 0 0.030303061531104278 -0.0015780337396544904 0 0.032735944851520378 -0.002224459192299156 0 0.04199174720004098 -0.00074697754140366258 0 0.042433013308760016 -0.0006435513539655586 0 0.042532652694741886 -0.00043108370731176842 0 0.042179328602880671 -0.0001296903869708553 0 0.04199174720004098 -0.00074697754140366258 0 0.042433013308760016 -0.0006435513539655586 0 0.032735944851520378 -0.002224459192299156 0 0.031983296896051935 -0.00061696994783642445 0 0.021533565420950949 -0.0005462565846476755 0 0.022433359672612833 -0.0016676966061491775 0 0.020724763957962588 -0.001925359819911359 0 0.04199174720004098 -0.00074697754140366258 0 0.042558110557959439 -0.0004415522055265655 0 0.042532652694741886 -0.00043108370731176842 0 0.022660413278355138 -0.0032007675799882282 0 0.022433359672612833 -0.0016676966061491775 0 0.020724763957962588 -0.001925359819911359 0 0.022660413278355138 -0.0032007675799882282 0 0.022433359672612833 -0.0016676966061491775 0 0.024529178998525587 -0.0018128807253798495 0 0.020287490607368269 0.00088503453025363553 0 0.020538852537848082 0.00095571014082868652 0 0.020599510859514808 0.00067275706868393458 0 0.022666870714546622 -0.00052382616381612941 0 0.021521879524094182 -0.001631362810759062 0 0.020287490607368269 0.00088503453025363553 0 0.020599510859514808 0.00067275706868393458 0 0.020593721550382867 0.00043937819854484222 0 0.020742501204077137 0.0010736582971678055 0 0.020747181352944555 0.00078727529310762209 0 0.020538852537848082 0.00095571014082868652 0 0.020747181352944555 0.00078727529310762209 0 0.020538852537848082 0.00095571014082868652 0 0.020599510859514808 0.00067275706868393458 0 0.030303061531104278 -0.0015780337396544904 0 0.021521879524094182 -0.001631362810759062 0 0.020599510859514808 0.00067275706868393458 0 0.020593721550382867 0.00043937819854484222 0 0.020635276381142899 0.00047300245105835926 0 0.020761572748455234 0.00057332218362625442 0 0.020599510859514808 0.00067275706868393458 0 0.020635276381142899 0.00047300245105835926 0 0.021521879524094182 -0.001631362810759062 0 0.021548439854631753 -0.0014198962383339725 0 0.022196172590240395 0.00047987301987659209 0 0.021385808541872817 -0.00076949279044459572 0 0.021481213830935125 3.6404174528198303e-05 0 0.02083249761677234 0.00011513765515039343 0 0.020551611495576112 0.00039813343377368581 0 0.020635276381142899 0.00047300245105835926 0 0.021385808541872817 -0.00076949279044459572 0 0.021481213830935125 3.6404174528198303e-05 0 0.021220705964413458 -0.00014437421989963806 0 0.02060757659607515 -0.00017343420713383432 0 0.021521879524094182 -0.001631362810759062 0 0.02083249761677234 0.00011513765515039343 0 0.021385808541872817 -0.00076949279044459572 0 0.021220705964413458 -0.00014437421989963806 0 0.020959609235002258 0.00021925654894647546 0 0.021481213830935125 3.6404174528198303e-05 0 0.021220705964413458 -0.00014437421989963806 0 0.024529178998525587 -0.0018128807253798495 0 0.025889634118973631 -0.0031206530634132908 0 0.024401119604220176 -0.003135310584205844 0 0.022660413278355138 -0.0032007675799882282 0 0.024529178998525587 -0.0018128807253798495 0 0.024401119604220176 -0.003135310584205844 0 0.024486457911693144 -0.0044001493860429423 0 0.025889634118973631 -0.0031206530634132908 0 0.024401119604220176 -0.003135310584205844 0 0.024486457911693144 -0.0044001493860429423 0 0.022660413278355138 -0.0032007675799882282 0 0.024401119604220176 -0.003135310584205844 0 0.044350642540782491 -0.00050629291376249306 0 0.043978021211575548 -0.0008057233134818434 0 0.044221383731463455 -0.00020413988262496215 0 0.044350642540782491 -0.00050629291376249306 0 0.044375724913705825 -0.00069893848176230081 0 0.043978021211575548 -0.0008057233134818434 0 0.041609471181691719 -0.00053687112576317425 0 0.042499422425202278 -0.000840782172081239 0 0.044350642540782491 -0.00050629291376249306 0 0.044375724913705825 -0.00069893848176230081 0 0.044540986269400916 -0.00048226067756491892 0 0.044375724913705825 -0.00069893848176230081 0 0.044540986269400916 -0.00048226067756491892 0 0.044548647572330638 -0.00060807552905195017 0 0.038520029959730202 0.0012237831974690461 0 0.039134656164746859 -0.00048256477327207305 0 0.040368402470227861 0.00018496849821517128 0 0.041609471181691719 -0.00053687112576317425 0 0.041485049660913757 -0.00042157062591597369 0 0.038520029959730202 0.0012237831974690461 0 0.039134656164746859 -0.00048256477327207305 0 0.037124018470689329 0.00021039756554733035 0 0.039134656164746859 -0.00048256477327207305 0 0.040368402470227861 0.00018496849821517128 0 0.041084553888119157 -0.0009622419112585342 0 0.040368402470227861 0.00018496849821517128 0 0.04178502176304897 -0.00015590462746180986 0 0.041084553888119157 -0.0009622419112585342 0 0.041072905164683857 0.0014410569408782143 0 0.04178502176304897 -0.00015590462746180986 0 0.04253856542786142 -1.6292506732400055e-05 0 0.041072905164683857 0.0014410569408782143 0 0.040368402470227861 0.00018496849821517128 0 0.04178502176304897 -0.00015590462746180986 0 0.04178502176304897 -0.00015590462746180986 0 0.042532652694741886 -0.00043108370731176842 0 0.042331615528776477 -0.00058778289548809602 0 0.04178502176304897 -0.00015590462746180986 0 0.04253856542786142 -1.6292506732400055e-05 0 0.042532652694741886 -0.00043108370731176842 0 0.031983296896051935 -0.00061696994783642445 0 0.034506713193359018 -0.0012292041505792997 0 0.042433013308760016 -0.0006435513539655586 0 0.042532652694741886 -0.00043108370731176842 0 0.042331615528776477 -0.00058778289548809602 0 0.042433013308760016 -0.0006435513539655586 0 0.042331615528776477 -0.00058778289548809602 0 0.042712528734333628 -0.00071364775581983693 0 0.042712528734333628 -0.00071364775581983693 0 0.043978021211575548 -0.0008057233134818434 0 0.043711266580505698 -0.00036394527660412292 0 0.042613241413287921 -0.00073308041443692119 0 0.042499422425202278 -0.000840782172081239 0 0.042331615528776477 -0.00058778289548809602 0 0.042712528734333628 -0.00071364775581983693 0 0.041084553888119157 -0.0009622419112585342 0 0.04178502176304897 -0.00015590462746180986 0 0.042331615528776477 -0.00058778289548809602 0 0.041084553888119157 -0.0009622419112585342 0 0.043711266580505698 -0.00036394527660412292 0 0.042843413377440041 -6.5580577011645149e-05 0 0.043896248549440152 0.00018402912208539249 0 0.043711266580505698 -0.00036394527660412292 0 0.043896248549440152 0.00018402912208539249 0 0.044221383731463455 -0.00020413988262496215 0 0.043978021211575548 -0.0008057233134818434 0 0.043711266580505698 -0.00036394527660412292 0 0.044221383731463455 -0.00020413988262496215 0 0.042712528734333628 -0.00071364775581983693 0 0.043711266580505698 -0.00036394527660412292 0 0.042843413377440041 -6.5580577011645149e-05 0 0.042179328602880671 -0.0001296903869708553 0 0.042712528734333628 -0.00071364775581983693 0 0.042843413377440041 -6.5580577011645149e-05 0 0.042843413377440041 -6.5580577011645149e-05 0 0.042698997350631179 0.00050354216312235053 0 0.043896248549440152 0.00018402912208539249 0 0.043556335229864823 0.00031587780553504958 0 0.043850782849480532 0.00022168545828421001 0 0.044315789295097503 0.00021654988385545003 0 0.043896248549440152 0.00018402912208539249 0 0.044288894612582959 0.00014095019759174276 0 0.042302995167591555 0.00024163047691272616 0 0.042843413377440041 -6.5580577011645149e-05 0 0.042698997350631179 0.00050354216312235053 0 0.043896248549440152 0.00018402912208539249 0 0.044277795001907788 0.00012524371676613341 0 0.044205105799039232 0.00016017157307583776 0 0.043896248549440152 0.00018402912208539249 0 0.044288894612582959 0.00014095019759174276 0 0.044205105799039232 0.00016017157307583776 0 0.044277795001907788 0.00012524371676613341 0 0.044221383731463455 -0.00020413988262496215 0 0.044490311566285558 -5.1094496639089522e-05 0 0.043896248549440152 0.00018402912208539249 0 0.044277795001907788 0.00012524371676613341 0 0.044221383731463455 -0.00020413988262496215 0 0.044350642540782491 -0.00050629291376249306 0 0.044221383731463455 -0.00020413988262496215 0 0.044463164830039328 -0.00031128504384719672 0 0.044463164830039328 -0.00031128504384719672 0 0.044490311566285558 -5.1094496639089522e-05 0 0.044625949871204385 -0.00025035283960583924 0 0.044221383731463455 -0.00020413988262496215 0 0.044463164830039328 -0.00031128504384719672 0 0.044490311566285558 -5.1094496639089522e-05 0 0.044350642540782491 -0.00050629291376249306 0 0.044463164830039328 -0.00031128504384719672 0 0.044540986269400916 -0.00048226067756491892 0 0.044465789853384438 0.00011915174038484833 0 0.044504325033787907 0.0001906547417149298 0 0.044630366355407888 9.3580073373113407e-05 0 0.044490311566285558 -5.1094496639089522e-05 0 0.044465789853384438 0.00011915174038484833 0 0.044630366355407888 9.3580073373113407e-05 0 0.044277795001907788 0.00012524371676613341 0 0.044490311566285558 -5.1094496639089522e-05 0 0.044465789853384438 0.00011915174038484833 0 0.044277795001907788 0.00012524371676613341 0 0.044432007278096868 0.00017584380652962717 0 0.044369906886742083 0.00017886710254749503 0 0.044277795001907788 0.00012524371676613341 0 0.044465789853384438 0.00011915174038484833 0 0.044432007278096868 0.00017584380652962717 0 0.044432007278096868 0.00017584380652962717 0 0.044480243058370263 0.00017755414280729969 0 0.044369906886742083 0.00017886710254749503 0 0.044480243058370263 0.00017755414280729969 0 0.04459754990020183 0.00014407802904694924 0 0.044508484147196645 0.00017512187550616958 0 0.044432007278096868 0.00017584380652962717 0 0.044480243058370263 0.00017755414280729969 0 0.044508484147196645 0.00017512187550616958 0 0.044432007278096868 0.00017584380652962717 0 0.044504325033787907 0.0001906547417149298 0 0.044508484147196645 0.00017512187550616958 0 0.044465789853384438 0.00011915174038484833 0 0.044432007278096868 0.00017584380652962717 0 0.044504325033787907 0.0001906547417149298 0 0.044339202733104169 0.00014905138000190132 0 0.044315789295097503 0.00021654988385545003 0 0.044288894612582959 0.00014095019759174276 0 0.044339202733104169 0.00014905138000190132 0 0.044288894612582959 0.00014095019759174276 0 0.044523697727178027 0.00017884224200774961 0 0.044288894612582959 0.00014095019759174276 0 0.044383524550119 0.00016813283718102579 0 0.044523697727178027 0.00017884224200774961 0 0.044635470024433514 0.00029899635068663083 0 0.044487566530735607 0.00016060114552676034 0 0.044288894612582959 0.00014095019759174276 0 0.044383524550119 0.00016813283718102579 0 0.044205105799039232 0.00016017157307583776 0 0.044277795001907788 0.00012524371676613341 0 0.044205105799039232 0.00016017157307583776 0 0.044369906886742083 0.00017886710254749503 0 0.044383524550119 0.00016813283718102579 0 0.044205105799039232 0.00016017157307583776 0 0.044369906886742083 0.00017886710254749503 0 0.044480243058370263 0.00017755414280729969 0 0.044369906886742083 0.00017886710254749503 0 0.044519849961470938 0.00016540967148899653 0 0.044480243058370263 0.00017755414280729969 0 0.044519849961470938 0.00016540967148899653 0 0.04459754990020183 0.00014407802904694924 0 0.044383524550119 0.00016813283718102579 0 0.044369906886742083 0.00017886710254749503 0 0.044519849961470938 0.00016540967148899653 0 0.044383524550119 0.00016813283718102579 0 0.044519849961470938 0.00016540967148899653 0 0.044523697727178027 0.00017884224200774961 0 0.044519849961470938 0.00016540967148899653 0 0.044695344408762626 0.00010763611886872084 0 0.04468904911606332 0.00010171697824410589 0 0.044519849961470938 0.00016540967148899653 0 0.044523697727178027 0.00017884224200774961 0 0.044695344408762626 0.00010763611886872084 0 0.044846282038001006 6.9698013396676694e-05 0 0.044695344408762626 0.00010763611886872084 0 0.044729822292074652 0.00016498854298062951 0 0.044523697727178027 0.00017884224200774961 0 0.044695344408762626 0.00010763611886872084 0 0.044729822292074652 0.00016498854298062951 0 0.044766849941876033 0.0003391577568832718 0 0.044523697727178027 0.00017884224200774961 0 0.044729822292074652 0.00016498854298062951 0 0.044846282038001006 6.9698013396676694e-05 0 0.044695344408762626 0.00010763611886872084 0 0.044838098193257001 4.2165435873096419e-05 0 0.044695344408762626 0.00010763611886872084 0 0.044838098193257001 4.2165435873096419e-05 0 0.04468904911606332 0.00010171697824410589 0 0.044838098193257001 4.2165435873096419e-05 0 0.04468904911606332 0.00010171697824410589 0 0.044750856403037685 8.9298438599297273e-05 0 0.044519849961470938 0.00016540967148899653 0 0.04468904911606332 0.00010171697824410589 0 0.04459754990020183 0.00014407802904694924 0 0.04459754990020183 0.00014407802904694924 0 0.044750856403037685 8.9298438599297273e-05 0 0.044589195734758176 0.00014095636827778755 0 0.04468904911606332 0.00010171697824410589 0 0.04459754990020183 0.00014407802904694924 0 0.044750856403037685 8.9298438599297273e-05 0 0.044838098193257001 4.2165435873096419e-05 0 0.044750856403037685 8.9298438599297273e-05 0 0.044999050253802658 -1.3203190967984917e-07 0 0.044750856403037685 8.9298438599297273e-05 0 0.044999050253802658 -1.3203190967984917e-07 0 0.044497250800920041 0.00011607551006311039 0 0.045000020820229421 4.0820342454864899e-08 0 0.044838098193257001 4.2165435873096419e-05 0 0.044999050253802658 -1.3203190967984917e-07 0 0.044759301622516019 7.1270296825880485e-05 0 0.044798680285685608 0.0001217888456039688 0 0.045002962287844547 4.6476339807628965e-06 0 0.044999779647031932 6.6793093499452681e-06 0 0.044997300927355301 3.1327784897917785e-05 0 0.044504325033787907 0.0001906547417149298 0 0.044497250800920041 0.00011607551006311039 0 0.044591818055949306 0.00023305521229970838 0 0.044504325033787907 0.0001906547417149298 0 0.044508484147196645 0.00017512187550616958 0 0.044497250800920041 0.00011607551006311039 0 0.044750856403037685 8.9298438599297273e-05 0 0.044589195734758176 0.00014095636827778755 0 0.044497250800920041 0.00011607551006311039 0 0.04459754990020183 0.00014407802904694924 0 0.044508484147196645 0.00017512187550616958 0 0.044589195734758176 0.00014095636827778755 0 0.044508484147196645 0.00017512187550616958 0 0.044589195734758176 0.00014095636827778755 0 0.044497250800920041 0.00011607551006311039 0 0.044999901549859986 1.7299297020381684e-08 0 0.044759301622516019 7.1270296825880485e-05 0 0.044999996754819853 -2.7733550956111796e-09 0 0.045002962287844547 4.6476339807628965e-06 0 0.04500001310489312 8.0805855120964295e-09 0 0.045002962287844547 4.6476339807628965e-06 0 0.04500001310489312 8.0805855120964295e-09 0 0.044999779647031932 6.6793093499452681e-06 0 0.04500001310489312 8.0805855120964295e-09 0 0.044999779647031932 6.6793093499452681e-06 0 0.044999976862754094 -1.8632674068253182e-09 0 0.044999779647031932 6.6793093499452681e-06 0 0.044997300927355301 3.1327784897917785e-05 0 0.044957331217928276 1.1668248992722673e-05 0 0.044957331217928276 1.1668248992722673e-05 0 0.044999976862754094 -1.8632674068253182e-09 0 0.044999914315629934 -4.3638730386306774e-09 0 0.044999779647031932 6.6793093499452681e-06 0 0.044957331217928276 1.1668248992722673e-05 0 0.044999976862754094 -1.8632674068253182e-09 0 0.044999914315629934 -4.3638730386306774e-09 0 0.044951220578007184 -7.8698482007477727e-07 0 0.044999881482308338 -1.0735929120258851e-08 0 0.044999914315629934 -4.3638730386306774e-09 0 0.044951220578007184 -7.8698482007477727e-07 0 0.044920965956547473 1.1789525337883741e-05 0 0.044951220578007184 -7.8698482007477727e-07 0 0.044920965956547473 1.1789525337883741e-05 0 0.044887620702364767 -3.8263055873006274e-06 0 0.044920965956547473 1.1789525337883741e-05 0 0.044887620702364767 -3.8263055873006274e-06 0 0.044858209493456321 1.5662000276569271e-05 0 0.044957331217928276 1.1668248992722673e-05 0 0.044920965956547473 1.1789525337883741e-05 0 0.044911494150295279 4.114716905303898e-05 0 0.044957331217928276 1.1668248992722673e-05 0 0.044999914315629934 -4.3638730386306774e-09 0 0.044920965956547473 1.1789525337883741e-05 0 0.044911494150295279 4.114716905303898e-05 0 0.044875756258866618 4.757807620982429e-05 0 0.044900612061744435 9.0729984301617269e-05 0 0.044957331217928276 1.1668248992722673e-05 0 0.044911494150295279 4.114716905303898e-05 0 0.044900612061744435 9.0729984301617269e-05 0 0.044920965956547473 1.1789525337883741e-05 0 0.044875756258866618 4.757807620982429e-05 0 0.044858209493456321 1.5662000276569271e-05 0 0.044920965956547473 1.1789525337883741e-05 0 0.044911494150295279 4.114716905303898e-05 0 0.044875756258866618 4.757807620982429e-05 0 0.044875756258866618 4.757807620982429e-05 0 0.044796342146447662 4.1318460662027804e-05 0 0.044835993454768269 9.2456237966148492e-05 0 0.044875756258866618 4.757807620982429e-05 0 0.044858209493456321 1.5662000276569271e-05 0 0.044796342146447662 4.1318460662027804e-05 0 0.044875756258866618 4.757807620982429e-05 0 0.044873939365895343 7.4395561625467278e-05 0 0.044835993454768269 9.2456237966148492e-05 0 0.044875756258866618 4.757807620982429e-05 0 0.044873939365895343 7.4395561625467278e-05 0 0.044900612061744435 9.0729984301617269e-05 0 0.044873939365895343 7.4395561625467278e-05 0 0.044854856979618406 4.6878391483666144e-05 0 0.044900612061744435 9.0729984301617269e-05 0 0.044854856979618406 4.6878391483666144e-05 0 0.044630366355407888 9.3580073373113407e-05 0 0.044900612061744435 9.0729984301617269e-05 0 0.044854856979618406 4.6878391483666144e-05 0 0.044630366355407888 9.3580073373113407e-05 0 0.044682999443052096 -6.8029552477839799e-05 0 0.044591818055949306 0.00023305521229970838 0 0.044630366355407888 9.3580073373113407e-05 0 0.044900612061744435 9.0729984301617269e-05 0 0.044504325033787907 0.0001906547417149298 0 0.044591818055949306 0.00023305521229970838 0 0.044630366355407888 9.3580073373113407e-05 0 0.044798680285685608 0.0001217888456039688 0 0.044894728359024333 9.2327177207252275e-05 0 0.044997300927355301 3.1327784897917785e-05 0 0.044957331217928276 1.1668248992722673e-05 0 0.044900612061744435 9.0729984301617269e-05 0 0.044918053611441897 -3.0367725294466592e-06 0 0.044814940591643086 -6.7679194315291947e-06 0 0.044883985018106601 -3.6696386615182477e-06 0 0.044918053611441897 -3.0367725294466592e-06 0 0.04499983422572177 -5.8141970685927743e-09 0 0.044999869602279745 2.3246958440417216e-09 0 0.044918053611441897 -3.0367725294466592e-06 0 0.044999869602279745 2.3246958440417216e-09 0 0.044883985018106601 -3.6696386615182477e-06 0 0.044918053611441897 -3.0367725294466592e-06 0 0.04499983422572177 -5.8141970685927743e-09 0 0.044898225143471318 -7.5114781111296222e-06 0 0.044918053611441897 -3.0367725294466592e-06 0 0.044898225143471318 -7.5114781111296222e-06 0 0.044814940591643086 -6.7679194315291947e-06 0 0.044898225143471318 -7.5114781111296222e-06 0 0.044797448387548865 -1.2121555721753362e-05 0 0.044814940591643086 -6.7679194315291947e-06 0 0.044898225143471318 -7.5114781111296222e-06 0 0.044887620702364767 -3.8263055873006274e-06 0 0.044797448387548865 -1.2121555721753362e-05 0 0.04499983422572177 -5.8141970685927743e-09 0 0.044898225143471318 -7.5114781111296222e-06 0 0.044999881482308338 -1.0735929120258851e-08 0 0.044898225143471318 -7.5114781111296222e-06 0 0.044999881482308338 -1.0735929120258851e-08 0 0.044887620702364767 -3.8263055873006274e-06 0 0.044951220578007184 -7.8698482007477727e-07 0 0.044999881482308338 -1.0735929120258851e-08 0 0.044887620702364767 -3.8263055873006274e-06 0 0.044887620702364767 -3.8263055873006274e-06 0 0.044858209493456321 1.5662000276569271e-05 0 0.044802189363002169 3.3659135537731316e-06 0 0.044858209493456321 1.5662000276569271e-05 0 0.044802189363002169 3.3659135537731316e-06 0 0.044796342146447662 4.1318460662027804e-05 0 0.044802189363002169 3.3659135537731316e-06 0 0.044796342146447662 4.1318460662027804e-05 0 0.044712987100617003 -6.4792218705737417e-06 0 0.044712987100617003 -6.4792218705737417e-06 0 0.044797448387548865 -1.2121555721753362e-05 0 0.04468846354236037 -2.1427273108267751e-05 0 0.044802189363002169 3.3659135537731316e-06 0 0.044712987100617003 -6.4792218705737417e-06 0 0.044797448387548865 -1.2121555721753362e-05 0 0.044887620702364767 -3.8263055873006274e-06 0 0.044802189363002169 3.3659135537731316e-06 0 0.044797448387548865 -1.2121555721753362e-05 0 0.044797448387548865 -1.2121555721753362e-05 0 0.044814940591643086 -6.7679194315291947e-06 0 0.04468846354236037 -2.1427273108267751e-05 0 0.044712987100617003 -6.4792218705737417e-06 0 0.04468846354236037 -2.1427273108267751e-05 0 0.044583674808404646 -2.7018108485300405e-05 0 0.04468846354236037 -2.1427273108267751e-05 0 0.044598814041932652 -3.7826630754499595e-05 0 0.044583674808404646 -2.7018108485300405e-05 0 0.044598814041932652 -3.7826630754499595e-05 0 0.044667170499980369 -7.3906010925113143e-05 0 0.044753784097364309 -2.4839721684908565e-06 0 0.04468846354236037 -2.1427273108267751e-05 0 0.044598814041932652 -3.7826630754499595e-05 0 0.044753784097364309 -2.4839721684908565e-06 0 0.04469796626341907 -7.4841962354522999e-05 0 0.044796233975059434 -1.8401235694140234e-06 0 0.044814940591643086 -6.7679194315291947e-06 0 0.044753784097364309 -2.4839721684908565e-06 0 0.044883985018106601 -3.6696386615182477e-06 0 0.044814940591643086 -6.7679194315291947e-06 0 0.04468846354236037 -2.1427273108267751e-05 0 0.044753784097364309 -2.4839721684908565e-06 0 0.044183195483009689 0.00017579794739474962 0 0.043838481982273303 3.1319347746314149e-05 0 0.043594506110376553 0.00039519329652875886 0 0.044183195483009689 0.00017579794739474962 0 0.043838481982273303 3.1319347746314149e-05 0 0.044398552136243101 -0.00012968428156066771 0 0.043838481982273303 3.1319347746314149e-05 0 0.044398552136243101 -0.00012968428156066771 0 0.043502909285438832 -0.00039508262334390801 0 0.044667170499980369 -7.3906010925113143e-05 0 0.044398552136243101 -0.00012968428156066771 0 0.044837489142832185 -0.00014302791986769886 0 0.044402697694826659 -0.000156476383731994 0 0.044109989515718637 -0.0002614992365332504 0 0.044598814041932652 -3.7826630754499595e-05 0 0.044667170499980369 -7.3906010925113143e-05 0 0.044398552136243101 -0.00012968428156066771 0 0.044398552136243101 -0.00012968428156066771 0 0.044583674808404646 -2.7018108485300405e-05 0 0.044486855338338509 3.939835892800615e-05 0 0.044598814041932652 -3.7826630754499595e-05 0 0.044398552136243101 -0.00012968428156066771 0 0.044583674808404646 -2.7018108485300405e-05 0 0.044583674808404646 -2.7018108485300405e-05 0 0.044486855338338509 3.939835892800615e-05 0 0.044659539866610795 7.3049675919705783e-05 0 0.044183195483009689 0.00017579794739474962 0 0.044486855338338509 3.939835892800615e-05 0 0.04448226758643032 0.00025041793530006479 0 0.044183195483009689 0.00017579794739474962 0 0.044398552136243101 -0.00012968428156066771 0 0.044486855338338509 3.939835892800615e-05 0 0.044486855338338509 3.939835892800615e-05 0 0.04448226758643032 0.00025041793530006479 0 0.044659539866610795 7.3049675919705783e-05 0 0.04448226758643032 0.00025041793530006479 0 0.044659539866610795 7.3049675919705783e-05 0 0.044699644538795928 0.00029211325047950843 0 0.044796342146447662 4.1318460662027804e-05 0 0.044712987100617003 -6.4792218705737417e-06 0 0.044659539866610795 7.3049675919705783e-05 0 0.044712987100617003 -6.4792218705737417e-06 0 0.044583674808404646 -2.7018108485300405e-05 0 0.044659539866610795 7.3049675919705783e-05 0 0.044796342146447662 4.1318460662027804e-05 0 0.044775403548797638 0.00015446576295061282 0 0.044835993454768269 9.2456237966148492e-05 0 0.044796342146447662 4.1318460662027804e-05 0 0.044659539866610795 7.3049675919705783e-05 0 0.044775403548797638 0.00015446576295061282 0 0.044659539866610795 7.3049675919705783e-05 0 0.044775403548797638 0.00015446576295061282 0 0.044699644538795928 0.00029211325047950843 0 0.044775403548797638 0.00015446576295061282 0 0.044699644538795928 0.00029211325047950843 0 0.044786499498079058 0.00027316810525121932 0 0.044699644538795928 0.00029211325047950843 0 0.044564826443660888 0.00061732623518427653 0 0.044807403337120716 0.00037309005337604476 0 0.044699644538795928 0.00029211325047950843 0 0.044786499498079058 0.00027316810525121932 0 0.044807403337120716 0.00037309005337604476 0 0.043720058968300182 0.00083249651107925309 0 0.044030417119797008 0.00061838629621614066 0 0.043833747853154012 0.00099104399254826563 0 0.044126964997919078 0.0007188910149656775 0 0.044430129005116281 0.00050157406349521816 0 0.044030417119797008 0.00061838629621614066 0 0.044115252072991322 0.00094515250519520814 0 0.043833747853154012 0.00099104399254826563 0 0.04448226758643032 0.00025041793530006479 0 0.044699644538795928 0.00029211325047950843 0 0.044564826443660888 0.00061732623518427653 0 0.04448226758643032 0.00025041793530006479 0 0.044564826443660888 0.00061732623518427653 0 0.044113800515515417 0.00044693886829025775 0 0.044183195483009689 0.00017579794739474962 0 0.04448226758643032 0.00025041793530006479 0 0.044113800515515417 0.00044693886829025775 0 0.044126964997919078 0.0007188910149656775 0 0.043703127550701458 0.00085697715115415427 0 0.044564826443660888 0.00061732623518427653 0 0.044113800515515417 0.00044693886829025775 0 0.043683373440721998 0.00086907704151322157 0 0.043720058968300182 0.00083249651107925309 0 0.043683373440721998 0.00086907704151322157 0 0.043652486174917182 0.0010510825749448381 0 0.044113800515515417 0.00044693886829025775 0 0.043683373440721998 0.00086907704151322157 0 0.043594506110376553 0.00039519329652875886 0 0.044183195483009689 0.00017579794739474962 0 0.044113800515515417 0.00044693886829025775 0 0.043594506110376553 0.00039519329652875886 0 0.044837145901803266 -0.00023514214932483373 0 0.044772786143099 -0.00051303339237717565 0 0.044705484713381281 -0.00042349521737864684 0 0.044837145901803266 -0.00023514214932483373 0 0.044625949871204385 -0.00025035283960583924 0 0.044705484713381281 -0.00042349521737864684 0 0.044842380223122875 -4.9322683515839455e-05 0 0.045087924832660477 2.0496657436205185e-05 0 0.044903734280977672 0.00016887310427479566 0 0.044845338150932099 0.00024630987184333066 0 0.044877425057127454 0.00032152180217365521 0 0.044463164830039328 -0.00031128504384719672 0 0.044625949871204385 -0.00025035283960583924 0 0.044540986269400916 -0.00048226067756491892 0 0.044625949871204385 -0.00025035283960583924 0 0.044705484713381281 -0.00042349521737864684 0 0.044540986269400916 -0.00048226067756491892 0 0.044837145901803266 -0.00023514214932483373 0 0.044625949871204385 -0.00025035283960583924 0 0.044682999443052096 -6.8029552477839799e-05 0 0.044490311566285558 -5.1094496639089522e-05 0 0.044630366355407888 9.3580073373113407e-05 0 0.044682999443052096 -6.8029552477839799e-05 0 0.044490311566285558 -5.1094496639089522e-05 0 0.044625949871204385 -0.00025035283960583924 0 0.044682999443052096 -6.8029552477839799e-05 0 0.044861393520472907 5.4662783753434859e-05 0 0.044842380223122875 -4.9322683515839455e-05 0 0.044854856979618406 4.6878391483666144e-05 0 0.044903734280977672 0.00016887310427479566 0 0.044856625895831781 0.0001341343529646095 0 0.044854856979618406 4.6878391483666144e-05 0 0.044837145901803266 -0.00023514214932483373 0 0.044682999443052096 -6.8029552477839799e-05 0 0.044873939365895343 7.4395561625467278e-05 0 0.044856625895831781 0.0001341343529646095 0 0.044835993454768269 9.2456237966148492e-05 0 0.044873939365895343 7.4395561625467278e-05 0 0.044854856979618406 4.6878391483666144e-05 0 0.044856625895831781 0.0001341343529646095 0 0.044856625895831781 0.0001341343529646095 0 0.044835993454768269 9.2456237966148492e-05 0 0.044821318092003813 0.00020784068192225089 0 0.044775403548797638 0.00015446576295061282 0 0.044835993454768269 9.2456237966148492e-05 0 0.044821318092003813 0.00020784068192225089 0 0.044775403548797638 0.00015446576295061282 0 0.044821318092003813 0.00020784068192225089 0 0.044786499498079058 0.00027316810525121932 0 0.044821318092003813 0.00020784068192225089 0 0.044786499498079058 0.00027316810525121932 0 0.044807536240755355 0.00030030797840108908 0 0.044856625895831781 0.0001341343529646095 0 0.044821318092003813 0.00020784068192225089 0 0.044845338150932099 0.00024630987184333066 0 0.044903734280977672 0.00016887310427479566 0 0.044856625895831781 0.0001341343529646095 0 0.044845338150932099 0.00024630987184333066 0 0.044821318092003813 0.00020784068192225089 0 0.044845338150932099 0.00024630987184333066 0 0.044807536240755355 0.00030030797840108908 0 0.044845338150932099 0.00024630987184333066 0 0.044783058488613435 0.00035652300080326016 0 0.044877425057127454 0.00032152180217365521 0 0.044845338150932099 0.00024630987184333066 0 0.044783058488613435 0.00035652300080326016 0 0.044807536240755355 0.00030030797840108908 0 0.044783058488613435 0.00035652300080326016 0 0.044709669460836605 0.0006464897803177376 0 0.044877425057127454 0.00032152180217365521 0 0.044783058488613435 0.00035652300080326016 0 0.044807536240755355 0.00030030797840108908 0 0.044807403337120716 0.00037309005337604476 0 0.044771822241442036 0.00036899183009624369 0 0.044430129005116281 0.00050157406349521816 0 0.044786499498079058 0.00027316810525121932 0 0.044807536240755355 0.00030030797840108908 0 0.044807403337120716 0.00037309005337604476 0 0.044030417119797008 0.00061838629621614066 0 0.044423645265569703 0.00076527990869936532 0 0.044115252072991322 0.00094515250519520814 0 0.044783058488613435 0.00035652300080326016 0 0.044030417119797008 0.00061838629621614066 0 0.044423645265569703 0.00076527990869936532 0 0.044783058488613435 0.00035652300080326016 0 0.044709669460836605 0.0006464897803177376 0 0.044423645265569703 0.00076527990869936532 0 0.044709669460836605 0.0006464897803177376 0 0.044423645265569703 0.00076527990869936532 0 0.044578263224067938 0.00085537061848029372 0 0.044709669460836605 0.0006464897803177376 0 0.044578263224067938 0.00085537061848029372 0 0.044782060105877472 0.00089918665122405293 0 0.044626508537755231 -0.00065252083154467933 0 0.044680776967085396 -0.0005949628849143911 0 0.044684959571581938 -0.00070602543431933201 0 0.045087924832660477 2.0496657436205185e-05 0 0.041407564731952562 -0.00053808248855543423 0 0.041485049660913757 -0.00042157062591597369 0 0.036604365350042523 0.00069668982361207211 0 0.044508633753819034 -0.0013664424095650349 0 0.041407564731952562 -0.00053808248855543423 0 0.044680776967085396 -0.0005949628849143911 0 0.044772786143099 -0.00051303339237717565 0 0.044684959571581938 -0.00070602543431933201 0 0.044709669460836605 0.0006464897803177376 0 0.044877425057127454 0.00032152180217365521 0 0.044782060105877472 0.00089918665122405293 0 0.044626508537755231 -0.00065252083154467933 0 0.044596483380129948 -0.00063622359278916281 0 0.044597245864784897 -0.00064302088465542705 0 0.044626508537755231 -0.00065252083154467933 0 0.04459143469571434 -0.00067186126779617092 0 0.044596483380129948 -0.00063622359278916281 0 0.044626508537755231 -0.00065252083154467933 0 0.044680776967085396 -0.0005949628849143911 0 0.044635756380787553 -0.00058137568226019091 0 0.044680776967085396 -0.0005949628849143911 0 0.044772786143099 -0.00051303339237717565 0 0.044702838745370579 -0.00053228839863747807 0 0.044680776967085396 -0.0005949628849143911 0 0.044702838745370579 -0.00053228839863747807 0 0.044635756380787553 -0.00058137568226019091 0 0.044702838745370579 -0.00053228839863747807 0 0.044705484713381281 -0.00042349521737864684 0 0.044635756380787553 -0.00058137568226019091 0 0.044772786143099 -0.00051303339237717565 0 0.044702838745370579 -0.00053228839863747807 0 0.044705484713381281 -0.00042349521737864684 0 0.044705484713381281 -0.00042349521737864684 0 0.044540986269400916 -0.00048226067756491892 0 0.044635756380787553 -0.00058137568226019091 0 0.044540986269400916 -0.00048226067756491892 0 0.044635756380787553 -0.00058137568226019091 0 0.044548647572330638 -0.00060807552905195017 0 0.044375724913705825 -0.00069893848176230081 0 0.044548647572330638 -0.00060807552905195017 0 0.04459143469571434 -0.00067186126779617092 0 0.044626508537755231 -0.00065252083154467933 0 0.044635756380787553 -0.00058137568226019091 0 0.04459143469571434 -0.00067186126779617092 0 0.044635756380787553 -0.00058137568226019091 0 0.044548647572330638 -0.00060807552905195017 0 0.04459143469571434 -0.00067186126779617092 0 0.038520029959730202 0.0012237831974690461 0 0.036484809776498504 0.0011956967359246257 0 0.036747670481647038 0.0024244667966914074 0 0.038520029959730202 0.0012237831974690461 0 0.037124018470689329 0.00021039756554733035 0 0.036484809776498504 0.0011956967359246257 0 0.037124018470689329 0.00021039756554733035 0 0.036484809776498504 0.0011956967359246257 0 0.035111945407136524 0.0009890031537633777 0 0.036484809776498504 0.0011956967359246257 0 0.035111945407136524 0.0009890031537633777 0 0.036747670481647038 0.0024244667966914074 0 0.036604365350042523 0.00069668982361207211 0 0.041407564731952562 -0.00053808248855543423 0 0.036604365350042523 0.00069668982361207211 0 0.03005618794085765 0.0027581915489556714 0 0.036747670481647038 0.0024244667966914074 0 0.036821136990648332 0.004464288529042567 0 0.034878475482429609 0.0034669067259940397 0 0.035111945407136524 0.0009890031537633777 0 0.036747670481647038 0.0024244667966914074 0 0.034878475482429609 0.0034669067259940397 0 0.038989592617428792 0.0029743400063187687 0 0.036747670481647038 0.0024244667966914074 0 0.036821136990648332 0.004464288529042567 0 0.036821136990648332 0.004464288529042567 0 0.034636922704601482 0.0059200193719054295 0 0.034878475482429609 0.0034669067259940397 0 0.026019823739056137 0.00033790088952112481 0 0.025752455110916384 0.00056212996809240471 0 0.025921381006179758 0.00063024773512839155 0 0.031687637634054876 0.0024551363298390091 0 0.028751306081421655 0.0024181842983888439 0 0.026179250299707409 0.00044636783755337835 0 0.026019823739056137 0.00033790088952112481 0 0.025921381006179758 0.00063024773512839155 0 0.026179250299707409 0.00044636783755337835 0 0.026102250162269958 0.00062782917482701451 0 0.025921381006179758 0.00063024773512839155 0 0.026329995713372575 0.00085818839781076292 0 0.026229206317391736 0.0010758939852691515 0 0.026768866551118008 0.00073084081906057529 0 0.026264557859601283 0.0010949268327221742 0 0.026614590871775749 0.0010777749641545256 0 0.026768866551118008 0.00073084081906057529 0 0.026614590871775749 0.0010777749641545256 0 0.026853384778398742 0.001052049761622347 0 0.025868326028253084 0.00093131380692448114 0 0.026135602831167077 0.00099041673990120566 0 0.026264557859601283 0.0010949268327221742 0 0.028751306081421655 0.0024181842983888439 0 0.03005618794085765 0.0027581915489556714 0 0.026135602831167077 0.00099041673990120566 0 0.026264557859601283 0.0010949268327221742 0 0.026264879919117724 0.0012902025571700244 0 0.026264557859601283 0.0010949268327221742 0 0.026477371004953426 0.001262818910479496 0 0.026614590871775749 0.0010777749641545256 0 0.026264557859601283 0.0010949268327221742 0 0.026477371004953426 0.001262818910479496 0 0.026264879919117724 0.0012902025571700244 0 0.026477371004953426 0.001262818910479496 0 0.026709304170468399 0.0012116376211420267 0 0.026673756576635056 0.0013979758556918556 0 0.026477371004953426 0.001262818910479496 0 0.026614590871775749 0.0010777749641545256 0 0.026709304170468399 0.0012116376211420267 0 0.026853384778398742 0.001052049761622347 0 0.026709304170468399 0.0012116376211420267 0 0.026944409761211843 0.0012753700812169794 0 0.026614590871775749 0.0010777749641545256 0 0.026853384778398742 0.001052049761622347 0 0.026709304170468399 0.0012116376211420267 0 0.026709304170468399 0.0012116376211420267 0 0.026673756576635056 0.0013979758556918556 0 0.026944409761211843 0.0012753700812169794 0 0.026673756576635056 0.0013979758556918556 0 0.026910365716696062 0.0014804746563494768 0 0.026944409761211843 0.0012753700812169794 0 0.034954303278352986 0.00084539426605998575 0 0.028807111851415185 0.00075471268652131337 0 0.026673756576635056 0.0013979758556918556 0 0.026527974682751164 0.0016370683227560272 0 0.026910365716696062 0.0014804746563494768 0 0.034014095326866521 -0.0011214809144882627 0 0.032610568781922866 -0.00061658931058967081 0 0.032476975623463626 -0.00017156265729613218 0 0.026477371004953426 0.001262818910479496 0 0.026673756576635056 0.0013979758556918556 0 0.026512278663791283 0.001419458128500372 0 0.026673756576635056 0.0013979758556918556 0 0.026512278663791283 0.001419458128500372 0 0.026527974682751164 0.0016370683227560272 0 0.026512278663791283 0.001419458128500372 0 0.026432061829133685 0.0015189406551204124 0 0.026527974682751164 0.0016370683227560272 0 0.026418406036282566 0.0017126985812923299 0 0.026264879919117724 0.0012902025571700244 0 0.026432061829133685 0.0015189406551204124 0 0.026264879919117724 0.0012902025571700244 0 0.026512278663791283 0.001419458128500372 0 0.026432061829133685 0.0015189406551204124 0 0.026477371004953426 0.001262818910479496 0 0.026264879919117724 0.0012902025571700244 0 0.026512278663791283 0.001419458128500372 0 0.026418406036282566 0.0017126985812923299 0 0.026432061829133685 0.0015189406551204124 0 0.026527974682751164 0.0016370683227560272 0 0.044423645265569703 0.00076527990869936532 0 0.044578263224067938 0.00085537061848029372 0 0.044409018770107715 0.0010930704267844836 0 0.044578263224067938 0.00085537061848029372 0 0.044782060105877472 0.00089918665122405293 0 0.044409018770107715 0.0010930704267844836 0 0.036604365350042523 0.00069668982361207211 0 0.034954303278352986 0.00084539426605998575 0 0.041407564731952562 -0.00053808248855543423 0 0.034954303278352986 0.00084539426605998575 0 0.038738714166656155 0.00054775782559991011 0 0.038798687774072749 -0.00032550752986335041 0 0.035760758902087617 0.0017643334146548284 0 0.044409018770107715 0.0010930704267844836 0 0.044115252072991322 0.00094515250519520814 0 0.043973181396364927 0.0011668248576830157 0 0.034954303278352986 0.00084539426605998575 0 0.039071828451315897 3.1550138646723261e-05 0 0.044423645265569703 0.00076527990869936532 0 0.044409018770107715 0.0010930704267844836 0 0.044115252072991322 0.00094515250519520814 0 0.044115252072991322 0.00094515250519520814 0 0.043833747853154012 0.00099104399254826563 0 0.043973181396364927 0.0011668248576830157 0 0.043833747853154012 0.00099104399254826563 0 0.043730604908899358 0.0011980610717109792 0 0.043652486174917182 0.0010510825749448381 0 0.043720058968300182 0.00083249651107925309 0 0.043833747853154012 0.00099104399254826563 0 0.043652486174917182 0.0010510825749448381 0 0.031295084729802192 -0.0001230752348317482 0 0.032476975623463626 -0.00017156265729613218 0 0.031032781795954124 0.00061437074452097551 0 0.037765682552106675 0.00048346620783513506 0 0.039071828451315897 3.1550138646723261e-05 0 0.031295084729802192 -0.0001230752348317482 0 0.032610568781922866 -0.00061658931058967081 0 0.032476975623463626 -0.00017156265729613218 0 0.043833747853154012 0.00099104399254826563 0 0.043730604908899358 0.0011980610717109792 0 0.043973181396364927 0.0011668248576830157 0 0.043683373440721998 0.00086907704151322157 0 0.043652486174917182 0.0010510825749448381 0 0.043411428421226937 0.0012174200910639104 0 0.037765682552106675 0.00048346620783513506 0 0.034846045282474251 0.0011050757480918086 0 0.043730604908899358 0.0011980610717109792 0 0.043652486174917182 0.0010510825749448381 0 0.043530050082619773 0.0012777404461308242 0 0.034846045282474251 0.0011050757480918086 0 0.037088034427386021 0.0014641995289859789 0 0.043652486174917182 0.0010510825749448381 0 0.043530050082619773 0.0012777404461308242 0 0.043411428421226937 0.0012174200910639104 0 0.03015073047766343 0.0010429779487632182 0 0.029875869624690399 0.0011982120514553299 0 0.030211591275080281 0.0015088896451357129 0 0.029346573006206973 0.0011099208094716611 0 0.034846045282474251 0.0011050757480918086 0 0.030068395902056604 0.0007443865679344809 0 0.030244805449978363 0.00060929019817582565 0 0.030346597584045835 0.00039841708382987222 0 0.030244805449978363 0.00060929019817582565 0 0.030493825563133046 0.000447089162405817 0 0.031032781795954124 0.00061437074452097551 0 0.031295084729802192 -0.0001230752348317482 0 0.030316337259533508 0.00032450430590472249 0 0.030493825563133046 0.000447089162405817 0 0.030244805449978363 0.00060929019817582565 0 0.030346597584045835 0.00039841708382987222 0 0.030493825563133046 0.000447089162405817 0 0.034846045282474251 0.0011050757480918086 0 0.032636000532615179 9.7193948216608181e-05 0 0.028499699842267853 0.000977721895191048 0 0.027665340202930266 0.00084268831738062988 0 0.027885051718440405 0.00039138999540333529 0 0.028499699842267853 0.000977721895191048 0 0.027563523918515215 0.0012687370752253032 0 0.027665340202930266 0.00084268831738062988 0 0.029300604248546514 0.00083229961585506778 0 0.029502486507331581 0.00086203359500636385 0 0.030244805449978363 0.00060929019817582565 0 0.030087578700922709 0.00072942781847907384 0 0.031032781795954124 0.00061437074452097551 0 0.030068395902056604 0.0007443865679344809 0 0.030087578700922709 0.00072942781847907384 0 0.029937450887462001 0.00025887912778694731 0 0.030068395902056604 0.0007443865679344809 0 0.030244805449978363 0.00060929019817582565 0 0.030087578700922709 0.00072942781847907384 0 0.026910365716696062 0.0014804746563494768 0 0.026944409761211843 0.0012753700812169794 0 0.027563523918515215 0.0012687370752253032 0 0.02706611641441117 0.0011159601699387894 0 0.026944409761211843 0.0012753700812169794 0 0.027563523918515215 0.0012687370752253032 0 0.028807111851415185 0.00075471268652131337 0 0.029502486507331581 0.00086203359500636385 0 0.026853384778398742 0.001052049761622347 0 0.02706611641441117 0.0011159601699387894 0 0.026944409761211843 0.0012753700812169794 0 0.031295084729802192 -0.0001230752348317482 0 0.030493825563133046 0.000447089162405817 0 0.031032781795954124 0.00061437074452097551 0 0.02706611641441117 0.0011159601699387894 0 0.027563523918515215 0.0012687370752253032 0 0.027339965049976402 0.00098030816431681519 0 0.027563523918515215 0.0012687370752253032 0 0.027339965049976402 0.00098030816431681519 0 0.027665340202930266 0.00084268831738062988 0 0.027665340202930266 0.00084268831738062988 0 0.02736634815483905 0.000778207895344141 0 0.027465815704775159 0.00055751636557994705 0 0.02736634815483905 0.000778207895344141 0 0.027175328922052107 0.00063783635439504578 0 0.027465815704775159 0.00055751636557994705 0 0.027339965049976402 0.00098030816431681519 0 0.027665340202930266 0.00084268831738062988 0 0.02736634815483905 0.000778207895344141 0 0.02736634815483905 0.000778207895344141 0 0.027175328922052107 0.00063783635439504578 0 0.027076544060627102 0.00087538124689103989 0 0.026768866551118008 0.00073084081906057529 0 0.027175328922052107 0.00063783635439504578 0 0.027076544060627102 0.00087538124689103989 0 0.027339965049976402 0.00098030816431681519 0 0.02736634815483905 0.000778207895344141 0 0.027076544060627102 0.00087538124689103989 0 0.02706611641441117 0.0011159601699387894 0 0.027339965049976402 0.00098030816431681519 0 0.027076544060627102 0.00087538124689103989 0 0.026853384778398742 0.001052049761622347 0 0.02706611641441117 0.0011159601699387894 0 0.027076544060627102 0.00087538124689103989 0 0.026768866551118008 0.00073084081906057529 0 0.026853384778398742 0.001052049761622347 0 0.027076544060627102 0.00087538124689103989 0 0.025868326028253084 0.00093131380692448114 0 0.025851409499764555 0.00080253020151166616 0 0.026195866422213113 0.00092017330360173114 0 0.026768866551118008 0.00073084081906057529 0 0.027175328922052107 0.00063783635439504578 0 0.027241948915537439 0.0002410746759392755 0 0.026329995713372575 0.00085818839781076292 0 0.026756171564566295 0.00052568962491569707 0 0.025851409499764555 0.00080253020151166616 0 0.026195866422213113 0.00092017330360173114 0 0.025832156562842962 0.0005176224974603364 0 0.027175328922052107 0.00063783635439504578 0 0.027465815704775159 0.00055751636557994705 0 0.027241948915537439 0.0002410746759392755 0 0.027465815704775159 0.00055751636557994705 0 0.027241948915537439 0.0002410746759392755 0 0.027885051718440405 0.00039138999540333529 0 0.027665340202930266 0.00084268831738062988 0 0.027465815704775159 0.00055751636557994705 0 0.027885051718440405 0.00039138999540333529 0 0.026756171564566295 0.00052568962491569707 0 0.027724931293298956 -0.00034139249012072009 0 0.027241948915537439 0.0002410746759392755 0 0.027885051718440405 0.00039138999540333529 0 0.027786906389845503 -0.00041607189764687936 0 0.026195866422213113 0.00092017330360173114 0 0.027786906389845503 -0.00041607189764687936 0 0.026301476132938931 -0.00045035267500532285 0 0.025680750924034088 0.00071077051940616977 0 0.025832156562842962 0.0005176224974603364 0 0.025582390454636339 0.00079947468501130516 0 0.026195866422213113 0.00092017330360173114 0 0.025832156562842962 0.0005176224974603364 0 0.026301476132938931 -0.00045035267500532285 0 0.025680750924034088 0.00071077051940616977 0 0.025832156562842962 0.0005176224974603364 0 0.025749260147672409 0.00071143681457554175 0 0.025851409499764555 0.00080253020151166616 0 0.025832156562842962 0.0005176224974603364 0 0.025749260147672409 0.00071143681457554175 0 0.028499699842267853 0.000977721895191048 0 0.028673201834490517 7.4053266164262767e-05 0 0.029937450887462001 0.00025887912778694731 0 0.029300604248546514 0.00083229961585506778 0 0.029948641856429932 0.00027908103889675423 0 0.028499699842267853 0.000977721895191048 0 0.028673201834490517 7.4053266164262767e-05 0 0.027885051718440405 0.00039138999540333529 0 0.028673201834490517 7.4053266164262767e-05 0 0.027885051718440405 0.00039138999540333529 0 0.027786906389845503 -0.00041607189764687936 0 0.028673201834490517 7.4053266164262767e-05 0 0.027786906389845503 -0.00041607189764687936 0 0.029227710088289022 -0.00098962367406592831 0 0.027786906389845503 -0.00041607189764687936 0 0.027696766274564046 -0.002041310895848642 0 0.026986582400901862 -0.0010525656198086362 0 0.027786906389845503 -0.00041607189764687936 0 0.027696766274564046 -0.002041310895848642 0 0.029227710088289022 -0.00098962367406592831 0 0.027696766274564046 -0.002041310895848642 0 0.029227710088289022 -0.00098962367406592831 0 0.029155005675070126 -0.0024737464864866888 0 0.022810931660554475 -0.00286889129600235 0 0.024070359328076704 -0.0030849977918604708 0 0.026464915563462636 0.0010681885537058488 0 0.022672930573366022 -0.0014687985801456749 0 0.025832156562842962 0.0005176224974603364 0 0.025396562333594289 0.00098418306028190709 0 0.025582390454636339 0.00079947468501130516 0 0.025832156562842962 0.0005176224974603364 0 0.025711323641967595 -0.0015052046756713839 0 0.026301476132938931 -0.00045035267500532285 0 0.02627632802507841 -0.0011659018257964937 0 0.025711323641967595 -0.0015052046756713839 0 0.026301476132938931 -0.00045035267500532285 0 0.025396562333594289 0.00098418306028190709 0 0.025456098594035588 0.00091323927653437758 0 0.025582390454636339 0.00079947468501130516 0 0.025396562333594289 0.00098418306028190709 0 0.025456098594035588 0.00091323927653437758 0 0.025396969057067769 0.00093676964394940926 0 0.025406566948341709 0.00091766669462682094 0 0.025487155618688275 0.0008750410003777933 0 0.025391970908937619 0.00088827998239834937 0 0.025456098594035588 0.00091323927653437758 0 0.025406566948341709 0.00091766669462682094 0 0.025396969057067769 0.00093676964394940926 0 0.025456098594035588 0.00091323927653437758 0 0.025406566948341709 0.00091766669462682094 0 0.025487155618688275 0.0008750410003777933 0 0.025456098594035588 0.00091323927653437758 0 0.025487155618688275 0.0008750410003777933 0 0.025582390454636339 0.00079947468501130516 0 0.025487155618688275 0.0008750410003777933 0 0.025582390454636339 0.00079947468501130516 0 0.02559047651033871 0.00079464800086411782 0 0.025680750924034088 0.00071077051940616977 0 0.025582390454636339 0.00079947468501130516 0 0.02559047651033871 0.00079464800086411782 0 0.027786906389845503 -0.00041607189764687936 0 0.026301476132938931 -0.00045035267500532285 0 0.026986582400901862 -0.0010525656198086362 0 0.027696766274564046 -0.002041310895848642 0 0.02627632802507841 -0.0011659018257964937 0 0.026986582400901862 -0.0010525656198086362 0 0.02627632802507841 -0.0011659018257964937 0 0.026301476132938931 -0.00045035267500532285 0 0.026986582400901862 -0.0010525656198086362 0 0.027696766274564046 -0.002041310895848642 0 0.02627632802507841 -0.0011659018257964937 0 0.025711323641967595 -0.0015052046756713839 0 0.018305114972596712 -0.003476657182649061 0 0.018270202228254918 -0.0034483101433987412 0 0.018264466138055213 -0.0034880325706105036 0 0.022810931660554475 -0.00286889129600235 0 0.022672930573366022 -0.0014687985801456749 0 0.018270202228254918 -0.0034483101433987412 0 0.018264466138055213 -0.0034880325706105036 0 0.018251027437429877 -0.0034900762779054143 0 0.018270202228254918 -0.0034483101433987412 0 0.018251027437429877 -0.0034900762779054143 0 0.018227951403703643 -0.0035137012868398914 0 0.025396562333594289 0.00098418306028190709 0 0.02530876402835083 0.00090649417291088514 0 0.025039331220006032 0.00077725098638605817 0 0.025396562333594289 0.00098418306028190709 0 0.025039331220006032 0.00077725098638605817 0 0.024987702954364695 0.00059980062757431841 0 0.022672930573366022 -0.0014687985801456749 0 0.021958668869399935 -0.001540973880256688 0 0.025406566948341709 0.00091766669462682094 0 0.025396969057067769 0.00093676964394940926 0 0.02530876402835083 0.00090649417291088514 0 0.025406566948341709 0.00091766669462682094 0 0.02530876402835083 0.00090649417291088514 0 0.025391970908937619 0.00088827998239834937 0 0.025396562333594289 0.00098418306028190709 0 0.025396969057067769 0.00093676964394940926 0 0.02530876402835083 0.00090649417291088514 0 0.02530876402835083 0.00090649417291088514 0 0.025331509480391971 0.00088613924820064979 0 0.025391970908937619 0.00088827998239834937 0 0.02530876402835083 0.00090649417291088514 0 0.025253855335044949 0.00086191022808950217 0 0.025331509480391971 0.00088613924820064979 0 0.02530876402835083 0.00090649417291088514 0 0.025253855335044949 0.00086191022808950217 0 0.025039331220006032 0.00077725098638605817 0 0.022696177303593454 0.0017587815186211457 0 0.024990681365216667 0.00085641810643376725 0 0.025387436842806036 0.00088640260778088942 0 0.025619130898720904 0.0010339914456229851 0 0.025039331220006032 0.00077725098638605817 0 0.025253855335044949 0.00086191022808950217 0 0.025387436842806036 0.00088640260778088942 0 0.025039331220006032 0.00077725098638605817 0 0.025387436842806036 0.00088640260778088942 0 0.02551725243949219 0.00084304631845348555 0 0.025594147123908065 0.00085527549285674951 0 0.025387436842806036 0.00088640260778088942 0 0.025594147123908065 0.00085527549285674951 0 0.025619130898720904 0.0010339914456229851 0 0.025387436842806036 0.00088640260778088942 0 0.025391970908937619 0.00088827998239834937 0 0.02551725243949219 0.00084304631845348555 0 0.025331509480391971 0.00088613924820064979 0 0.025387436842806036 0.00088640260778088942 0 0.025391970908937619 0.00088827998239834937 0 0.025253855335044949 0.00086191022808950217 0 0.025331509480391971 0.00088613924820064979 0 0.025387436842806036 0.00088640260778088942 0 0.025487155618688275 0.0008750410003777933 0 0.025391970908937619 0.00088827998239834937 0 0.02551725243949219 0.00084304631845348555 0 0.025487155618688275 0.0008750410003777933 0 0.02551725243949219 0.00084304631845348555 0 0.02559047651033871 0.00079464800086411782 0 0.02551725243949219 0.00084304631845348555 0 0.025659496938885466 0.00075503269561148702 0 0.025594147123908065 0.00085527549285674951 0 0.025680750924034088 0.00071077051940616977 0 0.025659496938885466 0.00075503269561148702 0 0.02559047651033871 0.00079464800086411782 0 0.02551725243949219 0.00084304631845348555 0 0.025659496938885466 0.00075503269561148702 0 0.02559047651033871 0.00079464800086411782 0 0.025725735955968877 0.00081097554558658927 0 0.025713640355610794 0.00085501750917652832 0 0.025775215857648737 0.00083694313361884151 0 0.025725735955968877 0.00081097554558658927 0 0.025670733243528799 0.00080902706870802693 0 0.025713640355610794 0.00085501750917652832 0 0.025659496938885466 0.00075503269561148702 0 0.025670733243528799 0.00080902706870802693 0 0.025594147123908065 0.00085527549285674951 0 0.025659496938885466 0.00075503269561148702 0 0.025670733243528799 0.00080902706870802693 0 0.025699869938718554 0.00077996960146839672 0 0.025725735955968877 0.00081097554558658927 0 0.025670733243528799 0.00080902706870802693 0 0.025699869938718554 0.00077996960146839672 0 0.025670733243528799 0.00080902706870802693 0 0.025594147123908065 0.00085527549285674951 0 0.025713640355610794 0.00085501750917652832 0 0.025594147123908065 0.00085527549285674951 0 0.025713640355610794 0.00085501750917652832 0 0.025699982067861254 0.00091509865623410312 0 0.025713640355610794 0.00085501750917652832 0 0.025699982067861254 0.00091509865623410312 0 0.025773724342626061 0.00089588970189016727 0 0.025699982067861254 0.00091509865623410312 0 0.025619130898720904 0.0010339914456229851 0 0.025776009446205832 0.00094700340624992354 0 0.025594147123908065 0.00085527549285674951 0 0.025699982067861254 0.00091509865623410312 0 0.025619130898720904 0.0010339914456229851 0 0.022696177303593454 0.0017587815186211457 0 0.021343217016971408 0.00096755575613729247 0 0.020073048501759207 0.0023168040829687373 0 0.015492268077858255 0.0031218773459466883 0 0.017369521434057438 0.0010126003624737919 0 0.025619130898720904 0.0010339914456229851 0 0.025867531788234061 0.0010044135986620609 0 0.025776009446205832 0.00094700340624992354 0 0.025867531788234061 0.0010044135986620609 0 0.025862113760248016 0.00094110886281222441 0 0.025776009446205832 0.00094700340624992354 0 0.021343217016971408 0.00096755575613729247 0 0.023317740215585827 0.001545584476441822 0 0.025864660027358873 0.00055301745159890491 0 0.025862113760248016 0.00094110886281222441 0 0.025774147440149393 0.00098089234907043827 0 0.022040403170184675 0.00061208789534071952 0 0.021343217016971408 0.00096755575613729247 0 0.024534937910352585 0.00077208548753218513 0 0.025864660027358873 0.00055301745159890491 0 0.025774147440149393 0.00098089234907043827 0 0.019574184847531872 0.00052743434327440285 0 0.019794851411001319 0.0004801217837201475 0 0.01968210698420059 0.00022152358187480021 0 0.024467725428547506 0.0010305064600247143 0 0.024534937910352585 0.00077208548753218513 0 0.025774147440149393 0.00098089234907043827 0 0.025649178063699384 0.0010277933591531633 0 0.025604698648257044 0.0010012584153501053 0 0.026101603360594208 0.0010637171300861771 0 0.025774147440149393 0.00098089234907043827 0 0.025919503030419941 0.00098092315738563477 0 0.026019316484337755 0.00099923100946530175 0 0.026101603360594208 0.0010637171300861771 0 0.025919503030419941 0.00098092315738563477 0 0.026019316484337755 0.00099923100946530175 0 0.025998211831690436 0.00095074843144932761 0 0.025970965012349446 0.00097634519013300503 0 0.026019316484337755 0.00099923100946530175 0 0.025970965012349446 0.00097634519013300503 0 0.025919503030419941 0.00098092315738563477 0 0.025998211831690436 0.00095074843144932761 0 0.025970965012349446 0.00097634519013300503 0 0.025941185553782845 0.00094947392662107256 0 0.025919503030419941 0.00098092315738563477 0 0.025941185553782845 0.00094947392662107256 0 0.025874659303293086 0.00093603016647740252 0 0.025970965012349446 0.00097634519013300503 0 0.025919503030419941 0.00098092315738563477 0 0.025941185553782845 0.00094947392662107256 0 0.025774147440149393 0.00098089234907043827 0 0.025919503030419941 0.00098092315738563477 0 0.025841634844652808 0.00096107474760496851 0 0.025919503030419941 0.00098092315738563477 0 0.025874659303293086 0.00093603016647740252 0 0.025841634844652808 0.00096107474760496851 0 0.025774147440149393 0.00098089234907043827 0 0.025841634844652808 0.00096107474760496851 0 0.025824383622046879 0.00095604563427341372 0 0.025874659303293086 0.00093603016647740252 0 0.025841634844652808 0.00096107474760496851 0 0.025824383622046879 0.00095604563427341372 0 0.025874659303293086 0.00093603016647740252 0 0.025824383622046879 0.00095604563427341372 0 0.025838426470496806 0.00090801699739311795 0 0.025874659303293086 0.00093603016647740252 0 0.025892739129681354 0.00088244852487710313 0 0.025838426470496806 0.00090801699739311795 0 0.025874659303293086 0.00093603016647740252 0 0.025892739129681354 0.00088244852487710313 0 0.025951204386276468 0.00091244470161838014 0 0.025941185553782845 0.00094947392662107256 0 0.025874659303293086 0.00093603016647740252 0 0.025951204386276468 0.00091244470161838014 0 0.025998211831690436 0.00095074843144932761 0 0.025941185553782845 0.00094947392662107256 0 0.025951204386276468 0.00091244470161838014 0 0.025892739129681354 0.00088244852487710313 0 0.025951204386276468 0.00091244470161838014 0 0.025981353582521089 0.00085155391936857737 0 0.02603286263666264 0.00090857306500352457 0 0.025951204386276468 0.00091244470161838014 0 0.025981353582521089 0.00085155391936857737 0 0.02603286263666264 0.00090857306500352457 0 0.025998211831690436 0.00095074843144932761 0 0.025951204386276468 0.00091244470161838014 0 0.025699982067861254 0.00091509865623410312 0 0.025776009446205832 0.00094700340624992354 0 0.025773724342626061 0.00089588970189016727 0 0.025773724342626061 0.00089588970189016727 0 0.025824433671623206 0.00091830553737276565 0 0.02580947962761555 0.00087944512076853446 0 0.025776009446205832 0.00094700340624992354 0 0.025773724342626061 0.00089588970189016727 0 0.025824433671623206 0.00091830553737276565 0 0.025862113760248016 0.00094110886281222441 0 0.025776009446205832 0.00094700340624992354 0 0.025824433671623206 0.00091830553737276565 0 0.025862113760248016 0.00094110886281222441 0 0.025774147440149393 0.00098089234907043827 0 0.025824383622046879 0.00095604563427341372 0 0.025862113760248016 0.00094110886281222441 0 0.025824383622046879 0.00095604563427341372 0 0.025824433671623206 0.00091830553737276565 0 0.025824383622046879 0.00095604563427341372 0 0.025824433671623206 0.00091830553737276565 0 0.025838426470496806 0.00090801699739311795 0 0.025824433671623206 0.00091830553737276565 0 0.02580947962761555 0.00087944512076853446 0 0.025838426470496806 0.00090801699739311795 0 0.025892739129681354 0.00088244852487710313 0 0.025838426470496806 0.00090801699739311795 0 0.025847271904295345 0.0008440957719094179 0 0.02580947962761555 0.00087944512076853446 0 0.025775215857648737 0.00083694313361884151 0 0.025847271904295345 0.0008440957719094179 0 0.02580947962761555 0.00087944512076853446 0 0.025838426470496806 0.00090801699739311795 0 0.025847271904295345 0.0008440957719094179 0 0.025773724342626061 0.00089588970189016727 0 0.02580947962761555 0.00087944512076853446 0 0.025775215857648737 0.00083694313361884151 0 0.025713640355610794 0.00085501750917652832 0 0.025773724342626061 0.00089588970189016727 0 0.025775215857648737 0.00083694313361884151 0 0.025775215857648737 0.00083694313361884151 0 0.02579999361425106 0.00079727944505152072 0 0.025847271904295345 0.0008440957719094179 0 0.025775215857648737 0.00083694313361884151 0 0.02579999361425106 0.00079727944505152072 0 0.025744689909031275 0.00078058971666346245 0 0.025847271904295345 0.0008440957719094179 0 0.025874873605202627 0.00077266140176157887 0 0.025925798953961274 0.00081399974117222725 0 0.02579999361425106 0.00079727944505152072 0 0.025847271904295345 0.0008440957719094179 0 0.025874873605202627 0.00077266140176157887 0 0.02579999361425106 0.00079727944505152072 0 0.025874873605202627 0.00077266140176157887 0 0.025789134943310244 0.00075682163530177426 0 0.02579999361425106 0.00079727944505152072 0 0.025789134943310244 0.00075682163530177426 0 0.025744689909031275 0.00078058971666346245 0 0.025981353582521089 0.00085155391936857737 0 0.025925798953961274 0.00081399974117222725 0 0.026003932781457795 0.00075842861505702192 0 0.026083466471649972 0.00083987295625221519 0 0.02603286263666264 0.00090857306500352457 0 0.025981353582521089 0.00085155391936857737 0 0.026083466471649972 0.00083987295625221519 0 0.025981353582521089 0.00085155391936857737 0 0.026003932781457795 0.00075842861505702192 0 0.025892739129681354 0.00088244852487710313 0 0.025981353582521089 0.00085155391936857737 0 0.025925798953961274 0.00081399974117222725 0 0.025892739129681354 0.00088244852487710313 0 0.025847271904295345 0.0008440957719094179 0 0.025925798953961274 0.00081399974117222725 0 0.025874873605202627 0.00077266140176157887 0 0.025925798953961274 0.00081399974117222725 0 0.026003932781457795 0.00075842861505702192 0 0.026102250162269958 0.00062782917482701451 0 0.026003932781457795 0.00075842861505702192 0 0.025921381006179758 0.00063024773512839155 0 0.025874873605202627 0.00077266140176157887 0 0.026003932781457795 0.00075842861505702192 0 0.025921381006179758 0.00063024773512839155 0 0.025921381006179758 0.00063024773512839155 0 0.025789134943310244 0.00075682163530177426 0 0.025741417542089754 0.00073598529616879574 0 0.025752455110916384 0.00056212996809240471 0 0.025921381006179758 0.00063024773512839155 0 0.025741417542089754 0.00073598529616879574 0 0.025874873605202627 0.00077266140176157887 0 0.025921381006179758 0.00063024773512839155 0 0.025789134943310244 0.00075682163530177426 0 0.025739240265548826 0.0007743196902955438 0 0.025741417542089754 0.00073598529616879574 0 0.02575024021101038 0.00077327022144275026 0 0.028751306081421655 0.0024181842983888439 0 0.026449403280440369 0.00042940207054068631 0 0.028751306081421655 0.0024181842983888439 0 0.025021712336222374 0.00068390975465337279 0 0.025739240265548826 0.0007743196902955438 0 0.02575024021101038 0.00077327022144275026 0 0.025809767462917677 0.00084221630581928473 0 0.025789134943310244 0.00075682163530177426 0 0.025741417542089754 0.00073598529616879574 0 0.025737773444011521 0.00075836766554735727 0 0.025741417542089754 0.00073598529616879574 0 0.02575024021101038 0.00077327022144275026 0 0.025737773444011521 0.00075836766554735727 0 0.02575024021101038 0.00077327022144275026 0 0.025737773444011521 0.00075836766554735727 0 0.025717762042391422 0.00074972231167233267 0 0.025868326028253084 0.00093131380692448114 0 0.026135602831167077 0.00099041673990120566 0 0.025809767462917677 0.00084221630581928473 0 0.025868326028253084 0.00093131380692448114 0 0.025851409499764555 0.00080253020151166616 0 0.025809767462917677 0.00084221630581928473 0 0.025851409499764555 0.00080253020151166616 0 0.025809767462917677 0.00084221630581928473 0 0.025749260147672409 0.00071143681457554175 0 0.02575024021101038 0.00077327022144275026 0 0.025809767462917677 0.00084221630581928473 0 0.025717762042391422 0.00074972231167233267 0 0.025809767462917677 0.00084221630581928473 0 0.025749260147672409 0.00071143681457554175 0 0.025717762042391422 0.00074972231167233267 0 0.025680750924034088 0.00071077051940616977 0 0.025659496938885466 0.00075503269561148702 0 0.025749260147672409 0.00071143681457554175 0 0.025659496938885466 0.00075503269561148702 0 0.025749260147672409 0.00071143681457554175 0 0.025717762042391422 0.00074972231167233267 0 0.025699869938718554 0.00077996960146839672 0 0.025744689909031275 0.00078058971666346245 0 0.025717762042391422 0.00074972231167233267 0 0.025659496938885466 0.00075503269561148702 0 0.025699869938718554 0.00077996960146839672 0 0.025717762042391422 0.00074972231167233267 0 0.025725735955968877 0.00081097554558658927 0 0.025699869938718554 0.00077996960146839672 0 0.025744689909031275 0.00078058971666346245 0 0.025725735955968877 0.00081097554558658927 0 0.025775215857648737 0.00083694313361884151 0 0.025744689909031275 0.00078058971666346245 0 0.025789134943310244 0.00075682163530177426 0 0.025744689909031275 0.00078058971666346245 0 0.025737773444011521 0.00075836766554735727 0 0.025744689909031275 0.00078058971666346245 0 0.025737773444011521 0.00075836766554735727 0 0.025717762042391422 0.00074972231167233267 0 0.032435710968423404 -0.00083903491135881654 0 0.033048057093531973 -0.00058603513935343227 0 0.032813349922431442 -0.0015857918321823847 0 0.033048057093531973 -0.00058603513935343227 0 0.033660369854339296 -0.00098154630690939506 0 0.032813349922431442 -0.0015857918321823847 0 0.032435710968423404 -0.00083903491135881654 0 0.031540555889256618 -0.0010673417177500903 0 0.032813349922431442 -0.0015857918321823847 0 0.032435710968423404 -0.00083903491135881654 0 0.033048057093531973 -0.00058603513935343227 0 0.032404655615646788 -6.6708148329643638e-05 0 0.032435710968423404 -0.00083903491135881654 0 0.031540555889256618 -0.0010673417177500903 0 0.032404655615646788 -6.6708148329643638e-05 0 0.031306791989229428 -0.00035292970947992027 0 0.032373593378802114 -0.00019257853264167526 0 0.031956977194090283 -0.00055205668176529742 0 0.031971283480821608 -0.00013203111260314486 0 0.032404655615646788 -6.6708148329643638e-05 0 0.031306791989229428 -0.00035292970947992027 0 0.027190282729864075 -0.0016269339988614574 0 0.031956977194090283 -0.00055205668176529742 0 0.031971283480821608 -0.00013203111260314486 0 0.031559816384318456 -9.1055614697619914e-05 0 0.031971283480821608 -0.00013203111260314486 0 0.031996047265368775 0.00028692686381459479 0 0.032404655615646788 -6.6708148329643638e-05 0 0.031971283480821608 -0.00013203111260314486 0 0.031996047265368775 0.00028692686381459479 0 0.031559816384318456 -9.1055614697619914e-05 0 0.031996047265368775 0.00028692686381459479 0 0.032404655615646788 -6.6708148329643638e-05 0 0.032469157987095425 0.00043035136036230091 0 0.033048057093531973 -0.00058603513935343227 0 0.032404655615646788 -6.6708148329643638e-05 0 0.033585716825438601 5.630318697364223e-05 0 0.032404655615646788 -6.6708148329643638e-05 0 0.033585716825438601 5.630318697364223e-05 0 0.032469157987095425 0.00043035136036230091 0 0.033962069193720745 -0.00037173759201249938 0 0.03440289847279622 -0.00092570916257474244 0 0.034363625971976432 -0.00078058675836102111 0 0.034606840341281475 -0.00080894688917025658 0 0.034625565332523908 -0.0006402998265023635 0 0.034363625971976432 -0.00078058675836102111 0 0.034606840341281475 -0.00080894688917025658 0 0.034430520728708017 -0.00096807972408428455 0 0.034606840341281475 -0.00080894688917025658 0 0.034625565332523908 -0.0006402998265023635 0 0.034887044585370473 -0.00077366777839389938 0 0.034430520728708017 -0.00096807972408428455 0 0.034348337177859345 -0.0014574670866748893 0 0.034818036200580792 -0.00099291283841928396 0 0.034606840341281475 -0.00080894688917025658 0 0.034430520728708017 -0.00096807972408428455 0 0.034818036200580792 -0.00099291283841928396 0 0.034430520728708017 -0.00096807972408428455 0 0.033660369854339296 -0.00098154630690939506 0 0.034348337177859345 -0.0014574670866748893 0 0.033585716825438601 5.630318697364223e-05 0 0.034430520728708017 -0.00096807972408428455 0 0.033660369854339296 -0.00098154630690939506 0 0.033048057093531973 -0.00058603513935343227 0 0.033585716825438601 5.630318697364223e-05 0 0.033660369854339296 -0.00098154630690939506 0 0.033660369854339296 -0.00098154630690939506 0 0.034348337177859345 -0.0014574670866748893 0 0.032813349922431442 -0.0015857918321823847 0 0.024585544020787241 -0.0018664324911311979 0 0.023301229142774313 -0.0027138312293474034 0 0.023023547936221866 -0.00090909486645408897 0 0.029899855970377393 -0.001091876838934295 0 0.027686916980223752 -0.0011853899441418205 0 0.025358596684418783 -0.00071392222135250444 0 0.024585544020787241 -0.0018664324911311979 0 0.023023547936221866 -0.00090909486645408897 0 0.025358596684418783 -0.00071392222135250444 0 0.026382934279655879 -0.0021060605350069054 0 0.024585544020787241 -0.0018664324911311979 0 0.026382934279655879 -0.0021060605350069054 0 0.025083121229642621 -0.0029959365067467594 0 0.026963102887895374 -0.0042100639030485517 0 0.026382934279655879 -0.0021060605350069054 0 0.025083121229642621 -0.0029959365067467594 0 0.024585544020787241 -0.0018664324911311979 0 0.025083121229642621 -0.0029959365067467594 0 0.024585544020787241 -0.0018664324911311979 0 0.023301229142774313 -0.0027138312293474034 0 0.025083121229642621 -0.0029959365067467594 0 0.023301229142774313 -0.0027138312293474034 0 0.024336677382905816 -0.003767078939242551 0 0.023301229142774313 -0.0027138312293474034 0 0.021810961833071667 -0.002012772414193475 0 0.021836971127233779 -0.003479936998857108 0 0.023301229142774313 -0.0027138312293474034 0 0.023023547936221866 -0.00090909486645408897 0 0.021810961833071667 -0.002012772414193475 0 0.027686916980223752 -0.0011853899441418205 0 0.027190282729864075 -0.0016269339988614574 0 0.023023547936221866 -0.00090909486645408897 0 0.021810961833071667 -0.002012772414193475 0 0.021024299146193515 -0.00094186919958732249 0 0.031540555889256618 -0.0010673417177500903 0 0.032813349922431442 -0.0015857918321823847 0 0.031154571776407104 -0.0015606491276334627 0 0.021810961833071667 -0.002012772414193475 0 0.021024299146193515 -0.00094186919958732249 0 0.020492992841057829 -0.0016364066062564909 0 0.021810961833071667 -0.002012772414193475 0 0.020492992841057829 -0.0016364066062564909 0 0.021836971127233779 -0.003479936998857108 0 0.025811044076824882 -0.0016103080089302614 0 0.020512218625241878 -0.0031955454726153147 0 0.020641991977820007 -0.0031223032557858364 0 0.020423130501968329 -0.0031319874280300157 0 0.020649070915972394 -0.0028427601160376835 0 0.020641991977820007 -0.0031223032557858364 0 0.020649070915972394 -0.0028427601160376835 0 0.020884476060536256 -0.0031820575471360616 0 0.025927692511415315 -0.0026240151257431962 0 0.025811044076824882 -0.0016103080089302614 0 0.030784736273283694 -0.0014578435683019605 0 0.031067739408929325 -0.0020849207818906998 0 0.031626785282546317 -0.0012918535137915433 0 0.030784736273283694 -0.0014578435683019605 0 0.031067739408929325 -0.0020849207818906998 0 0.030538763959368775 -0.002322387438083791 0 0.030784736273283694 -0.0014578435683019605 0 0.030363050062691521 -0.00068548198181093403 0 0.031074928662877081 -0.00051740827401025103 0 0.030784736273283694 -0.0014578435683019605 0 0.031626785282546317 -0.0012918535137915433 0 0.031074928662877081 -0.00051740827401025103 0 0.031741348250620381 -0.00082195564574057546 0 0.03149165040642319 -0.0011324962129320251 0 0.031520315884488483 -0.00057258290957300641 0 0.025811044076824882 -0.0016103080089302614 0 0.032403823681136951 -0.0011469868748562738 0 0.03149165040642319 -0.0011324962129320251 0 0.031520315884488483 -0.00057258290957300641 0 0.031074928662877081 -0.00051740827401025103 0 0.027190282729864075 -0.0016269339988614574 0 0.025811044076824882 -0.0016103080089302614 0 0.030105318535142048 -0.0019810272857768022 0 0.029227710088289022 -0.00098962367406592831 0 0.029155005675070126 -0.0024737464864866888 0 0.030784736273283694 -0.0014578435683019605 0 0.030105318535142048 -0.0019810272857768022 0 0.030538763959368775 -0.002322387438083791 0 0.030784736273283694 -0.0014578435683019605 0 0.030105318535142048 -0.0019810272857768022 0 0.030363050062691521 -0.00068548198181093403 0 0.030105318535142048 -0.0019810272857768022 0 0.029227710088289022 -0.00098962367406592831 0 0.030363050062691521 -0.00068548198181093403 0 0.029227710088289022 -0.00098962367406592831 0 0.030363050062691521 -0.00068548198181093403 0 0.029937450887462001 0.00025887912778694731 0 0.028673201834490517 7.4053266164262767e-05 0 0.029227710088289022 -0.00098962367406592831 0 0.029937450887462001 0.00025887912778694731 0 0.030363050062691521 -0.00068548198181093403 0 0.029937450887462001 0.00025887912778694731 0 0.030849266807248265 0.00027395949779449724 0 0.029937450887462001 0.00025887912778694731 0 0.030849266807248265 0.00027395949779449724 0 0.030391016013523228 0.00076954399878669791 0 0.031520315884488483 -0.00057258290957300641 0 0.031074928662877081 -0.00051740827401025103 0 0.031559816384318456 -9.1055614697619914e-05 0 0.031956977194090283 -0.00055205668176529742 0 0.031520315884488483 -0.00057258290957300641 0 0.031559816384318456 -9.1055614697619914e-05 0 0.031956977194090283 -0.00055205668176529742 0 0.031741348250620381 -0.00082195564574057546 0 0.031520315884488483 -0.00057258290957300641 0 0.030363050062691521 -0.00068548198181093403 0 0.031074928662877081 -0.00051740827401025103 0 0.030849266807248265 0.00027395949779449724 0 0.031074928662877081 -0.00051740827401025103 0 0.030849266807248265 0.00027395949779449724 0 0.031559816384318456 -9.1055614697619914e-05 0 0.031996047265368775 0.00028692686381459479 0 0.031559816384318456 -9.1055614697619914e-05 0 0.031569260782482879 0.0005579065671357322 0 0.030849266807248265 0.00027395949779449724 0 0.031559816384318456 -9.1055614697619914e-05 0 0.031569260782482879 0.0005579065671357322 0 0.031569260782482879 0.0005579065671357322 0 0.031115692812404391 0.00090237141255404367 0 0.031713149501941214 0.00097468319998910715 0 0.031569260782482879 0.0005579065671357322 0 0.031713149501941214 0.00097468319998910715 0 0.032170193408404456 0.00074500913965940311 0 0.030849266807248265 0.00027395949779449724 0 0.031569260782482879 0.0005579065671357322 0 0.031115692812404391 0.00090237141255404367 0 0.031115692812404391 0.00090237141255404367 0 0.030790029925761801 0.001344263132935259 0 0.031453081689130233 0.0013633457502784266 0 0.031713149501941214 0.00097468319998910715 0 0.031453081689130233 0.0013633457502784266 0 0.032287234395343721 0.0012746627779813946 0 0.031115692812404391 0.00090237141255404367 0 0.031713149501941214 0.00097468319998910715 0 0.031453081689130233 0.0013633457502784266 0 0.030068395902056604 0.0007443865679344809 0 0.029937450887462001 0.00025887912778694731 0 0.030391016013523228 0.00076954399878669791 0 0.030849266807248265 0.00027395949779449724 0 0.031115692812404391 0.00090237141255404367 0 0.030391016013523228 0.00076954399878669791 0 0.030391016013523228 0.00076954399878669791 0 0.030370824410082455 0.0011615115894448849 0 0.030790029925761801 0.001344263132935259 0 0.031115692812404391 0.00090237141255404367 0 0.030391016013523228 0.00076954399878669791 0 0.030790029925761801 0.001344263132935259 0 0.029346573006206973 0.0011099208094716611 0 0.030659001046002651 0.00066920952120760847 0 0.03015073047766343 0.0010429779487632182 0 0.030370824410082455 0.0011615115894448849 0 0.030211591275080281 0.0015088896451357129 0 0.03015073047766343 0.0010429779487632182 0 0.030391016013523228 0.00076954399878669791 0 0.030370824410082455 0.0011615115894448849 0 0.030370824410082455 0.0011615115894448849 0 0.030211591275080281 0.0015088896451357129 0 0.030790029925761801 0.001344263132935259 0 0.030790029925761801 0.001344263132935259 0 0.030766606337869529 0.0019415091356830313 0 0.031175745387837593 0.0017422453037838819 0 0.030211591275080281 0.0015088896451357129 0 0.030790029925761801 0.001344263132935259 0 0.030766606337869529 0.0019415091356830313 0 0.043411428421226937 0.0012174200910639104 0 0.043044433991359279 0.0011117244073150375 0 0.043301109401048352 0.00082766688363975285 0 0.043683373440721998 0.00086907704151322157 0 0.043411428421226937 0.0012174200910639104 0 0.043301109401048352 0.00082766688363975285 0 0.037088034427386021 0.0014641995289859789 0 0.037213419562133844 0.0014856884022494288 0 0.031453081689130233 0.0013633457502784266 0 0.03157654385246203 0.0017433794304762497 0 0.031987777372010577 0.0015184905590296424 0 0.03157654385246203 0.0017433794304762497 0 0.03187959508150983 0.0018972760939039246 0 0.031987777372010577 0.0015184905590296424 0 0.030790029925761801 0.001344263132935259 0 0.031453081689130233 0.0013633457502784266 0 0.031175745387837593 0.0017422453037838819 0 0.031453081689130233 0.0013633457502784266 0 0.031175745387837593 0.0017422453037838819 0 0.03157654385246203 0.0017433794304762497 0 0.030766606337869529 0.0019415091356830313 0 0.031175745387837593 0.0017422453037838819 0 0.031358305386602663 0.0021146071376435499 0 0.031433926313024621 0.0019098848186451768 0 0.031175745387837593 0.0017422453037838819 0 0.031358305386602663 0.0021146071376435499 0 0.030766606337869529 0.0019415091356830313 0 0.031358305386602663 0.0021146071376435499 0 0.031420330806423272 0.0023639207984533749 0 0.037213419562133844 0.0014856884022494288 0 0.034628203560793165 0.0024926522055919182 0 0.031433926313024621 0.0019098848186451768 0 0.031175745387837593 0.0017422453037838819 0 0.03157654385246203 0.0017433794304762497 0 0.031433926313024621 0.0019098848186451768 0 0.031358305386602663 0.0021146071376435499 0 0.031619949016017675 0.002040392973938392 0 0.031433926313024621 0.0019098848186451768 0 0.031619949016017675 0.002040392973938392 0 0.03157654385246203 0.0017433794304762497 0 0.031619949016017675 0.002040392973938392 0 0.03157654385246203 0.0017433794304762497 0 0.03187959508150983 0.0018972760939039246 0 0.031619949016017675 0.002040392973938392 0 0.03187959508150983 0.0018972760939039246 0 0.031851625506973964 0.0020919215829348884 0 0.03187959508150983 0.0018972760939039246 0 0.031851625506973964 0.0020919215829348884 0 0.032035863147804614 0.0020831833516136854 0 0.032035863147804614 0.0020831833516136854 0 0.032180479840934681 0.0018076178910302369 0 0.032271268635856019 0.0021723335740013979 0 0.03187959508150983 0.0018972760939039246 0 0.032180479840934681 0.0018076178910302369 0 0.031987777372010577 0.0015184905590296424 0 0.03187959508150983 0.0018972760939039246 0 0.032035863147804614 0.0020831833516136854 0 0.032180479840934681 0.0018076178910302369 0 0.032180479840934681 0.0018076178910302369 0 0.032539150812546297 0.0016148300840303897 0 0.032271268635856019 0.0021723335740013979 0 0.034396844977614735 3.7318325019281417e-05 0 0.034357251779291755 -0.00011142379507869984 0 0.034211256645432168 0.00025544124905811649 0 0.033373744122062912 0.0008458232070558642 0 0.033603518266903123 0.0011054494823350615 0 0.034402367380585969 0.00017377094032580538 0 0.034396844977614735 3.7318325019281417e-05 0 0.034569464497603668 3.57412974870131e-05 0 0.034402367380585969 0.00017377094032580538 0 0.034396844977614735 3.7318325019281417e-05 0 0.03428734101701493 0.0001954858006154103 0 0.034576835319008965 -0.00017396962865460618 0 0.033603518266903123 0.0011054494823350615 0 0.034396844977614735 3.7318325019281417e-05 0 0.034498623140186424 -7.4868512476277373e-05 0 0.034569464497603668 3.57412974870131e-05 0 0.033373744122062912 0.0008458232070558642 0 0.03397852230179748 1.8185843314215588e-06 0 0.034357251779291755 -0.00011142379507869984 0 0.034471120742229244 -0.00041460873201072928 0 0.034529443450398559 -0.00022000613493980403 0 0.032539150812546297 0.0016148300840303897 0 0.032287230877932026 0.0014300589598450141 0 0.032791417417483537 0.00097292498242331068 0 0.034498623140186424 -7.4868512476277373e-05 0 0.034357251779291755 -0.00011142379507869984 0 0.034529443450398559 -0.00022000613493980403 0 0.034396844977614735 3.7318325019281417e-05 0 0.034498623140186424 -7.4868512476277373e-05 0 0.034357251779291755 -0.00011142379507869984 0 0.031453081689130233 0.0013633457502784266 0 0.031987777372010577 0.0015184905590296424 0 0.032289253749767287 0.0011220915514567539 0 0.032180479840934681 0.0018076178910302369 0 0.031987777372010577 0.0015184905590296424 0 0.032287230877932026 0.0014300589598450141 0 0.032180479840934681 0.0018076178910302369 0 0.032539150812546297 0.0016148300840303897 0 0.032287230877932026 0.0014300589598450141 0 0.031967764923580298 0.0015415412012191332 0 0.032517800774254091 0.00089600581349881937 0 0.031987777372010577 0.0015184905590296424 0 0.032287230877932026 0.0014300589598450141 0 0.032281878859004527 0.0010996757755633987 0 0.031393249844809491 0.00144663184202455 0 0.032517800774254091 0.00089600581349881937 0 0.031713149501941214 0.00097468319998910715 0 0.032287234395343721 0.0012746627779813946 0 0.032170193408404456 0.00074500913965940311 0 0.032517800774254091 0.00089600581349881937 0 0.03397852230179748 1.8185843314215588e-06 0 0.03366483883862046 -1.0504038155606751e-05 0 0.034130150193143464 -0.00012905761918880011 0 0.034064685625167318 -0.0004889508837615309 0 0.032287230877932026 0.0014300589598450141 0 0.032281878859004527 0.0010996757755633987 0 0.032791417417483537 0.00097292498242331068 0 0.032287234395343721 0.0012746627779813946 0 0.032842822340529251 0.00076743898913821909 0 0.032170193408404456 0.00074500913965940311 0 0.032517800774254091 0.00089600581349881937 0 0.033529949320315222 6.7732371485474443e-05 0 0.034130150193143464 -0.00012905761918880011 0 0.034064685625167318 -0.0004889508837615309 0 0.034209436745334797 -0.00037819960329412664 0 0.03397852230179748 1.8185843314215588e-06 0 0.034148497442752446 -0.00033083258629928807 0 0.033585716825438601 5.630318697364223e-05 0 0.032842822340529251 0.00076743898913821909 0 0.032469157987095425 0.00043035136036230091 0 0.032842822340529251 0.00076743898913821909 0 0.032469157987095425 0.00043035136036230091 0 0.032170193408404456 0.00074500913965940311 0 0.031996047265368775 0.00028692686381459479 0 0.031569260782482879 0.0005579065671357322 0 0.032170193408404456 0.00074500913965940311 0 0.031996047265368775 0.00028692686381459479 0 0.032469157987095425 0.00043035136036230091 0 0.032170193408404456 0.00074500913965940311 0 0.034625565332523908 -0.0006402998265023635 0 0.034363934106281371 -0.00052428412448640672 0 0.034519624329731255 -0.00032152844271074828 0 0.034625565332523908 -0.0006402998265023635 0 0.034519624329731255 -0.00032152844271074828 0 0.034937651735566913 -0.00049831398573541312 0 0.034363625971976432 -0.00078058675836102111 0 0.034064685625167318 -0.0004889508837615309 0 0.034363934106281371 -0.00052428412448640672 0 0.033962069193720745 -0.00037173759201249938 0 0.033529949320315222 6.7732371485474443e-05 0 0.034363625971976432 -0.00078058675836102111 0 0.034625565332523908 -0.0006402998265023635 0 0.034363934106281371 -0.00052428412448640672 0 0.034064685625167318 -0.0004889508837615309 0 0.034209436745334797 -0.00037819960329412664 0 0.034363934106281371 -0.00052428412448640672 0 0.034209436745334797 -0.00037819960329412664 0 0.034363934106281371 -0.00052428412448640672 0 0.034519624329731255 -0.00032152844271074828 0 0.034148373776572177 -0.00020784236702827102 0 0.034209436745334797 -0.00037819960329412664 0 0.034519624329731255 -0.00032152844271074828 0 0.034471120742229244 -0.00041460873201072928 0 0.034642008581264108 -0.00033873139790118747 0 0.034750207617418712 -0.00047202272591239351 0 0.03397852230179748 1.8185843314215588e-06 0 0.034706226517423895 -0.00042357191062810686 0 0.034471120742229244 -0.00041460873201072928 0 0.034642008581264108 -0.00033873139790118747 0 0.034529443450398559 -0.00022000613493980403 0 0.034642008581264108 -0.00033873139790118747 0 0.034916296459765087 -0.00033417078168972554 0 0.034750207617418712 -0.00047202272591239351 0 0.034706226517423895 -0.00042357191062810686 0 0.034875826548554319 -0.00047431624774001624 0 0.034916296459765087 -0.00033417078168972554 0 0.034750207617418712 -0.00047202272591239351 0 0.034937651735566913 -0.00049831398573541312 0 0.034642008581264108 -0.00033873139790118747 0 0.034916296459765087 -0.00033417078168972554 0 0.034667803075308742 -0.0001480692921615391 0 0.034916296459765087 -0.00033417078168972554 0 0.034667803075308742 -0.0001480692921615391 0 0.034911692955016019 1.3440047475542925e-05 0 0.034642008581264108 -0.00033873139790118747 0 0.034529443450398559 -0.00022000613493980403 0 0.034667803075308742 -0.0001480692921615391 0 0.034498623140186424 -7.4868512476277373e-05 0 0.034667803075308742 -0.0001480692921615391 0 0.034569464497603668 3.57412974870131e-05 0 0.034498623140186424 -7.4868512476277373e-05 0 0.034529443450398559 -0.00022000613493980403 0 0.034667803075308742 -0.0001480692921615391 0 0.035370461134822326 -0.00011367632181602178 0 0.035390157072454673 -3.9400926892745467e-05 0 0.034569464497603668 3.57412974870131e-05 0 0.034911692955016019 1.3440047475542925e-05 0 0.034546268569617414 0.00020636454337881591 0 0.034667803075308742 -0.0001480692921615391 0 0.034569464497603668 3.57412974870131e-05 0 0.034911692955016019 1.3440047475542925e-05 0 0.034402367380585969 0.00017377094032580538 0 0.034569464497603668 3.57412974870131e-05 0 0.034546268569617414 0.00020636454337881591 0 0.035818189066784016 -0.0002184224625260139 0 0.035985723678500274 -0.00042762096519763718 0 0.035778834515488959 -0.00045124848928580844 0 0.035818189066784016 -0.0002184224625260139 0 0.035985723678500274 -0.00042762096519763718 0 0.036223315766416242 -0.00025262314881890593 0 0.035985723678500274 -0.00042762096519763718 0 0.035778834515488959 -0.00045124848928580844 0 0.035887037288887688 -0.00062034146449656085 0 0.035985723678500274 -0.00042762096519763718 0 0.036157816951465395 -0.00062006723882570159 0 0.035887037288887688 -0.00062034146449656085 0 0.035985723678500274 -0.00042762096519763718 0 0.036157816951465395 -0.00062006723882570159 0 0.036177484272190169 -0.00041925129851691902 0 0.036157816951465395 -0.00062006723882570159 0 0.036277112888304583 -0.00051744198365564294 0 0.036483834548741344 -0.00070183348987290647 0 0.036157816951465395 -0.00062006723882570159 0 0.036277112888304583 -0.00051744198365564294 0 0.036177484272190169 -0.00041925129851691902 0 0.036277112888304583 -0.00051744198365564294 0 0.036177484272190169 -0.00041925129851691902 0 0.036360522149721637 -0.00037966549073223838 0 0.035985723678500274 -0.00042762096519763718 0 0.036177484272190169 -0.00041925129851691902 0 0.036223315766416242 -0.00025262314881890593 0 0.036177484272190169 -0.00041925129851691902 0 0.036223315766416242 -0.00025262314881890593 0 0.036360522149721637 -0.00037966549073223838 0 0.035390157072454673 -3.9400926892745467e-05 0 0.035471141142962861 8.0953330694825753e-05 0 0.034402367380585969 0.00017377094032580538 0 0.034546268569617414 0.00020636454337881591 0 0.034227825688696485 0.00037137179282023991 0 0.036223315766416242 -0.00025262314881890593 0 0.036360522149721637 -0.00037966549073223838 0 0.036672664595323333 -0.00037329784323615806 0 0.034402367380585969 0.00017377094032580538 0 0.03428734101701493 0.0001954858006154103 0 0.034227825688696485 0.00037137179282023991 0 0.034135920380958709 0.00093769023308849211 0 0.034167657857689784 0.00084301377634889423 0 0.034225306633095087 0.00081054416856495492 0 0.033603518266903123 0.0011054494823350615 0 0.033806883083733877 0.0013758125591396891 0 0.031961631548253079 0.0022878028819411718 0 0.032271268635856019 0.0021723335740013979 0 0.031886127029634226 0.0024228988488192303 0 0.032035863147804614 0.0020831833516136854 0 0.031961631548253079 0.0022878028819411718 0 0.032271268635856019 0.0021723335740013979 0 0.031851625506973964 0.0020919215829348884 0 0.032035863147804614 0.0020831833516136854 0 0.031961631548253079 0.0022878028819411718 0 0.033603518266903123 0.0011054494823350615 0 0.035471141142962861 8.0953330694825753e-05 0 0.036672664595323333 -0.00037329784323615806 0 0.036772986051327998 -0.00053735941021071018 0 0.036550622904371943 -0.00074841474121537909 0 0.035471141142962861 8.0953330694825753e-05 0 0.033806883083733877 0.0013758125591396891 0 0.036653620670405174 -0.00025716247171474112 0 0.036877150230855534 -0.00038146133618835925 0 0.036772986051327998 -0.00053735941021071018 0 0.035471141142962861 8.0953330694825753e-05 0 0.036556843994515975 -0.00072609874344558851 0 0.036277112888304583 -0.00051744198365564294 0 0.036360522149721637 -0.00037966549073223838 0 0.036483834548741344 -0.00070183348987290647 0 0.036360522149721637 -0.00037966549073223838 0 0.036672664595323333 -0.00037329784323615806 0 0.036550622904371943 -0.00074841474121537909 0 0.036505476630308842 -0.00041950238684031199 0 0.035998820175360269 -0.00072428038751478404 0 0.036772986051327998 -0.00053735941021071018 0 0.036550622904371943 -0.00074841474121537909 0 0.036877609415927076 -0.00087792821787103202 0 0.036877609415927076 -0.00087792821787103202 0 0.03713459079326404 -0.0011775960794561922 0 0.03675069773350953 -0.0012266132673537972 0 0.036550622904371943 -0.00074841474121537909 0 0.036877609415927076 -0.00087792821787103202 0 0.03675069773350953 -0.0012266132673537972 0 0.035998820175360269 -0.00072428038751478404 0 0.040719850080664845 -0.00055001703133659736 0 0.042064974368159889 -0.00084142146708639134 0 0.040719850080664845 -0.00055001703133659736 0 0.036287227649153514 -0.00083009243994301848 0 0.036236891539437197 -0.0010492641574194981 0 0.036637546152806871 -0.0010165632210091438 0 0.036483834548741344 -0.00070183348987290647 0 0.036287227649153514 -0.00083009243994301848 0 0.036637546152806871 -0.0010165632210091438 0 0.036287227649153514 -0.00083009243994301848 0 0.036026894828910229 -0.00082991646599288413 0 0.036236891539437197 -0.0010492641574194981 0 0.036157816951465395 -0.00062006723882570159 0 0.036026894828910229 -0.00082991646599288413 0 0.035887037288887688 -0.00062034146449656085 0 0.036157816951465395 -0.00062006723882570159 0 0.036287227649153514 -0.00083009243994301848 0 0.036026894828910229 -0.00082991646599288413 0 0.036157816951465395 -0.00062006723882570159 0 0.036483834548741344 -0.00070183348987290647 0 0.036287227649153514 -0.00083009243994301848 0 0.043594506110376553 0.00039519329652875886 0 0.043301109401048352 0.00082766688363975285 0 0.042983946909208683 0.00046336918362014468 0 0.043683373440721998 0.00086907704151322157 0 0.043594506110376553 0.00039519329652875886 0 0.043301109401048352 0.00082766688363975285 0 0.043044433991359279 0.0011117244073150375 0 0.043301109401048352 0.00082766688363975285 0 0.042508866703110888 0.00088407829167799225 0 0.043301109401048352 0.00082766688363975285 0 0.042983946909208683 0.00046336918362014468 0 0.042508866703110888 0.00088407829167799225 0 0.043594506110376553 0.00039519329652875886 0 0.042983946909208683 0.00046336918362014468 0 0.043163869272627893 0.00015733414530184474 0 0.042983946909208683 0.00046336918362014468 0 0.042508866703110888 0.00088407829167799225 0 0.042327729137923417 0.00016651138507045205 0 0.034628203560793165 0.0024926522055919182 0 0.038288649068324 0.00024758645034958076 0 0.033047475755886374 0.0019014788248513678 0 0.034628203560793165 0.0024926522055919182 0 0.031358305386602663 0.0021146071376435499 0 0.031619949016017675 0.002040392973938392 0 0.031443791868771089 0.0023079979643953969 0 0.034628203560793165 0.0024926522055919182 0 0.031340520089765442 0.0019669000118732512 0 0.031443791868771089 0.0023079979643953969 0 0.031781798551710261 0.0022693015010936957 0 0.031906619225564432 0.0024443966139812106 0 0.031619949016017675 0.002040392973938392 0 0.031443791868771089 0.0023079979643953969 0 0.031781798551710261 0.0022693015010936957 0 0.031619949016017675 0.002040392973938392 0 0.031851625506973964 0.0020919215829348884 0 0.031781798551710261 0.0022693015010936957 0 0.031851625506973964 0.0020919215829348884 0 0.031961631548253079 0.0022878028819411718 0 0.031781798551710261 0.0022693015010936957 0 0.031961631548253079 0.0022878028819411718 0 0.031886127029634226 0.0024228988488192303 0 0.031903131061327118 0.0023724610506268323 0 0.031781798551710261 0.0022693015010936957 0 0.031906619225564432 0.0024443966139812106 0 0.031903131061327118 0.0023724610506268323 0 0.031961631548253079 0.0022878028819411718 0 0.031781798551710261 0.0022693015010936957 0 0.031903131061327118 0.0023724610506268323 0 0.031886127029634226 0.0024228988488192303 0 0.031906619225564432 0.0024443966139812106 0 0.031903131061327118 0.0023724610506268323 0 0.032184136060584227 0.0026118085805355209 0 0.031906619225564432 0.0024443966139812106 0 0.032099213213283795 0.0020734483585962298 0 0.036877150230855534 -0.00038146133618835925 0 0.036772986051327998 -0.00053735941021071018 0 0.037190280579113916 -0.00070370049067474967 0 0.033806883083733877 0.0013758125591396891 0 0.038288649068324 0.00024758645034958076 0 0.031886127029634226 0.0024228988488192303 0 0.031906619225564432 0.0024443966139812106 0 0.032099213213283795 0.0020734483585962298 0 0.036772986051327998 -0.00053735941021071018 0 0.036877609415927076 -0.00087792821787103202 0 0.037190280579113916 -0.00070370049067474967 0 0.036877609415927076 -0.00087792821787103202 0 0.037190280579113916 -0.00070370049067474967 0 0.03713459079326404 -0.0011775960794561922 0 0.038288649068324 0.00024758645034958076 0 0.042064974368159889 -0.00084142146708639134 0 0.044928404886391847 -4.173749504544074e-05 0 0.044926892730702661 -6.5246804144263729e-05 0 0.0449307606548612 -4.5681667318706151e-05 0 0.041687199827242519 -0.0006851763591403337 0 0.042733624103187776 -0.00038487610184175652 0 0.042821239904329123 -0.00050654164712799323 0 0.041902269742667968 0.00059846692548014648 0 0.041687199827242519 -0.0006851763591403337 0 0.042733624103187776 -0.00038487610184175652 0 0.042064974368159889 -0.00084142146708639134 0 0.044123169468530433 -0.0002323307381951369 0 0.044926892730702661 -6.5246804144263729e-05 0 0.044924380632285342 -5.0852387358372585e-05 0 0.0449307606548612 -4.5681667318706151e-05 0 0.038288649068324 0.00024758645034958076 0 0.043792205214056669 -0.00068742862276249339 0 0.042983946909208683 0.00046336918362014468 0 0.042327729137923417 0.00016651138507045205 0 0.042815661448981419 5.9262613901993527e-05 0 0.042327729137923417 0.00016651138507045205 0 0.042733624103187776 -0.00038487610184175652 0 0.042815661448981419 5.9262613901993527e-05 0 0.042983946909208683 0.00046336918362014468 0 0.042815661448981419 5.9262613901993527e-05 0 0.043163869272627893 0.00015733414530184474 0 0.043163869272627893 0.00015733414530184474 0 0.043060802694829182 -0.00017093587324596546 0 0.043444832938972479 -8.0026733161835366e-06 0 0.042815661448981419 5.9262613901993527e-05 0 0.043163869272627893 0.00015733414530184474 0 0.043060802694829182 -0.00017093587324596546 0 0.042733624103187776 -0.00038487610184175652 0 0.042815661448981419 5.9262613901993527e-05 0 0.043060802694829182 -0.00017093587324596546 0 0.042733624103187776 -0.00038487610184175652 0 0.042821239904329123 -0.00050654164712799323 0 0.043060802694829182 -0.00017093587324596546 0 0.044926892730702661 -6.5246804144263729e-05 0 0.04488385801826672 -7.2519351653490345e-05 0 0.044837489142832185 -0.00014302791986769886 0 0.044123169468530433 -0.0002323307381951369 0 0.044109989515718637 -0.0002614992365332504 0 0.042821239904329123 -0.00050654164712799323 0 0.043060802694829182 -0.00017093587324596546 0 0.043502909285438832 -0.00039508262334390801 0 0.044926892730702661 -6.5246804144263729e-05 0 0.04488385801826672 -7.2519351653490345e-05 0 0.04491072114318654 -5.5100815772928461e-05 0 0.044926892730702661 -6.5246804144263729e-05 0 0.04491072114318654 -5.5100815772928461e-05 0 0.044924380632285342 -5.0852387358372585e-05 0 0.043060802694829182 -0.00017093587324596546 0 0.043502909285438832 -0.00039508262334390801 0 0.043444832938972479 -8.0026733161835366e-06 0 0.04488385801826672 -7.2519351653490345e-05 0 0.044837489142832185 -0.00014302791986769886 0 0.044828327258246828 -4.3951248821154849e-05 0 0.044667170499980369 -7.3906010925113143e-05 0 0.044837489142832185 -0.00014302791986769886 0 0.044828327258246828 -4.3951248821154849e-05 0 0.043838481982273303 3.1319347746314149e-05 0 0.043502909285438832 -0.00039508262334390801 0 0.043444832938972479 -8.0026733161835366e-06 0 0.043594506110376553 0.00039519329652875886 0 0.043163869272627893 0.00015733414530184474 0 0.043444832938972479 -8.0026733161835366e-06 0 0.043838481982273303 3.1319347746314149e-05 0 0.043594506110376553 0.00039519329652875886 0 0.043444832938972479 -8.0026733161835366e-06 0 0.044848021887775098 1.0255823122483048e-05 0 0.044906705182054224 6.6377919983646165e-06 0 0.044937626438237427 1.2578712469525975e-05 0 0.044848021887775098 1.0255823122483048e-05 0 0.044906705182054224 6.6377919983646165e-06 0 0.044888256053542151 -2.5440939936139413e-05 0 0.044796233975059434 -1.8401235694140234e-06 0 0.044909040832890657 9.219311161842814e-06 0 0.044848021887775098 1.0255823122483048e-05 0 0.044828327258246828 -4.3951248821154849e-05 0 0.044888256053542151 -2.5440939936139413e-05 0 0.044667170499980369 -7.3906010925113143e-05 0 0.044848021887775098 1.0255823122483048e-05 0 0.044828327258246828 -4.3951248821154849e-05 0 0.04488385801826672 -7.2519351653490345e-05 0 0.044828327258246828 -4.3951248821154849e-05 0 0.044888256053542151 -2.5440939936139413e-05 0 0.04488385801826672 -7.2519351653490345e-05 0 0.044888256053542151 -2.5440939936139413e-05 0 0.04491072114318654 -5.5100815772928461e-05 0 0.044888256053542151 -2.5440939936139413e-05 0 0.04491072114318654 -5.5100815772928461e-05 0 0.044923381591975439 -3.6862000282706144e-05 0 0.04491072114318654 -5.5100815772928461e-05 0 0.044923381591975439 -3.6862000282706144e-05 0 0.044924380632285342 -5.0852387358372585e-05 0 0.044923381591975439 -3.6862000282706144e-05 0 0.044918822128084429 -1.2710122977456208e-05 0 0.044933921038482892 -1.7800596923195415e-05 0 0.044888256053542151 -2.5440939936139413e-05 0 0.044923381591975439 -3.6862000282706144e-05 0 0.044918822128084429 -1.2710122977456208e-05 0 0.044918822128084429 -1.2710122977456208e-05 0 0.044940561559439096 -9.2885407513595977e-07 0 0.044933921038482892 -1.7800596923195415e-05 0 0.044906705182054224 6.6377919983646165e-06 0 0.044918822128084429 -1.2710122977456208e-05 0 0.044940561559439096 -9.2885407513595977e-07 0 0.044906705182054224 6.6377919983646165e-06 0 0.044888256053542151 -2.5440939936139413e-05 0 0.044918822128084429 -1.2710122977456208e-05 0 0.044940561559439096 -9.2885407513595977e-07 0 0.044948082844458982 -9.9444734601474626e-06 0 0.044933921038482892 -1.7800596923195415e-05 0 0.044948082844458982 -9.9444734601474626e-06 0 0.044933921038482892 -1.7800596923195415e-05 0 0.044934217006201385 -3.2009853566366539e-05 0 0.044923381591975439 -3.6862000282706144e-05 0 0.044933921038482892 -1.7800596923195415e-05 0 0.044934217006201385 -3.2009853566366539e-05 0 0.044923381591975439 -3.6862000282706144e-05 0 0.0449307606548612 -4.5681667318706151e-05 0 0.044934217006201385 -3.2009853566366539e-05 0 0.044923381591975439 -3.6862000282706144e-05 0 0.044924380632285342 -5.0852387358372585e-05 0 0.0449307606548612 -4.5681667318706151e-05 0 0.0449307606548612 -4.5681667318706151e-05 0 0.044934217006201385 -3.2009853566366539e-05 0 0.04493449279835264 -3.2931762753519519e-05 0 0.044948082844458982 -9.9444734601474626e-06 0 0.044934217006201385 -3.2009853566366539e-05 0 0.04493449279835264 -3.2931762753519519e-05 0 0.044948082844458982 -9.9444734601474626e-06 0 0.04493449279835264 -3.2931762753519519e-05 0 0.044933758540309468 -2.6060004887688498e-05 0 0.044906452006231751 -4.4238621866424199e-05 0 0.044933758540309468 -2.6060004887688498e-05 0 0.044918531634212694 -4.1237315558429801e-05 0 0.044928404886391847 -4.173749504544074e-05 0 0.0449307606548612 -4.5681667318706151e-05 0 0.04493449279835264 -3.2931762753519519e-05 0 0.044928404886391847 -4.173749504544074e-05 0 0.04493449279835264 -3.2931762753519519e-05 0 0.044933758540309468 -2.6060004887688498e-05 0 0.042064974368159889 -0.00084142146708639134 0 0.044458719775114744 0.0003685721793339862 0 0.044948082844458982 -9.9444734601474626e-06 0 0.044933758540309468 -2.6060004887688498e-05 0 0.0449701080387531 9.1915033960630007e-06 0 0.044948082844458982 -9.9444734601474626e-06 0 0.044970205724859755 3.6542886318013858e-06 0 0.0449701080387531 9.1915033960630007e-06 0 0.044970205724859755 3.6542886318013858e-06 0 0.044973980181586853 6.5080643277873344e-06 0 0.044984087107075625 4.0260059861440663e-06 0 0.044948082844458982 -9.9444734601474626e-06 0 0.044970205724859755 3.6542886318013858e-06 0 0.044973980181586853 6.5080643277873344e-06 0 0.044970205724859755 3.6542886318013858e-06 0 0.0449701080387531 9.1915033960630007e-06 0 0.044984087107075625 4.0260059861440663e-06 0 0.044999975793946899 6.2640639436515762e-09 0 0.044973980181586853 6.5080643277873344e-06 0 0.044984087107075625 4.0260059861440663e-06 0 0.044999975793946899 6.2640639436515762e-09 0 0.044973980181586853 6.5080643277873344e-06 0 0.044999951089275451 8.2204625258102755e-09 0 0.044940561559439096 -9.2885407513595977e-07 0 0.044948082844458982 -9.9444734601474626e-06 0 0.044973980181586853 6.5080643277873344e-06 0 0.044906705182054224 6.6377919983646165e-06 0 0.044940561559439096 -9.2885407513595977e-07 0 0.044958393775905742 9.2997144040591358e-06 0 0.044940561559439096 -9.2885407513595977e-07 0 0.044973980181586853 6.5080643277873344e-06 0 0.044958393775905742 9.2997144040591358e-06 0 0.044973980181586853 6.5080643277873344e-06 0 0.044958393775905742 9.2997144040591358e-06 0 0.044999951089275451 8.2204625258102755e-09 0 0.044958393775905742 9.2997144040591358e-06 0 0.044999951089275451 8.2204625258102755e-09 0 0.044999928182005482 1.5469206791980134e-08 0 0.044958393775905742 9.2997144040591358e-06 0 0.044999928182005482 1.5469206791980134e-08 0 0.044937626438237427 1.2578712469525975e-05 0 0.04499996059996534 9.7377874876409449e-09 0 0.044909040832890657 9.219311161842814e-06 0 0.044906705182054224 6.6377919983646165e-06 0 0.044958393775905742 9.2997144040591358e-06 0 0.044937626438237427 1.2578712469525975e-05 0 0.044883067642924816 5.3080353350020928e-05 0 0.044950542251698332 4.4124763473102467e-05 0 0.044939448567306785 1.1555753333965193e-05 0 0.044883067642924816 5.3080353350020928e-05 0 0.044939448567306785 1.1555753333965193e-05 0 0.044868341863721836 1.3513997488372589e-05 0 0.044883067642924816 5.3080353350020928e-05 0 0.044868341863721836 1.3513997488372589e-05 0 0.044734142652924636 3.9641724578477156e-05 0 0.044883067642924816 5.3080353350020928e-05 0 0.044734142652924636 3.9641724578477156e-05 0 0.044530341955204125 0.00033278135734078065 0 0.040587003794319516 -0.00042874270579755476 0 0.040200172086680842 -0.00047222099220716769 0 0.036026894828910229 -0.00082991646599288413 0 0.036236891539437197 -0.0010492641574194981 0 0.035883713207985043 -0.0010489312486998967 0 0.044883067642924816 5.3080353350020928e-05 0 0.044924069417715526 0.00012168187108861072 0 0.044530341955204125 0.00033278135734078065 0 0.044883067642924816 5.3080353350020928e-05 0 0.044924069417715526 0.00012168187108861072 0 0.044950542251698332 4.4124763473102467e-05 0 0.040587003794319516 -0.00042874270579755476 0 0.040719850080664845 -0.00055001703133659736 0 0.044924069417715526 0.00012168187108861072 0 0.044936671416547662 6.9868169264779387e-05 0 0.044950542251698332 4.4124763473102467e-05 0 0.040719850080664845 -0.00055001703133659736 0 0.046147439800238575 5.6136387743733327e-05 0 0.044933758540309468 -2.6060004887688498e-05 0 0.044918531634212694 -4.1237315558429801e-05 0 0.0449701080387531 9.1915033960630007e-06 0 0.044936671416547662 6.9868169264779387e-05 0 0.0449701080387531 9.1915033960630007e-06 0 0.044950542251698332 4.4124763473102467e-05 0 0.0449701080387531 9.1915033960630007e-06 0 0.044950542251698332 4.4124763473102467e-05 0 0.04497550299309231 5.5666548046399609e-06 0 0.044950542251698332 4.4124763473102467e-05 0 0.04497550299309231 5.5666548046399609e-06 0 0.044939448567306785 1.1555753333965193e-05 0 0.0449701080387531 9.1915033960630007e-06 0 0.04497550299309231 5.5666548046399609e-06 0 0.044984087107075625 4.0260059861440663e-06 0 0.04497550299309231 5.5666548046399609e-06 0 0.044984087107075625 4.0260059861440663e-06 0 0.044999965669834316 8.4230178817936874e-10 0 0.044999975793946899 6.2640639436515762e-09 0 0.044984087107075625 4.0260059861440663e-06 0 0.044999965669834316 8.4230178817936874e-10 0 0.04497550299309231 5.5666548046399609e-06 0 0.044999965669834316 8.4230178817936874e-10 0 0.044999983494883433 3.6829931526578877e-09 0 0.044999983494883433 3.6829931526578877e-09 0 0.044939448567306785 1.1555753333965193e-05 0 0.044944824706640379 1.6787372256565142e-06 0 0.04497550299309231 5.5666548046399609e-06 0 0.044999983494883433 3.6829931526578877e-09 0 0.044939448567306785 1.1555753333965193e-05 0 0.044939448567306785 1.1555753333965193e-05 0 0.044868341863721836 1.3513997488372589e-05 0 0.044944824706640379 1.6787372256565142e-06 0 0.044868341863721836 1.3513997488372589e-05 0 0.044944824706640379 1.6787372256565142e-06 0 0.044896919613228545 1.2538369530111899e-05 0 0.044999983494883433 3.6829931526578877e-09 0 0.044944824706640379 1.6787372256565142e-06 0 0.044999670268976964 -7.2742905472987927e-08 0 0.044944824706640379 1.6787372256565142e-06 0 0.044999670268976964 -7.2742905472987927e-08 0 0.044896919613228545 1.2538369530111899e-05 0 0.044999670268976964 -7.2742905472987927e-08 0 0.044868420335770216 2.1132900036302449e-05 0 0.044896919613228545 1.2538369530111899e-05 0 0.044999670268976964 -7.2742905472987927e-08 0 0.044844316804250939 -9.9575946091866509e-06 0 0.044868420335770216 2.1132900036302449e-05 0 0.044999711919720353 8.5729424938748288e-08 0 0.045128447831140783 -5.236499189462857e-06 0 0.045000011677791496 2.8230697391549208e-09 0 0.045002332989668728 1.3041015771999735e-06 0 0.04499998502818902 -4.1948971305290303e-09 0 0.044868420335770216 2.1132900036302449e-05 0 0.044833629110085406 2.9152901786210906e-05 0 0.044852840169193275 2.9421238352966458e-05 0 0.044844316804250939 -9.9575946091866509e-06 0 0.044836034170904329 1.4037327549280047e-05 0 0.044868420335770216 2.1132900036302449e-05 0 0.044836034170904329 1.4037327549280047e-05 0 0.044868420335770216 2.1132900036302449e-05 0 0.044852840169193275 2.9421238352966458e-05 0 0.044868420335770216 2.1132900036302449e-05 0 0.044896919613228545 1.2538369530111899e-05 0 0.044833629110085406 2.9152901786210906e-05 0 0.044868341863721836 1.3513997488372589e-05 0 0.044896919613228545 1.2538369530111899e-05 0 0.044833629110085406 2.9152901786210906e-05 0 0.044743333315943108 2.6421567486156628e-05 0 0.044104065602177327 -0.0003882696955791654 0 0.044868341863721836 1.3513997488372589e-05 0 0.044833629110085406 2.9152901786210906e-05 0 0.044734142652924636 3.9641724578477156e-05 0 0.044833629110085406 2.9152901786210906e-05 0 0.044734142652924636 3.9641724578477156e-05 0 0.044852840169193275 2.9421238352966458e-05 0 0.044734142652924636 3.9641724578477156e-05 0 0.043527655174182341 -0.00069687883972558058 0 0.043640164514410558 -9.0165795425271942e-05 0 0.043527655174182341 -0.00069687883972558058 0 0.043640164514410558 -9.0165795425271942e-05 0 0.04283965168053587 -0.0004495225889910102 0 0.035883713207985043 -0.0010489312486998967 0 0.03558106395344663 -0.0010579078591269411 0 0.03575332237062008 -0.00080226181109731981 0 0.040200172086680842 -0.00047222099220716769 0 0.039067822973528656 0.00034509594825391009 0 0.043640164514410558 -9.0165795425271942e-05 0 0.044530341955204125 0.00033278135734078065 0 0.042793291701046281 0.0002958627518207557 0 0.044734142652924636 3.9641724578477156e-05 0 0.043640164514410558 -9.0165795425271942e-05 0 0.044530341955204125 0.00033278135734078065 0 0.039067822973528656 0.00034509594825391009 0 0.038137334536212403 0.0011646767238314682 0 0.035161134720940637 0.0017458459848489006 0 0.035983726084255818 0.0018978905551833721 0 0.035791626714555665 0.0011509019472416727 0 0.043527655174182341 -0.00069687883972558058 0 0.04283965168053587 -0.0004495225889910102 0 0.042188726244732383 -0.00077154369824551108 0 0.042728329673576343 0.00043593369136739687 0 0.04283965168053587 -0.0004495225889910102 0 0.041980178268434747 -0.00020991810384055567 0 0.039067822973528656 0.00034509594825391009 0 0.04203935191085726 -0.00046480230654054241 0 0.043640164514410558 -9.0165795425271942e-05 0 0.042793291701046281 0.0002958627518207557 0 0.04283965168053587 -0.0004495225889910102 0 0.04283965168053587 -0.0004495225889910102 0 0.042188726244732383 -0.00077154369824551108 0 0.041980178268434747 -0.00020991810384055567 0 0.042188726244732383 -0.00077154369824551108 0 0.041980178268434747 -0.00020991810384055567 0 0.041435983398279773 -0.00056407110631948498 0 0.042728329673576343 0.00043593369136739687 0 0.041980178268434747 -0.00020991810384055567 0 0.040909131707674511 0.00021357855651111228 0 0.041980178268434747 -0.00020991810384055567 0 0.041435983398279773 -0.00056407110631948498 0 0.040909131707674511 0.00021357855651111228 0 0.0436741848082585 -0.00035847769920381025 0 0.041836376378500753 -0.00043916484890294438 0 0.04355706447204763 -0.00018950780128669563 0 0.043119951590739392 -0.00039560323504575116 0 0.042917525783039798 0.00012713290189164943 0 0.041435983398279773 -0.00056407110631948498 0 0.041974659278946468 -0.0014634169584650048 0 0.040521853570151763 -0.00074681344772527789 0 0.042188726244732383 -0.00077154369824551108 0 0.041435983398279773 -0.00056407110631948498 0 0.041974659278946468 -0.0014634169584650048 0 0.0436741848082585 -0.00035847769920381025 0 0.044507165632347183 -2.5435695604671651e-05 0 0.043527655174182341 -0.00069687883972558058 0 0.042188726244732383 -0.00077154369824551108 0 0.041974659278946468 -0.0014634169584650048 0 0.044844316804250939 -9.9575946091866509e-06 0 0.044836034170904329 1.4037327549280047e-05 0 0.044777899615450721 1.3580388250899367e-05 0 0.044836034170904329 1.4037327549280047e-05 0 0.044852840169193275 2.9421238352966458e-05 0 0.044777899615450721 1.3580388250899367e-05 0 0.045128447831140783 -5.236499189462857e-06 0 0.0436741848082585 -0.00035847769920381025 0 0.044104065602177327 -0.0003882696955791654 0 0.0436741848082585 -0.00035847769920381025 0 0.045002332989668728 1.3041015771999735e-06 0 0.044977793559668452 2.0501499408895161e-05 0 0.044994018706355242 -5.5104545471105751e-07 0 0.045002332989668728 1.3041015771999735e-06 0 0.04499998502818902 -4.1948971305290303e-09 0 0.044994018706355242 -5.5104545471105751e-07 0 0.044994018706355242 -5.5104545471105751e-07 0 0.044999993275085082 1.767097930944269e-09 0 0.044997546686462477 -2.2672994642785794e-06 0 0.044977793559668452 2.0501499408895161e-05 0 0.044994018706355242 -5.5104545471105751e-07 0 0.044943875556458103 8.1099613908324913e-06 0 0.045147791914299885 -3.9605409887399776e-05 0 0.044507165632347183 -2.5435695604671651e-05 0 0.04499998502818902 -4.1948971305290303e-09 0 0.044994018706355242 -5.5104545471105751e-07 0 0.044999993275085082 1.767097930944269e-09 0 0.044999993275085082 1.767097930944269e-09 0 0.044997546686462477 -2.2672994642785794e-06 0 0.045000099788595919 -1.4818779225751383e-07 0 0.044507165632347183 -2.5435695604671651e-05 0 0.045102806309537599 5.6995003570844757e-05 0 0.045077309435661614 6.3536644611067523e-05 0 0.045054545511617652 4.6745821359562186e-05 0 0.045043622248503938 8.7333710467379845e-05 0 0.045054545511617652 4.6745821359562186e-05 0 0.044999876087361529 1.1986402627264991e-07 0 0.045018634937100253 7.3723249548242502e-05 0 0.045102806309537599 5.6995003570844757e-05 0 0.044999935974736192 -2.4616442069758982e-08 0 0.044999993275085082 1.767097930944269e-09 0 0.045000099788595919 -1.4818779225751383e-07 0 0.045000004197194014 -1.055123540931252e-09 0 0.045054545511617652 4.6745821359562186e-05 0 0.045043622248503938 8.7333710467379845e-05 0 0.045018634937100253 7.3723249548242502e-05 0 0.045043622248503938 8.7333710467379845e-05 0 0.045018634937100253 7.3723249548242502e-05 0 0.045015264667057416 0.00013169402126386241 0 0.043695247237258532 -5.1068348500825179e-06 0 0.043709728114547167 4.3199625533378897e-05 0 0.044507165632347183 -2.5435695604671651e-05 0 0.043695247237258532 -5.1068348500825179e-06 0 0.043119951590739392 -0.00039560323504575116 0 0.042545483716655341 -0.00014897916058016769 0 0.042917525783039798 0.00012713290189164943 0 0.044999876087361529 1.1986402627264991e-07 0 0.044997513933129479 9.8520666618381547e-05 0 0.045000485905487601 3.6051225570132714e-08 0 0.044999876087361529 1.1986402627264991e-07 0 0.045018634937100253 7.3723249548242502e-05 0 0.044997513933129479 9.8520666618381547e-05 0 0.045018634937100253 7.3723249548242502e-05 0 0.045015264667057416 0.00013169402126386241 0 0.044997513933129479 9.8520666618381547e-05 0 0.045015264667057416 0.00013169402126386241 0 0.044997513933129479 9.8520666618381547e-05 0 0.044960659332746664 0.00021906625798658483 0 0.040087621886210775 0.00092097413524944117 0 0.040052265698965112 0.00079526087285505462 0 0.039633635752192552 0.00086112243600211188 0 0.043709728114547167 4.3199625533378897e-05 0 0.042185926317693363 0.00047337630546274469 0 0.040087621886210775 0.00092097413524944117 0 0.04011781988476807 0.00090758835927486385 0 0.040052265698965112 0.00079526087285505462 0 0.042185926317693363 0.00047337630546274469 0 0.041750706229754006 0.00062887761368170204 0 0.042002424956306537 9.3383050839048192e-05 0 0.041482845424630606 0.00031585921259549182 0 0.042296163705199785 0.00042802817674497673 0 0.042185926317693363 0.00047337630546274469 0 0.039395395607273585 0.00075509906338172529 0 0.039960592524223133 0.00069954582481216213 0 0.040052265698965112 0.00079526087285505462 0 0.039633635752192552 0.00086112243600211188 0 0.037111809472945748 0.0014550297332148929 0 0.037702523954071608 0.0017748336005103168 0 0.036876941413084389 0.0020870425283396597 0 0.038585385781492239 0.0013783604940708291 0 0.039395395607273585 0.00075509906338172529 0 0.039960592524223133 0.00069954582481216213 0 0.040052265698965112 0.00079526087285505462 0 0.040316964429102022 0.00055350059189017788 0 0.038585385781492239 0.0013783604940708291 0 0.039575413801113055 0.00089836002454510679 0 0.040909131707674511 0.00021357855651111228 0 0.040521853570151763 -0.00074681344772527789 0 0.03908391372347074 -8.6094608291730035e-06 0 0.038137334536212403 0.0011646767238314682 0 0.039395395607273585 0.00075509906338172529 0 0.041435983398279773 -0.00056407110631948498 0 0.040909131707674511 0.00021357855651111228 0 0.040521853570151763 -0.00074681344772527789 0 0.042545483716655341 -0.00014897916058016769 0 0.042002424956306537 9.3383050839048192e-05 0 0.042296163705199785 0.00042802817674497673 0 0.041836376378500753 -0.00043916484890294438 0 0.039395395607273585 0.00075509906338172529 0 0.042545483716655341 -0.00014897916058016769 0 0.042917525783039798 0.00012713290189164943 0 0.042296163705199785 0.00042802817674497673 0 0.035983726084255818 0.0018978905551833721 0 0.036876941413084389 0.0020870425283396597 0 0.036468794185911167 0.0013557206726448369 0 0.037111809472945748 0.0014550297332148929 0 0.036876941413084389 0.0020870425283396597 0 0.036468794185911167 0.0013557206726448369 0 0.035983726084255818 0.0018978905551833721 0 0.036468794185911167 0.0013557206726448369 0 0.035791626714555665 0.0011509019472416727 0 0.036468794185911167 0.0013557206726448369 0 0.036212039266383868 0.00062421426653066255 0 0.035791626714555665 0.0011509019472416727 0 0.036468794185911167 0.0013557206726448369 0 0.036907868544080166 0.00095185013017300753 0 0.036212039266383868 0.00062421426653066255 0 0.037111809472945748 0.0014550297332148929 0 0.036468794185911167 0.0013557206726448369 0 0.036907868544080166 0.00095185013017300753 0 0.036907868544080166 0.00095185013017300753 0 0.036212039266383868 0.00062421426653066255 0 0.03669679503125358 0.0002991412033440308 0 0.036212039266383868 0.00062421426653066255 0 0.035791626714555665 0.0011509019472416727 0 0.035721070592123934 0.00045632313711931391 0 0.037702523954071608 0.0017748336005103168 0 0.037682890060146919 0.0010740002911461828 0 0.038719653207563702 0.0013433528451899715 0 0.037682890060146919 0.0010740002911461828 0 0.038719653207563702 0.0013433528451899715 0 0.038274425594279168 0.00051602060121526459 0 0.037111809472945748 0.0014550297332148929 0 0.037702523954071608 0.0017748336005103168 0 0.037682890060146919 0.0010740002911461828 0 0.037111809472945748 0.0014550297332148929 0 0.036907868544080166 0.00095185013017300753 0 0.037682890060146919 0.0010740002911461828 0 0.036907868544080166 0.00095185013017300753 0 0.037526730956917928 0.00031691523303042999 0 0.03669679503125358 0.0002991412033440308 0 0.036907868544080166 0.00095185013017300753 0 0.037682890060146919 0.0010740002911461828 0 0.037526730956917928 0.00031691523303042999 0 0.037682890060146919 0.0010740002911461828 0 0.037526730956917928 0.00031691523303042999 0 0.038274425594279168 0.00051602060121526459 0 0.037526730956917928 0.00031691523303042999 0 0.038274425594279168 0.00051602060121526459 0 0.038377447224329037 -0.00010273827560207997 0 0.037526730956917928 0.00031691523303042999 0 0.037790398640031038 -0.00032338127319134452 0 0.038377447224329037 -0.00010273827560207997 0 0.037790398640031038 -0.00032338127319134452 0 0.038377447224329037 -0.00010273827560207997 0 0.038454021409554187 -0.0005024293901173336 0 0.037526730956917928 0.00031691523303042999 0 0.036987306280942961 -0.00022453555626762961 0 0.037790398640031038 -0.00032338127319134452 0 0.037526730956917928 0.00031691523303042999 0 0.036987306280942961 -0.00022453555626762961 0 0.03669679503125358 0.0002991412033440308 0 0.036987306280942961 -0.00022453555626762961 0 0.036193472803594855 -0.00061399586776622215 0 0.037783934078323145 -0.00099321419680886008 0 0.037790398640031038 -0.00032338127319134452 0 0.038454021409554187 -0.0005024293901173336 0 0.037783934078323145 -0.00099321419680886008 0 0.036987306280942961 -0.00022453555626762961 0 0.037790398640031038 -0.00032338127319134452 0 0.037783934078323145 -0.00099321419680886008 0 0.036212039266383868 0.00062421426653066255 0 0.03669679503125358 0.0002991412033440308 0 0.03595355055864289 -0.00011441506676144654 0 0.036212039266383868 0.00062421426653066255 0 0.03595355055864289 -0.00011441506676144654 0 0.035721070592123934 0.00045632313711931391 0 0.036987306280942961 -0.00022453555626762961 0 0.03669679503125358 0.0002991412033440308 0 0.03595355055864289 -0.00011441506676144654 0 0.036987306280942961 -0.00022453555626762961 0 0.03595355055864289 -0.00011441506676144654 0 0.036193472803594855 -0.00061399586776622215 0 0.03595355055864289 -0.00011441506676144654 0 0.035359872731322323 0.00013154589829055452 0 0.035489260684899049 -0.00037222370257987338 0 0.03595355055864289 -0.00011441506676144654 0 0.035359872731322323 0.00013154589829055452 0 0.035721070592123934 0.00045632313711931391 0 0.035470865646249017 -0.00020866172335156418 0 0.035464704742672555 -0.00035542439851438736 0 0.035469567955540765 -0.0005270289985395551 0 0.035561770573863644 -0.00039131282105591992 0 0.035489260684899049 -0.00037222370257987338 0 0.035561770573863644 -0.00039131282105591992 0 0.035778834515488959 -0.00045124848928580844 0 0.035648155802776624 -0.00058864683852866216 0 0.035818189066784016 -0.0002184224625260139 0 0.035561770573863644 -0.00039131282105591992 0 0.035778834515488959 -0.00045124848928580844 0 0.035778834515488959 -0.00045124848928580844 0 0.035887037288887688 -0.00062034146449656085 0 0.035648155802776624 -0.00058864683852866216 0 0.035469567955540765 -0.0005270289985395551 0 0.035561770573863644 -0.00039131282105591992 0 0.035648155802776624 -0.00058864683852866216 0 0.035648155802776624 -0.00058864683852866216 0 0.03575332237062008 -0.00080226181109731981 0 0.035510633310328839 -0.00079031059381713263 0 0.035887037288887688 -0.00062034146449656085 0 0.035648155802776624 -0.00058864683852866216 0 0.03575332237062008 -0.00080226181109731981 0 0.036026894828910229 -0.00082991646599288413 0 0.035887037288887688 -0.00062034146449656085 0 0.03575332237062008 -0.00080226181109731981 0 0.036026894828910229 -0.00082991646599288413 0 0.035883713207985043 -0.0010489312486998967 0 0.03575332237062008 -0.00080226181109731981 0 0.039067822973528656 0.00034509594825391009 0 0.03493600074641201 0.00010437533798858867 0 0.03558106395344663 -0.0010579078591269411 0 0.03575332237062008 -0.00080226181109731981 0 0.035510633310328839 -0.00079031059381713263 0 0.035161134720940637 0.0017458459848489006 0 0.035224275735374296 0.00091318070429023234 0 0.035791626714555665 0.0011509019472416727 0 0.035224275735374296 0.00091318070429023234 0 0.035791626714555665 0.0011509019472416727 0 0.035721070592123934 0.00045632313711931391 0 0.035359872731322323 0.00013154589829055452 0 0.035224275735374296 0.00091318070429023234 0 0.035721070592123934 0.00045632313711931391 0 0.035469567955540765 -0.0005270289985395551 0 0.035648155802776624 -0.00058864683852866216 0 0.035510633310328839 -0.00079031059381713263 0 0.035470865646249017 -0.00020866172335156418 0 0.03493600074641201 0.00010437533798858867 0 0.044994721210919707 -8.8884956290346945e-07 0 0.043085229039687076 3.1276045874523578e-05 0 0.038965392761607202 1.9639526497070593e-06 0 0.044994721210919707 -8.8884956290346945e-07 0 0.043085229039687076 3.1276045874523578e-05 0 0.044997895923787619 2.1981275111143593e-07 0 0.041537384195593025 0.00034499305494428158 0 0.043085229039687076 3.1276045874523578e-05 0 0.038965392761607202 1.9639526497070593e-06 0 0.043085229039687076 3.1276045874523578e-05 0 0.043472358821337986 0.0005191583285405842 0 0.044997895923787619 2.1981275111143593e-07 0 0.043085229039687076 3.1276045874523578e-05 0 0.043472358821337986 0.0005191583285405842 0 0.042713920006757951 0.00043099338076295346 0 0.043472358821337986 0.0005191583285405842 0 0.042713920006757951 0.00043099338076295346 0 0.04199184813159982 0.00048863390760399688 0 0.043085229039687076 3.1276045874523578e-05 0 0.042713920006757951 0.00043099338076295346 0 0.042154364515483024 0.00042129572282208146 0 0.041537384195593025 0.00034499305494428158 0 0.042154364515483024 0.00042129572282208146 0 0.041733178411031482 0.00055175974932051446 0 0.041537384195593025 0.00034499305494428158 0 0.043085229039687076 3.1276045874523578e-05 0 0.042154364515483024 0.00042129572282208146 0 0.042713920006757951 0.00043099338076295346 0 0.041904512536644477 0.00045292748886578297 0 0.04199184813159982 0.00048863390760399688 0 0.042713920006757951 0.00043099338076295346 0 0.042154364515483024 0.00042129572282208146 0 0.041904512536644477 0.00045292748886578297 0 0.04199184813159982 0.00048863390760399688 0 0.040912801220977207 0.00059318157837900758 0 0.041185005291569959 0.00045175991246278934 0 0.041904512536644477 0.00045292748886578297 0 0.04199184813159982 0.00048863390760399688 0 0.041185005291569959 0.00045175991246278934 0 0.040912801220977207 0.00059318157837900758 0 0.040423587999887399 0.00057910872086399561 0 0.040095501412368673 0.00054536684140129568 0 0.04199184813159982 0.00048863390760399688 0 0.040912801220977207 0.00059318157837900758 0 0.041270992190374084 0.0011549752362505739 0 0.040912801220977207 0.00059318157837900758 0 0.041270992190374084 0.0011549752362505739 0 0.04043049564166034 0.0010281875622227801 0 0.043363278935471573 0.00058000988113647589 0 0.042968420380898105 0.00071828487386322215 0 0.043472358821337986 0.0005191583285405842 0 0.04199184813159982 0.00048863390760399688 0 0.041270992190374084 0.0011549752362505739 0 0.043472358821337986 0.0005191583285405842 0 0.044738491973741017 0.0003860890544636306 0 0.044997895923787619 2.1981275111143593e-07 0 0.044738491973741017 0.0003860890544636306 0 0.044997895923787619 2.1981275111143593e-07 0 0.045000485905487601 3.6051225570132714e-08 0 0.044997513933129479 9.8520666618381547e-05 0 0.045000485905487601 3.6051225570132714e-08 0 0.044870267891385054 0.00029275354171556415 0 0.044738491973741017 0.0003860890544636306 0 0.045000485905487601 3.6051225570132714e-08 0 0.044870267891385054 0.00029275354171556415 0 0.044997513933129479 9.8520666618381547e-05 0 0.044960659332746664 0.00021906625798658483 0 0.044870267891385054 0.00029275354171556415 0 0.04011781988476807 0.00090758835927486385 0 0.04043049564166034 0.0010281875622227801 0 0.040269128342166616 0.00075721461350252404 0 0.042185926317693363 0.00047337630546274469 0 0.042730465924255098 0.00067846914904843452 0 0.040084254758347218 0.00091640866762417519 0 0.04011781988476807 0.00090758835927486385 0 0.04043049564166034 0.0010281875622227801 0 0.04011781988476807 0.00090758835927486385 0 0.040052265698965112 0.00079526087285505462 0 0.040269128342166616 0.00075721461350252404 0 0.042968420380898105 0.00071828487386322215 0 0.042730465924255098 0.00067846914904843452 0 0.040912801220977207 0.00059318157837900758 0 0.04043049564166034 0.0010281875622227801 0 0.040423587999887399 0.00057910872086399561 0 0.04043049564166034 0.0010281875622227801 0 0.040423587999887399 0.00057910872086399561 0 0.040269128342166616 0.00075721461350252404 0 0.040052265698965112 0.00079526087285505462 0 0.040269128342166616 0.00075721461350252404 0 0.040316964429102022 0.00055350059189017788 0 0.040423587999887399 0.00057910872086399561 0 0.040269128342166616 0.00075721461350252404 0 0.040316964429102022 0.00055350059189017788 0 0.040423587999887399 0.00057910872086399561 0 0.040316964429102022 0.00055350059189017788 0 0.040095501412368673 0.00054536684140129568 0 0.039575413801113055 0.00089836002454510679 0 0.040043613308623029 0.00059811089126195834 0 0.038719653207563702 0.0013433528451899715 0 0.039157642380472479 1.3837303634659889e-05 0 0.040095501412368673 0.00054536684140129568 0 0.039157642380472479 1.3837303634659889e-05 0 0.038274425594279168 0.00051602060121526459 0 0.038377447224329037 -0.00010273827560207997 0 0.038719653207563702 0.0013433528451899715 0 0.039157642380472479 1.3837303634659889e-05 0 0.038274425594279168 0.00051602060121526459 0 0.039157642380472479 1.3837303634659889e-05 0 0.038377447224329037 -0.00010273827560207997 0 0.039000879262519821 -0.00038863764687701045 0 0.038377447224329037 -0.00010273827560207997 0 0.038454021409554187 -0.0005024293901173336 0 0.039000879262519821 -0.00038863764687701045 0 0.038454021409554187 -0.0005024293901173336 0 0.039000879262519821 -0.00038863764687701045 0 0.039112062086346634 -0.00073012155614258936 0 0.038454021409554187 -0.0005024293901173336 0 0.039112062086346634 -0.00073012155614258936 0 0.037783934078323145 -0.00099321419680886008 0 0.039000879262519821 -0.00038863764687701045 0 0.039282937677202055 -0.00048334026563866283 0 0.039112062086346634 -0.00073012155614258936 0 0.039157642380472479 1.3837303634659889e-05 0 0.039000879262519821 -0.00038863764687701045 0 0.039282937677202055 -0.00048334026563866283 0 0.039157642380472479 1.3837303634659889e-05 0 0.039918316445827148 -2.49284610088955e-05 0 0.039282937677202055 -0.00048334026563866283 0 0.039918316445827148 -2.49284610088955e-05 0 0.039282937677202055 -0.00048334026563866283 0 0.039465413430603204 -0.00035330277654060596 0 0.038572348022770854 -0.00063665762971476742 0 0.037730765079563265 -0.00058167089915895601 0 0.039282937677202055 -0.00048334026563866283 0 0.038639187728005661 -0.0006674637357767726 0 0.039465413430603204 -0.00035330277654060596 0 0.039282937677202055 -0.00048334026563866283 0 0.038639187728005661 -0.0006674637357767726 0 0.039112062086346634 -0.00073012155614258936 0 0.038639187728005661 -0.0006674637357767726 0 0.03967342126996639 -0.00041179935451228516 0 0.040363123645867478 -0.00078430578804341319 0 0.038639187728005661 -0.0006674637357767726 0 0.03967342126996639 -0.00041179935451228516 0 0.039465413430603204 -0.00035330277654060596 0 0.03967342126996639 -0.00041179935451228516 0 0.040039350329790231 -0.00013743901640597185 0 0.039465413430603204 -0.00035330277654060596 0 0.03967342126996639 -0.00041179935451228516 0 0.040039350329790231 -0.00013743901640597185 0 0.040225797830633674 -0.00026654786672009062 0 0.039918316445827148 -2.49284610088955e-05 0 0.040039350329790231 -0.00013743901640597185 0 0.04058513847832701 0.00017740123555857402 0 0.039918316445827148 -2.49284610088955e-05 0 0.040039350329790231 -0.00013743901640597185 0 0.039465413430603204 -0.00035330277654060596 0 0.040039350329790231 -0.00013743901640597185 0 0.04058513847832701 0.00017740123555857402 0 0.040468820327553674 -4.7483871616559987e-05 0 0.04058513847832701 0.00017740123555857402 0 0.040674161285551486 0.00032016358361657959 0 0.041012362154314995 0.00036646434571410653 0 0.039918316445827148 -2.49284610088955e-05 0 0.04058513847832701 0.00017740123555857402 0 0.040674161285551486 0.00032016358361657959 0 0.040674161285551486 0.00032016358361657959 0 0.041086325709287871 0.00040360997858494152 0 0.041012362154314995 0.00036646434571410653 0 0.039918316445827148 -2.49284610088955e-05 0 0.040674161285551486 0.00032016358361657959 0 0.040095501412368673 0.00054536684140129568 0 0.039157642380472479 1.3837303634659889e-05 0 0.039918316445827148 -2.49284610088955e-05 0 0.040095501412368673 0.00054536684140129568 0 0.040674161285551486 0.00032016358361657959 0 0.040095501412368673 0.00054536684140129568 0 0.041185005291569959 0.00045175991246278934 0 0.040912801220977207 0.00059318157837900758 0 0.040095501412368673 0.00054536684140129568 0 0.041185005291569959 0.00045175991246278934 0 0.040674161285551486 0.00032016358361657959 0 0.041185005291569959 0.00045175991246278934 0 0.041086325709287871 0.00040360997858494152 0 0.041185005291569959 0.00045175991246278934 0 0.041086325709287871 0.00040360997858494152 0 0.041472544387891233 0.00047617659608233998 0 0.041472544387891233 0.00047617659608233998 0 0.041643094373679121 0.00053918514486903687 0 0.041471908964528119 0.00052048183207555499 0 0.041904512536644477 0.00045292748886578297 0 0.041185005291569959 0.00045175991246278934 0 0.041472544387891233 0.00047617659608233998 0 0.042154364515483024 0.00042129572282208146 0 0.041904512536644477 0.00045292748886578297 0 0.041643094373679121 0.00053918514486903687 0 0.041904512536644477 0.00045292748886578297 0 0.041472544387891233 0.00047617659608233998 0 0.041643094373679121 0.00053918514486903687 0 0.042154364515483024 0.00042129572282208146 0 0.041733178411031482 0.00055175974932051446 0 0.041643094373679121 0.00053918514486903687 0 0.041733178411031482 0.00055175974932051446 0 0.041596225052757882 0.0006291958627229941 0 0.041427400339364318 0.0006671778123128006 0 0.041643094373679121 0.00053918514486903687 0 0.041450846828707741 0.00056740004645642402 0 0.041471908964528119 0.00052048183207555499 0 0.041733178411031482 0.00055175974932051446 0 0.041596225052757882 0.0006291958627229941 0 0.041643094373679121 0.00053918514486903687 0 0.041596225052757882 0.0006291958627229941 0 0.041643094373679121 0.00053918514486903687 0 0.041450846828707741 0.00056740004645642402 0 0.041450846828707741 0.00056740004645642402 0 0.041471608705078419 0.0006548735639894253 0 0.041394045840584349 0.0005671513769367172 0 0.041450846828707741 0.00056740004645642402 0 0.041324804395113192 0.00049109305099264713 0 0.041394045840584349 0.0005671513769367172 0 0.041596225052757882 0.0006291958627229941 0 0.041471608705078419 0.0006548735639894253 0 0.041416886622015273 0.00077616382612819327 0 0.041596225052757882 0.0006291958627229941 0 0.041450846828707741 0.00056740004645642402 0 0.041471608705078419 0.0006548735639894253 0 0.041471608705078419 0.0006548735639894253 0 0.041426448323424875 0.00066733422823414947 0 0.041416886622015273 0.00077616382612819327 0 0.041426448323424875 0.00066733422823414947 0 0.041394045840584349 0.0005671513769367172 0 0.041438152491968881 0.00058589877974111007 0 0.041471608705078419 0.0006548735639894253 0 0.041426448323424875 0.00066733422823414947 0 0.041394045840584349 0.0005671513769367172 0 0.041394045840584349 0.0005671513769367172 0 0.041214338297622485 0.00039192805922157398 0 0.041438152491968881 0.00058589877974111007 0 0.041324804395113192 0.00049109305099264713 0 0.041394045840584349 0.0005671513769367172 0 0.041214338297622485 0.00039192805922157398 0 0.041174327102852577 0.00035970437465816986 0 0.041214338297622485 0.00039192805922157398 0 0.041140281876024275 0.00034991793610844384 0 0.04108885022639909 0.00031159598141256408 0 0.041214338297622485 0.00039192805922157398 0 0.041082273599567343 0.00036037228379616503 0 0.041174327102852577 0.00035970437465816986 0 0.04108885022639909 0.00031159598141256408 0 0.041214338297622485 0.00039192805922157398 0 0.041082273599567343 0.00036037228379616503 0 0.040822305622348572 0.00024876895008083932 0 0.040933040897883882 0.00022759701522856571 0 0.04108885022639909 0.00031159598141256408 0 0.041082273599567343 0.00036037228379616503 0 0.040933040897883882 0.00022759701522856571 0 0.041082273599567343 0.00036037228379616503 0 0.041227317110607224 0.00043155866223395861 0 0.041282888419611648 0.0004642617992785117 0 0.041082273599567343 0.00036037228379616503 0 0.041282888419611648 0.0004642617992785117 0 0.041012362154314995 0.00036646434571410653 0 0.041214338297622485 0.00039192805922157398 0 0.041082273599567343 0.00036037228379616503 0 0.041227317110607224 0.00043155866223395861 0 0.041324804395113192 0.00049109305099264713 0 0.041214338297622485 0.00039192805922157398 0 0.041227317110607224 0.00043155866223395861 0 0.041324804395113192 0.00049109305099264713 0 0.041227317110607224 0.00043155866223395861 0 0.041282888419611648 0.0004642617992785117 0 0.041472544387891233 0.00047617659608233998 0 0.041282888419611648 0.0004642617992785117 0 0.041471908964528119 0.00052048183207555499 0 0.041450846828707741 0.00056740004645642402 0 0.041324804395113192 0.00049109305099264713 0 0.041282888419611648 0.0004642617992785117 0 0.041450846828707741 0.00056740004645642402 0 0.041282888419611648 0.0004642617992785117 0 0.041471908964528119 0.00052048183207555499 0 0.041472544387891233 0.00047617659608233998 0 0.041282888419611648 0.0004642617992785117 0 0.041012362154314995 0.00036646434571410653 0 0.041086325709287871 0.00040360997858494152 0 0.041472544387891233 0.00047617659608233998 0 0.041012362154314995 0.00036646434571410653 0 0.04058513847832701 0.00017740123555857402 0 0.041012362154314995 0.00036646434571410653 0 0.040822305622348572 0.00024876895008083932 0 0.041082273599567343 0.00036037228379616503 0 0.041012362154314995 0.00036646434571410653 0 0.040822305622348572 0.00024876895008083932 0 0.04058513847832701 0.00017740123555857402 0 0.040822305622348572 0.00024876895008083932 0 0.040749775937914824 0.00014366813029947507 0 0.04058513847832701 0.00017740123555857402 0 0.040749775937914824 0.00014366813029947507 0 0.040468820327553674 -4.7483871616559987e-05 0 0.040822305622348572 0.00024876895008083932 0 0.040749775937914824 0.00014366813029947507 0 0.040933040897883882 0.00022759701522856571 0 0.040749775937914824 0.00014366813029947507 0 0.040827812990605783 5.647623371263405e-05 0 0.040468820327553674 -4.7483871616559987e-05 0 0.041174327102852577 0.00035970437465816986 0 0.041023895698337733 0.000202396935894836 0 0.041101836552057278 2.0326184688073952e-05 0 0.041174327102852577 0.00035970437465816986 0 0.04108885022639909 0.00031159598141256408 0 0.041023895698337733 0.000202396935894836 0 0.04108885022639909 0.00031159598141256408 0 0.041023895698337733 0.000202396935894836 0 0.040933040897883882 0.00022759701522856571 0 0.040749775937914824 0.00014366813029947507 0 0.040933040897883882 0.00022759701522856571 0 0.040827812990605783 5.647623371263405e-05 0 0.041023895698337733 0.000202396935894836 0 0.040933040897883882 0.00022759701522856571 0 0.040827812990605783 5.647623371263405e-05 0 0.041023895698337733 0.000202396935894836 0 0.040827812990605783 5.647623371263405e-05 0 0.041101836552057278 2.0326184688073952e-05 0 0.040827812990605783 5.647623371263405e-05 0 0.040725052381123401 -0.00017439530009123689 0 0.041101836552057278 2.0326184688073952e-05 0 0.040827812990605783 5.647623371263405e-05 0 0.040725052381123401 -0.00017439530009123689 0 0.040468820327553674 -4.7483871616559987e-05 0 0.040725052381123401 -0.00017439530009123689 0 0.040468820327553674 -4.7483871616559987e-05 0 0.040225797830633674 -0.00026654786672009062 0 0.040039350329790231 -0.00013743901640597185 0 0.040468820327553674 -4.7483871616559987e-05 0 0.040225797830633674 -0.00026654786672009062 0 0.040725052381123401 -0.00017439530009123689 0 0.040363123645867478 -0.00078430578804341319 0 0.041389558230861316 -0.00015124885759225609 0 0.03858995730792434 -0.0015454904591397072 0 0.038589448873724244 -0.0009151864728418243 0 0.040725052381123401 -0.00017439530009123689 0 0.040225797830633674 -0.00026654786672009062 0 0.040363123645867478 -0.00078430578804341319 0 0.03967342126996639 -0.00041179935451228516 0 0.040225797830633674 -0.00026654786672009062 0 0.040363123645867478 -0.00078430578804341319 0 0.036879943579597146 -0.0022957290787283475 0 0.036418060634908961 -0.0023646145111839338 0 0.036410304897016021 -0.0018421880376655402 0 0.036418060634908961 -0.0023646145111839338 0 0.036047380870785128 -0.0026225817832203607 0 0.036410304897016021 -0.0018421880376655402 0 0.034677970648768701 -0.0020672421971640611 0 0.034674960106343071 -0.0035437082068822162 0 0.036879943579597146 -0.0022957290787283475 0 0.036418060634908961 -0.0023646145111839338 0 0.036234337309154367 -0.0028786741459955697 0 0.032437259333607527 -0.0059994702640906328 0 0.031360936292254657 -0.0044105681656777616 0 0.033238200517280346 -0.0044214174273007785 0 0.036418060634908961 -0.0023646145111839338 0 0.036047380870785128 -0.0026225817832203607 0 0.036234337309154367 -0.0028786741459955697 0 0.034677970648768701 -0.0020672421971640611 0 0.036145960484241811 4.1685887050090253e-05 0 0.036900075157614051 -0.0013396146683708409 0 0.036930067276209198 -0.0006255954279046998 0 0.037369044003190278 -0.00038964398754132254 0 0.034677970648768701 -0.0020672421971640611 0 0.038589448873724244 -0.0009151864728418243 0 0.036900075157614051 -0.0013396146683708409 0 0.036462938781574306 -0.00064165361354798429 0 0.036930067276209198 -0.0006255954279046998 0 0.036462938781574306 -0.00064165361354798429 0 0.036930067276209198 -0.0006255954279046998 0 0.036988425437622097 -0.00013181379719068927 0 0.038589448873724244 -0.0009151864728418243 0 0.039164729275123301 -9.6653991704115472e-05 0 0.036930067276209198 -0.0006255954279046998 0 0.036988425437622097 -0.00013181379719068927 0 0.037369044003190278 -0.00038964398754132254 0 0.040725052381123401 -0.00017439530009123689 0 0.041389558230861316 -0.00015124885759225609 0 0.041101836552057278 2.0326184688073952e-05 0 0.041174327102852577 0.00035970437465816986 0 0.041389558230861316 -0.00015124885759225609 0 0.041101836552057278 2.0326184688073952e-05 0 0.041214338297622485 0.00039192805922157398 0 0.041140281876024275 0.00034991793610844384 0 0.041079947022924397 0.00032378695327560711 0 0.040918902073262889 -2.9783971243790626e-05 0 0.038589448873724244 -0.0009151864728418243 0 0.041579215610790601 0.00016187123832060957 0 0.039164729275123301 -9.6653991704115472e-05 0 0.041174327102852577 0.00035970437465816986 0 0.04110576806344006 0.00035101073356154025 0 0.041140281876024275 0.00034991793610844384 0 0.04110576806344006 0.00035101073356154025 0 0.041140281876024275 0.00034991793610844384 0 0.041079947022924397 0.00032378695327560711 0 0.039164729275123301 -9.6653991704115472e-05 0 0.036145960484241811 4.1685887050090253e-05 0 0.036145960484241811 4.1685887050090253e-05 0 0.039298533381639765 0.00075603796603293039 0 0.032570690129049173 0.0003400055316539484 0 0.032682395469023226 0.00054141596608182397 0 0.032999482139151652 0.00035259218461876628 0 0.039164729275123301 -9.6653991704115472e-05 0 0.039298533381639765 0.00075603796603293039 0 0.037415822883614058 -0.00020157328739902876 0 0.037917771519926473 -0.00054026567683193745 0 0.038691189873243409 0.001032416330842904 0 0.036248451786661966 -3.9738705522111739e-05 0 0.036321118092754047 -1.2597181414312558e-05 0 0.036327748158505216 -1.0306892911097008e-05 0 0.036248451786661966 -3.9738705522111739e-05 0 0.036321118092754047 -1.2597181414312558e-05 0 0.035846277025906294 4.5605189810896994e-08 0 0.036145960484241811 4.1685887050090253e-05 0 0.0342256839794099 0.00024079819406460157 0 0.034677970648768701 -0.0020672421971640611 0 0.031881449531364965 -0.0022207916799761151 0 0.032570690129049173 0.0003400055316539484 0 0.032999482139151652 0.00035259218461876628 0 0.032800313500006312 -0.00010031182287108377 0 0.033957426419211484 1.4436454875712977e-06 0 0.035846277025906294 4.5605189810896994e-08 0 0.036454523551077506 -1.4188065248472577e-06 0 0.033951368244734374 7.3270011536494053e-07 0 0.032999482139151652 0.00035259218461876628 0 0.032878915091131417 -0.00016731630147146233 0 0.03395495980266218 -1.3873785466071228e-07 0 0.0342256839794099 0.00024079819406460157 0 0.036248451786661966 -3.9738705522111739e-05 0 0.035846277025906294 4.5605189810896994e-08 0 0.036454523551077506 -1.4188065248472577e-06 0 0.036248451786661966 -3.9738705522111739e-05 0 0.036454523551077506 -1.4188065248472577e-06 0 0.036575557255863304 -9.3254064767989002e-06 0 0.036454523551077506 -1.4188065248472577e-06 0 0.037049597408566608 4.1971434288639341e-05 0 0.036575557255863304 -9.3254064767989002e-06 0 0.036454523551077506 -1.4188065248472577e-06 0 0.037049597408566608 4.1971434288639341e-05 0 0.038953226941224113 1.4234811159176649e-06 0 0.036248451786661966 -3.9738705522111739e-05 0 0.036575557255863304 -9.3254064767989002e-06 0 0.036327748158505216 -1.0306892911097008e-05 0 0.037049597408566608 4.1971434288639341e-05 0 0.036575557255863304 -9.3254064767989002e-06 0 0.036327748158505216 -1.0306892911097008e-05 0 0.041426448323424875 0.00066733422823414947 0 0.041438152491968881 0.00058589877974111007 0 0.041375803219870506 0.00076523818648252247 0 0.041426448323424875 0.00066733422823414947 0 0.041375803219870506 0.00076523818648252247 0 0.041416886622015273 0.00077616382612819327 0 0.041375803219870506 0.00076523818648252247 0 0.041416886622015273 0.00077616382612819327 0 0.040999586554149349 0.00099088813154301139 0 0.038702092669129835 0.00040223758461005243 0 0.039298533381639765 0.00075603796603293039 0 0.039298533381639765 0.00075603796603293039 0 0.040931101338273719 0.0014116244390695361 0 0.040456558416871881 0.0010385497711424107 0 0.041439824692000304 0.0018256265152359259 0 0.040999586554149349 0.00099088813154301139 0 0.040456558416871881 0.0010385497711424107 0 0.040999586554149349 0.00099088813154301139 0 0.041427400339364318 0.0006671778123128006 0 0.041537384195593025 0.00034499305494428158 0 0.040456558416871881 0.0010385497711424107 0 0.041427400339364318 0.0006671778123128006 0 0.041596225052757882 0.0006291958627229941 0 0.041416886622015273 0.00077616382612819327 0 0.041427400339364318 0.0006671778123128006 0 0.041416886622015273 0.00077616382612819327 0 0.040999586554149349 0.00099088813154301139 0 0.041427400339364318 0.0006671778123128006 0 0.041537384195593025 0.00034499305494428158 0 0.041733178411031482 0.00055175974932051446 0 0.041427400339364318 0.0006671778123128006 0 0.041537384195593025 0.00034499305494428158 0 0.040456558416871881 0.0010385497711424107 0 0.038965392761607202 1.9639526497070593e-06 0 0.038702092669129835 0.00040223758461005243 0 0.038955117496984853 6.3128268001164896e-08 0 0.028379512449162245 -8.8310934769035005e-07 0 0.030100521433163184 -0.00042004520799555017 0 0.030077323643514457 0.00029777283552948817 0 0.028379512449162245 -8.8310934769035005e-07 0 0.030100521433163184 -0.00042004520799555017 0 0.030076776488980939 -3.2588313801137171e-06 0 0.030100521433163184 -0.00042004520799555017 0 0.032052433023257124 -0.0017760736231966646 0 0.031842535377127286 -0.00032119242518951981 0 0.030100521433163184 -0.00042004520799555017 0 0.031842535377127286 -0.00032119242518951981 0 0.030077323643514457 0.00029777283552948817 0 0.030648747483111305 -0.0011546425155361255 0 0.030258719298051951 -0.0024838137516126151 0 0.032052433023257124 -0.0017760736231966646 0 0.030100521433163184 -0.00042004520799555017 0 0.030648747483111305 -0.0011546425155361255 0 0.032052433023257124 -0.0017760736231966646 0 0.030100521433163184 -0.00042004520799555017 0 0.030648747483111305 -0.0011546425155361255 0 0.030076776488980939 -3.2588313801137171e-06 0 0.030648747483111305 -0.0011546425155361255 0 0.030076776488980939 -3.2588313801137171e-06 0 0.030258719298051951 -0.0024838137516126151 0 0.030080881219996494 -7.4825191119190362e-07 0 0.031387075614706182 -0.0013855544300630375 0 0.030081458241273385 9.5748654842339562e-07 0 0.032396379851002979 -2.9808842991357879e-06 0 0.032018145583267384 -8.8956607962680026e-07 0 0.032396379851002979 -2.9808842991357879e-06 0 0.032018145583267384 -8.8956607962680026e-07 0 0.032878915091131417 -0.00016731630147146233 0 0.033951368244734374 7.3270011536494053e-07 0 0.032018145583267384 -8.8956607962680026e-07 0 0.032878915091131417 -0.00016731630147146233 0 0.032396379851002979 -2.9808842991357879e-06 0 0.032878915091131417 -0.00016731630147146233 0 0.032800313500006312 -0.00010031182287108377 0 0.030258719298051951 -0.0024838137516126151 0 0.031360936292254657 -0.0044105681656777616 0 0.032273764906099955 -0.0032479153402010016 0 0.031387075614706182 -0.0013855544300630375 0 0.031881449531364965 -0.0022207916799761151 0 0.032999482139151652 0.00035259218461876628 0 0.032878915091131417 -0.00016731630147146233 0 0.032800313500006312 -0.00010031182287108377 0 0.030258719298051951 -0.0024838137516126151 0 0.032273764906099955 -0.0032479153402010016 0 0.032052433023257124 -0.0017760736231966646 0 0.032273764906099955 -0.0032479153402010016 0 0.034177137873966819 -0.0029849580642007738 0 0.032052433023257124 -0.0017760736231966646 0 0.031360936292254657 -0.0044105681656777616 0 0.032273764906099955 -0.0032479153402010016 0 0.033238200517280346 -0.0044214174273007785 0 0.032273764906099955 -0.0032479153402010016 0 0.033238200517280346 -0.0044214174273007785 0 0.034177137873966819 -0.0029849580642007738 0 0.034674960106343071 -0.0035437082068822162 0 0.03547547237508434 -0.0019875911920734925 0 0.036879943579597146 -0.0022957290787283475 0 0.036958862334897605 -0.0016039589015126212 0 0.037901713972596049 -0.0014350004299896954 0 0.036410304897016021 -0.0018421880376655402 0 0.036958862334897605 -0.0016039589015126212 0 0.036719878296243715 -0.0012720320140334131 0 0.036879943579597146 -0.0022957290787283475 0 0.036410304897016021 -0.0018421880376655402 0 0.036958862334897605 -0.0016039589015126212 0 0.036719878296243715 -0.0012720320140334131 0 0.035697157925383236 -0.0013239227020049691 0 0.037020045365827793 -0.0013051811273843258 0 0.036958862334897605 -0.0016039589015126212 0 0.036719878296243715 -0.0012720320140334131 0 0.037020045365827793 -0.0013051811273843258 0 0.03547547237508434 -0.0019875911920734925 0 0.03573540050259761 -0.0013332211691979049 0 0.034177137873966819 -0.0029849580642007738 0 0.035697157925383236 -0.0013239227020049691 0 0.033402060013315728 -0.0010113163796254844 0 0.034177137873966819 -0.0029849580642007738 0 0.032052433023257124 -0.0017760736231966646 0 0.033402060013315728 -0.0010113163796254844 0 0.032052433023257124 -0.0017760736231966646 0 0.033402060013315728 -0.0010113163796254844 0 0.031842535377127286 -0.00032119242518951981 0 0.031842535377127286 -0.00032119242518951981 0 0.033816752978195294 0.00015333789564933643 0 0.031959884642987504 0.00062706357574411598 0 0.033402060013315728 -0.0010113163796254844 0 0.031842535377127286 -0.00032119242518951981 0 0.033816752978195294 0.00015333789564933643 0 0.035697157925383236 -0.0013239227020049691 0 0.033816752978195294 0.00015333789564933643 0 0.035446373942813754 -0.00017894872781960489 0 0.035697157925383236 -0.0013239227020049691 0 0.033402060013315728 -0.0010113163796254844 0 0.033816752978195294 0.00015333789564933643 0 0.035697157925383236 -0.0013239227020049691 0 0.035446373942813754 -0.00017894872781960489 0 0.036450821422358476 -0.0011087264641761086 0 0.035446373942813754 -0.00017894872781960489 0 0.036225833925819108 -0.00046509167812552047 0 0.036450821422358476 -0.0011087264641761086 0 0.036225833925819108 -0.00046509167812552047 0 0.036806613987614714 -0.0009062679050342628 0 0.036747538255811771 -0.0010813706713122435 0 0.036806613987614714 -0.0009062679050342628 0 0.036906925218979925 -0.0012099646149515771 0 0.03669211541493729 -0.00069122141807558045 0 0.036806613987614714 -0.0009062679050342628 0 0.036826424170802362 -0.0011331619545905695 0 0.036906925218979925 -0.0012099646149515771 0 0.036826424170802362 -0.0011331619545905695 0 0.036747538255811771 -0.0010813706713122435 0 0.036773036507042292 -0.0011846385830285393 0 0.036806613987614714 -0.0009062679050342628 0 0.036826424170802362 -0.0011331619545905695 0 0.036747538255811771 -0.0010813706713122435 0 0.036225833925819108 -0.00046509167812552047 0 0.036747538255811771 -0.0010813706713122435 0 0.036450821422358476 -0.0011087264641761086 0 0.036834567362139393 -0.0012424246431111034 0 0.036918314159484482 -0.0012236367986393768 0 0.036773036507042292 -0.0011846385830285393 0 0.036747538255811771 -0.0010813706713122435 0 0.036834567362139393 -0.0012424246431111034 0 0.036450821422358476 -0.0011087264641761086 0 0.036747538255811771 -0.0010813706713122435 0 0.036834567362139393 -0.0012424246431111034 0 0.036773036507042292 -0.0011846385830285393 0 0.036834567362139393 -0.0012424246431111034 0 0.036450821422358476 -0.0011087264641761086 0 0.036903174009713879 -0.0013288832406152357 0 0.036834567362139393 -0.0012424246431111034 0 0.036903174009713879 -0.0013288832406152357 0 0.036918314159484482 -0.0012236367986393768 0 0.035697157925383236 -0.0013239227020049691 0 0.036903174009713879 -0.0013288832406152357 0 0.037020045365827793 -0.0013051811273843258 0 0.035697157925383236 -0.0013239227020049691 0 0.036450821422358476 -0.0011087264641761086 0 0.036903174009713879 -0.0013288832406152357 0 0.036903174009713879 -0.0013288832406152357 0 0.037020045365827793 -0.0013051811273843258 0 0.037402635216437066 -0.001310379346655074 0 0.037020045365827793 -0.0013051811273843258 0 0.037901713972596049 -0.0014350004299896954 0 0.037402635216437066 -0.001310379346655074 0 0.038639187728005661 -0.0006674637357767726 0 0.040363123645867478 -0.00078430578804341319 0 0.037901713972596049 -0.0014350004299896954 0 0.036958862334897605 -0.0016039589015126212 0 0.037020045365827793 -0.0013051811273843258 0 0.037901713972596049 -0.0014350004299896954 0 0.03858995730792434 -0.0015454904591397072 0 0.038100161043751982 -0.0014309944625333383 0 0.038639187728005661 -0.0006674637357767726 0 0.037901713972596049 -0.0014350004299896954 0 0.037591621080017429 -0.0010308964995198624 0 0.037591621080017429 -0.0010308964995198624 0 0.037058902125874926 -0.0010490663362245918 0 0.036356928901237658 -0.00036337776917385261 0 0.038639187728005661 -0.0006674637357767726 0 0.037591621080017429 -0.0010308964995198624 0 0.036356928901237658 -0.00036337776917385261 0 0.037901713972596049 -0.0014350004299896954 0 0.037591621080017429 -0.0010308964995198624 0 0.037402635216437066 -0.001310379346655074 0 0.037591621080017429 -0.0010308964995198624 0 0.037058902125874926 -0.0010490663362245918 0 0.037402635216437066 -0.001310379346655074 0 0.037058902125874926 -0.0010490663362245918 0 0.037402635216437066 -0.001310379346655074 0 0.036918314159484482 -0.0012236367986393768 0 0.036903174009713879 -0.0013288832406152357 0 0.037402635216437066 -0.001310379346655074 0 0.036918314159484482 -0.0012236367986393768 0 0.036918314159484482 -0.0012236367986393768 0 0.036487303030069494 -0.0008861071474261477 0 0.036426590955806491 -0.0010816028808868837 0 0.037058902125874926 -0.0010490663362245918 0 0.036918314159484482 -0.0012236367986393768 0 0.036487303030069494 -0.0008861071474261477 0 0.037058902125874926 -0.0010490663362245918 0 0.036487303030069494 -0.0008861071474261477 0 0.036356928901237658 -0.00036337776917385261 0 0.036487303030069494 -0.0008861071474261477 0 0.036356928901237658 -0.00036337776917385261 0 0.036168645718457099 -0.00068345681765139411 0 0.037730765079563265 -0.00058167089915895601 0 0.036824575532554978 -0.00073358146293852754 0 0.036356928901237658 -0.00036337776917385261 0 0.035845738441184383 -0.00054770929195522026 0 0.035891438678157736 -0.00057511531896660667 0 0.036356928901237658 -0.00036337776917385261 0 0.036168645718457099 -0.00068345681765139411 0 0.035891438678157736 -0.00057511531896660667 0 0.036168645718457099 -0.00068345681765139411 0 0.035997957851827522 -0.00084172271138878776 0 0.035891438678157736 -0.00057511531896660667 0 0.036487303030069494 -0.0008861071474261477 0 0.035997957851827522 -0.00084172271138878776 0 0.036426590955806491 -0.0010816028808868837 0 0.036487303030069494 -0.0008861071474261477 0 0.036168645718457099 -0.00068345681765139411 0 0.035997957851827522 -0.00084172271138878776 0 0.035997957851827522 -0.00084172271138878776 0 0.035783391244130651 -0.0011577359053007059 0 0.036426590955806491 -0.0010816028808868837 0 0.035783391244130651 -0.0011577359053007059 0 0.036426590955806491 -0.0010816028808868837 0 0.036309710555140012 -0.0012135318469602252 0 0.036918314159484482 -0.0012236367986393768 0 0.036426590955806491 -0.0010816028808868837 0 0.036773036507042292 -0.0011846385830285393 0 0.036426590955806491 -0.0010816028808868837 0 0.036773036507042292 -0.0011846385830285393 0 0.036309710555140012 -0.0012135318469602252 0 0.036309710555140012 -0.0012135318469602252 0 0.036589802965818048 -0.0012743520665368757 0 0.036049848319566466 -0.0014676156343477445 0 0.036773036507042292 -0.0011846385830285393 0 0.036309710555140012 -0.0012135318469602252 0 0.036589802965818048 -0.0012743520665368757 0 0.036826424170802362 -0.0011331619545905695 0 0.036773036507042292 -0.0011846385830285393 0 0.036589802965818048 -0.0012743520665368757 0 0.036826424170802362 -0.0011331619545905695 0 0.036589802965818048 -0.0012743520665368757 0 0.036906925218979925 -0.0012099646149515771 0 0.036589802965818048 -0.0012743520665368757 0 0.036614332887159574 -0.0014264684107101759 0 0.036906925218979925 -0.0012099646149515771 0 0.036614332887159574 -0.0014264684107101759 0 0.036906925218979925 -0.0012099646149515771 0 0.036615037344352695 -0.0017330215049471309 0 0.036589802965818048 -0.0012743520665368757 0 0.036350880373381772 -0.0016115763558076078 0 0.036049848319566466 -0.0014676156343477445 0 0.036589802965818048 -0.0012743520665368757 0 0.036614332887159574 -0.0014264684107101759 0 0.036350880373381772 -0.0016115763558076078 0 0.036614332887159574 -0.0014264684107101759 0 0.036350880373381772 -0.0016115763558076078 0 0.036615037344352695 -0.0017330215049471309 0 0.036350880373381772 -0.0016115763558076078 0 0.036049848319566466 -0.0014676156343477445 0 0.035918987691253103 -0.0020031981348882745 0 0.035783391244130651 -0.0011577359053007059 0 0.036049848319566466 -0.0014676156343477445 0 0.035457641898536195 -0.0017005104582945333 0 0.036049848319566466 -0.0014676156343477445 0 0.035918987691253103 -0.0020031981348882745 0 0.035457641898536195 -0.0017005104582945333 0 0.035783391244130651 -0.0011577359053007059 0 0.036309710555140012 -0.0012135318469602252 0 0.036049848319566466 -0.0014676156343477445 0 0.036119226175350502 -0.002313168496139557 0 0.035830332362966233 -0.0024133767621449141 0 0.036025593829741062 -0.0028384398344970217 0 0.036119226175350502 -0.002313168496139557 0 0.035830332362966233 -0.0024133767621449141 0 0.035918987691253103 -0.0020031981348882745 0 0.035830332362966233 -0.0024133767621449141 0 0.035918987691253103 -0.0020031981348882745 0 0.035247011402795007 -0.002510785638144203 0 0.035830332362966233 -0.0024133767621449141 0 0.036025593829741062 -0.0028384398344970217 0 0.035247011402795007 -0.002510785638144203 0 0.035918987691253103 -0.0020031981348882745 0 0.035457641898536195 -0.0017005104582945333 0 0.035247011402795007 -0.002510785638144203 0 0.036350880373381772 -0.0016115763558076078 0 0.035918987691253103 -0.0020031981348882745 0 0.036277260869500304 -0.0019874657379568336 0 0.036119226175350502 -0.002313168496139557 0 0.035918987691253103 -0.0020031981348882745 0 0.036277260869500304 -0.0019874657379568336 0 0.036570798207647852 -0.0022369192276593891 0 0.036025593829741062 -0.0028384398344970217 0 0.037370370910871926 -0.0025146906719716372 0 0.036277260869500304 -0.0019874657379568336 0 0.036615037344352695 -0.0017330215049471309 0 0.036570798207647852 -0.0022369192276593891 0 0.036350880373381772 -0.0016115763558076078 0 0.036277260869500304 -0.0019874657379568336 0 0.036615037344352695 -0.0017330215049471309 0 0.036850852007131542 -0.0019151158151801892 0 0.036615037344352695 -0.0017330215049471309 0 0.036570798207647852 -0.0022369192276593891 0 0.036906925218979925 -0.0012099646149515771 0 0.036850852007131542 -0.0019151158151801892 0 0.036615037344352695 -0.0017330215049471309 0 0.036850852007131542 -0.0019151158151801892 0 0.036570798207647852 -0.0022369192276593891 0 0.037370370910871926 -0.0025146906719716372 0 0.036119226175350502 -0.002313168496139557 0 0.036570798207647852 -0.0022369192276593891 0 0.036025593829741062 -0.0028384398344970217 0 0.036119226175350502 -0.002313168496139557 0 0.036277260869500304 -0.0019874657379568336 0 0.036570798207647852 -0.0022369192276593891 0 0.030958433509874518 -0.0033767548273378975 0 0.030888356076905429 -0.0034201550602265644 0 0.031033884377719981 -0.0033313047827870971 0 0.030958433509874518 -0.0033767548273378975 0 0.03087641984983441 -0.0034246811084676773 0 0.031033884377719981 -0.0033313047827870971 0 0.0261544843010925 -0.0045361578366642178 0 0.025195596634918025 -0.0044312528220530325 0 0.024833896234646675 -0.0052797686123962134 0 0.030958433509874518 -0.0033767548273378975 0 0.03087641984983441 -0.0034246811084676773 0 0.030888356076905429 -0.0034201550602265644 0 0.0261544843010925 -0.0045361578366642178 0 0.026403099699547562 -0.0046970090917232933 0 0.024833896234646675 -0.0052797686123962134 0 0.03383180552409977 -0.0032061048128804669 0 0.032339395403209563 -0.0020959334141356363 0 0.027691812938469069 -0.0045126956459660477 0 0.032339395403209563 -0.0020959334141356363 0 0.0261544843010925 -0.0045361578366642178 0 0.025101849223911135 -0.0037775515821802871 0 0.025195596634918025 -0.0044312528220530325 0 0.03087641984983441 -0.0034246811084676773 0 0.031039743274104852 -0.0033776667025332877 0 0.031187453965862852 -0.0031858490114602274 0 0.027691812938469069 -0.0045126956459660477 0 0.03022042523374378 -0.0034382341551795733 0 0.0261544843010925 -0.0045361578366642178 0 0.026403099699547562 -0.0046970090917232933 0 0.026644278821070861 -0.0039612136061644891 0 0.03383180552409977 -0.0032061048128804669 0 0.032810349334370645 -0.003394449270565268 0 0.030888356076905429 -0.0034201550602265644 0 0.031039743274104852 -0.0033776667025332877 0 0.031209516195188018 -0.0034651945399801027 0 0.03087641984983441 -0.0034246811084676773 0 0.030888356076905429 -0.0034201550602265644 0 0.031039743274104852 -0.0033776667025332877 0 0.026403099699547562 -0.0046970090917232933 0 0.027352773133551722 -0.0037901925249011689 0 0.028721295074036562 -0.0039687168834502563 0 0.026403099699547562 -0.0046970090917232933 0 0.027352773133551722 -0.0037901925249011689 0 0.026644278821070861 -0.0039612136061644891 0 0.027352773133551722 -0.0037901925249011689 0 0.026644278821070861 -0.0039612136061644891 0 0.027066298411600694 -0.0032638010296057664 0 0.026644278821070861 -0.0039612136061644891 0 0.027066298411600694 -0.0032638010296057664 0 0.025977398930540688 -0.0030995161995613927 0 0.027066298411600694 -0.0032638010296057664 0 0.026957283117366636 -0.0021740990313067103 0 0.025977398930540688 -0.0030995161995613927 0 0.027352773133551722 -0.0037901925249011689 0 0.027066298411600694 -0.0032638010296057664 0 0.027965042114230874 -0.002958802523450787 0 0.027066298411600694 -0.0032638010296057664 0 0.026957283117366636 -0.0021740990313067103 0 0.027965042114230874 -0.002958802523450787 0 0.026957283117366636 -0.0021740990313067103 0 0.027965042114230874 -0.002958802523450787 0 0.028401510116344918 -0.0018918733380558835 0 0.026957283117366636 -0.0021740990313067103 0 0.025589953293742449 -0.0019849215864969371 0 0.026247556656241421 -0.0010226771587606065 0 0.026957283117366636 -0.0021740990313067103 0 0.028401510116344918 -0.0018918733380558835 0 0.027674218524549297 -0.00097727804951215657 0 0.026957283117366636 -0.0021740990313067103 0 0.027674218524549297 -0.00097727804951215657 0 0.026247556656241421 -0.0010226771587606065 0 0.025589953293742449 -0.0019849215864969371 0 0.024558094703895375 -0.0027006501829721493 0 0.02468504888272835 -0.0010480471650553065 0 0.025589953293742449 -0.0019849215864969371 0 0.02468504888272835 -0.0010480471650553065 0 0.026247556656241421 -0.0010226771587606065 0 0.026957283117366636 -0.0021740990313067103 0 0.025589953293742449 -0.0019849215864969371 0 0.025977398930540688 -0.0030995161995613927 0 0.025589953293742449 -0.0019849215864969371 0 0.024558094703895375 -0.0027006501829721493 0 0.025977398930540688 -0.0030995161995613927 0 0.026064905826944037 -0.0044031548810498497 0 0.02489301853005162 -0.0027317657222860415 0 0.0261544843010925 -0.0045361578366642178 0 0.024558094703895375 -0.0027006501829721493 0 0.025977398930540688 -0.0030995161995613927 0 0.0261544843010925 -0.0045361578366642178 0 0.025289819182796304 -0.0028027698563933183 0 0.025101849223911135 -0.0037775515821802871 0 0.0261544843010925 -0.0045361578366642178 0 0.026644278821070861 -0.0039612136061644891 0 0.025977398930540688 -0.0030995161995613927 0 0.030226654820754359 -0.0016202146193544987 0 0.028736122139418271 -0.0010306401525298978 0 0.025101849223911135 -0.0037775515821802871 0 0.024286465965114672 -0.0040175149711436427 0 0.025195596634918025 -0.0044312528220530325 0 0.024286465965114672 -0.0040175149711436427 0 0.024471102443284199 -0.003069642549278051 0 0.023697649344040738 -0.0024747255888590315 0 0.025101849223911135 -0.0037775515821802871 0 0.024286465965114672 -0.0040175149711436427 0 0.024471102443284199 -0.003069642549278051 0 0.025289819182796304 -0.0028027698563933183 0 0.025101849223911135 -0.0037775515821802871 0 0.024471102443284199 -0.003069642549278051 0 0.02489301853005162 -0.0027317657222860415 0 0.023799587345711814 -0.00090390108615630987 0 0.024558094703895375 -0.0027006501829721493 0 0.023055571615612842 -0.00065929193209643985 0 0.02468504888272835 -0.0010480471650553065 0 0.025289819182796304 -0.0028027698563933183 0 0.024471102443284199 -0.003069642549278051 0 0.023921591193113857 -0.0023622425551986259 0 0.025289819182796304 -0.0028027698563933183 0 0.023921591193113857 -0.0023622425551986259 0 0.024116894042898695 -0.001008443648099423 0 0.024471102443284199 -0.003069642549278051 0 0.023921591193113857 -0.0023622425551986259 0 0.023697649344040738 -0.0024747255888590315 0 0.027579995735469088 -0.0002756067990506842 0 0.027574033302616957 -0.00026895564114172649 0 0.027559302280452887 -0.00030051625799427337 0 0.028736122139418271 -0.0010306401525298978 0 0.024970611626673411 -0.00064449379314883664 0 0.023921591193113857 -0.0023622425551986259 0 0.023705959738829871 -0.0024487764838628384 0 0.024116894042898695 -0.001008443648099423 0 0.027527666685480724 -0.0015166935488188989 0 0.028736122139418271 -0.0010306401525298978 0 0.028736122139418271 -0.0010306401525298978 0 0.031844164484072235 0.00077856885598002763 0 0.027579995735469088 -0.0002756067990506842 0 0.027574033302616957 -0.00026895564114172649 0 0.027599846707288305 -0.000253923872454903 0 0.035814243038280014 0.0016513912319065819 0 0.03561978137099743 0.0010726499405984322 0 0.035009671124825219 0.001306457918078704 0 0.036211901578937757 0.00070537442765946441 0 0.035814243038280014 0.0016513912319065819 0 0.03561978137099743 0.0010726499405984322 0 0.036211901578937757 0.00070537442765946441 0 0.03561978137099743 0.0010726499405984322 0 0.035434443274184629 0.0006290025563948985 0 0.03561978137099743 0.0010726499405984322 0 0.035434443274184629 0.0006290025563948985 0 0.035009671124825219 0.001306457918078704 0 0.035434443274184629 0.0006290025563948985 0 0.035419157362181888 -0.00021012727842362669 0 0.036146480915706033 -6.1161695614729331e-05 0 0.036211901578937757 0.00070537442765946441 0 0.035434443274184629 0.0006290025563948985 0 0.036146480915706033 -6.1161695614729331e-05 0 0.024286465965114672 -0.0040175149711436427 0 0.025195596634918025 -0.0044312528220530325 0 0.024833896234646675 -0.0052797686123962134 0 0.030226654820754359 -0.0016202146193544987 0 0.032339395403209563 -0.0020959334141356363 0 0.036211901578937757 0.00070537442765946441 0 0.036146480915706033 -6.1161695614729331e-05 0 0.036589502918997104 -0.00019521905570126863 0 0.036146480915706033 -6.1161695614729331e-05 0 0.036456287661506742 -0.00024666581497275006 0 0.036589502918997104 -0.00019521905570126863 0 0.036146480915706033 -6.1161695614729331e-05 0 0.036351615489808566 -0.00025665324051044681 0 0.036347908348048033 -0.00047104215515078813 0 0.036806613987614714 -0.0009062679050342628 0 0.035419157362181888 -0.00021012727842362669 0 0.036347908348048033 -0.00047104215515078813 0 0.037310486612086816 -0.0013889564423965849 0 0.032339395403209563 -0.0020959334141356363 0 0.036906925218979925 -0.0012099646149515771 0 0.036850852007131542 -0.0019151158151801892 0 0.037370370910871926 -0.0025146906719716372 0 0.036906925218979925 -0.0012099646149515771 0 0.036697872233881719 -0.00010634869646791289 0 0.03669211541493729 -0.00069122141807558045 0 0.03492611848367317 -0.0010590291692592073 0 0.034474645208887648 -0.0011897816137059387 0 0.036146480915706033 -6.1161695614729331e-05 0 0.036351615489808566 -0.00025665324051044681 0 0.036456287661506742 -0.00024666581497275006 0 0.036510824776855307 -0.00019082444785221072 0 0.036483355471429585 -0.00033097979910346343 0 0.036601460023402435 -0.00037549581986798865 0 0.036351615489808566 -0.00025665324051044681 0 0.036510824776855307 -0.00019082444785221072 0 0.036483355471429585 -0.00033097979910346343 0 0.036483355471429585 -0.00033097979910346343 0 0.036529179845167924 -0.00047274120436591313 0 0.036347908348048033 -0.00047104215515078813 0 0.036529179845167924 -0.00047274120436591313 0 0.036347908348048033 -0.00047104215515078813 0 0.03669211541493729 -0.00069122141807558045 0 0.036351615489808566 -0.00025665324051044681 0 0.036483355471429585 -0.00033097979910346343 0 0.036347908348048033 -0.00047104215515078813 0 0.036483355471429585 -0.00033097979910346343 0 0.036529179845167924 -0.00047274120436591313 0 0.036601460023402435 -0.00037549581986798865 0 0.036697872233881719 -0.00010634869646791289 0 0.036601460023402435 -0.00037549581986798865 0 0.03669211541493729 -0.00069122141807558045 0 0.036510824776855307 -0.00019082444785221072 0 0.036697872233881719 -0.00010634869646791289 0 0.036601460023402435 -0.00037549581986798865 0 0.034474645208887648 -0.0011897816137059387 0 0.032339395403209563 -0.0020959334141356363 0 0.036529179845167924 -0.00047274120436591313 0 0.036601460023402435 -0.00037549581986798865 0 0.03669211541493729 -0.00069122141807558045 0 0.036806613987614714 -0.0009062679050342628 0 0.036347908348048033 -0.00047104215515078813 0 0.03669211541493729 -0.00069122141807558045 0 0.036525890828785032 -0.00076593128734552473 0 0.036061650115409356 0.00088574130304061853 0 0.035446373942813754 -0.00017894872781960489 0 0.036225833925819108 -0.00046509167812552047 0 0.03561737111619466 0.0016582976700894284 0 0.036225833925819108 -0.00046509167812552047 0 0.036806613987614714 -0.0009062679050342628 0 0.03561737111619466 0.0016582976700894284 0 0.035419157362181888 -0.00021012727842362669 0 0.036146480915706033 -6.1161695614729331e-05 0 0.036347908348048033 -0.00047104215515078813 0 0.035446373942813754 -0.00017894872781960489 0 0.03561737111619466 0.0016582976700894284 0 0.034270035213640221 0.0011548100335525768 0 0.033816752978195294 0.00015333789564933643 0 0.034270035213640221 0.0011548100335525768 0 0.032797071965530132 0.0016388099602406777 0 0.034270035213640221 0.0011548100335525768 0 0.032797071965530132 0.0016388099602406777 0 0.033644850718061434 0.0022684985138893593 0 0.033816752978195294 0.00015333789564933643 0 0.035446373942813754 -0.00017894872781960489 0 0.034270035213640221 0.0011548100335525768 0 0.033816752978195294 0.00015333789564933643 0 0.031959884642987504 0.00062706357574411598 0 0.032797071965530132 0.0016388099602406777 0 0.031959884642987504 0.00062706357574411598 0 0.032797071965530132 0.0016388099602406777 0 0.031171960117426893 0.0014284012882978809 0 0.032797071965530132 0.0016388099602406777 0 0.032207942273583652 0.0026198577323048931 0 0.033644850718061434 0.0022684985138893593 0 0.032207942273583652 0.0026198577323048931 0 0.033253199699753808 0.0041576876328440161 0 0.030428403050820518 0.0029970962664928346 0 0.032207942273583652 0.0026198577323048931 0 0.033644850718061434 0.0022684985138893593 0 0.033253199699753808 0.0041576876328440161 0 0.032797071965530132 0.0016388099602406777 0 0.032207942273583652 0.0026198577323048931 0 0.031171960117426893 0.0014284012882978809 0 0.03561737111619466 0.0016582976700894284 0 0.034270035213640221 0.0011548100335525768 0 0.033644850718061434 0.0022684985138893593 0 0.03561737111619466 0.0016582976700894284 0 0.033644850718061434 0.0022684985138893593 0 0.033253199699753808 0.0041576876328440161 0 0.036061650115409356 0.00088574130304061853 0 0.030242006709842159 0.00080686105507392553 0 0.035434443274184629 0.0006290025563948985 0 0.035419157362181888 -0.00021012727842362669 0 0.034126660048027599 0.00092328170670220931 0 0.035434443274184629 0.0006290025563948985 0 0.035009671124825219 0.001306457918078704 0 0.034126660048027599 0.00092328170670220931 0 0.031844164484072235 0.00077856885598002763 0 0.030242006709842159 0.00080686105507392553 0 0.027579995735469088 -0.0002756067990506842 0 0.027599846707288305 -0.000253923872454903 0 0.027586552001254563 -0.00027978648304572958 0 0.027599846707288305 -0.000253923872454903 0 0.027586552001254563 -0.00027978648304572958 0 0.027609644321502855 -0.0002438641542166063 0 0.027586552001254563 -0.00027978648304572958 0 0.027599245339917762 -0.00025494692913082716 0 0.027609644321502855 -0.0002438641542166063 0 0.022721655498702718 -0.0006022246721808282 0 0.022415213791284028 -0.00049911794223595071 0 0.022404353665930125 -0.00059920012085835038 0 0.025370823074233693 -0.0003781279738438199 0 0.024165886264539874 -0.00011070838576841603 0 0.022415213791284028 -0.00049911794223595071 0 0.022404353665930125 -0.00059920012085835038 0 0.022428651846500499 -0.00046859618975103769 0 0.030242006709842159 0.00080686105507392553 0 0.027664653843496513 0.0015518988212157687 0 0.024945010001859124 -0.00040482266866305239 0 0.024757188021755836 -0.00018080483756897819 0 0.025188532815607845 9.1857020565585298e-05 0 0.024165886264539874 -0.00011070838576841603 0 0.030242006709842159 0.00080686105507392553 0 0.024165886264539874 -0.00011070838576841603 0 0.024355044129547067 -7.3422399870654115e-05 0 0.022434181835799691 -0.00014396642704041758 0 0.023360921412665672 0.00034639385381740574 0 0.022931158470106405 -0.00013100525464169207 0 0.024945010001859124 -0.00040482266866305239 0 0.025315768332354372 -0.00014145523982304987 0 0.025188532815607845 9.1857020565585298e-05 0 0.023360921412665672 0.00034639385381740574 0 0.022931158470106405 -0.00013100525464169207 0 0.023614585195953736 -8.1086443121626743e-05 0 0.022931158470106405 -0.00013100525464169207 0 0.022428651846500499 -0.00046859618975103769 0 0.023614585195953736 -8.1086443121626743e-05 0 0.022434181835799691 -0.00014396642704041758 0 0.022931158470106405 -0.00013100525464169207 0 0.022428651846500499 -0.00046859618975103769 0 0.024165886264539874 -0.00011070838576841603 0 0.022176652729971554 -0.0002377294918212646 0 0.022428651846500499 -0.00046859618975103769 0 0.024097621782264073 -5.6899155245057752e-07 0 0.021519243703799203 -1.0686526961939415e-06 0 0.022428651846500499 -0.00046859618975103769 0 0.024097621782264073 -5.6899155245057752e-07 0 0.023614585195953736 -8.1086443121626743e-05 0 0.024097621782264073 -5.6899155245057752e-07 0 0.023614585195953736 -8.1086443121626743e-05 0 0.024389861732127378 4.4986631895234725e-05 0 0.024097621782264073 -5.6899155245057752e-07 0 0.024389861732127378 4.4986631895234725e-05 0 0.026183771819372585 5.8601543111638057e-05 0 0.023360921412665672 0.00034639385381740574 0 0.023614585195953736 -8.1086443121626743e-05 0 0.024389861732127378 4.4986631895234725e-05 0 0.023360921412665672 0.00034639385381740574 0 0.024389861732127378 4.4986631895234725e-05 0 0.026183771819372585 5.8601543111638057e-05 0 0.024355044129547067 -7.3422399870654115e-05 0 0.025817147810437164 0.00018058969631070087 0 0.026680334574898535 4.5765106311894756e-06 0 0.030428403050820518 0.0029970962664928346 0 0.028731427770669792 0.00044427689372796345 0 0.024097621782264073 -5.6899155245057752e-07 0 0.026673798672931234 1.6031800321876796e-06 0 0.026183771819372585 5.8601543111638057e-05 0 0.026673798672931234 1.6031800321876796e-06 0 0.026183771819372585 5.8601543111638057e-05 0 0.025188532815607845 9.1857020565585298e-05 0 0.02667733286934524 5.8525129150013574e-07 0 0.027664653843496513 0.0015518988212157687 0 0.025315768332354372 -0.00014145523982304987 0 0.026183771819372585 5.8601543111638057e-05 0 0.025188532815607845 9.1857020565585298e-05 0 0.030428403050820518 0.0029970962664928346 0 0.030036735656482343 0.0011959466256276823 0 0.031171960117426893 0.0014284012882978809 0 0.032207942273583652 0.0026198577323048931 0 0.030428403050820518 0.0029970962664928346 0 0.031171960117426893 0.0014284012882978809 0 0.030428403050820518 0.0029970962664928346 0 0.030036735656482343 0.0011959466256276823 0 0.028731427770669792 0.00044427689372796345 0 0.030036735656482343 0.0011959466256276823 0 0.031171960117426893 0.0014284012882978809 0 0.030077323643514457 0.00029777283552948817 0 0.030036735656482343 0.0011959466256276823 0 0.030077323643514457 0.00029777283552948817 0 0.028731427770669792 0.00044427689372796345 0 0.031959884642987504 0.00062706357574411598 0 0.031171960117426893 0.0014284012882978809 0 0.030077323643514457 0.00029777283552948817 0 0.031842535377127286 -0.00032119242518951981 0 0.031959884642987504 0.00062706357574411598 0 0.030077323643514457 0.00029777283552948817 0 0.028379512449162245 -8.8310934769035005e-07 0 0.030077323643514457 0.00029777283552948817 0 0.028731427770669792 0.00044427689372796345 0 0.028379512449162245 -8.8310934769035005e-07 0 0.026680334574898535 4.5765106311894756e-06 0 0.028731427770669792 0.00044427689372796345 0 0.035335267916236243 -0.00056719863728281461 0 0.035219982352939092 -0.00045970112421502376 0 0.035483081873419073 -0.00045512630652098913 0 0.035520201649012394 -0.00062746403371025583 0 0.035335267916236243 -0.00056719863728281461 0 0.035483081873419073 -0.00045512630652098913 0 0.035520201649012394 -0.00062746403371025583 0 0.035483081873419073 -0.00045512630652098913 0 0.035692164902231774 -0.00054497770050259276 0 0.035520201649012394 -0.00062746403371025583 0 0.035611127017167662 -0.00070508881236747004 0 0.035420652818492167 -0.00074676068863888275 0 0.035520201649012394 -0.00062746403371025583 0 0.035322091692258313 -0.00071729308169237393 0 0.035420652818492167 -0.00074676068863888275 0 0.035335267916236243 -0.00056719863728281461 0 0.035322091692258313 -0.00071729308169237393 0 0.03516039315307689 -0.00064484188326569881 0 0.035520201649012394 -0.00062746403371025583 0 0.035335267916236243 -0.00056719863728281461 0 0.035322091692258313 -0.00071729308169237393 0 0.035335267916236243 -0.00056719863728281461 0 0.03516039315307689 -0.00064484188326569881 0 0.035219982352939092 -0.00045970112421502376 0 0.03516039315307689 -0.00064484188326569881 0 0.034937651735566913 -0.00049831398573541312 0 0.034887044585370473 -0.00077366777839389938 0 0.03516039315307689 -0.00064484188326569881 0 0.034937651735566913 -0.00049831398573541312 0 0.035219982352939092 -0.00045970112421502376 0 0.034625565332523908 -0.0006402998265023635 0 0.034937651735566913 -0.00049831398573541312 0 0.034887044585370473 -0.00077366777839389938 0 0.034916296459765087 -0.00033417078168972554 0 0.035219982352939092 -0.00045970112421502376 0 0.035376128917209218 -0.00027400076393000621 0 0.034916296459765087 -0.00033417078168972554 0 0.034937651735566913 -0.00049831398573541312 0 0.035219982352939092 -0.00045970112421502376 0 0.035219982352939092 -0.00045970112421502376 0 0.035376128917209218 -0.00027400076393000621 0 0.035483081873419073 -0.00045512630652098913 0 0.034916296459765087 -0.00033417078168972554 0 0.034911692955016019 1.3440047475542925e-05 0 0.035376128917209218 -0.00027400076393000621 0 0.035370461134822326 -0.00011367632181602178 0 0.035393301582108253 -0.00025371775175078584 0 0.035818189066784016 -0.0002184224625260139 0 0.035561770573863644 -0.00039131282105591992 0 0.035376128917209218 -0.00027400076393000621 0 0.035561770573863644 -0.00039131282105591992 0 0.035376128917209218 -0.00027400076393000621 0 0.035489260684899049 -0.00037222370257987338 0 0.035376128917209218 -0.00027400076393000621 0 0.035489260684899049 -0.00037222370257987338 0 0.035483081873419073 -0.00045512630652098913 0 0.035483081873419073 -0.00045512630652098913 0 0.035797839182197373 -0.00052406939380415058 0 0.035692164902231774 -0.00054497770050259276 0 0.03595355055864289 -0.00011441506676144654 0 0.035489260684899049 -0.00037222370257987338 0 0.035797839182197373 -0.00052406939380415058 0 0.035489260684899049 -0.00037222370257987338 0 0.035483081873419073 -0.00045512630652098913 0 0.035797839182197373 -0.00052406939380415058 0 0.03595355055864289 -0.00011441506676144654 0 0.035797839182197373 -0.00052406939380415058 0 0.036193472803594855 -0.00061399586776622215 0 0.035797839182197373 -0.00052406939380415058 0 0.036193472803594855 -0.00061399586776622215 0 0.035906128271642183 -0.00054886598892322884 0 0.036193472803594855 -0.00061399586776622215 0 0.035906128271642183 -0.00054886598892322884 0 0.035934354701046917 -0.00053910220101834213 0 0.035797839182197373 -0.00052406939380415058 0 0.035906128271642183 -0.00054886598892322884 0 0.035692164902231774 -0.00054497770050259276 0 0.035845738441184383 -0.00054770929195522026 0 0.035891438678157736 -0.00057511531896660667 0 0.035934354701046917 -0.00053910220101834213 0 0.036248294791685023 -0.00064872006371378423 0 0.036824575532554978 -0.00073358146293852754 0 0.036193472803594855 -0.00061399586776622215 0 0.035845738441184383 -0.00054770929195522026 0 0.035934354701046917 -0.00053910220101834213 0 0.035906128271642183 -0.00054886598892322884 0 0.035934354701046917 -0.00053910220101834213 0 0.035930807095843564 -0.00055554628901389514 0 0.035997957851827522 -0.00084172271138878776 0 0.035891438678157736 -0.00057511531896660667 0 0.035174040075205339 -0.00082606696026800658 0 0.035837482064286073 -0.0005858604657416512 0 0.035525317967583056 -0.00072358444227522349 0 0.035891438678157736 -0.00057511531896660667 0 0.035934354701046917 -0.00053910220101834213 0 0.035930807095843564 -0.00055554628901389514 0 0.035997957851827522 -0.00084172271138878776 0 0.035783391244130651 -0.0011577359053007059 0 0.035174040075205339 -0.00082606696026800658 0 0.035783391244130651 -0.0011577359053007059 0 0.035174040075205339 -0.00082606696026800658 0 0.035058758570900371 -0.0013825707085763036 0 0.035906128271642183 -0.00054886598892322884 0 0.035930807095843564 -0.00055554628901389514 0 0.035835729901638878 -0.00066048666092075482 0 0.035525317967583056 -0.00072358444227522349 0 0.034912198847955371 -0.0011020646354850648 0 0.033991143095981002 -0.0014939377032158758 0 0.035058758570900371 -0.0013825707085763036 0 0.034784996688499735 -0.0019104493039090798 0 0.035174040075205339 -0.00082606696026800658 0 0.033991143095981002 -0.0014939377032158758 0 0.035058758570900371 -0.0013825707085763036 0 0.035783391244130651 -0.0011577359053007059 0 0.035058758570900371 -0.0013825707085763036 0 0.035457641898536195 -0.0017005104582945333 0 0.035058758570900371 -0.0013825707085763036 0 0.035457641898536195 -0.0017005104582945333 0 0.034784996688499735 -0.0019104493039090798 0 0.035520201649012394 -0.00062746403371025583 0 0.035722524592876968 -0.00061794899962367106 0 0.035692164902231774 -0.00054497770050259276 0 0.035906128271642183 -0.00054886598892322884 0 0.035722524592876968 -0.00061794899962367106 0 0.035692164902231774 -0.00054497770050259276 0 0.035906128271642183 -0.00054886598892322884 0 0.035835729901638878 -0.00066048666092075482 0 0.035722524592876968 -0.00061794899962367106 0 0.035835729901638878 -0.00066048666092075482 0 0.035722524592876968 -0.00061794899962367106 0 0.035611127017167662 -0.00070508881236747004 0 0.035520201649012394 -0.00062746403371025583 0 0.035722524592876968 -0.00061794899962367106 0 0.035611127017167662 -0.00070508881236747004 0 0.035392820062668071 -0.00081848547562397194 0 0.035611127017167662 -0.00070508881236747004 0 0.035420652818492167 -0.00074676068863888275 0 0.035392820062668071 -0.00081848547562397194 0 0.035542560699230001 -0.00078160443325363173 0 0.035611127017167662 -0.00070508881236747004 0 0.035835729901638878 -0.00066048666092075482 0 0.035611127017167662 -0.00070508881236747004 0 0.035667880342498313 -0.00078171933605805319 0 0.035542560699230001 -0.00078160443325363173 0 0.035611127017167662 -0.00070508881236747004 0 0.035667880342498313 -0.00078171933605805319 0 0.034912198847955371 -0.0011020646354850648 0 0.034089707892748046 -0.0019730630444158744 0 0.032624257740391578 -0.0030095705161244249 0 0.032481534207018131 -0.003315403734282879 0 0.032782807586105737 -0.0031449665846929966 0 0.035542560699230001 -0.00078160443325363173 0 0.035667880342498313 -0.00078171933605805319 0 0.035456758475480875 -0.00083977324649816437 0 0.034089707892748046 -0.0019730630444158744 0 0.034954764929941221 -0.0020100472599577533 0 0.035667880342498313 -0.00078171933605805319 0 0.035420959512489608 -0.000918197589162539 0 0.035687807394844534 -0.0012673095331609682 0 0.032624257740391578 -0.0030095705161244249 0 0.032481534207018131 -0.003315403734282879 0 0.033469991751013214 -0.0030704822289822627 0 0.035420959512489608 -0.000918197589162539 0 0.035230008858877622 -0.0009197399892344522 0 0.034916323234925994 -0.00096180552125761242 0 0.035420959512489608 -0.000918197589162539 0 0.035230008858877622 -0.0009197399892344522 0 0.035456758475480875 -0.00083977324649816437 0 0.035392820062668071 -0.00081848547562397194 0 0.035230008858877622 -0.0009197399892344522 0 0.035456758475480875 -0.00083977324649816437 0 0.035392820062668071 -0.00081848547562397194 0 0.035542560699230001 -0.00078160443325363173 0 0.035456758475480875 -0.00083977324649816437 0 0.035667880342498313 -0.00078171933605805319 0 0.035420959512489608 -0.000918197589162539 0 0.035456758475480875 -0.00083977324649816437 0 0.035457641898536195 -0.0017005104582945333 0 0.035247011402795007 -0.002510785638144203 0 0.034784996688499735 -0.0019104493039090798 0 0.035247011402795007 -0.002510785638144203 0 0.034784996688499735 -0.0019104493039090798 0 0.034276963170785157 -0.0025166509880430385 0 0.033991143095981002 -0.0014939377032158758 0 0.034784996688499735 -0.0019104493039090798 0 0.034276963170785157 -0.0025166509880430385 0 0.033991143095981002 -0.0014939377032158758 0 0.032624257740391578 -0.0030095705161244249 0 0.034276963170785157 -0.0025166509880430385 0 0.032585679340913568 -0.0033463681384469889 0 0.032810349334370645 -0.003394449270565268 0 0.032481534207018131 -0.003315403734282879 0 0.033469991751013214 -0.0030704822289822627 0 0.034567614432283802 -0.003411012995095615 0 0.032624257740391578 -0.0030095705161244249 0 0.034276963170785157 -0.0025166509880430385 0 0.033469991751013214 -0.0030704822289822627 0 0.032481534207018131 -0.003315403734282879 0 0.031209516195188018 -0.0034651945399801027 0 0.03163088964669776 -0.0031309754323074262 0 0.034276963170785157 -0.0025166509880430385 0 0.033469991751013214 -0.0030704822289822627 0 0.034567614432283802 -0.003411012995095615 0 0.036025593829741062 -0.0028384398344970217 0 0.035247011402795007 -0.002510785638144203 0 0.034567614432283802 -0.003411012995095615 0 0.035247011402795007 -0.002510785638144203 0 0.034276963170785157 -0.0025166509880430385 0 0.034567614432283802 -0.003411012995095615 0 0.031039743274104852 -0.0033776667025332877 0 0.031209516195188018 -0.0034651945399801027 0 0.031187453965862852 -0.0031858490114602274 0 0.027965042114230874 -0.002958802523450787 0 0.028721295074036562 -0.0039687168834502563 0 0.028899573157496628 -0.0025959870273402231 0 0.027352773133551722 -0.0037901925249011689 0 0.027965042114230874 -0.002958802523450787 0 0.028721295074036562 -0.0039687168834502563 0 0.031209516195188018 -0.0034651945399801027 0 0.031187453965862852 -0.0031858490114602274 0 0.03163088964669776 -0.0031309754323074262 0 0.028721295074036562 -0.0039687168834502563 0 0.029987522988757839 -0.0024914108121226173 0 0.028899573157496628 -0.0025959870273402231 0 0.031187453965862852 -0.0031858490114602274 0 0.03163088964669776 -0.0031309754323074262 0 0.031681182264489571 -0.0027450563424992213 0 0.028721295074036562 -0.0039687168834502563 0 0.029987522988757839 -0.0024914108121226173 0 0.031681182264489571 -0.0027450563424992213 0 0.03022042523374378 -0.0034382341551795733 0 0.03149308064566738 -0.0028459769448442446 0 0.032481534207018131 -0.003315403734282879 0 0.03163088964669776 -0.0031309754323074262 0 0.031681182264489571 -0.0027450563424992213 0 0.030735899230172087 -0.0016554838719825805 0 0.029987522988757839 -0.0024914108121226173 0 0.031681182264489571 -0.0027450563424992213 0 0.030735899230172087 -0.0016554838719825805 0 0.029456435893892068 -0.0017375189837615383 0 0.029864139406586429 -0.00090026517132008033 0 0.030735899230172087 -0.0016554838719825805 0 0.029987522988757839 -0.0024914108121226173 0 0.029456435893892068 -0.0017375189837615383 0 0.028899573157496628 -0.0025959870273402231 0 0.029456435893892068 -0.0017375189837615383 0 0.028401510116344918 -0.0018918733380558835 0 0.029987522988757839 -0.0024914108121226173 0 0.028899573157496628 -0.0025959870273402231 0 0.029456435893892068 -0.0017375189837615383 0 0.029456435893892068 -0.0017375189837615383 0 0.028401510116344918 -0.0018918733380558835 0 0.028840795894197413 -0.00092742662194497314 0 0.029456435893892068 -0.0017375189837615383 0 0.028840795894197413 -0.00092742662194497314 0 0.029864139406586429 -0.00090026517132008033 0 0.028401510116344918 -0.0018918733380558835 0 0.028840795894197413 -0.00092742662194497314 0 0.027674218524549297 -0.00097727804951215657 0 0.027965042114230874 -0.002958802523450787 0 0.028899573157496628 -0.0025959870273402231 0 0.028401510116344918 -0.0018918733380558835 0 0.035420959512489608 -0.000918197589162539 0 0.035687807394844534 -0.0012673095331609682 0 0.034916323234925994 -0.00096180552125761242 0 0.032481534207018131 -0.003315403734282879 0 0.032782807586105737 -0.0031449665846929966 0 0.032305585447965517 -0.0029855900223347679 0 0.032481534207018131 -0.003315403734282879 0 0.031681182264489571 -0.0027450563424992213 0 0.032305585447965517 -0.0029855900223347679 0 0.032782807586105737 -0.0031449665846929966 0 0.032305585447965517 -0.0029855900223347679 0 0.032190844212707057 -0.0018020379640870307 0 0.031681182264489571 -0.0027450563424992213 0 0.032305585447965517 -0.0029855900223347679 0 0.032190844212707057 -0.0018020379640870307 0 0.030735899230172087 -0.0016554838719825805 0 0.031681182264489571 -0.0027450563424992213 0 0.032190844212707057 -0.0018020379640870307 0 0.030735899230172087 -0.0016554838719825805 0 0.032190844212707057 -0.0018020379640870307 0 0.030859159031582723 -0.00033149672675314185 0 0.034954764929941221 -0.0020100472599577533 0 0.028877384423366504 -0.0025391912890279588 0 0.032782807586105737 -0.0031449665846929966 0 0.032190844212707057 -0.0018020379640870307 0 0.034021835210675082 -0.0010405529430618666 0 0.035687807394844534 -0.0012673095331609682 0 0.034916323234925994 -0.00096180552125761242 0 0.034489192351982556 -0.0042644592055016313 0 0.031536254936962452 -0.002156177272361661 0 0.032405771585649654 -0.00092214786022633667 0 0.033293630440041445 -0.0035679435051823903 0 0.034082322299623706 -0.0019096560834301265 0 0.028877384423366504 -0.0025391912890279588 0 0.030958853880415645 -0.0031765753265406323 0 0.031536254936962452 -0.002156177272361661 0 0.033293630440041445 -0.0035679435051823903 0 0.030958853880415645 -0.0031765753265406323 0 0.029759572269102395 -0.002153819460479742 0 0.029218850812196173 -0.0039715924741807037 0 0.030958853880415645 -0.0031765753265406323 0 0.031536254936962452 -0.002156177272361661 0 0.029759572269102395 -0.002153819460479742 0 0.035260276966743248 -0.0010028793108629796 0 0.035251837507258223 -0.0009368814869802739 0 0.034998756022509722 -0.0011933459915170501 0 0.031536254936962452 -0.002156177272361661 0 0.030909309988156681 -0.00062934331825412854 0 0.029759572269102395 -0.002153819460479742 0 0.031536254936962452 -0.002156177272361661 0 0.030909309988156681 -0.00062934331825412854 0 0.032405771585649654 -0.00092214786022633667 0 0.035260276966743248 -0.0010028793108629796 0 0.03515890993734188 -0.00097932105631674967 0 0.035226111367292236 -0.00097803940732393542 0 0.034916323234925994 -0.00096180552125761242 0 0.030909309988156681 -0.00062934331825412854 0 0.032405771585649654 -0.00092214786022633667 0 0.034916323234925994 -0.00096180552125761242 0 0.035260276966743248 -0.0010028793108629796 0 0.03515890993734188 -0.00097932105631674967 0 0.03479141752645408 -0.00093544638402168223 0 0.033110140528578018 -0.0008398447175039437 0 0.034916323234925994 -0.00096180552125761242 0 0.032405771585649654 -0.00092214786022633667 0 0.034489192351982556 -0.0042644592055016313 0 0.035230008858877622 -0.0009197399892344522 0 0.034916323234925994 -0.00096180552125761242 0 0.03515890993734188 -0.00097932105631674967 0 0.035230008858877622 -0.0009197399892344522 0 0.035247814050058862 -0.00092886440482770061 0 0.03515890993734188 -0.00097932105631674967 0 0.035392820062668071 -0.00081848547562397194 0 0.035247814050058862 -0.00092886440482770061 0 0.035306474700670103 -0.00084772201422170853 0 0.035392820062668071 -0.00081848547562397194 0 0.035230008858877622 -0.0009197399892344522 0 0.035247814050058862 -0.00092886440482770061 0 0.035247814050058862 -0.00092886440482770061 0 0.03515890993734188 -0.00097932105631674967 0 0.035226111367292236 -0.00097803940732393542 0 0.035247814050058862 -0.00092886440482770061 0 0.035226111367292236 -0.00097803940732393542 0 0.035251837507258223 -0.0009368814869802739 0 0.035260276966743248 -0.0010028793108629796 0 0.035226111367292236 -0.00097803940732393542 0 0.035251837507258223 -0.0009368814869802739 0 0.035251837507258223 -0.0009368814869802739 0 0.035306474700670103 -0.00084772201422170853 0 0.035151157541157739 -0.00086458973214076612 0 0.035247814050058862 -0.00092886440482770061 0 0.035251837507258223 -0.0009368814869802739 0 0.035306474700670103 -0.00084772201422170853 0 0.035322091692258313 -0.00071729308169237393 0 0.035306474700670103 -0.00084772201422170853 0 0.035151157541157739 -0.00086458973214076612 0 0.035322091692258313 -0.00071729308169237393 0 0.035306474700670103 -0.00084772201422170853 0 0.035420652818492167 -0.00074676068863888275 0 0.035392820062668071 -0.00081848547562397194 0 0.035306474700670103 -0.00084772201422170853 0 0.035420652818492167 -0.00074676068863888275 0 0.034606840341281475 -0.00080894688917025658 0 0.034887044585370473 -0.00077366777839389938 0 0.034818036200580792 -0.00099291283841928396 0 0.034887044585370473 -0.00077366777839389938 0 0.035151157541157739 -0.00086458973214076612 0 0.034818036200580792 -0.00099291283841928396 0 0.03516039315307689 -0.00064484188326569881 0 0.034887044585370473 -0.00077366777839389938 0 0.035151157541157739 -0.00086458973214076612 0 0.035322091692258313 -0.00071729308169237393 0 0.03516039315307689 -0.00064484188326569881 0 0.035151157541157739 -0.00086458973214076612 0 0.035251837507258223 -0.0009368814869802739 0 0.035151157541157739 -0.00086458973214076612 0 0.034998756022509722 -0.0011933459915170501 0 0.035151157541157739 -0.00086458973214076612 0 0.034818036200580792 -0.00099291283841928396 0 0.034998756022509722 -0.0011933459915170501 0 0.034348337177859345 -0.0014574670866748893 0 0.034818036200580792 -0.00099291283841928396 0 0.034998756022509722 -0.0011933459915170501 0 0.025358596684418783 -0.00071392222135250444 0 0.026382934279655879 -0.0021060605350069054 0 0.028048219688189505 -0.00062276540762226814 0 0.029899855970377393 -0.001091876838934295 0 0.031496766768212441 -0.00091224527901926928 0 0.030909309988156681 -0.00062934331825412854 0 0.028048219688189505 -0.00062276540762226814 0 0.029759572269102395 -0.002153819460479742 0 0.033110140528578018 -0.0008398447175039437 0 0.031496766768212441 -0.00091224527901926928 0 0.029759572269102395 -0.002153819460479742 0 0.028022981390107546 -0.0027324938232353171 0 0.029218850812196173 -0.0039715924741807037 0 0.028048219688189505 -0.00062276540762226814 0 0.029759572269102395 -0.002153819460479742 0 0.028022981390107546 -0.0027324938232353171 0 0.026382934279655879 -0.0021060605350069054 0 0.028048219688189505 -0.00062276540762226814 0 0.028022981390107546 -0.0027324938232353171 0 0.026382934279655879 -0.0021060605350069054 0 0.028022981390107546 -0.0027324938232353171 0 0.026963102887895374 -0.0042100639030485517 0 0.026963102887895374 -0.0042100639030485517 0 0.029218850812196173 -0.0039715924741807037 0 0.027847131631559368 -0.0056293311418716711 0 0.028022981390107546 -0.0027324938232353171 0 0.026963102887895374 -0.0042100639030485517 0 0.029218850812196173 -0.0039715924741807037 0 0.029218850812196173 -0.0039715924741807037 0 0.029526625728050388 -0.0059335263002128751 0 0.027847131631559368 -0.0056293311418716711 0 0.026963102887895374 -0.0042100639030485517 0 0.027847131631559368 -0.0056293311418716711 0 0.026504439562789729 -0.0065792145514676943 0 0.027847131631559368 -0.0056293311418716711 0 0.026504439562789729 -0.0065792145514676943 0 0.028237868021175415 -0.0083978643467196717 0 0.026504439562789729 -0.0065792145514676943 0 0.028237868021175415 -0.0083978643467196717 0 0.025772985587566744 -0.0078381398977054508 0 0.022042160544714941 -0.0059363804499018387 0 0.019912391676276755 -0.0027960167455659919 0 0.029526625728050388 -0.0059335263002128751 0 0.027847131631559368 -0.0056293311418716711 0 0.028237868021175415 -0.0083978643467196717 0 0.029526625728050388 -0.0059335263002128751 0 0.028237868021175415 -0.0083978643467196717 0 0.031147294856206684 -0.0073546400341472128 0 0.013396152740490254 -0.0028500500090504971 0 0.014218866195066793 -0.0034634043602416913 0 0.014898573921811943 -0.0027714926067618135 0 0.013396152740490254 -0.0028500500090504971 0 0.014218866195066793 -0.0034634043602416913 0 0.01354594992691608 -0.0043705606243934908 0 0.028237868021175415 -0.0083978643467196717 0 0.025772985587566744 -0.0078381398977054508 0 0.025303406185090992 -0.0094314797969737973 0 0.013396152740490254 -0.0028500500090504971 0 0.012649687984015471 -0.0038859126261009008 0 0.011586665322291995 -0.0035349920249262267 0 0.022042160544714941 -0.0059363804499018387 0 0.015488263024042995 -0.0052888105469239902 0 0.015666972627794849 -0.0030700560877218643 0 0.016332718203124343 -0.0034253234943385333 0 0.015005978505691927 -0.0039169342605318421 0 0.015666972627794849 -0.0030700560877218643 0 0.014898573921811943 -0.0027714926067618135 0 0.015625833760676413 -0.002633042074808785 0 0.015666972627794849 -0.0030700560877218643 0 0.016119925116612397 -0.0029412639620884405 0 0.015625833760676413 -0.002633042074808785 0 0.015666972627794849 -0.0030700560877218643 0 0.016119925116612397 -0.0029412639620884405 0 0.016332718203124343 -0.0034253234943385333 0 0.015666972627794849 -0.0030700560877218643 0 0.014953628896357278 -0.0033040627009376 0 0.015005978505691927 -0.0039169342605318421 0 0.014218866195066793 -0.0034634043602416913 0 0.014953628896357278 -0.0033040627009376 0 0.015005978505691927 -0.0039169342605318421 0 0.014218866195066793 -0.0034634043602416913 0 0.014953628896357278 -0.0033040627009376 0 0.014898573921811943 -0.0027714926067618135 0 0.015666972627794849 -0.0030700560877218643 0 0.014953628896357278 -0.0033040627009376 0 0.014898573921811943 -0.0027714926067618135 0 0.016454950900362614 -0.0035457644508657652 0 0.019912391676276755 -0.0027960167455659919 0 0.014898573921811943 -0.0027714926067618135 0 0.015203196437940207 -0.002235363380997103 0 0.015625833760676413 -0.002633042074808785 0 0.013396152740490254 -0.0028500500090504971 0 0.014898573921811943 -0.0027714926067618135 0 0.015222987215219754 -0.0021795511559291208 0 0.019912391676276755 -0.0027960167455659919 0 0.015509527569936697 -0.0018355886919745211 0 0.015203196437940207 -0.002235363380997103 0 0.015625833760676413 -0.002633042074808785 0 0.016152924128534241 -0.0024338584490628799 0 0.015203196437940207 -0.002235363380997103 0 0.016152924128534241 -0.0024338584490628799 0 0.016870622342331918 -0.0019180070684316154 0 0.016119925116612397 -0.0029412639620884405 0 0.015625833760676413 -0.002633042074808785 0 0.016152924128534241 -0.0024338584490628799 0 0.031147294856206684 -0.0073546400341472128 0 0.032219748778687066 -0.0054519509305474018 0 0.030968384917879819 -0.0046016030703720182 0 0.01791223749016551 -0.0015066387378237058 0 0.0175292894819719 -0.0021958882067057749 0 0.016870622342331918 -0.0019180070684316154 0 0.019912391676276755 -0.0027960167455659919 0 0.024855605669298526 -0.0041274627730140548 0 0.029526625728050388 -0.0059335263002128751 0 0.031147294856206684 -0.0073546400341472128 0 0.030968384917879819 -0.0046016030703720182 0 0.029218850812196173 -0.0039715924741807037 0 0.029526625728050388 -0.0059335263002128751 0 0.030968384917879819 -0.0046016030703720182 0 0.030958853880415645 -0.0031765753265406323 0 0.029218850812196173 -0.0039715924741807037 0 0.030968384917879819 -0.0046016030703720182 0 0.024855605669298526 -0.0041274627730140548 0 0.028877384423366504 -0.0025391912890279588 0 0.030958853880415645 -0.0031765753265406323 0 0.030968384917879819 -0.0046016030703720182 0 0.033293630440041445 -0.0035679435051823903 0 0.032219748778687066 -0.0054519509305474018 0 0.030968384917879819 -0.0046016030703720182 0 0.033293630440041445 -0.0035679435051823903 0 0.034021835210675082 -0.0010405529430618666 0 0.032194903808361687 -9.6174921760621381e-05 0 0.032690771666901243 0.0015864476379923176 0 0.028877384423366504 -0.0025391912890279588 0 0.025894976159311689 -0.00018483703209804542 0 0.032190844212707057 -0.0018020379640870307 0 0.034021835210675082 -0.0010405529430618666 0 0.032194903808361687 -9.6174921760621381e-05 0 0.032190844212707057 -0.0018020379640870307 0 0.032194903808361687 -9.6174921760621381e-05 0 0.030859159031582723 -0.00033149672675314185 0 0.032194903808361687 -9.6174921760621381e-05 0 0.031072504589216291 0.0012017491220869948 0 0.030859159031582723 -0.00033149672675314185 0 0.032194903808361687 -9.6174921760621381e-05 0 0.031072504589216291 0.0012017491220869948 0 0.032690771666901243 0.0015864476379923176 0 0.031072504589216291 0.0012017491220869948 0 0.030726747746202675 0.0021585112101776779 0 0.031499494369166929 0.0026091370072974865 0 0.031072504589216291 0.0012017491220869948 0 0.032690771666901243 0.0015864476379923176 0 0.031499494369166929 0.0026091370072974865 0 0.0175292894819719 -0.0021958882067057749 0 0.017296427218020917 -0.0027112489283767399 0 0.016870622342331918 -0.0019180070684316154 0 0.017296427218020917 -0.0027112489283767399 0 0.016867000224631442 -0.0019228847261215918 0 0.016870622342331918 -0.0019180070684316154 0 0.0282881220727184 1.8065230574647387e-06 0 0.028863442554299387 0.00060314782501560038 0 0.027684592862600711 0.00074055207051031634 0 0.0282881220727184 1.8065230574647387e-06 0 0.028840795894197413 -0.00092742662194497314 0 0.027674218524549297 -0.00097727804951215657 0 0.0282881220727184 1.8065230574647387e-06 0 0.028840795894197413 -0.00092742662194497314 0 0.029283672781607817 -4.0235198342871421e-05 0 0.028840795894197413 -0.00092742662194497314 0 0.029283672781607817 -4.0235198342871421e-05 0 0.029864139406586429 -0.00090026517132008033 0 0.0282881220727184 1.8065230574647387e-06 0 0.029283672781607817 -4.0235198342871421e-05 0 0.028863442554299387 0.00060314782501560038 0 0.029283672781607817 -4.0235198342871421e-05 0 0.029663394947106226 0.00098170903562231509 0 0.028863442554299387 0.00060314782501560038 0 0.029283672781607817 -4.0235198342871421e-05 0 0.030859159031582723 -0.00033149672675314185 0 0.029663394947106226 0.00098170903562231509 0 0.029283672781607817 -4.0235198342871421e-05 0 0.029864139406586429 -0.00090026517132008033 0 0.030859159031582723 -0.00033149672675314185 0 0.030735899230172087 -0.0016554838719825805 0 0.029864139406586429 -0.00090026517132008033 0 0.030859159031582723 -0.00033149672675314185 0 0.031072504589216291 0.0012017491220869948 0 0.030859159031582723 -0.00033149672675314185 0 0.029663394947106226 0.00098170903562231509 0 0.031072504589216291 0.0012017491220869948 0 0.029663394947106226 0.00098170903562231509 0 0.02990533779355584 0.0021952035517955092 0 0.031072504589216291 0.0012017491220869948 0 0.02990533779355584 0.0021952035517955092 0 0.030726747746202675 0.0021585112101776779 0 0.029663394947106226 0.00098170903562231509 0 0.029004451965837529 0.0019446765567952349 0 0.02990533779355584 0.0021952035517955092 0 0.029663394947106226 0.00098170903562231509 0 0.028863442554299387 0.00060314782501560038 0 0.028376858049902354 0.0013710173660696978 0 0.029663394947106226 0.00098170903562231509 0 0.029004451965837529 0.0019446765567952349 0 0.028376858049902354 0.0013710173660696978 0 0.028376858049902354 0.0013710173660696978 0 0.027725898122907839 0.0022897585331682767 0 0.027112224510343185 0.0015519322443753065 0 0.029004451965837529 0.0019446765567952349 0 0.028376858049902354 0.0013710173660696978 0 0.027725898122907839 0.0022897585331682767 0 0.028863442554299387 0.00060314782501560038 0 0.028376858049902354 0.0013710173660696978 0 0.027684592862600711 0.00074055207051031634 0 0.028376858049902354 0.0013710173660696978 0 0.027684592862600711 0.00074055207051031634 0 0.027112224510343185 0.0015519322443753065 0 0.027814356133772814 0.0035163637401435643 0 0.028844112308982171 0.0028054018200784903 0 0.028691333189811357 0.0035653043317782473 0 0.027814356133772814 0.0035163637401435643 0 0.027725898122907839 0.0022897585331682767 0 0.028844112308982171 0.0028054018200784903 0 0.029004451965837529 0.0019446765567952349 0 0.027725898122907839 0.0022897585331682767 0 0.028844112308982171 0.0028054018200784903 0 0.029004451965837529 0.0019446765567952349 0 0.028844112308982171 0.0028054018200784903 0 0.02990533779355584 0.0021952035517955092 0 0.028844112308982171 0.0028054018200784903 0 0.028691333189811357 0.0035653043317782473 0 0.029252320585823492 0.0033895941579958236 0 0.028691333189811357 0.0035653043317782473 0 0.029252320585823492 0.0033895941579958236 0 0.029427546852345686 0.0038863500219589275 0 0.019782731152727422 0.0034613233828283993 0 0.034492264362248462 0.0019739534200272015 0 0.029948332214828541 0.0028325701874563247 0 0.030726747746202675 0.0021585112101776779 0 0.031499494369166929 0.0026091370072974865 0 0.028408116256091822 0.0042098232748083849 0 0.031499494369166929 0.0026091370072974865 0 0.030723882695459254 0.0048392687362019821 0 0.029948332214828541 0.0028325701874563247 0 0.029427546852345686 0.0038863500219589275 0 0.031499494369166929 0.0026091370072974865 0 0.028844112308982171 0.0028054018200784903 0 0.029252320585823492 0.0033895941579958236 0 0.029948332214828541 0.0028325701874563247 0 0.029252320585823492 0.0033895941579958236 0 0.029948332214828541 0.0028325701874563247 0 0.029427546852345686 0.0038863500219589275 0 0.028844112308982171 0.0028054018200784903 0 0.029948332214828541 0.0028325701874563247 0 0.02990533779355584 0.0021952035517955092 0 0.029948332214828541 0.0028325701874563247 0 0.02990533779355584 0.0021952035517955092 0 0.030726747746202675 0.0021585112101776779 0 0.019782731152727422 0.0034613233828283993 0 0.013440948227423602 0.00037211549213376409 0 0.0018579012142941305 0.0030846163899452997 0 0.0023002240157142346 0.0035170866272420769 0 0.0012509633712941889 0.0031691629642659688 0 0.013440948227423602 0.00037211549213376409 0 0.0032111431473561027 0.005413776744516762 0 0.0018579012142941305 0.0030846163899452997 0 0.0012509633712941889 0.0031691629642659688 0 0.0014643424916410334 0.0026450252064140539 0 0.0021385448340528494 0.0029164772906853514 0 0.0018579012142941305 0.0030846163899452997 0 0.0014643424916410334 0.0026450252064140539 0 0.0021385448340528494 0.0029164772906853514 0 0.0024638525120504987 0.0024168032557895735 0 0.0014643424916410334 0.0026450252064140539 0 0.0022284199262265951 0.0032853975902285095 0 0.0018579012142941305 0.0030846163899452997 0 0.0023002240157142346 0.0035170866272420769 0 0.0021385448340528494 0.0029164772906853514 0 0.0022284199262265951 0.0032853975902285095 0 0.002654634683453149 0.003154017100872633 0 0.0021385448340528494 0.0029164772906853514 0 0.0022284199262265951 0.0032853975902285095 0 0.0018579012142941305 0.0030846163899452997 0 0.013532894259102772 0.0040093143194501824 0 0.008406549245417649 0.0034195594473869504 0 0.002654634683453149 0.003154017100872633 0 0.0024638525120504987 0.0024168032557895735 0 0.0037502049531305129 0.002213805184888968 0 0.019782731152727422 0.0034613233828283993 0 0.013532894259102772 0.0040093143194501824 0 0.0022284199262265951 0.0032853975902285095 0 0.0023002240157142346 0.0035170866272420769 0 0.0031662635326376639 0.0031512801683124549 0 0.028691333189811357 0.0035653043317782473 0 0.029427546852345686 0.0038863500219589275 0 0.028679020591126248 0.0043568469197724719 0 0.003547999517452939 0.0045976779283946351 0 0.013532894259102772 0.0040093143194501824 0 0.0021385448340528494 0.0029164772906853514 0 0.002654634683453149 0.003154017100872633 0 0.0024638525120504987 0.0024168032557895735 0 0.027814356133772814 0.0035163637401435643 0 0.028691333189811357 0.0035653043317782473 0 0.028679020591126248 0.0043568469197724719 0 0.016119925116612397 -0.0029412639620884405 0 0.016152924128534241 -0.0024338584490628799 0 0.016434203217696869 -0.0026369299427492186 0 0.016152924128534241 -0.0024338584490628799 0 0.016434203217696869 -0.0026369299427492186 0 0.016566000870077844 -0.0023532457519048889 0 0.0167871358859145 -0.0024307609121879607 0 0.016434203217696869 -0.0026369299427492186 0 0.016566000870077844 -0.0023532457519048889 0 0.016152924128534241 -0.0024338584490628799 0 0.016870622342331918 -0.0019180070684316154 0 0.016566000870077844 -0.0023532457519048889 0 0.016870622342331918 -0.0019180070684316154 0 0.0167871358859145 -0.0024307609121879607 0 0.016566000870077844 -0.0023532457519048889 0 0.016867000224631442 -0.0019228847261215918 0 0.016870622342331918 -0.0019180070684316154 0 0.0167871358859145 -0.0024307609121879607 0 0.016867000224631442 -0.0019228847261215918 0 0.0167871358859145 -0.0024307609121879607 0 0.017463777856394355 -0.0028767290888588506 0 0.032690771666901243 0.0015864476379923176 0 0.031499494369166929 0.0026091370072974865 0 0.030723882695459254 0.0048392687362019821 0 0.025894976159311689 -0.00018483703209804542 0 0.013440948227423602 0.00037211549213376409 0 0.013440948227423602 0.00037211549213376409 0 0.0056851660368617968 -0.0014873932825846101 0 0.0010017344902854826 0.0036339888368433805 0 -0.0014547917118498846 0.0030619797416866568 0 7.8595745860450796e-05 0.0023398331530702162 0 0.0010017344902854826 0.0036339888368433805 0 7.8595745860450796e-05 0.0023398331530702162 0 0.0014643424916410334 0.0026450252064140539 0 0.0167871358859145 -0.0024307609121879607 0 0.017463777856394355 -0.0028767290888588506 0 0.016473648072439988 -0.0031142421359697612 0 0.017463777856394355 -0.0028767290888588506 0 0.016473648072439988 -0.0031142421359697612 0 0.016348268736854656 -0.0033307548307520136 0 0.0167871358859145 -0.0024307609121879607 0 0.016434203217696869 -0.0026369299427492186 0 0.016473648072439988 -0.0031142421359697612 0 0.016119925116612397 -0.0029412639620884405 0 0.016434203217696869 -0.0026369299427492186 0 0.016473648072439988 -0.0031142421359697612 0 0.016119925116612397 -0.0029412639620884405 0 0.016473648072439988 -0.0031142421359697612 0 0.016332718203124343 -0.0034253234943385333 0 0.0089930577297122685 -0.00063377418329522354 0 0.0056851660368617968 -0.0014873932825846101 0 -0.0014547917118498846 0.0030619797416866568 0 -0.0014005063218131043 0.0016577282465142103 0 7.8595745860450796e-05 0.0023398331530702162 0 -0.0014005063218131043 0.0016577282465142103 0 7.8595745860450796e-05 0.0023398331530702162 0 -0.0001467335934636325 0.0013728195198294338 0 7.8595745860450796e-05 0.0023398331530702162 0 0.00090390811144571749 0.0016919810755190703 0 0.0014643424916410334 0.0026450252064140539 0 7.8595745860450796e-05 0.0023398331530702162 0 0.00090390811144571749 0.0016919810755190703 0 -0.0001467335934636325 0.0013728195198294338 0 -0.0001467335934636325 0.0013728195198294338 0 0.00052960140304132795 0.00094579058858343824 0 -8.734191890319788e-05 0.00051508863871719071 0 0.00090390811144571749 0.0016919810755190703 0 -0.0001467335934636325 0.0013728195198294338 0 0.00052960140304132795 0.00094579058858343824 0 0.00090390811144571749 0.0016919810755190703 0 0.00052960140304132795 0.00094579058858343824 0 0.0012857303955911168 0.00077620119044855842 0 0.00052960140304132795 0.00094579058858343824 0 0.0012857303955911168 0.00077620119044855842 0 0.00055886954055972169 2.793117504397941e-05 0 0.00052960140304132795 0.00094579058858343824 0 -8.734191890319788e-05 0.00051508863871719071 0 0.00055886954055972169 2.793117504397941e-05 0 -8.734191890319788e-05 0.00051508863871719071 0 -0.00089323154446312939 0.0008595767154739028 0 -0.00063513669620704114 -0.00020834736619570823 0 -0.001918534262215297 0.00046570946932634875 0 -0.0022299025045215038 0.00083900091087092254 0 -0.00089323154446312939 0.0008595767154739028 0 -0.00063513669620704114 -0.00020834736619570823 0 -0.0022975683916906572 0.00091864819227934792 0 -0.0014005063218131043 0.0016577282465142103 0 -0.00089323154446312939 0.0008595767154739028 0 -0.0022975683916906572 0.00091864819227934792 0 -0.0014005063218131043 0.0016577282465142103 0 -0.0001467335934636325 0.0013728195198294338 0 -0.00089323154446312939 0.0008595767154739028 0 -0.0001467335934636325 0.0013728195198294338 0 -8.734191890319788e-05 0.00051508863871719071 0 -0.00089323154446312939 0.0008595767154739028 0 0.0027976586559454934 0.0016565637499776941 0 0.0024638525120504987 0.0024168032557895735 0 0.0037502049531305129 0.002213805184888968 0 0.0027976586559454934 0.0016565637499776941 0 0.0024638525120504987 0.0024168032557895735 0 0.00190940600014616 0.0016550799550370224 0 0.0024638525120504987 0.0024168032557895735 0 0.00190940600014616 0.0016550799550370224 0 0.0014643424916410334 0.0026450252064140539 0 0.00090390811144571749 0.0016919810755190703 0 0.00190940600014616 0.0016550799550370224 0 0.0014643424916410334 0.0026450252064140539 0 0.00090390811144571749 0.0016919810755190703 0 0.00190940600014616 0.0016550799550370224 0 0.0012857303955911168 0.00077620119044855842 0 0.0012857303955911168 0.00077620119044855842 0 0.0023602618856713498 0.00072542753214832666 0 0.0015294158515708736 5.0113469623950092e-06 0 0.00190940600014616 0.0016550799550370224 0 0.0012857303955911168 0.00077620119044855842 0 0.0023602618856713498 0.00072542753214832666 0 0.0027976586559454934 0.0016565637499776941 0 0.0023602618856713498 0.00072542753214832666 0 0.0036459626455659045 0.0009545916042304869 0 0.0027976586559454934 0.0016565637499776941 0 0.00190940600014616 0.0016550799550370224 0 0.0023602618856713498 0.00072542753214832666 0 0.0023602618856713498 0.00072542753214832666 0 0.0026898583152958396 -0.00042286810646758357 0 0.0015294158515708736 5.0113469623950092e-06 0 0.0023602618856713498 0.00072542753214832666 0 0.0026898583152958396 -0.00042286810646758357 0 0.0036459626455659045 0.0009545916042304869 0 0.0026898583152958396 -0.00042286810646758357 0 0.0015294158515708736 5.0113469623950092e-06 0 0.00063722089975845326 -0.0010399148215428742 0 0.0012857303955911168 0.00077620119044855842 0 0.0015294158515708736 5.0113469623950092e-06 0 0.00055886954055972169 2.793117504397941e-05 0 0.0035743629533232443 0.00015343996993938763 0 0.00044582625471448184 0.00036580810345710309 0 -0.0009404615041849159 -4.9030233468749016e-05 0 -0.0013765156162992942 0.00032392400955026256 0 -0.0011354113214228025 0.00028575637342180598 0 0.00044582625471448184 0.00036580810345710309 0 0.0012899236350946998 0.00036240858275907281 0 0.0038441683352988085 0.00082852954226051096 0 0.0032862462033949446 0.00077500421985948319 0 0.0037057014298142589 0.00046407901976058596 0 0.0038441683352988085 0.00082852954226051096 0 0.004017349735486302 0.00063165251291430295 0 0.0037057014298142589 0.00046407901976058596 0 -0.0027994404834049144 0.00094349231505086591 0 -0.0028118525987605955 0.00086586053500401264 0 -0.0026082338559615835 0.00087190377923896658 0 -0.0028118525987605955 0.00086586053500401264 0 -0.0026082338559615835 0.00087190377923896658 0 -0.0022975683916906572 0.00091864819227934792 0 -0.0027994404834049144 0.00094349231505086591 0 -0.0028118525987605955 0.00086586053500401264 0 -0.0028904582237415429 0.000962033264054182 0 -0.0027994404834049144 0.00094349231505086591 0 -0.0027981001970107449 0.00098445437868571739 0 -0.0026082338559615835 0.00087190377923896658 0 -8.734191890319788e-05 0.00051508863871719071 0 -0.00063513669620704114 -0.00020834736619570823 0 0.00055886954055972169 2.793117504397941e-05 0 0.0015294158515708736 5.0113469623950092e-06 0 0.00055886954055972169 2.793117504397941e-05 0 0.00063722089975845326 -0.0010399148215428742 0 -0.0028118525987605955 0.00086586053500401264 0 -0.0029723987031110692 0.0009702701058459098 0 -0.0028904582237415429 0.000962033264054182 0 -0.001918534262215297 0.00046570946932634875 0 0.00044582625471448184 0.00036580810345710309 0 -0.00063513669620704114 -0.00020834736619570823 0 0.00055886954055972169 2.793117504397941e-05 0 0.00063722089975845326 -0.0010399148215428742 0 -0.0029121734096476844 0.00098043805731129626 0 -0.0029723987031110692 0.0009702701058459098 0 -0.0028904582237415429 0.000962033264054182 0 -0.00075050342649957526 -1.9862726228224344e-05 0 -0.0009404615041849159 -4.9030233468749016e-05 0 -0.0011354113214228025 0.00028575637342180598 0 -0.0024132437165678877 0.0005697296214531326 0 0.00044582625471448184 0.00036580810345710309 0 -0.0030356853340631177 0.0010284572596473299 0 -0.0030887862471025867 0.0012144997196342142 0 -0.0031393943444867956 0.0012923053807887255 0 -0.0024132437165678877 0.0005697296214531326 0 -0.0020348928068868784 0.00074129929872023079 0 -0.0030356853340631177 0.0010284572596473299 0 -0.0030258018346020162 0.0011078318898689781 0 -0.0029476420192490666 0.0010200787246126255 0 -0.0030258018346020162 0.0011078318898689781 0 -0.0030308012697080598 0.0011652720808142953 0 -0.0030887862471025867 0.0012144997196342142 0 -0.0030356853340631177 0.0010284572596473299 0 -0.0030258018346020162 0.0011078318898689781 0 -0.0030887862471025867 0.0012144997196342142 0 -0.0030308012697080598 0.0011652720808142953 0 -0.0029607879082029086 0.0010817317683713527 0 -0.0029320259841125124 0.0010928409386236583 0 -0.0029607879082029086 0.0010817317683713527 0 -0.0028792607833667697 0.001007313889613122 0 -0.0029320259841125124 0.0010928409386236583 0 -0.0030258018346020162 0.0011078318898689781 0 -0.0030308012697080598 0.0011652720808142953 0 -0.0029607879082029086 0.0010817317683713527 0 -0.0030258018346020162 0.0011078318898689781 0 -0.0029607879082029086 0.0010817317683713527 0 -0.0029476420192490666 0.0010200787246126255 0 -0.0029607879082029086 0.0010817317683713527 0 -0.0029476420192490666 0.0010200787246126255 0 -0.0028792607833667697 0.001007313889613122 0 -0.0027994404834049144 0.00094349231505086591 0 -0.0028792607833667697 0.001007313889613122 0 -0.0028904582237415429 0.000962033264054182 0 -0.0029476420192490666 0.0010200787246126255 0 -0.0028792607833667697 0.001007313889613122 0 -0.0028904582237415429 0.000962033264054182 0 -0.0030080129836285957 0.0010103100615859431 0 -0.0029476420192490666 0.0010200787246126255 0 -0.0028904582237415429 0.000962033264054182 0 -0.0024132437165678877 0.0005697296214531326 0 -0.0025676823055805101 0.00059624571771291668 0 -0.0024132437165678877 0.0005697296214531326 0 -0.0026932367895250589 0.00079177343792920859 0 -0.0027994404834049144 0.00094349231505086591 0 -0.0028792607833667697 0.001007313889613122 0 -0.0027981001970107449 0.00098445437868571739 0 -0.0028792607833667697 0.001007313889613122 0 -0.0029320259841125124 0.0010928409386236583 0 -0.0027981001970107449 0.00098445437868571739 0 -0.0029320259841125124 0.0010928409386236583 0 -0.0027981001970107449 0.00098445437868571739 0 -0.0029289527725114479 0.0011125491907981069 0 -0.0027711062827696265 0.00095738403285148676 0 -0.0027981001970107449 0.00098445437868571739 0 -0.0026082338559615835 0.00087190377923896658 0 -0.0027711062827696265 0.00095738403285148676 0 -0.0027981001970107449 0.00098445437868571739 0 -0.0029289527725114479 0.0011125491907981069 0 -0.0027711062827696265 0.00095738403285148676 0 -0.0026082338559615835 0.00087190377923896658 0 -0.0026986797733401422 0.00085972702661638717 0 -0.0026082338559615835 0.00087190377923896658 0 -0.0026986797733401422 0.00085972702661638717 0 -0.0025741955544131149 0.0010276233659942918 0 -0.0023120985349191821 -0.0013906357777367735 0 -0.0016189613694198599 -0.00089163046171151844 0 -0.0016938939352850191 -0.0015089192053051963 0 -0.0023120985349191821 -0.0013906357777367735 0 -0.0016938939352850191 -0.0015089192053051963 0 -0.0019458256419974628 -0.0023601364892184228 0 -0.0027711062827696265 0.00095738403285148676 0 -0.0026986797733401422 0.00085972702661638717 0 -0.002495721447410506 0.00093322563656427014 0 -0.0023120985349191821 -0.0013906357777367735 0 -0.0016189613694198599 -0.00089163046171151844 0 -0.0020720842343931209 -9.284209205090492e-05 0 -0.0023655284085091991 -0.00020106464893285034 0 -0.002267253782164936 0.00045238334490013758 0 -0.0016189613694198599 -0.00089163046171151844 0 -0.00092224096542250621 -0.00035288303149769932 0 -0.0011023331541370853 -0.0013354756864626749 0 -0.0016189613694198599 -0.00089163046171151844 0 -0.00092224096542250621 -0.00035288303149769932 0 -0.0020720842343931209 -9.284209205090492e-05 0 -0.00092224096542250621 -0.00035288303149769932 0 -0.00043710180827904809 -0.0014110721675558398 0 -0.0011023331541370853 -0.0013354756864626749 0 -0.00092224096542250621 -0.00035288303149769932 0 -0.00043710180827904809 -0.0014110721675558398 0 -2.0235872088452287e-05 -0.00092748865649269448 0 -0.0011023331541370853 -0.0013354756864626749 0 -0.00072031786463166243 -0.0018891060180314001 0 -0.0013560276898062031 -0.0020809715640494456 0 -0.00043710180827904809 -0.0014110721675558398 0 -0.0011023331541370853 -0.0013354756864626749 0 -0.00072031786463166243 -0.0018891060180314001 0 -0.00043710180827904809 -0.0014110721675558398 0 -0.00072031786463166243 -0.0018891060180314001 0 -0.00026932221339686659 -0.0018507264696475459 0 -0.0016189613694198599 -0.00089163046171151844 0 -0.0011023331541370853 -0.0013354756864626749 0 -0.0016938939352850191 -0.0015089192053051963 0 -0.0011023331541370853 -0.0013354756864626749 0 -0.0016938939352850191 -0.0015089192053051963 0 -0.0013560276898062031 -0.0020809715640494456 0 -0.0013560276898062031 -0.0020809715640494456 0 -0.00068170774754572523 -0.002404694592964047 0 -0.0012706392351216355 -0.0028078063195175946 0 -0.0016938939352850191 -0.0015089192053051963 0 -0.0013560276898062031 -0.0020809715640494456 0 -0.0019458256419974628 -0.0023601364892184228 0 -0.0013560276898062031 -0.0020809715640494456 0 -0.0012706392351216355 -0.0028078063195175946 0 -0.0019458256419974628 -0.0023601364892184228 0 -0.00068170774754572523 -0.002404694592964047 0 -0.0012706392351216355 -0.0028078063195175946 0 -0.00012740066638753799 -0.0027615616319705016 0 -0.00072031786463166243 -0.0018891060180314001 0 -0.00038401678853863992 -0.0021864089633618529 0 -0.00068170774754572523 -0.002404694592964047 0 -0.00072031786463166243 -0.0018891060180314001 0 -0.00026932221339686659 -0.0018507264696475459 0 -0.00038401678853863992 -0.0021864089633618529 0 -0.00072031786463166243 -0.0018891060180314001 0 -0.0013560276898062031 -0.0020809715640494456 0 -0.00068170774754572523 -0.002404694592964047 0 -0.00068170774754572523 -0.002404694592964047 0 -0.00012740066638753799 -0.0027615616319705016 0 -0.00016100499027542085 -0.0026910811647311056 0 -0.00038401678853863992 -0.0021864089633618529 0 -0.00068170774754572523 -0.002404694592964047 0 -0.00016100499027542085 -0.0026910811647311056 0 0.0065101831426214252 -0.0035510842939936085 0 0.0040071058587245008 -0.0034004764992572284 0 0.012649687984015471 -0.0038859126261009008 0 0.01354594992691608 -0.0043705606243934908 0 0.012074333277630642 -0.0047868281874749365 0 0.013396152740490254 -0.0028500500090504971 0 0.012649687984015471 -0.0038859126261009008 0 0.01354594992691608 -0.0043705606243934908 0 0.014218866195066793 -0.0034634043602416913 0 0.01354594992691608 -0.0043705606243934908 0 0.015005978505691927 -0.0039169342605318421 0 -0.0012706392351216355 -0.0028078063195175946 0 -0.0021029584614154057 -0.0028308805549584056 0 -0.0019458256419974628 -0.0023601364892184228 0 0.0065101831426214252 -0.0035510842939936085 0 0.0065675731975609348 -0.0035203381753629069 0 -0.0021029584614154057 -0.0028308805549584056 0 -0.0022537973447254969 -0.0025883239530190586 0 -0.0019458256419974628 -0.0023601364892184228 0 0.0056851660368617968 -0.0014873932825846101 0 0.0065675731975609348 -0.0035203381753629069 0 -0.0014547917118498846 0.0030619797416866568 0 -0.0014005063218131043 0.0016577282465142103 0 -0.0025741955544131149 0.0010276233659942918 0 0.0056851660368617968 -0.0014873932825846101 0 -0.0034587634132724407 -0.00066639193285822102 0 -0.0025729518593960382 -0.0029199397637558661 0 -0.0022537973447254969 -0.0025883239530190586 0 -0.0024700148995582395 -0.0023572107789643013 0 -0.0025729518593960382 -0.0029199397637558661 0 -0.0021029584614154057 -0.0028308805549584056 0 -0.0022537973447254969 -0.0025883239530190586 0 -0.0026082338559615835 0.00087190377923896658 0 -0.0025741955544131149 0.0010276233659942918 0 -0.0022975683916906572 0.00091864819227934792 0 -0.0023655284085091991 -0.00020106464893285034 0 -0.0034587634132724407 -0.00066639193285822102 0 -0.0014005063218131043 0.0016577282465142103 0 -0.0025741955544131149 0.0010276233659942918 0 -0.0022975683916906572 0.00091864819227934792 0 -0.0023120985349191821 -0.0013906357777367735 0 -0.0024700148995582395 -0.0023572107789643013 0 -0.0019458256419974628 -0.0023601364892184228 0 -0.0022537973447254969 -0.0025883239530190586 0 -0.0024700148995582395 -0.0023572107789643013 0 -0.0019458256419974628 -0.0023601364892184228 0 0.017596994578722065 -0.00023262029418366859 0 0.018940258798703976 1.4555043204341002e-06 0 0.016360392316329388 -1.8231523205852028e-06 0 0.017159651748955642 -0.00022580636411705188 0 0.017596994578722065 -0.00023262029418366859 0 0.017157198182673212 3.6446431453265174e-05 0 0.017159651748955642 -0.00022580636411705188 0 0.017596994578722065 -0.00023262029418366859 0 0.01648407029273051 -0.00018369229974751761 0 0.017596994578722065 -0.00023262029418366859 0 0.017394501180308882 0.00041862216608838621 0 0.019103315460339446 0.00016158848385306175 0 0.017596994578722065 -0.00023262029418366859 0 0.017394501180308882 0.00041862216608838621 0 0.017157198182673212 3.6446431453265174e-05 0 0.019565704645860407 0.00038345528994989552 0 0.019214019603069666 0.00024433285582563507 0 0.021655661095913131 0.0004969238482627552 0 0.019103315460339446 0.00016158848385306175 0 0.020448182102177782 -8.3481437700284839e-06 0 0.017596994578722065 -0.00023262029418366859 0 0.018940258798703976 1.4555043204341002e-06 0 0.019103315460339446 0.00016158848385306175 0 0.018940258798703976 1.4555043204341002e-06 0 0.019103315460339446 0.00016158848385306175 0 0.020448182102177782 -8.3481437700284839e-06 0 0.020448182102177782 -8.3481437700284839e-06 0 0.021519243703799203 -1.0686526961939415e-06 0 0.021633071941261937 -0.00024227796761605889 0 0.018940258798703976 1.4555043204341002e-06 0 0.020448182102177782 -8.3481437700284839e-06 0 0.021519243703799203 -1.0686526961939415e-06 0 0.022428651846500499 -0.00046859618975103769 0 0.021519243703799203 -1.0686526961939415e-06 0 0.021633071941261937 -0.00024227796761605889 0 0.022428651846500499 -0.00046859618975103769 0 0.021633071941261937 -0.00024227796761605889 0 0.022290738082031386 -0.00030795808570045996 0 0.021655661095913131 0.0004969238482627552 0 0.021633071941261937 -0.00024227796761605889 0 0.022290738082031386 -0.00030795808570045996 0 0.021655661095913131 0.0004969238482627552 0 0.020448182102177782 -8.3481437700284839e-06 0 0.021633071941261937 -0.00024227796761605889 0 0.019565704645860407 0.00038345528994989552 0 0.019613623370938232 0.00035770678291637627 0 0.021655661095913131 0.0004969238482627552 0 0.02249466316935592 0.00033012643911694558 0 0.022290738082031386 -0.00030795808570045996 0 0.02249466316935592 0.00033012643911694558 0 0.022290738082031386 -0.00030795808570045996 0 0.022795184833607891 -0.00015787750968819471 0 0.022415213791284028 -0.00049911794223595071 0 0.022428651846500499 -0.00046859618975103769 0 0.022290738082031386 -0.00030795808570045996 0 0.022721655498702718 -0.0006022246721808282 0 0.022415213791284028 -0.00049911794223595071 0 0.022290738082031386 -0.00030795808570045996 0 0.022721655498702718 -0.0006022246721808282 0 0.022290738082031386 -0.00030795808570045996 0 0.022795184833607891 -0.00015787750968819471 0 0.022721655498702718 -0.0006022246721808282 0 0.022795184833607891 -0.00015787750968819471 0 0.023319753264021435 -0.00045689924614002029 0 0.025370823074233693 -0.0003781279738438199 0 0.024970611626673411 -0.00064449379314883664 0 0.027579995735469088 -0.0002756067990506842 0 0.027586552001254563 -0.00027978648304572958 0 0.027559302280452887 -0.00030051625799427337 0 0.019613623370938232 0.00035770678291637627 0 0.02083643016811694 0.00064410570715349772 0 0.02249466316935592 0.00033012643911694558 0 0.022795184833607891 -0.00015787750968819471 0 0.023235233331273593 0.00027867116645557591 0 0.017970835102407889 0.0020368492711130217 0 0.02083643016811694 0.00064410570715349772 0 0.019636569898242889 0.0038957550672926696 0 0.021556398682471639 0.0028705244194303448 0 0.021312775939155235 0.0013120262998622409 0 0.017015434305955576 0.00033655062948525187 0 0.016955045116526478 -1.0186491097505346e-05 0 0.016754833444515643 0.00040482789601230642 0 0.019636569898242889 0.0038957550672926696 0 0.021344176349643234 0.004122534404410602 0 0.021556398682471639 0.0028705244194303448 0 0.017394501180308882 0.00041862216608838621 0 0.017015434305955576 0.00033655062948525187 0 0.017157198182673212 3.6446431453265174e-05 0 0.017015434305955576 0.00033655062948525187 0 0.017157198182673212 3.6446431453265174e-05 0 0.016955045116526478 -1.0186491097505346e-05 0 0.017159651748955642 -0.00022580636411705188 0 0.017157198182673212 3.6446431453265174e-05 0 0.016955045116526478 -1.0186491097505346e-05 0 0.019636569898242889 0.0038957550672926696 0 0.019804689293667056 0.0053297823943250899 0 0.018701650975167527 0.0055878486767940135 0 0.017970835102407889 0.0020368492711130217 0 0.018153796754828103 0.0027590034266801238 0 0.017159651748955642 -0.00022580636411705188 0 0.016955045116526478 -1.0186491097505346e-05 0 0.017098427303400304 -0.00019755857339002391 0 0.019636569898242889 0.0038957550672926696 0 0.021344176349643234 0.004122534404410602 0 0.019804689293667056 0.0053297823943250899 0 0.021344176349643234 0.004122534404410602 0 0.021710515507842077 0.0053177328750031944 0 0.019804689293667056 0.0053297823943250899 0 0.021344176349643234 0.004122534404410602 0 0.022756088453068066 0.0042653685081206682 0 0.022740036856541489 0.0030788204443050584 0 0.021344176349643234 0.004122534404410602 0 0.022756088453068066 0.0042653685081206682 0 0.021710515507842077 0.0053177328750031944 0 0.020596162848892423 0.0051886913740295188 0 0.021338354161254479 0.005238560099280842 0 0.023670984145745026 0.0051082343897405911 0 0.022756088453068066 0.0042653685081206682 0 0.024737711675269888 0.0031918690481978159 0 0.023670984145745026 0.0051082343897405911 0 0.022756088453068066 0.0042653685081206682 0 0.021710515507842077 0.0053177328750031944 0 0.022756088453068066 0.0042653685081206682 0 0.022740036856541489 0.0030788204443050584 0 0.024737711675269888 0.0031918690481978159 0 0.022740036856541489 0.0030788204443050584 0 0.024201686261071838 0.0020058968334242693 0 0.024737711675269888 0.0031918690481978159 0 0.022740036856541489 0.0030788204443050584 0 0.022863114633014815 0.0019008939854578838 0 0.024201686261071838 0.0020058968334242693 0 0.022740036856541489 0.0030788204443050584 0 0.021556398682471639 0.0028705244194303448 0 0.022863114633014815 0.0019008939854578838 0 0.021344176349643234 0.004122534404410602 0 0.022740036856541489 0.0030788204443050584 0 0.021556398682471639 0.0028705244194303448 0 0.022795184833607891 -0.00015787750968819471 0 0.023235233331273593 0.00027867116645557591 0 0.023608872867975361 -0.00038938986868105002 0 0.021556398682471639 0.0028705244194303448 0 0.021312775939155235 0.0013120262998622409 0 0.022863114633014815 0.0019008939854578838 0 0.023705959738829871 -0.0024487764838628384 0 0.023169207422427125 -0.00066235263174774402 0 0.024116894042898695 -0.001008443648099423 0 0.02083643016811694 0.00064410570715349772 0 0.023799587345711814 -0.00090390108615630987 0 0.022795184833607891 -0.00015787750968819471 0 0.023319753264021435 -0.00045689924614002029 0 0.023608872867975361 -0.00038938986868105002 0 0.023235233331273593 0.00027867116645557591 0 0.023608872867975361 -0.00038938986868105002 0 0.024116894042898695 -0.001008443648099423 0 0.024970611626673411 -0.00064449379314883664 0 0.0240383777343234 -0.00087505120516148975 0 0.023169207422427125 -0.00066235263174774402 0 0.023608872867975361 -0.00038938986868105002 0 0.024116894042898695 -0.001008443648099423 0 0.023055571615612842 -0.00065929193209643985 0 0.024198099443570584 0.0007439029587371132 0 0.02468504888272835 -0.0010480471650553065 0 0.021312775939155235 0.0013120262998622409 0 0.024198099443570584 0.0007439029587371132 0 0.022863114633014815 0.0019008939854578838 0 0.021709493055159401 0.0012850545580609307 0 0.023055571615612842 -0.00065929193209643985 0 0.024198099443570584 0.0007439029587371132 0 0.02083643016811694 0.00064410570715349772 0 0.02430083194025931 0.00089398319543213119 0 0.024198099443570584 0.0007439029587371132 0 0.022863114633014815 0.0019008939854578838 0 0.024201686261071838 0.0020058968334242693 0 0.024201686261071838 0.0020058968334242693 0 0.025331135211730336 0.001221013261926294 0 0.026101084939684736 0.0022753248981443475 0 0.024198099443570584 0.0007439029587371132 0 0.024201686261071838 0.0020058968334242693 0 0.025331135211730336 0.001221013261926294 0 0.025331135211730336 0.001221013261926294 0 0.026495669073839222 0.00095131038593265782 0 0.026101084939684736 0.0022753248981443475 0 0.025331135211730336 0.001221013261926294 0 0.025649942823228303 0.00015023675824591141 0 0.026495669073839222 0.00095131038593265782 0 0.024198099443570584 0.0007439029587371132 0 0.025331135211730336 0.001221013261926294 0 0.025649942823228303 0.00015023675824591141 0 0.024198099443570584 0.0007439029587371132 0 0.025649942823228303 0.00015023675824591141 0 0.02468504888272835 -0.0010480471650553065 0 0.025649942823228303 0.00015023675824591141 0 0.02468504888272835 -0.0010480471650553065 0 0.026247556656241421 -0.0010226771587606065 0 0.0282881220727184 1.8065230574647387e-06 0 0.027674218524549297 -0.00097727804951215657 0 0.026968227598994712 -4.2929187172623654e-05 0 0.027674218524549297 -0.00097727804951215657 0 0.026247556656241421 -0.0010226771587606065 0 0.026968227598994712 -4.2929187172623654e-05 0 0.025649942823228303 0.00015023675824591141 0 0.026247556656241421 -0.0010226771587606065 0 0.026968227598994712 -4.2929187172623654e-05 0 0.025649942823228303 0.00015023675824591141 0 0.026968227598994712 -4.2929187172623654e-05 0 0.026495669073839222 0.00095131038593265782 0 0.0282881220727184 1.8065230574647387e-06 0 0.026968227598994712 -4.2929187172623654e-05 0 0.027684592862600711 0.00074055207051031634 0 0.027684592862600711 0.00074055207051031634 0 0.026495669073839222 0.00095131038593265782 0 0.027112224510343185 0.0015519322443753065 0 0.026968227598994712 -4.2929187172623654e-05 0 0.027684592862600711 0.00074055207051031634 0 0.026495669073839222 0.00095131038593265782 0 0.026495669073839222 0.00095131038593265782 0 0.027112224510343185 0.0015519322443753065 0 0.026101084939684736 0.0022753248981443475 0 0.027725898122907839 0.0022897585331682767 0 0.027112224510343185 0.0015519322443753065 0 0.026101084939684736 0.0022753248981443475 0 0.027814356133772814 0.0035163637401435643 0 0.027725898122907839 0.0022897585331682767 0 0.026537047405976316 0.0033741902792062879 0 0.027725898122907839 0.0022897585331682767 0 0.026537047405976316 0.0033741902792062879 0 0.026101084939684736 0.0022753248981443475 0 0.026537047405976316 0.0033741902792062879 0 0.024737711675269888 0.0031918690481978159 0 0.026250680770640498 0.0048155413426931529 0 0.024201686261071838 0.0020058968334242693 0 0.026101084939684736 0.0022753248981443475 0 0.024737711675269888 0.0031918690481978159 0 0.026537047405976316 0.0033741902792062879 0 0.026101084939684736 0.0022753248981443475 0 0.024737711675269888 0.0031918690481978159 0 0.020596162848892423 0.0051886913740295188 0 0.021838035189930986 0.0044056208191995032 0 0.014970583283508915 0.0042348814852507565 0 0.014750236894236995 0.0042808510506844658 0 0.014834443252403717 0.0041938251860382247 0 0.023696129538970583 0.0052669755784388074 0 0.024737711675269888 0.0031918690481978159 0 0.026250680770640498 0.0048155413426931529 0 0.020596162848892423 0.0051886913740295188 0 0.025148101845387825 0.0030168308209005358 0 0.013532894259102772 0.0040093143194501824 0 0.021838035189930986 0.0044056208191995032 0 0.014421213183391832 0.0043097494710660289 0 0.014750236894236995 0.0042808510506844658 0 0.014694106313193341 0.0041848955832474643 0 0.027814356133772814 0.0035163637401435643 0 0.028679020591126248 0.0043568469197724719 0 0.026250680770640498 0.0048155413426931529 0 0.014750236894236995 0.0042808510506844658 0 0.014694106313193341 0.0041848955832474643 0 0.014834443252403717 0.0041938251860382247 0 0.027814356133772814 0.0035163637401435643 0 0.026537047405976316 0.0033741902792062879 0 0.026250680770640498 0.0048155413426931529 0 0.0027976586559454934 0.0016565637499776941 0 0.0037502049531305129 0.002213805184888968 0 0.0036459626455659045 0.0009545916042304869 0 0.0037502049531305129 0.002213805184888968 0 0.0045673014797513413 0.0013651951784296739 0 0.0036459626455659045 0.0009545916042304869 0 0.014970583283508915 0.0042348814852507565 0 0.014880443858420318 0.0040976998479147382 0 0.014834443252403717 0.0041938251860382247 0 0.014694106313193341 0.0041848955832474643 0 0.014880443858420318 0.0040976998479147382 0 0.014834443252403717 0.0041938251860382247 0 0.008406549245417649 0.0034195594473869504 0 0.0094398255512670847 0.0027130088929684347 0 0.0045673014797513413 0.0013651951784296739 0 0.0042944896007215683 0.00081708678499523664 0 0.0046345190065849211 0.00077464005452903011 0 0.0045673014797513413 0.0013651951784296739 0 0.0042944896007215683 0.00081708678499523664 0 0.0036459626455659045 0.0009545916042304869 0 0.0042944896007215683 0.00081708678499523664 0 0.0036459626455659045 0.0009545916042304869 0 0.0041999911256357346 0.00020752684230253919 0 0.0026898583152958396 -0.00042286810646758357 0 0.0036459626455659045 0.0009545916042304869 0 0.0041999911256357346 0.00020752684230253919 0 0.0035743629533232443 0.00015343996993938763 0 0.0041347503497894495 0.00050399215413892697 0 0.0041960439203821073 0.0005432839898392726 0 0.004017349735486302 0.00063165251291430295 0 0.0042821243409619193 0.00080570709421349694 0 0.0038441683352988085 0.00082852954226051096 0 0.004017349735486302 0.00063165251291430295 0 0.0042821243409619193 0.00080570709421349694 0 0.0041960439203821073 0.0005432839898392726 0 0.0044121219742548805 0.00058120268350806998 0 0.0042821243409619193 0.00080570709421349694 0 0.0042944896007215683 0.00081708678499523664 0 0.0041999911256357346 0.00020752684230253919 0 0.0046345190065849211 0.00077464005452903011 0 0.0041347503497894495 0.00050399215413892697 0 0.0047454373158882157 0.00068532733439394017 0 0.0041999911256357346 0.00020752684230253919 0 0.0047578366638974749 0.0007112643007086061 0 0.0046345190065849211 0.00077464005452903011 0 0.0044121219742548805 0.00058120268350806998 0 0.0042821243409619193 0.00080570709421349694 0 0.0047578366638974749 0.0007112643007086061 0 0.0047578366638974749 0.0007112643007086061 0 0.0048206384075654496 0.00075096767779699145 0 0.0046345190065849211 0.00077464005452903011 0 0.0044121219742548805 0.00058120268350806998 0 0.0045808503537271665 0.00054230162046269893 0 0.0047578366638974749 0.0007112643007086061 0 0.0044121219742548805 0.00058120268350806998 0 0.0045808503537271665 0.00054230162046269893 0 0.0044298405803689838 0.00044561052771170516 0 0.0045808503537271665 0.00054230162046269893 0 0.0047578366638974749 0.0007112643007086061 0 0.004685113983168154 0.0005498384940289475 0 0.0081202660241278674 0.0017411646252568475 0 0.005558669026825413 0.00071706562623341313 0 0.0067784476703666684 0.0014941894251286295 0 0.0069706430746320578 0.0014897098473395339 0 0.0069818545592853611 0.00091732135986208655 0 0.0047578366638974749 0.0007112643007086061 0 0.0048166757299765066 0.00074868302492092078 0 0.004685113983168154 0.0005498384940289475 0 0.0081202660241278674 0.0017411646252568475 0 0.0077330093494316163 0.0017172899136389157 0 0.0047578366638974749 0.0007112643007086061 0 0.0048166757299765066 0.00074868302492092078 0 0.0048206384075654496 0.00075096767779699145 0 0.0081202660241278674 0.0017411646252568475 0 0.01307908847811811 0.0023074145766819008 0 0.020498818654499557 0.0061857884932742749 0 0.020730847097926601 0.0056678627044937238 0 0.020162343031327259 0.0058024829800862295 0 0.020078339126144453 0.0064851910507215255 0 0.020498818654499557 0.0061857884932742749 0 0.020162343031327259 0.0058024829800862295 0 0.01307908847811811 0.0023074145766819008 0 0.012577726591807947 0.0033128816453018278 0 0.011462832955778888 0.0028134851004564883 0 0.01189936561012556 0.0028049227215564761 0 0.011295027288374015 0.0031657239762919991 0 0.0081202660241278674 0.0017411646252568475 0 0.012577726591807947 0.0033128816453018278 0 0.0048470507956430743 0.00075059611545304607 0 0.0048206384075654496 0.00075096767779699145 0 0.0048661806364237491 0.00085768280580306448 0 0.0045673014797513413 0.0013651951784296739 0 0.0048661806364237491 0.00085768280580306448 0 0.0046345190065849211 0.00077464005452903011 0 0.0048206384075654496 0.00075096767779699145 0 0.0048661806364237491 0.00085768280580306448 0 0.0046345190065849211 0.00077464005452903011 0 0.0094398255512670847 0.0027130088929684347 0 0.012577726591807947 0.0033128816453018278 0 0.014880443858420318 0.0040976998479147382 0 0.015006358033173605 0.0040194619306698799 0 0.014983734347219987 0.0041175066568736787 0 0.012577726591807947 0.0033128816453018278 0 0.017758680939842963 0.004867432673572235 0 0.014970583283508915 0.0042348814852507565 0 0.014880443858420318 0.0040976998479147382 0 0.014983734347219987 0.0041175066568736787 0 0.020952570723087972 0.0051946626028085566 0 0.020730847097926601 0.0056678627044937238 0 0.020355521943546975 0.0052953232863350149 0 0.020596162848892423 0.0051886913740295188 0 0.017758680939842963 0.004867432673572235 0 0.020730847097926601 0.0056678627044937238 0 0.020355521943546975 0.0052953232863350149 0 0.020162343031327259 0.0058024829800862295 0 0.020355521943546975 0.0052953232863350149 0 0.020162343031327259 0.0058024829800862295 0 0.019804689293667056 0.0053297823943250899 0 0.021338354161254479 0.005238560099280842 0 0.019848772693297299 0.005381141479281616 0 0.020162343031327259 0.0058024829800862295 0 0.019804689293667056 0.0053297823943250899 0 0.019597567196364456 0.0059699994083235808 0 0.019804689293667056 0.0053297823943250899 0 0.018701650975167527 0.0055878486767940135 0 0.019597567196364456 0.0059699994083235808 0 0.018701650975167527 0.0055878486767940135 0 0.019597567196364456 0.0059699994083235808 0 0.01905839844219704 0.0065816178401917292 0 0.020078339126144453 0.0064851910507215255 0 0.019597567196364456 0.0059699994083235808 0 0.01905839844219704 0.0065816178401917292 0 0.020078339126144453 0.0064851910507215255 0 0.020162343031327259 0.0058024829800862295 0 0.019597567196364456 0.0059699994083235808 0 0.01307908847811811 0.0023074145766819008 0 0.016501663418785794 0.0034468996714132733 0 0.01307908847811811 0.0023074145766819008 0 0.0096110950971443256 0.00050740766776199596 0 0.012664823851720974 6.6978732638506633e-05 0 0.012665249644070259 2.2775985244611005e-05 0 0.012674112784324084 3.1056270486570474e-05 0 0.0069706430746320578 0.0014897098473395339 0 0.0069818545592853611 0.00091732135986208655 0 0.0075432396367127522 0.0011621839413006843 0 0.0069818545592853611 0.00091732135986208655 0 0.0073627423350345039 0.00073239220420962339 0 0.0075432396367127522 0.0011621839413006843 0 0.0073627423350345039 0.00073239220420962339 0 0.0075432396367127522 0.0011621839413006843 0 0.0083118831271422229 0.00072618199864209068 0 0.0066367957589011529 0.0008578461011321865 0 0.010198974997855674 0.00038620903160317612 0 0.012665249644070259 2.2775985244611005e-05 0 0.012638012164345996 2.856882350082578e-05 0 0.012641140381062168 1.2442762478433404e-05 0 0.012665249644070259 2.2775985244611005e-05 0 0.012674112784324084 3.1056270486570474e-05 0 0.012638012164345996 2.856882350082578e-05 0 0.016501663418785794 0.0034468996714132733 0 0.015419890745183866 0.0026355663915288616 0 0.012674112784324084 3.1056270486570474e-05 0 0.012606115299931477 8.0613530707626346e-05 0 0.012638012164345996 2.856882350082578e-05 0 0.012606115299931477 8.0613530707626346e-05 0 0.012609835791455803 5.0108155762492565e-06 0 0.012638012164345996 2.856882350082578e-05 0 0.015419890745183866 0.0026355663915288616 0 0.015342130076402165 0.0025034180389430895 0 0.012606115299931477 8.0613530707626346e-05 0 0.012588567612634825 9.925806214827759e-05 0 0.012609835791455803 5.0108155762492565e-06 0 0.012609835791455803 5.0108155762492565e-06 0 0.012641140381062168 1.2442762478433404e-05 0 0.012574049965876143 -9.1773630952797215e-05 0 0.012588567612634825 9.925806214827759e-05 0 0.012609835791455803 5.0108155762492565e-06 0 0.012669671060386467 -4.2107080147442673e-05 0 0.012609835791455803 5.0108155762492565e-06 0 0.012574049965876143 -9.1773630952797215e-05 0 0.012669671060386467 -4.2107080147442673e-05 0 0.012609835791455803 5.0108155762492565e-06 0 0.012638012164345996 2.856882350082578e-05 0 0.012641140381062168 1.2442762478433404e-05 0 0.0096110950971443256 0.00050740766776199596 0 0.010198974997855674 0.00038620903160317612 0 0.012665249644070259 2.2775985244611005e-05 0 0.012641140381062168 1.2442762478433404e-05 0 0.012675704099907257 0.00017023401705526048 0 0.012641140381062168 1.2442762478433404e-05 0 0.012675704099907257 0.00017023401705526048 0 0.012574049965876143 -9.1773630952797215e-05 0 0.010198974997855674 0.00038620903160317612 0 0.011477312898961483 6.3291800064718688e-08 0 0.012675704099907257 0.00017023401705526048 0 0.011479520685835307 1.9891514744302513e-08 0 0.012388847777890359 -8.2788797799048864e-05 0 0.011479520685835307 1.9891514744302513e-08 0 0.012388847777890359 -8.2788797799048864e-05 0 0.012911624377757275 -0.00012499986552846147 0 0.012388847777890359 -8.2788797799048864e-05 0 0.012574049965876143 -9.1773630952797215e-05 0 0.012911624377757275 -0.00012499986552846147 0 0.012675704099907257 0.00017023401705526048 0 0.012388847777890359 -8.2788797799048864e-05 0 0.012574049965876143 -9.1773630952797215e-05 0 0.012588567612634825 9.925806214827759e-05 0 0.012911624377757275 -0.00012499986552846147 0 0.013777932636444301 8.8014678727193939e-08 0 0.015419890745183866 0.0026355663915288616 0 0.013781303045078725 2.3288338011871647e-07 0 0.012510176975976868 0.00022715356734705501 0 0.012588567612634825 9.925806214827759e-05 0 0.013777932636444301 8.8014678727193939e-08 0 0.011479520685835307 1.9891514744302513e-08 0 0.012911624377757275 -0.00012499986552846147 0 0.013777932636444301 8.8014678727193939e-08 0 0.012588567612634825 9.925806214827759e-05 0 0.012911624377757275 -0.00012499986552846147 0 0.012669671060386467 -4.2107080147442673e-05 0 0.012574049965876143 -9.1773630952797215e-05 0 0.012911624377757275 -0.00012499986552846147 0 0.012669671060386467 -4.2107080147442673e-05 0 0.013786336722497764 2.4523154910448713e-06 0 0.01648407029273051 -0.00018369229974751761 0 0.016360392316329388 -1.8231523205852028e-06 0 0.015891321086033795 0.00055924765393634552 0 0.013786336722497764 2.4523154910448713e-06 0 0.01648407029273051 -0.00018369229974751761 0 0.018701650975167527 0.0055878486767940135 0 0.01905839844219704 0.0065816178401917292 0 0.017994401873377135 0.0065711593275418886 0 0.017098427303400304 -0.00019755857339002391 0 0.015891321086033795 0.00055924765393634552 0 0.01648407029273051 -0.00018369229974751761 0 0.018153796754828103 0.0027590034266801238 0 0.015419890745183866 0.0026355663915288616 0 0.017159651748955642 -0.00022580636411705188 0 0.017098427303400304 -0.00019755857339002391 0 0.01648407029273051 -0.00018369229974751761 0 0.017596994578722065 -0.00023262029418366859 0 0.01648407029273051 -0.00018369229974751761 0 0.016360392316329388 -1.8231523205852028e-06 0 0.0069448640606771129 -0.00026399950466295114 0 0.0078600751553588328 -1.8982444339259987e-06 0 0.0053253295963511076 6.3732115266154828e-07 0 0.0069448640606771129 -0.00026399950466295114 0 0.005981057036139009 -4.2257617494082551e-05 0 0.0053253295963511076 6.3732115266154828e-07 0 0.0069448640606771129 -0.00026399950466295114 0 0.0070721089058381247 -0.00022077268426471693 0 0.0075186332915919384 -0.00039652904738529774 0 0.0069448640606771129 -0.00026399950466295114 0 0.0070721089058381247 -0.00022077268426471693 0 0.005981057036139009 -4.2257617494082551e-05 0 0.0069448640606771129 -0.00026399950466295114 0 0.0081688073677138491 -0.00023589178442058614 0 0.0075186332915919384 -0.00039652904738529774 0 0.0069448640606771129 -0.00026399950466295114 0 0.0078600751553588328 -1.8982444339259987e-06 0 0.0081688073677138491 -0.00023589178442058614 0 0.0078600751553588328 -1.8982444339259987e-06 0 0.010388927906032852 2.3728961340328297e-06 0 0.0081688073677138491 -0.00023589178442058614 0 0.0084405971095536277 0.00096203004822363765 0 0.010388927906032852 2.3728961340328297e-06 0 0.0081688073677138491 -0.00023589178442058614 0 0.010198974997855674 0.00038620903160317612 0 0.010393349699209551 2.2540234486921536e-07 0 0.011380853861093502 4.5732928780721305e-06 0 0.011470280034246091 5.9096740016357291e-08 0 0.010398654190966795 -5.5237744686123639e-08 0 0.0084405971095536277 0.00096203004822363765 0 0.0081688073677138491 -0.00023589178442058614 0 0.0077051788433476886 0.00018528493627162257 0 0.0081688073677138491 -0.00023589178442058614 0 0.0077051788433476886 0.00018528493627162257 0 0.0075186332915919384 -0.00039652904738529774 0 0.0059604891850990301 0.00028631424762451131 0 0.0059334909935287068 2.4553308884976999e-06 0 0.0077051788433476886 0.00018528493627162257 0 0.0072385408301616407 0.00020373025681398669 0 0.0075186332915919384 -0.00039652904738529774 0 0.0073627423350345039 0.00073239220420962339 0 0.0084405971095536277 0.00096203004822363765 0 0.0077051788433476886 0.00018528493627162257 0 0.0073627423350345039 0.00073239220420962339 0 0.0077051788433476886 0.00018528493627162257 0 0.0072385408301616407 0.00020373025681398669 0 0.005558669026825413 0.00071706562623341313 0 0.0059604891850990301 0.00028631424762451131 0 0.0069818545592853611 0.00091732135986208655 0 0.0073627423350345039 0.00073239220420962339 0 0.0072385408301616407 0.00020373025681398669 0 0.004685113983168154 0.0005498384940289475 0 0.004593492993547308 0.00038654888713581859 0 0.0045576991002430857 0.00041839426806290802 0 0.004593492993547308 0.00038654888713581859 0 0.0045048596413517668 0.00031950563374197837 0 0.0045576991002430857 0.00041839426806290802 0 0.004593492993547308 0.00038654888713581859 0 0.0045048596413517668 0.00031950563374197837 0 0.0044871830020841762 0.00030803640131314317 0 0.0045048596413517668 0.00031950563374197837 0 0.0044871830020841762 0.00030803640131314317 0 0.0044471340613050185 0.00031898462878297135 0 0.0060419590302619825 -8.2897595008452112e-05 0 0.0059334909935287068 2.4553308884976999e-06 0 0.0043677218163438837 0.00032900068541468744 0 0.0044471340613050185 0.00031898462878297135 0 0.0044104939194250427 0.00034057743265003158 0 0.0043677218163438837 0.00032900068541468744 0 0.0044871830020841762 0.00030803640131314317 0 0.0044471340613050185 0.00031898462878297135 0 0.0044471340613050185 0.00031898462878297135 0 0.0044290872807022054 0.00034106087867571836 0 0.0044104939194250427 0.00034057743265003158 0 0.0045048596413517668 0.00031950563374197837 0 0.0044471340613050185 0.00031898462878297135 0 0.00445727448600171 0.00031442243180076818 0 0.0044471340613050185 0.00031898462878297135 0 0.00445727448600171 0.00031442243180076818 0 0.0044290872807022054 0.00034106087867571836 0 0.00445727448600171 0.00031442243180076818 0 0.0044419921025295253 0.00032928172013525721 0 0.0044290872807022054 0.00034106087867571836 0 0.0044483670213995201 0.00030925346130414739 0 0.0044332078540246988 0.00029323590120268261 0 0.0044419921025295253 0.00032928172013525721 0 0.0044483670213995201 0.00030925346130414739 0 0.0044332078540246988 0.00029323590120268261 0 0.0044571545360169856 0.00030218970800591162 0 0.00445727448600171 0.00031442243180076818 0 0.0044483670213995201 0.00030925346130414739 0 0.0044571545360169856 0.00030218970800591162 0 0.00445727448600171 0.00031442243180076818 0 0.0044483670213995201 0.00030925346130414739 0 0.0044419921025295253 0.00032928172013525721 0 0.0044332078540246988 0.00029323590120268261 0 0.0044111159489390256 0.00028884189788546679 0 0.0043242513385598732 0.00025607095803299956 0 -0.0028183623474980477 0.0011602182603290411 0 -0.002545510096796209 0.0010750367432510713 0 -0.0024353215669835077 0.0010037954524731133 0 0.00075881937983820525 0.0007697365630140073 0 0.00094887112398468699 0.00062519383006148744 0 -0.0028183623474980477 0.0011602182603290411 0 -0.0026257615525169284 0.001155178241302901 0 -0.0026243164982728976 0.0012737727071731218 0 -0.0028183623474980477 0.0011602182603290411 0 -0.0026257615525169284 0.001155178241302901 0 -0.002545510096796209 0.0010750367432510713 0 0.0044332078540246988 0.00029323590120268261 0 0.0044111159489390256 0.00028884189788546679 0 0.0044571545360169856 0.00030218970800591162 0 0.0044111159489390256 0.00028884189788546679 0 0.0043678168529227845 0.00028772167395051384 0 0.0043242513385598732 0.00025607095803299956 0 0.0044111159489390256 0.00028884189788546679 0 0.0044003306212364581 0.0003144592893566175 0 0.0043678168529227845 0.00028772167395051384 0 0.0044111159489390256 0.00028884189788546679 0 0.0044723754424315885 0.00032878828846901283 0 0.0044003306212364581 0.0003144592893566175 0 0.0045048596413517668 0.00031950563374197837 0 0.00445727448600171 0.00031442243180076818 0 0.0044571545360169856 0.00030218970800591162 0 0.0044111159489390256 0.00028884189788546679 0 0.0044571545360169856 0.00030218970800591162 0 0.0044723754424315885 0.00032878828846901283 0 0.0045048596413517668 0.00031950563374197837 0 0.0044571545360169856 0.00030218970800591162 0 0.0044723754424315885 0.00032878828846901283 0 0.0045048596413517668 0.00031950563374197837 0 0.0044723754424315885 0.00032878828846901283 0 0.0045576991002430857 0.00041839426806290802 0 0.0044723754424315885 0.00032878828846901283 0 0.0045576991002430857 0.00041839426806290802 0 0.0044664032180542585 0.00037784950783798996 0 0.0045808503537271665 0.00054230162046269893 0 0.004685113983168154 0.0005498384940289475 0 0.0045576991002430857 0.00041839426806290802 0 0.0045576991002430857 0.00041839426806290802 0 0.0044298405803689838 0.00044561052771170516 0 0.0044664032180542585 0.00037784950783798996 0 0.0045808503537271665 0.00054230162046269893 0 0.0045576991002430857 0.00041839426806290802 0 0.0044298405803689838 0.00044561052771170516 0 0.0044664032180542585 0.00037784950783798996 0 0.0044003306212364581 0.0003144592893566175 0 0.004325318172354156 0.00035704328593808341 0 0.0044298405803689838 0.00044561052771170516 0 0.0044664032180542585 0.00037784950783798996 0 0.004325318172354156 0.00035704328593808341 0 0.0044723754424315885 0.00032878828846901283 0 0.0044664032180542585 0.00037784950783798996 0 0.0044003306212364581 0.0003144592893566175 0 0.0044003306212364581 0.0003144592893566175 0 0.0043278627369069452 0.00030165420584291568 0 0.004325318172354156 0.00035704328593808341 0 0.0043278627369069452 0.00030165420584291568 0 0.0042500480789671533 0.00031394206996033006 0 0.004325318172354156 0.00035704328593808341 0 0.0042500480789671533 0.00031394206996033006 0 0.004325318172354156 0.00035704328593808341 0 0.0041922668618951655 0.00039317372311531554 0 0.0044298405803689838 0.00044561052771170516 0 0.004325318172354156 0.00035704328593808341 0 0.004314456662557445 0.00045901012118512491 0 0.004325318172354156 0.00035704328593808341 0 0.004314456662557445 0.00045901012118512491 0 0.0041922668618951655 0.00039317372311531554 0 0.0041960439203821073 0.0005432839898392726 0 0.0044121219742548805 0.00058120268350806998 0 0.004314456662557445 0.00045901012118512491 0 0.0041960439203821073 0.0005432839898392726 0 0.004314456662557445 0.00045901012118512491 0 0.0041922668618951655 0.00039317372311531554 0 0.0044121219742548805 0.00058120268350806998 0 0.0044298405803689838 0.00044561052771170516 0 0.004314456662557445 0.00045901012118512491 0 0.0041960439203821073 0.0005432839898392726 0 0.004017349735486302 0.00063165251291430295 0 0.0040390120573124437 0.00046273031444796111 0 0.0041960439203821073 0.0005432839898392726 0 0.0040390120573124437 0.00046273031444796111 0 0.0041922668618951655 0.00039317372311531554 0 0.0040390120573124437 0.00046273031444796111 0 0.0041922668618951655 0.00039317372311531554 0 0.0040727015095457057 0.00029243233847424589 0 -0.0018905946634613479 0.00070209137609431309 0 -0.0020676588458283531 0.00088346224612804362 0 -0.0015721771556540215 0.0006030906460198442 0 0.0042500480789671533 0.00031394206996033006 0 0.0040727015095457057 0.00029243233847424589 0 0.0043242513385598732 0.00025607095803299956 0 -0.0023760684920575868 0.0010532122647748203 0 -0.0022725415343191947 0.00098226416573150258 0 0.0010529053845722463 0.0005186782321356647 0 0.00094887112398468699 0.00062519383006148744 0 0.0042500480789671533 0.00031394206996033006 0 0.0041922668618951655 0.00039317372311531554 0 0.0040727015095457057 0.00029243233847424589 0 -0.0027730798422097892 0.0011598380107564292 0 -0.00268477898725846 0.0012505146657763304 0 -0.0028866757445729927 0.0012431007319763472 0 -0.0027730798422097892 0.0011598380107564292 0 -0.0026615065958106362 0.001129598109432185 0 -0.00268477898725846 0.0012505146657763304 0 -0.0018905946634613479 0.00070209137609431309 0 -0.0020676588458283531 0.00088346224612804362 0 -0.0024353215669835077 0.0010037954524731133 0 -0.0026615065958106362 0.001129598109432185 0 -0.00268477898725846 0.0012505146657763304 0 -0.002545510096796209 0.0010750367432510713 0 -0.0020676588458283531 0.00088346224612804362 0 -0.002545510096796209 0.0010750367432510713 0 -0.0024353215669835077 0.0010037954524731133 0 0.0043278627369069452 0.00030165420584291568 0 0.0042500480789671533 0.00031394206996033006 0 0.0043242513385598732 0.00025607095803299956 0 -0.0023760684920575868 0.0010532122647748203 0 -0.0025217073424083553 0.0010855050590197989 0 0.0044003306212364581 0.0003144592893566175 0 0.0043278627369069452 0.00030165420584291568 0 0.0043678168529227845 0.00028772167395051384 0 0.0043278627369069452 0.00030165420584291568 0 0.0043678168529227845 0.00028772167395051384 0 0.0043242513385598732 0.00025607095803299956 0 -0.0031457163024088634 0.0013322811334821288 0 -0.0031019852722140458 0.0015019743945163654 0 -0.0026615065958106362 0.001129598109432185 0 -0.002545510096796209 0.0010750367432510713 0 -0.0026644437204473878 0.0010488013063333045 0 -0.0026257615525169284 0.001155178241302901 0 -0.002545510096796209 0.0010750367432510713 0 -0.0026644437204473878 0.0010488013063333045 0 -0.0026257615525169284 0.001155178241302901 0 -0.0026644437204473878 0.0010488013063333045 0 -0.0026243164982728976 0.0012737727071731218 0 -0.0027730798422097892 0.0011598380107564292 0 -0.0026615065958106362 0.001129598109432185 0 -0.0026644437204473878 0.0010488013063333045 0 -0.0036275117857474605 0.0015978646692252063 0 -0.003621311666470158 0.0016571956411950131 0 -0.0035966643224767817 0.0016327708608921345 0 -0.003621311666470158 0.0016571956411950131 0 -0.0036368605993855265 0.0016627993661561787 0 -0.0035966643224767817 0.0016327708608921345 0 -0.0036275117857474605 0.0015978646692252063 0 -0.003621311666470158 0.0016571956411950131 0 -0.0035562946817196475 0.0017319631633621361 0 -0.003621311666470158 0.0016571956411950131 0 -0.0035843346039381935 0.00166606647529392 0 -0.0035562946817196475 0.0017319631633621361 0 -0.003621311666470158 0.0016571956411950131 0 -0.0035843346039381935 0.00166606647529392 0 -0.0036368605993855265 0.0016627993661561787 0 -0.0035843346039381935 0.00166606647529392 0 -0.0036368605993855265 0.0016627993661561787 0 -0.0036555405722860984 0.001654255901218842 0 -0.0035843346039381935 0.00166606647529392 0 -0.0036555405722860984 0.001654255901218842 0 -0.003485898919535112 0.0016259886701496405 0 -0.0038079776843920375 0.0016931771995004931 0 -0.0036555405722860984 0.001654255901218842 0 -0.0036555808106026062 0.0016808795790700353 0 -0.0036368605993855265 0.0016627993661561787 0 -0.0036555405722860984 0.001654255901218842 0 -0.0036555808106026062 0.0016808795790700353 0 -0.0036851943084920723 0.0014319735767556324 0 -0.0038079776843920375 0.0016931771995004931 0 -0.0036555405722860984 0.001654255901218842 0 -0.0036851943084920723 0.0014319735767556324 0 -0.0036555405722860984 0.001654255901218842 0 -0.0035155390004527861 0.0015204660213737782 0 -0.0036555405722860984 0.001654255901218842 0 -0.0035155390004527861 0.0015204660213737782 0 -0.003485898919535112 0.0016259886701496405 0 -0.0033067972310509113 0.0015467049009641736 0 -0.0036660285955709966 0.0015618616212439477 0 -0.0035155390004527861 0.0015204660213737782 0 -0.0033260483551655665 0.0015104581712807959 0 -0.003485898919535112 0.0016259886701496405 0 -0.0032078595041791337 0.001245604974344688 0 -0.0028233123935772239 0.0010906426166735228 0 -0.0030613637757009662 0.00162694674425265 0 -0.0032078595041791337 0.001245604974344688 0 -0.0035155390004527861 0.0015204660213737782 0 -0.0030613637757009662 0.00162694674425265 0 -0.0033260483551655665 0.0015104581712807959 0 -0.0033559032775608137 0.0016115707436694159 0 -0.003485898919535112 0.0016259886701496405 0 -0.0033260483551655665 0.0015104581712807959 0 -0.0033559032775608137 0.0016115707436694159 0 -0.0032499915651212469 0.0015972888935573768 0 -0.0033044102862433995 0.0016388751814887109 0 -0.0033559032775608137 0.0016115707436694159 0 -0.0032499915651212469 0.0015972888935573768 0 -0.0033044102862433995 0.0016388751814887109 0 -0.0034143078313495436 0.0016628615097961672 0 -0.0032498502956595549 0.0016804961119504887 0 -0.0033044102862433995 0.0016388751814887109 0 -0.0032498502956595549 0.0016804961119504887 0 -0.0032676472938024739 0.0016411373049302234 0 -0.0033044102862433995 0.0016388751814887109 0 -0.0034143078313495436 0.0016628615097961672 0 -0.0033559032775608137 0.0016115707436694159 0 -0.0034143078313495436 0.0016628615097961672 0 -0.0033559032775608137 0.0016115707436694159 0 -0.003485898919535112 0.0016259886701496405 0 -0.0035843346039381935 0.00166606647529392 0 -0.003485898919535112 0.0016259886701496405 0 -0.0035115030873945894 0.0016690370588713374 0 -0.0034143078313495436 0.0016628615097961672 0 -0.003485898919535112 0.0016259886701496405 0 -0.0035115030873945894 0.0016690370588713374 0 -0.0028183623474980477 0.0011602182603290411 0 -0.0026243164982728976 0.0012737727071731218 0 -0.0032498502956595549 0.0016804961119504887 0 -0.0034143078313495436 0.0016628615097961672 0 -0.0035115030873945894 0.0016690370588713374 0 -0.0035562946817196475 0.0017319631633621361 0 -0.0035843346039381935 0.00166606647529392 0 -0.0035115030873945894 0.0016690370588713374 0 -0.0035562946817196475 0.0017319631633621361 0 -0.0028183623474980477 0.0011602182603290411 0 -0.0032498502956595549 0.0016804961119504887 0 -0.0032892738656553938 0.0016746813047453619 0 -0.0034143078313495436 0.0016628615097961672 0 -0.0035562946817196475 0.0017319631633621361 0 -0.0032498502956595549 0.0016804961119504887 0 0.00075881937983820525 0.0007697365630140073 0 0.00079323558679813861 0.00091215392219548032 0 -0.0031019852722140458 0.0015019743945163654 0 -0.0032481308606374837 0.0016636090221240701 0 0.0044332078540246988 0.00029323590120268261 0 0.0044419921025295253 0.00032928172013525721 0 0.0044345572329573917 0.00037257183685082847 0 0.0044103072194815679 0.00037347419059537189 0 0.0043881914370357961 0.00037721074684021684 0 0.0043886720852424023 0.00040171119231220665 0 0.0044103072194815679 0.00037347419059537189 0 0.0044290872807022054 0.00034106087867571836 0 0.0043881914370357961 0.00037721074684021684 0 0.0044103072194815679 0.00037347419059537189 0 0.0044255370200636098 0.00035987604644161799 0 0.0044290872807022054 0.00034106087867571836 0 0.0044103072194815679 0.00037347419059537189 0 0.0044345572329573917 0.00037257183685082847 0 0.0043886720852424023 0.00040171119231220665 0 0.0044103072194815679 0.00037347419059537189 0 0.0044345572329573917 0.00037257183685082847 0 0.0044255370200636098 0.00035987604644161799 0 0.0044345572329573917 0.00037257183685082847 0 0.0044255370200636098 0.00035987604644161799 0 0.0044330960810530819 0.00034832828706561912 0 0.0044419921025295253 0.00032928172013525721 0 0.0044345572329573917 0.00037257183685082847 0 0.0044330960810530819 0.00034832828706561912 0 0.0044419921025295253 0.00032928172013525721 0 0.0044330960810530819 0.00034832828706561912 0 0.0044290872807022054 0.00034106087867571836 0 0.0044255370200636098 0.00035987604644161799 0 0.0044330960810530819 0.00034832828706561912 0 0.0044290872807022054 0.00034106087867571836 0 0.0044290872807022054 0.00034106087867571836 0 0.0044104939194250427 0.00034057743265003158 0 0.0043881914370357961 0.00037721074684021684 0 0.0043677218163438837 0.00032900068541468744 0 0.0043881914370357961 0.00037721074684021684 0 0.0043473368548290108 0.00041218197173785616 0 0.0043677218163438837 0.00032900068541468744 0 0.0044104939194250427 0.00034057743265003158 0 0.0043881914370357961 0.00037721074684021684 0 0.0043473368548290108 0.00041218197173785616 0 0.0043510184300190758 0.00045813195385886518 0 0.0042741640809092337 0.0004192423259740106 0 0.0043881914370357961 0.00037721074684021684 0 0.0043634256435414872 0.00042322512647900322 0 0.0043886720852424023 0.00040171119231220665 0 -0.0024636769971538813 0.0020616784759518235 0 -0.0022343074367162275 0.0018541189794654014 0 -0.0013672715134814069 0.0025810613939887816 0 0.0043881914370357961 0.00037721074684021684 0 0.0043634256435414872 0.00042322512647900322 0 0.0043473368548290108 0.00041218197173785616 0 0.0043634256435414872 0.00042322512647900322 0 0.0043473368548290108 0.00041218197173785616 0 0.0043510184300190758 0.00045813195385886518 0 0.0043634256435414872 0.00042322512647900322 0 0.0043510184300190758 0.00045813195385886518 0 0.0043886720852424023 0.00040171119231220665 0 0.00079323558679813861 0.00091215392219548032 0 -0.00048081632495653289 0.0012697128291709195 0 -0.0030862538939144322 0.0015757635187618438 0 -0.0032676472938024739 0.0016411373049302234 0 -0.0032499915651212469 0.0015972888935573768 0 -0.0032892738656553938 0.0016746813047453619 0 -0.0030862538939144322 0.0015757635187618438 0 -0.0032676472938024739 0.0016411373049302234 0 0.0044345572329573917 0.00037257183685082847 0 0.0043510184300190758 0.00045813195385886518 0 0.0043886720852424023 0.00040171119231220665 0 -0.0032498502956595549 0.0016804961119504887 0 -0.0032892738656553938 0.0016746813047453619 0 -0.0032676472938024739 0.0016411373049302234 0 -0.0033044102862433995 0.0016388751814887109 0 -0.0032676472938024739 0.0016411373049302234 0 -0.0032499915651212469 0.0015972888935573768 0 -0.0036660285955709966 0.0015618616212439477 0 -0.00048081632495653289 0.0012697128291709195 0 -0.0030613637757009662 0.00162694674425265 0 -0.0023903789403901779 0.0019629314289833846 0 -0.0025758130524895111 0.0014517014601412917 0 -0.0033260483551655665 0.0015104581712807959 0 -0.0030862538939144322 0.0015757635187618438 0 -0.0032499915651212469 0.0015972888935573768 0 -0.0028233123935772239 0.0010906426166735228 0 -0.0023298406907067398 0.00089234799924248318 0 -0.0025758130524895111 0.0014517014601412917 0 -0.0028233123935772239 0.0010906426166735228 0 -0.0030613637757009662 0.00162694674425265 0 -0.0025758130524895111 0.0014517014601412917 0 -0.0023298406907067398 0.00089234799924248318 0 -0.0025758130524895111 0.0014517014601412917 0 -0.0022207776747190685 0.0013579977701576741 0 -0.0023298406907067398 0.00089234799924248318 0 -0.0022207776747190685 0.0013579977701576741 0 -0.0018268802475254451 0.0010922001719380985 0 -0.0022207776747190685 0.0013579977701576741 0 -0.0022343074367162275 0.0018541189794654014 0 -0.0016159987755629674 0.0018076722347807445 0 -0.0023903789403901779 0.0019629314289833846 0 -0.0025758130524895111 0.0014517014601412917 0 -0.0022343074367162275 0.0018541189794654014 0 -0.0025758130524895111 0.0014517014601412917 0 -0.0022207776747190685 0.0013579977701576741 0 -0.0022343074367162275 0.0018541189794654014 0 -0.00048081632495653289 0.0012697128291709195 0 -0.0017121527784409712 0.0020370345236150455 0 -0.0016159987755629674 0.0018076722347807445 0 -0.00087183334181002953 0.0017453557526931026 0 -0.0013672715134814069 0.0025810613939887816 0 -0.0022343074367162275 0.0018541189794654014 0 -0.0016159987755629674 0.0018076722347807445 0 -0.0013672715134814069 0.0025810613939887816 0 -0.0016159987755629674 0.0018076722347807445 0 -0.0018268802475254451 0.0010922001719380985 0 -0.00087183334181002953 0.0017453557526931026 0 -0.0022207776747190685 0.0013579977701576741 0 -0.0016159987755629674 0.0018076722347807445 0 -0.0018268802475254451 0.0010922001719380985 0 -0.0017480369938952208 0.00045556618129955948 0 -0.0018268802475254451 0.0010922001719380985 0 -0.0011387712773648353 0.00055007950916989546 0 -0.0018268802475254451 0.0010922001719380985 0 -0.0011387712773648353 0.00055007950916989546 0 -0.00087183334181002953 0.0017453557526931026 0 -0.0023298406907067398 0.00089234799924248318 0 -0.0017480369938952208 0.00045556618129955948 0 -0.0018268802475254451 0.0010922001719380985 0 -0.0011387712773648353 0.00055007950916989546 0 0.00025160004990304214 3.1039439272148032e-06 0 -0.00087183334181002953 0.0017453557526931026 0 0.00025663388071915048 -3.3395689507486254e-07 0 0.00061025497325134666 0.00088527842297226385 0 0.0002575207880369345 4.5528770436284444e-07 0 0.0025414090594956446 -3.1352001757952176e-05 0 0.0027905441152668957 -1.4801034545414198e-07 0 0.0025414090594956446 -3.1352001757952176e-05 0 0.0027905441152668957 -1.4801034545414198e-07 0 0.0032390706223856128 -3.5897151714793624e-06 0 0.00061025497325134666 0.00088527842297226385 0 0.0029240151442604398 0.00091726676954460363 0 0.0027905441152668957 -1.4801034545414198e-07 0 0.0053253295963511076 6.3732115266154828e-07 0 0.0043763997578588768 0.00011646324097531731 0 0.0025414090594956446 -3.1352001757952176e-05 0 0.0032390706223856128 -3.5897151714793624e-06 0 0.0030600989872140681 8.5605328199851917e-05 0 0.0032390706223856128 -3.5897151714793624e-06 0 0.0030600989872140681 8.5605328199851917e-05 0 0.0043763997578588768 0.00011646324097531731 0 0.0027905441152668957 -1.4801034545414198e-07 0 0.0032390706223856128 -3.5897151714793624e-06 0 0.0043763997578588768 0.00011646324097531731 0 0.0029240151442604398 0.00091726676954460363 0 0.0047955393871489636 0.00039987394806016588 0 -0.00048081632495653289 0.0012697128291709195 0 0.0029240151442604398 0.00091726676954460363 0 0.0043677218163438837 0.00032900068541468744 0 0.0043473368548290108 0.00041218197173785616 0 0.0042741640809092337 0.0004192423259740106 0 0.0070721089058381247 -0.00022077268426471693 0 0.0062790544663416954 0.0010005764650797585 0 0.005981057036139009 -4.2257617494082551e-05 0 0.0060419590302619825 -8.2897595008452112e-05 0 0.0029240151442604398 0.00091726676954460363 0 0.0062790544663416954 0.0010005764650797585 0 0.005981057036139009 -4.2257617494082551e-05 0 0.0043763997578588768 0.00011646324097531731 0 0.005981057036139009 -4.2257617494082551e-05 0 0.0053253295963511076 6.3732115266154828e-07 0 0.0043763997578588768 0.00011646324097531731 0 -0.0026802739007004773 0.0017331202202046166 0 -0.00398992491573781 0.0026454633238353902 0 -0.0028186383372727016 0.0026718660009655945 0 -0.0026802739007004773 0.0017331202202046166 0 -0.00398992491573781 0.0026454633238353902 0 -0.003245785732065143 0.0015096974119762946 0 -0.0032061063210775563 0.0014443784751819143 0 -0.003245785732065143 0.0015096974119762946 0 -0.003219615454402038 0.0013483942515652159 0 -0.0035743726137095195 0.0020608379475144023 0 -0.0033225774308265903 0.0015774178812503086 0 -0.0035743726137095195 0.0020608379475144023 0 -0.0037348955984652698 0.0025612557661573365 0 -0.00398992491573781 0.0026454633238353902 0 -0.0037415609161696168 0.0033346608343733444 0 -0.0042854030901139295 0.0035942153653236008 0 -0.00398992491573781 0.0026454633238353902 0 -0.0037415609161696168 0.0033346608343733444 0 -0.0028186383372727016 0.0026718660009655945 0 -0.0037415609161696168 0.0033346608343733444 0 -0.0028186383372727016 0.0026718660009655945 0 -0.0029200378900043622 0.0033133676141477155 0 -0.0029200378900043622 0.0033133676141477155 0 -0.002028363779388003 0.0029310226115643644 0 -0.0021679592195367396 0.0039239353769746519 0 -0.002028363779388003 0.0029310226115643644 0 -0.0016020537639888023 0.003136141591732138 0 -0.0021679592195367396 0.0039239353769746519 0 -0.0028186383372727016 0.0026718660009655945 0 -0.002028363779388003 0.0029310226115643644 0 -0.0014935494689814852 0.0021953764494545345 0 -0.0028186383372727016 0.0026718660009655945 0 -0.0029200378900043622 0.0033133676141477155 0 -0.002028363779388003 0.0029310226115643644 0 -0.00077396029129643865 0.0031722889538782968 0 -0.00098231795263289457 0.0030718815329641587 0 -0.0021679592195367396 0.0039239353769746519 0 -0.0016020537639888023 0.003136141591732138 0 -0.00098231795263289457 0.0030718815329641587 0 -0.0021679592195367396 0.0039239353769746519 0 -0.003690028999687775 0.0040778408158860125 0 -0.0029045095983342862 0.004188337521047223 0 -0.002028363779388003 0.0029310226115643644 0 -0.0016020537639888023 0.003136141591732138 0 -0.0012343400273207637 0.0026428593607903395 0 -0.0016020537639888023 0.003136141591732138 0 -0.0012343400273207637 0.0026428593607903395 0 -0.00098231795263289457 0.0030718815329641587 0 -0.0012343400273207637 0.0026428593607903395 0 -0.00076616931969880771 0.0028212593104589168 0 -0.00098231795263289457 0.0030718815329641587 0 -0.0012343400273207637 0.0026428593607903395 0 -0.00076616931969880771 0.0028212593104589168 0 -0.00076610433806311958 0.0024934835928059605 0 -0.00076822289236670846 0.0031680306214489137 0 -0.00076616931969880771 0.0028212593104589168 0 -0.00098231795263289457 0.0030718815329641587 0 -0.00076610433806311958 0.0024934835928059605 0 -0.0014935494689814852 0.0021953764494545345 0 -0.00033535456675305942 0.0020208903675437099 0 -0.0014935494689814852 0.0021953764494545345 0 -0.00033535456675305942 0.0020208903675437099 0 -0.00049604647627658662 0.0010640465922073436 0 -0.0012343400273207637 0.0026428593607903395 0 -0.00076610433806311958 0.0024934835928059605 0 -0.0014935494689814852 0.0021953764494545345 0 -0.002028363779388003 0.0029310226115643644 0 -0.0012343400273207637 0.0026428593607903395 0 -0.0014935494689814852 0.0021953764494545345 0 -0.0026802739007004773 0.0017331202202046166 0 -0.0028186383372727016 0.0026718660009655945 0 -0.0014935494689814852 0.0021953764494545345 0 -0.0026802739007004773 0.0017331202202046166 0 -0.0014935494689814852 0.0021953764494545345 0 -0.0017999460171531935 0.0013742360789094068 0 -0.0014935494689814852 0.0021953764494545345 0 -0.0017999460171531935 0.0013742360789094068 0 -0.00049604647627658662 0.0010640465922073436 0 -0.00092224096542250621 -0.00035288303149769932 0 -0.0017999460171531935 0.0013742360789094068 0 -0.00049604647627658662 0.0010640465922073436 0 -0.00092224096542250621 -0.00035288303149769932 0 -0.00049604647627658662 0.0010640465922073436 0 0.00024864975023182679 -0.0002611729595777024 0 -0.0018037259655808195 0.0013598000558180984 0 -0.002267253782164936 0.00045238334490013758 0 -0.0017999460171531935 0.0013742360789094068 0 -0.002495721447410506 0.00093322563656427014 0 -0.002881053597091831 0.0011894120181342219 0 -0.00092224096542250621 -0.00035288303149769932 0 -0.0017999460171531935 0.0013742360789094068 0 -0.0020720842343931209 -9.284209205090492e-05 0 -0.0027711062827696265 0.00095738403285148676 0 -0.002495721447410506 0.00093322563656427014 0 -0.002881053597091831 0.0011894120181342219 0 -0.0026802739007004773 0.0017331202202046166 0 -0.002881053597091831 0.0011894120181342219 0 -0.003245785732065143 0.0015096974119762946 0 -0.0026802739007004773 0.0017331202202046166 0 -0.0017999460171531935 0.0013742360789094068 0 -0.002881053597091831 0.0011894120181342219 0 -0.002881053597091831 0.0011894120181342219 0 -0.003245785732065143 0.0015096974119762946 0 -0.0031446418424926114 0.0013350170416946445 0 -0.0027711062827696265 0.00095738403285148676 0 -0.002881053597091831 0.0011894120181342219 0 -0.0029289527725114479 0.0011125491907981069 0 -0.002881053597091831 0.0011894120181342219 0 -0.0029289527725114479 0.0011125491907981069 0 -0.0031446418424926114 0.0013350170416946445 0 -0.0029320259841125124 0.0010928409386236583 0 -0.0029289527725114479 0.0011125491907981069 0 -0.0030569424038296685 0.0012243185116564573 0 -0.0029289527725114479 0.0011125491907981069 0 -0.0030569424038296685 0.0012243185116564573 0 -0.0031446418424926114 0.0013350170416946445 0 -0.0030569424038296685 0.0012243185116564573 0 -0.0030911538086699632 0.001252852971540309 0 -0.0031360867131918308 0.0013186284948725764 0 -0.0030569424038296685 0.0012243185116564573 0 -0.0031360867131918308 0.0013186284948725764 0 -0.0031446418424926114 0.0013350170416946445 0 -0.0030308012697080598 0.0011652720808142953 0 -0.0029320259841125124 0.0010928409386236583 0 -0.0030569424038296685 0.0012243185116564573 0 -0.0030308012697080598 0.0011652720808142953 0 -0.0030569424038296685 0.0012243185116564573 0 -0.0030911538086699632 0.001252852971540309 0 -0.0030308012697080598 0.0011652720808142953 0 -0.0030911538086699632 0.001252852971540309 0 -0.0030887862471025867 0.0012144997196342142 0 -0.0030887862471025867 0.0012144997196342142 0 -0.003118625764131707 0.0013054393160018235 0 -0.0031393943444867956 0.0012923053807887255 0 -0.0030911538086699632 0.001252852971540309 0 -0.0030887862471025867 0.0012144997196342142 0 -0.003118625764131707 0.0013054393160018235 0 -0.0030911538086699632 0.001252852971540309 0 -0.003118625764131707 0.0013054393160018235 0 -0.0031360867131918308 0.0013186284948725764 0 -0.0031360867131918308 0.0013186284948725764 0 -0.0031165827586207596 0.0013174594469673357 0 -0.003219615454402038 0.0013483942515652159 0 -0.003118625764131707 0.0013054393160018235 0 -0.0031360867131918308 0.0013186284948725764 0 -0.0031165827586207596 0.0013174594469673357 0 -0.003245785732065143 0.0015096974119762946 0 -0.0031446418424926114 0.0013350170416946445 0 -0.003219615454402038 0.0013483942515652159 0 -0.0031360867131918308 0.0013186284948725764 0 -0.0031446418424926114 0.0013350170416946445 0 -0.003219615454402038 0.0013483942515652159 0 0.004017349735486302 0.00063165251291430295 0 0.0040390120573124437 0.00046273031444796111 0 0.0037057014298142589 0.00046407901976058596 0 0.0040390120573124437 0.00046273031444796111 0 0.0040727015095457057 0.00029243233847424589 0 0.0037057014298142589 0.00046407901976058596 0 0.0010529053845722463 0.0005186782321356647 0 0.0012899236350946998 0.00036240858275907281 0 -0.0018905946634613479 0.00070209137609431309 0 -0.0013765156162992942 0.00032392400955026256 0 -0.0015721771556540215 0.0006030906460198442 0 -0.0020348928068868784 0.00074129929872023079 0 -0.0022725415343191947 0.00098226416573150258 0 -0.0013765156162992942 0.00032392400955026256 0 -0.0011354113214228025 0.00028575637342180598 0 -0.0015721771556540215 0.0006030906460198442 0 -0.0031393943444867956 0.0012923053807887255 0 -0.0030783746045866854 0.0013231593694330347 0 -0.0029465459955411622 0.0013678686355215876 0 -0.003118625764131707 0.0013054393160018235 0 -0.0031393943444867956 0.0012923053807887255 0 -0.0030783746045866854 0.0013231593694330347 0 -0.0030783746045866854 0.0013231593694330347 0 -0.0031165827586207596 0.0013174594469673357 0 -0.0030137384606991713 0.0013027911047384373 0 -0.003118625764131707 0.0013054393160018235 0 -0.0030783746045866854 0.0013231593694330347 0 -0.0031165827586207596 0.0013174594469673357 0 -0.0030783746045866854 0.0013231593694330347 0 -0.0030137384606991713 0.0013027911047384373 0 -0.0029465459955411622 0.0013678686355215876 0 -0.00268477898725846 0.0012505146657763304 0 -0.0029465459955411622 0.0013678686355215876 0 -0.0028866757445729927 0.0012431007319763472 0 -0.0030137384606991713 0.0013027911047384373 0 -0.0029465459955411622 0.0013678686355215876 0 -0.0028866757445729927 0.0012431007319763472 0 -0.0030137384606991713 0.0013027911047384373 0 -0.0028866757445729927 0.0012431007319763472 0 -0.0030298197651418141 0.0011382546826627785 0 -0.0027730798422097892 0.0011598380107564292 0 -0.0028866757445729927 0.0012431007319763472 0 -0.0030298197651418141 0.0011382546826627785 0 -0.0031165827586207596 0.0013174594469673357 0 -0.0030137384606991713 0.0013027911047384373 0 -0.0030298197651418141 0.0011382546826627785 0 -0.0027730798422097892 0.0011598380107564292 0 -0.0026644437204473878 0.0010488013063333045 0 -0.0030298197651418141 0.0011382546826627785 0 -0.0036275117857474605 0.0015978646692252063 0 -0.0035034218743604127 0.0014588364039586947 0 -0.0035966643224767817 0.0016327708608921345 0 -0.0031457163024088634 0.0013322811334821288 0 -0.003255537250988534 0.0013053496039735898 0 -0.0032061063210775563 0.0014443784751819143 0 -0.003219615454402038 0.0013483942515652159 0 -0.0032957752361174875 0.0015017967502592973 0 -0.003255537250988534 0.0013053496039735898 0 -0.0032206655638908435 0.0013355640101627086 0 -0.0031165827586207596 0.0013174594469673357 0 -0.0030298197651418141 0.0011382546826627785 0 -0.003219615454402038 0.0013483942515652159 0 -0.0035034218743604127 0.0014588364039586947 0 -0.003219615454402038 0.0013483942515652159 0 -0.0032957752361174875 0.0015017967502592973 0 -0.0035034218743604127 0.0014588364039586947 0 -0.0032957752361174875 0.0015017967502592973 0 -0.0034346363675451554 0.0016099445106417456 0 -0.0032061063210775563 0.0014443784751819143 0 -0.0032957752361174875 0.0015017967502592973 0 -0.0032291426282555578 0.0015740210229357326 0 -0.0033277449806173175 0.001629348657375286 0 -0.003276455179699005 0.0017072928193842395 0 -0.0032291426282555578 0.0015740210229357326 0 -0.0041023560989144753 0.0029373453053753089 0 -0.0037348955984652698 0.0025612557661573365 0 -0.0032957752361174875 0.0015017967502592973 0 -0.0033277449806173175 0.001629348657375286 0 -0.0032291426282555578 0.0015740210229357326 0 -0.0032957752361174875 0.0015017967502592973 0 -0.0033277449806173175 0.001629348657375286 0 -0.0034346363675451554 0.0016099445106417456 0 -0.0033277449806173175 0.001629348657375286 0 -0.0034346363675451554 0.0016099445106417456 0 -0.0034314071155405255 0.0017462507666266903 0 -0.0033277449806173175 0.001629348657375286 0 -0.003276455179699005 0.0017072928193842395 0 -0.0034314071155405255 0.0017462507666266903 0 -0.0041023560989144753 0.0029373453053753089 0 -0.0037800668369316593 0.0017593614575870222 0 -0.0035034218743604127 0.0014588364039586947 0 -0.0034346363675451554 0.0016099445106417456 0 -0.0035966643224767817 0.0016327708608921345 0 -0.0034346363675451554 0.0016099445106417456 0 -0.0035966643224767817 0.0016327708608921345 0 -0.0035456984314545074 0.0016828861504781278 0 -0.0034346363675451554 0.0016099445106417456 0 -0.0035456984314545074 0.0016828861504781278 0 -0.0034314071155405255 0.0017462507666266903 0 -0.0035966643224767817 0.0016327708608921345 0 -0.0035456984314545074 0.0016828861504781278 0 -0.0036555808106026062 0.0016808795790700353 0 -0.0036368605993855265 0.0016627993661561787 0 -0.0035966643224767817 0.0016327708608921345 0 -0.0036555808106026062 0.0016808795790700353 0 -0.0035456984314545074 0.0016828861504781278 0 -0.0036555808106026062 0.0016808795790700353 0 -0.0035917447223956641 0.001749001131914423 0 -0.0038079776843920375 0.0016931771995004931 0 -0.0036555808106026062 0.0016808795790700353 0 -0.0035917447223956641 0.001749001131914423 0 -0.0041942967251745863 0.0019807210240383329 0 -0.0043348711520825919 0.0020219053346371327 0 -0.0043518302381548007 0.0019134697120966316 0 -0.0039132239315577818 0.0018663530064755454 0 -0.0037800668369316593 0.0017593614575870222 0 -0.0035456984314545074 0.0016828861504781278 0 -0.0035917447223956641 0.001749001131914423 0 -0.0034314071155405255 0.0017462507666266903 0 -0.0041469299308658 0.0017104325265472251 0 -0.0041942967251745863 0.0019807210240383329 0 -0.0043518302381548007 0.0019134697120966316 0 -0.0037945059266086606 0.0017172317456920496 0 -0.0039132239315577818 0.0018663530064755454 0 -0.0041469299308658 0.0017104325265472251 0 -0.0038079776843920375 0.0016931771995004931 0 -0.0041942967251745863 0.0019807210240383329 0 -0.0041023560989144753 0.0029373453053753089 0 -0.0043895319469389885 0.0026937221367552512 0 -0.0044109241511304563 0.0020698136403455008 0 -0.0043348711520825919 0.0020219053346371327 0 -0.0043781954747527186 0.0019542814449091022 0 -0.0043800019451932662 0.004207151062992083 0 -0.0042800398400461648 0.0033256853445626133 0 -0.0048752267802844185 0.0035646170551896254 0 -0.0043980596612104425 0.00205373760377877 0 -0.0043518302381548007 0.0019134697120966316 0 -0.0043781954747527186 0.0019542814449091022 0 -0.0043348711520825919 0.0020219053346371327 0 -0.0043518302381548007 0.0019134697120966316 0 -0.0043781954747527186 0.0019542814449091022 0 -0.0048762680556763884 0.0027965218507896039 0 -0.0042800398400461648 0.0033256853445626133 0 -0.0048752267802844185 0.0035646170551896254 0 -0.0048762680556763884 0.0027965218507896039 0 -0.0054830089090274932 0.0030082857829754248 0 -0.0048752267802844185 0.0035646170551896254 0 -0.0054830089090274932 0.0030082857829754248 0 -0.0048752267802844185 0.0035646170551896254 0 -0.0053934127380759495 0.0038433832525813093 0 -0.0048752267802844185 0.0035646170551896254 0 -0.0047637713961650174 0.0041715351058671741 0 -0.0053934127380759495 0.0038433832525813093 0 -0.0043800019451932662 0.004207151062992083 0 -0.0048752267802844185 0.0035646170551896254 0 -0.0047637713961650174 0.0041715351058671741 0 -0.0043890959962024243 0.0041116218058332493 0 -0.0039600618758589244 0.0039116579218008516 0 -0.0042854030901139295 0.0035942153653236008 0 -0.0043800019451932662 0.004207151062992083 0 -0.0047561971118597925 0.0043429136413671177 0 -0.0047637713961650174 0.0041715351058671741 0 -0.0041023560989144753 0.0029373453053753089 0 -0.004433014541939409 0.0041788739918034324 0 -0.0047637713961650174 0.0041715351058671741 0 -0.0044826167499555725 0.0044970407449682901 0 -0.0053934127380759495 0.0038433832525813093 0 -0.0047561971118597925 0.0043429136413671177 0 -0.0044826167499555725 0.0044970407449682901 0 -0.0037810382912832454 0.0039135518765072005 0 -0.0047561971118597925 0.0043429136413671177 0 -0.0047637713961650174 0.0041715351058671741 0 -0.0044826167499555725 0.0044970407449682901 0 -0.004433014541939409 0.0041788739918034324 0 -0.0038206887002055928 0.0039102600233417856 0 -0.0037415609161696168 0.0033346608343733444 0 -0.0029200378900043622 0.0033133676141477155 0 -0.0037810382912832454 0.0039135518765072005 0 -0.0039600618758589244 0.0039116579218008516 0 -0.0037810382912832454 0.0039135518765072005 0 -0.0038974144084104028 0.0037020459530190718 0 -0.0037415609161696168 0.0033346608343733444 0 -0.0037810382912832454 0.0039135518765072005 0 -0.0038974144084104028 0.0037020459530190718 0 -0.0037415609161696168 0.0033346608343733444 0 -0.0042854030901139295 0.0035942153653236008 0 -0.0038974144084104028 0.0037020459530190718 0 -0.0039600618758589244 0.0039116579218008516 0 -0.0042854030901139295 0.0035942153653236008 0 -0.0038974144084104028 0.0037020459530190718 0 -0.003690028999687775 0.0040778408158860125 0 -0.0040706712304731637 0.0047134416560086915 0 -0.0068109060649067911 0.0060617235061607546 0 -0.0058623505402032525 0.0054528219931830827 0 -0.0069175692562880448 0.0054373931328440209 0 -0.0058623505402032525 0.0054528219931830827 0 -0.006766078999849311 0.0048861259224768716 0 -0.0069175692562880448 0.0054373931328440209 0 -0.0043381174365188461 0.0045077644950599184 0 -0.0040706712304731637 0.0047134416560086915 0 -0.0029200378900043622 0.0033133676141477155 0 -0.0037810382912832454 0.0039135518765072005 0 -0.0021679592195367396 0.0039239353769746519 0 -0.0044826167499555725 0.0044970407449682901 0 -0.0037810382912832454 0.0039135518765072005 0 -0.0021679592195367396 0.0039239353769746519 0 -0.0044826167499555725 0.0044970407449682901 0 -0.0058623505402032525 0.0054528219931830827 0 -0.0057186545078701367 0.0044941326423290594 0 -0.0044826167499555725 0.0044970407449682901 0 -0.0057186545078701367 0.0044941326423290594 0 -0.0053934127380759495 0.0038433832525813093 0 -0.0058623505402032525 0.0054528219931830827 0 -0.0057186545078701367 0.0044941326423290594 0 -0.006766078999849311 0.0048861259224768716 0 -0.0057186545078701367 0.0044941326423290594 0 -0.006766078999849311 0.0048861259224768716 0 -0.0064969807752092565 0.0041675475749599206 0 -0.0064969807752092565 0.0041675475749599206 0 -0.0053934127380759495 0.0038433832525813093 0 -0.0062725732384053918 0.003208421705601862 0 -0.0057186545078701367 0.0044941326423290594 0 -0.0064969807752092565 0.0041675475749599206 0 -0.0053934127380759495 0.0038433832525813093 0 -0.0054830089090274932 0.0030082857829754248 0 -0.0053934127380759495 0.0038433832525813093 0 -0.0062725732384053918 0.003208421705601862 0 -0.0064969807752092565 0.0041675475749599206 0 -0.0062725732384053918 0.003208421705601862 0 -0.0072418053369036305 0.0034595924701053154 0 -0.0080598628866221794 0.002829610191116359 0 -0.0073385087468778813 0.0034232460952681744 0 -0.0080015322644426904 0.0034595420584642247 0 -0.0080598628866221794 0.002829610191116359 0 -0.0080015322644426904 0.0034595420584642247 0 -0.0085616192395377901 0.0033254596339087695 0 -0.0080015322644426904 0.0034595420584642247 0 -0.0075003930392834517 0.0042297504328414883 0 -0.0082870676032121369 0.0039975939098521231 0 -0.0065612955350127563 0.0041394862570805525 0 -0.0072743844447488732 0.0034574770017053382 0 -0.0073385087468778813 0.0034232460952681744 0 -0.0080015322644426904 0.0034595420584642247 0 -0.0075003930392834517 0.0042297504328414883 0 -0.0064969807752092565 0.0041675475749599206 0 -0.0073385087468778813 0.0034232460952681744 0 -0.0075003930392834517 0.0042297504328414883 0 -0.0092384569462552989 0.0031868378459309469 0 -0.0085616192395377901 0.0033254596339087695 0 -0.0090896337102700023 0.0036733084430666308 0 -0.0080015322644426904 0.0034595420584642247 0 -0.0085616192395377901 0.0033254596339087695 0 -0.0082870676032121369 0.0039975939098521231 0 -0.0085331756986446895 0.0033853395310593213 0 -0.008298469750775847 0.0038970927225242093 0 -0.0085616192395377901 0.0033254596339087695 0 -0.0082998993399747024 0.003845667179911924 0 -0.0090896337102700023 0.0036733084430666308 0 -0.0082998993399747024 0.003845667179911924 0 -0.0090896337102700023 0.0036733084430666308 0 -0.008712807647464382 0.0041397474722498382 0 -0.0090896337102700023 0.0036733084430666308 0 -0.008712807647464382 0.0041397474722498382 0 -0.0091907121117949832 0.004302015615993509 0 -0.0062661068662786699 0.0033410690956635087 0 -0.0065551637648076687 0.0031793854083568278 0 -0.008712807647464382 0.0041397474722498382 0 -0.0084959139333567243 0.0046182865964702006 0 -0.0091907121117949832 0.004302015615993509 0 -0.008712807647464382 0.0041397474722498382 0 -0.0084959139333567243 0.0046182865964702006 0 -0.0080348376832105831 0.0043807096139790629 0 -0.0082998993399747024 0.003845667179911924 0 -0.008712807647464382 0.0041397474722498382 0 -0.0080348376832105831 0.0043807096139790629 0 -0.0040113837469282262 0.0021806107763315229 0 -0.0041963391671625419 0.0021980683706018839 0 -0.0042252537572155186 0.0020843444520431435 0 -0.0040113837469282262 0.0021806107763315229 0 -0.0041260479159585832 0.0022812435588127292 0 -0.0041963391671625419 0.0021980683706018839 0 -0.006766078999849311 0.0048861259224768716 0 -0.0075003930392834517 0.0042297504328414883 0 -0.0074160888960643628 0.005051636469046398 0 -0.006766078999849311 0.0048861259224768716 0 -0.0064969807752092565 0.0041675475749599206 0 -0.0075003930392834517 0.0042297504328414883 0 -0.0075003930392834517 0.0042297504328414883 0 -0.007971255296739848 0.0047964111748100375 0 -0.0074160888960643628 0.005051636469046398 0 -0.0075003930392834517 0.0042297504328414883 0 -0.0082870676032121369 0.0039975939098521231 0 -0.007971255296739848 0.0047964111748100375 0 -0.008298469750775847 0.0038970927225242093 0 -0.0080668040652925148 0.0047271211712652745 0 -0.007971255296739848 0.0047964111748100375 0 -0.0076046775623011455 0.0056909987246965233 0 -0.0074160888960643628 0.005051636469046398 0 -0.0084959139333567243 0.0046182865964702006 0 -0.0080348376832105831 0.0043807096139790629 0 -0.0077722760296562035 0.0049296613482914566 0 -0.0040113837469282262 0.0021806107763315229 0 -0.0038316074088519019 0.0022662804000958027 0 -0.0039260413054924325 0.0023150622267494102 0 -0.0062661068662786699 0.0033410690956635087 0 -0.0059717760034244576 0.004052017314783149 0 -0.0080668040652925148 0.0047271211712652745 0 -0.0059717760034244576 0.004052017314783149 0 -0.0076046775623011455 0.0056909987246965233 0 -0.0074160888960643628 0.005051636469046398 0 -0.0069175692562880448 0.0054373931328440209 0 -0.006766078999849311 0.0048861259224768716 0 -0.0074160888960643628 0.005051636469046398 0 -0.0069175692562880448 0.0054373931328440209 0 -0.0068109060649067911 0.0060617235061607546 0 -0.0076046775623011455 0.0056909987246965233 0 -0.0069175692562880448 0.0054373931328440209 0 -0.0035387324295734534 0.0037141503340682291 0 -0.0042209187782937521 0.0034141484789492567 0 -0.0039509810160089738 0.0040124605410108809 0 -0.003690028999687775 0.0040778408158860125 0 -0.0059717760034244576 0.004052017314783149 0 -0.0059717760034244576 0.004052017314783149 0 -0.001874897083183313 0.0027312915002796977 0 -0.00076616931969880771 0.0028212593104589168 0 -0.00076610433806311958 0.0024934835928059605 0 -0.00013687131084237088 0.002737174950308569 0 -0.003690028999687775 0.0040778408158860125 0 -0.001874897083183313 0.0027312915002796977 0 -0.00076822289236670846 0.0031680306214489137 0 -0.00076616931969880771 0.0028212593104589168 0 -0.00013687131084237088 0.002737174950308569 0 -0.001874897083183313 0.0027312915002796977 0 -0.00043068084508529484 0.0024444131986159283 0 7.8035746838989775e-05 0.0029833173134216863 0 -0.00033535456675305942 0.0020208903675437099 0 0.0003569420818167178 0.0016981913647966908 0 -0.00076610433806311958 0.0024934835928059605 0 -0.00013687131084237088 0.002737174950308569 0 -0.00033535456675305942 0.0020208903675437099 0 7.8035746838989775e-05 0.0029833173134216863 0 0.0013523939002427117 0.0021018752551427381 0 0.0003569420818167178 0.0016981913647966908 0 -0.0037770100562790699 0.0023664324624208012 0 -0.003911029988332519 0.0024327341745637595 0 -0.00387399970557272 0.0023559054057227021 0 -0.001874897083183313 0.0027312915002796977 0 -0.0013498942381221077 0.0023287531132486373 0 -0.003911029988332519 0.0024327341745637595 0 -0.00387399970557272 0.0023559054057227021 0 -0.0039194144135109577 0.0023864762598596262 0 -0.00387399970557272 0.0023559054057227021 0 -0.0039260413054924325 0.0023150622267494102 0 -0.0039194144135109577 0.0023864762598596262 0 -0.0038316074088519019 0.0022662804000958027 0 -0.0037770100562790699 0.0023664324624208012 0 -0.00387399970557272 0.0023559054057227021 0 -0.0038316074088519019 0.0022662804000958027 0 -0.00387399970557272 0.0023559054057227021 0 -0.0039260413054924325 0.0023150622267494102 0 -0.0040113837469282262 0.0021806107763315229 0 -0.0039260413054924325 0.0023150622267494102 0 -0.0040130914724171469 0.0023555261813362023 0 -0.0039260413054924325 0.0023150622267494102 0 -0.0040130914724171469 0.0023555261813362023 0 -0.0039194144135109577 0.0023864762598596262 0 -0.0040130914724171469 0.0023555261813362023 0 -0.0041260479159585832 0.0022812435588127292 0 -0.0041397531214068606 0.0023926502557702093 0 -0.0040113837469282262 0.0021806107763315229 0 -0.0040130914724171469 0.0023555261813362023 0 -0.0041260479159585832 0.0022812435588127292 0 -0.0031682074078140375 0.0014041599706861754 0 -0.0020653112867585885 0.0010361374154906518 0 -0.0041397531214068606 0.0023926502557702093 0 -0.0040201907484175179 0.0024229638158886524 0 -0.0040164400891115129 0.0025240007392805003 0 -0.001910946402717006 0.0005385651068425659 0 -0.0024632614481471427 -0.00025412643897616236 0 -0.0016015264306849148 -0.00024903069641065854 0 -0.0040130914724171469 0.0023555261813362023 0 -0.0041397531214068606 0.0023926502557702093 0 -0.0040201907484175179 0.0024229638158886524 0 -0.003911029988332519 0.0024327341745637595 0 -0.0039060917462993673 0.0024285141279332496 0 -0.003836268539946416 0.0023434184449241243 0 -0.0040130914724171469 0.0023555261813362023 0 -0.0039194144135109577 0.0023864762598596262 0 -0.0039060917462993673 0.0024285141279332496 0 -0.0040130914724171469 0.0023555261813362023 0 -0.0040201907484175179 0.0024229638158886524 0 -0.0039060917462993673 0.0024285141279332496 0 -0.0040201907484175179 0.0024229638158886524 0 -0.0039060917462993673 0.0024285141279332496 0 -0.0040164400891115129 0.0025240007392805003 0 -0.003911029988332519 0.0024327341745637595 0 -0.0039194144135109577 0.0023864762598596262 0 -0.0039060917462993673 0.0024285141279332496 0 -0.0013498942381221077 0.0023287531132486373 0 -0.00027886763008251885 0.0013466545083470119 0 0.0013523939002427117 0.0021018752551427381 0 0.0025417138312148601 0.0012714133957709448 0 0.0017782410672106906 0.0011325293116179818 0 -0.0039060917462993673 0.0024285141279332496 0 -0.003836268539946416 0.0023434184449241243 0 -0.0038198572913659039 0.0023628133278942908 0 -0.0044414234835515572 0.0028881042015081186 0 -0.0020653112867585885 0.0010361374154906518 0 -0.00027886763008251885 0.0013466545083470119 0 -0.0020653112867585885 0.0010361374154906518 0 0.0025417138312148601 0.0012714133957709448 0 0.0023132363579238392 0.00093402548969860112 0 0.0017782410672106906 0.0011325293116179818 0 0.0025513765197516451 0.0012740702820309997 0 0.0023132363579238392 0.00093402548969860112 0 0.0027069201714210304 0.00044936283535662418 0 -0.00027886763008251885 0.0013466545083470119 0 0.00091314758883513387 0.001734254597859753 0 0.0023132363579238392 0.00093402548969860112 0 0.0017782410672106906 0.0011325293116179818 0 0.0019947463794354019 0.00048615559632643717 0 -0.0020653112867585885 0.0010361374154906518 0 -0.00036823155329507247 -0.00078332186191269282 0 -0.00098429545149118802 0.0011015155915069716 0 -0.00078614560834452897 0.0013879264160377249 0 0.0011709115182458576 -0.00024330543073429968 0 -0.0024632614481471427 -0.00025412643897616236 0 -0.0014710436586870116 -0.0010919632356590468 0 -0.0016015264306849148 -0.00024903069641065854 0 0.0027069201714210304 0.00044936283535662418 0 0.0040556159966738852 0.00020018667675918153 0 0.0030647565644519982 -0.0001702396954623768 0 -0.00098429545149118802 0.0011015155915069716 0 0.0010739060053666523 -0.0003834133331806611 0 0.0011709115182458576 -0.00024330543073429968 0 -0.00027886763008251885 0.0013466545083470119 0 0.0029783285199919802 -0.00020785146124798176 0 0.0025513765197516451 0.0012740702820309997 0 0.0027069201714210304 0.00044936283535662418 0 0.0040556159966738852 0.00020018667675918153 0 0.0027069201714210304 0.00044936283535662418 0 0.0022969366658595254 -0.0001391250741101118 0 0.0030647565644519982 -0.0001702396954623768 0 0.0017782410672106906 0.0011325293116179818 0 0.0019947463794354019 0.00048615559632643717 0 0.0013074774502413499 0.00068782656738802924 0 0.0023132363579238392 0.00093402548969860112 0 0.0027069201714210304 0.00044936283535662418 0 0.0019947463794354019 0.00048615559632643717 0 0.0027069201714210304 0.00044936283535662418 0 0.0019947463794354019 0.00048615559632643717 0 0.0022969366658595254 -0.0001391250741101118 0 0.0019947463794354019 0.00048615559632643717 0 0.0022969366658595254 -0.0001391250741101118 0 0.0015371001296188205 -0.0001131532145125201 0 0.0015371001296188205 -0.0001131532145125201 0 0.00091303701822231689 0.00029019664458874468 0 0.00024864975023182679 -0.0002611729595777024 0 0.0015371001296188205 -0.0001131532145125201 0 0.0013074774502413499 0.00068782656738802924 0 0.00091303701822231689 0.00029019664458874468 0 0.0019947463794354019 0.00048615559632643717 0 0.0015371001296188205 -0.0001131532145125201 0 0.0013074774502413499 0.00068782656738802924 0 0.0013074774502413499 0.00068782656738802924 0 0.00091303701822231689 0.00029019664458874468 0 0.00053913053678021085 0.0008770895969241251 0 0.00053913053678021085 0.0008770895969241251 0 -0.00049604647627658662 0.0010640465922073436 0 0.00024864975023182679 -0.0002611729595777024 0 0.00091303701822231689 0.00029019664458874468 0 0.00053913053678021085 0.0008770895969241251 0 0.00024864975023182679 -0.0002611729595777024 0 0.00053913053678021085 0.0008770895969241251 0 -0.00049604647627658662 0.0010640465922073436 0 0.0003569420818167178 0.0016981913647966908 0 -0.00033535456675305942 0.0020208903675437099 0 -0.00049604647627658662 0.0010640465922073436 0 0.0003569420818167178 0.0016981913647966908 0 0.00053913053678021085 0.0008770895969241251 0 0.0003569420818167178 0.0016981913647966908 0 0.0010717895955352776 0.0013242852953858372 0 0.0013523939002427117 0.0021018752551427381 0 0.0003569420818167178 0.0016981913647966908 0 0.0010717895955352776 0.0013242852953858372 0 0.0013523939002427117 0.0021018752551427381 0 0.0017782410672106906 0.0011325293116179818 0 0.0010717895955352776 0.0013242852953858372 0 0.0017782410672106906 0.0011325293116179818 0 0.0013074774502413499 0.00068782656738802924 0 0.0010717895955352776 0.0013242852953858372 0 0.0013074774502413499 0.00068782656738802924 0 0.00053913053678021085 0.0008770895969241251 0 0.0010717895955352776 0.0013242852953858372 0 -0.00038884369477188221 -0.00060045214033926171 0 -0.00025309038795610591 0.00018881821900205187 0 0.00046966148689866046 4.7182923006032536e-05 0 -0.00038884369477188221 -0.00060045214033926171 0 0.00098806245184616601 -0.00069059908914418842 0 0.00046966148689866046 4.7182923006032536e-05 0 0.00098806245184616601 -0.00069059908914418842 0 0.00046966148689866046 4.7182923006032536e-05 0 0.0013771212032191655 0.00022051506180101286 0 0.00098806245184616601 -0.00069059908914418842 0 0.00010526512691042343 -0.0012614337778012776 0 0.00063448020871803665 -0.0015769358086439368 0 0.0013536272334312724 -0.00052373359353032501 0 0.0018928061096245216 -0.0017982507363547404 0 0.00081775269475686026 -0.0017141969286986966 0 0.001193253711118955 -0.00053353147397161983 0 0.00043437924102518032 -0.0018860185220954239 0 -0.00038884369477188221 -0.00060045214033926171 0 0.00010526512691042343 -0.0012614337778012776 0 -0.0004601326766006314 -0.0019305652693435737 0 -0.00038884369477188221 -0.00060045214033926171 0 0.00098806245184616601 -0.00069059908914418842 0 0.00010526512691042343 -0.0012614337778012776 0 -0.00038884369477188221 -0.00060045214033926171 0 -0.0014710436586870116 -0.0010919632356590468 0 -0.0004601326766006314 -0.0019305652693435737 0 0.0010739060053666523 -0.0003834133331806611 0 0.0011709115182458576 -0.00024330543073429968 0 0.0030495781040627366 -0.0017946102350374332 0 -0.00038884369477188221 -0.00060045214033926171 0 -0.0014710436586870116 -0.0010919632356590468 0 -0.0016015264306849148 -0.00024903069641065854 0 -0.00038884369477188221 -0.00060045214033926171 0 -0.00099748548410619003 0.00031413449461061449 0 -0.00025309038795610591 0.00018881821900205187 0 -0.00038884369477188221 -0.00060045214033926171 0 -0.0016015264306849148 -0.00024903069641065854 0 -0.00099748548410619003 0.00031413449461061449 0 -0.00099748548410619003 0.00031413449461061449 0 -0.00068668351401377891 0.00094631868740090923 0 -0.00025309038795610591 0.00018881821900205187 0 -0.001910946402717006 0.0005385651068425659 0 -0.0016015264306849148 -0.00024903069641065854 0 -0.00099748548410619003 0.00031413449461061449 0 -0.001910946402717006 0.0005385651068425659 0 -0.00099748548410619003 0.00031413449461061449 0 -0.001370886174055407 0.0013295372381370981 0 -0.0031682074078140375 0.0014041599706861754 0 -0.002694808075279742 0.0018003440705629012 0 -0.0041260479159585832 0.0022812435588127292 0 -0.0041397531214068606 0.0023926502557702093 0 -0.0042768462908820684 0.0022764616859259216 0 -0.001370886174055407 0.0013295372381370981 0 -0.00068668351401377891 0.00094631868740090923 0 -0.00028790516035206244 0.0015571987220381934 0 -0.00099748548410619003 0.00031413449461061449 0 -0.001370886174055407 0.0013295372381370981 0 -0.00068668351401377891 0.00094631868740090923 0 -0.00068668351401377891 0.00094631868740090923 0 -1.8426185749470793e-05 0.00077725696421559705 0 -0.00028790516035206244 0.0015571987220381934 0 -8.1948055284614108e-05 0.00096132523757309191 0 -9.626182528089155e-05 0.0012168429920611096 0 -1.8426185749470793e-05 0.00077725696421559705 0 0.00023745744873081496 0.0012512384355544543 0 -0.00023624386179489458 0.0014834860947229326 0 -0.00068668351401377891 0.00094631868740090923 0 -1.8426185749470793e-05 0.00077725696421559705 0 -0.00025309038795610591 0.00018881821900205187 0 -1.8426185749470793e-05 0.00077725696421559705 0 -0.00025309038795610591 0.00018881821900205187 0 0.00046966148689866046 4.7182923006032536e-05 0 -1.8426185749470793e-05 0.00077725696421559705 0 0.00046966148689866046 4.7182923006032536e-05 0 0.00068614116813116657 0.00079288482181506077 0 0.00046966148689866046 4.7182923006032536e-05 0 0.00068614116813116657 0.00079288482181506077 0 0.0013771212032191655 0.00022051506180101286 0 -1.8426185749470793e-05 0.00077725696421559705 0 0.00023745744873081496 0.0012512384355544543 0 0.00068614116813116657 0.00079288482181506077 0 0.00023745744873081496 0.0012512384355544543 0 0.00068614116813116657 0.00079288482181506077 0 0.00072624985327445423 0.0014082615091148447 0 0.00023745744873081496 0.0012512384355544543 0 0.00072624985327445423 0.0014082615091148447 0 0.00018246337829287194 0.0019840736875175865 0 0.00072624985327445423 0.0014082615091148447 0 0.00018246337829287194 0.0019840736875175865 0 0.0007311611691856564 0.001979167102155681 0 -9.626182528089155e-05 0.0012168429920611096 0 -0.0047171080857097659 0.0027297214126579209 0 0.00023745744873081496 0.0012512384355544543 0 -0.00023624386179489458 0.0014834860947229326 0 0.00018246337829287194 0.0019840736875175865 0 -0.00023624386179489458 0.0014834860947229326 0 0.00018246337829287194 0.0019840736875175865 0 -0.00044878189685824212 0.002144855474355817 0 -0.0047171080857097659 0.0027297214126579209 0 -0.0054594424684523187 0.003225609893632784 0 -0.010262324628601854 0.0043538778475184911 0 -0.010236005862952787 0.0042458610316547943 0 -0.010877456853757619 0.0039571543371764439 0 0.00018246337829287194 0.0019840736875175865 0 -0.00044878189685824212 0.002144855474355817 0 0.00023734094988406911 0.0025582163345302918 0 0.00018246337829287194 0.0019840736875175865 0 0.00067705652322611379 0.0023973712344164126 0 0.00023734094988406911 0.0025582163345302918 0 0.00018246337829287194 0.0019840736875175865 0 0.00067705652322611379 0.0023973712344164126 0 0.0007311611691856564 0.001979167102155681 0 -0.0041260479159585832 0.0022812435588127292 0 -0.0042768462908820684 0.0022764616859259216 0 -0.0041963391671625419 0.0021980683706018839 0 -0.0042768462908820684 0.0022764616859259216 0 -0.0041963391671625419 0.0021980683706018839 0 -0.0043635468946150906 0.0021729850816223414 0 -0.0041963391671625419 0.0021980683706018839 0 -0.0043635468946150906 0.0021729850816223414 0 -0.0042252537572155186 0.0020843444520431435 0 -0.001370886174055407 0.0013295372381370981 0 -0.00028790516035206244 0.0015571987220381934 0 -0.00084076799876375353 0.0021236563890941599 0 -0.00028790516035206244 0.0015571987220381934 0 -0.00055972832943850231 0.0023287490615801279 0 -0.00084076799876375353 0.0021236563890941599 0 -0.002694808075279742 0.0018003440705629012 0 -0.0039511090366467641 0.0027501672806138373 0 -0.0042768462908820684 0.0022764616859259216 0 -0.0043635468946150906 0.0021729850816223414 0 -0.004425062581461095 0.0021434865160083545 0 -0.0043991297537657667 0.0023237683318904742 0 -0.0039511090366467641 0.0027501672806138373 0 -0.0044366566051924463 0.0021366560651948298 0 -0.0042252537572155186 0.0020843444520431435 0 -0.0044933221379793503 0.0019846515733676108 0 -0.0057459851413722562 0.0028731995156263128 0 -0.0056158567044715408 0.0024515067456428092 0 -0.0048998924838719567 0.0034625784347220613 0 -0.0068968649991688292 0.0031549905016514325 0 -0.0039511090366467641 0.0027501672806138373 0 -0.0047171080857097659 0.0027297214126579209 0 -0.0039511090366467641 0.0027501672806138373 0 -0.0047171080857097659 0.0027297214126579209 0 -0.0068968649991688292 0.0031549905016514325 0 -0.004510370460805227 0.0020611699721287974 0 -0.0044366566051924463 0.0021366560651948298 0 -0.0044933221379793503 0.0019846515733676108 0 -0.010445465389720666 0.0040565747567440332 0 -0.010409578503244124 0.0039146097205604094 0 -0.010453616857638995 0.0038977591174476703 0 -0.0068968649991688292 0.0031549905016514325 0 -0.0079979083815164154 0.0033849768619088924 0 -0.0043635468946150906 0.0021729850816223414 0 -0.0044366566051924463 0.0021366560651948298 0 -0.0042252537572155186 0.0020843444520431435 0 -0.0065551637648076687 0.0031793854083568278 0 -0.0079979083815164154 0.0033849768619088924 0 -0.0091907121117949832 0.004302015615993509 0 -0.0094524729102241738 0.0038310494537838768 0 -0.0098506450557861551 0.0039977313218687313 0 -0.0090896337102700023 0.0036733084430666308 0 -0.0091907121117949832 0.004302015615993509 0 -0.0094524729102241738 0.0038310494537838768 0 -0.0090896337102700023 0.0036733084430666308 0 -0.0094524729102241738 0.0038310494537838768 0 -0.0096761973742317854 0.0033545214888039041 0 -0.0079979083815164154 0.0033849768619088924 0 -0.010256303899020108 0.0035818773612403261 0 -0.010410367954296179 0.0039160452431899013 0 -0.010453616857638995 0.0038977591174476703 0 -0.010310944140982792 0.00343536285569365 0 -0.0094524729102241738 0.0038310494537838768 0 -0.0098506450557861551 0.0039977313218687313 0 -0.0096761973742317854 0.0033545214888039041 0 -0.0079979083815164154 0.0033849768619088924 0 -0.0083743515766649332 0.0033001816366769179 0 -0.010453616857638995 0.0038977591174476703 0 -0.010310944140982792 0.00343536285569365 0 -0.010640686080249878 0.0034748550728932533 0 -0.010683837050308244 0.0030740951401304522 0 -0.010310944140982792 0.00343536285569365 0 -0.010640686080249878 0.0034748550728932533 0 -0.0092384569462552989 0.0031868378459309469 0 -0.0090896337102700023 0.0036733084430666308 0 -0.0096761973742317854 0.0033545214888039041 0 0.00067705652322611379 0.0023973712344164126 0 0.00023734094988406911 0.0025582163345302918 0 0.00076341347053168393 0.0027867766363145665 0 -0.0054594424684523187 0.003225609893632784 0 -0.0048954860198058532 0.0034075665054285522 0 -0.010877456853757619 0.0039571543371764439 0 -0.010895217624710112 0.003620700936156952 0 -0.011300849682019233 0.0036535697128380843 0 -0.010453616857638995 0.0038977591174476703 0 -0.010687765050356028 0.003756037147101687 0 -0.010640686080249878 0.0034748550728932533 0 -0.010445465389720666 0.0040565747567440332 0 -0.010453616857638995 0.0038977591174476703 0 -0.010687765050356028 0.003756037147101687 0 -0.010236005862952787 0.0042458610316547943 0 -0.010877456853757619 0.0039571543371764439 0 -0.010687765050356028 0.003756037147101687 0 -0.0068968649991688292 0.0031549905016514325 0 -0.011125971740144354 0.0036044628145162909 0 -0.010877456853757619 0.0039571543371764439 0 -0.010687765050356028 0.003756037147101687 0 -0.010895217624710112 0.003620700936156952 0 -0.010687765050356028 0.003756037147101687 0 -0.010640686080249878 0.0034748550728932533 0 -0.010895217624710112 0.003620700936156952 0 -0.010640686080249878 0.0034748550728932533 0 -0.010998958544218106 0.00333492784420393 0 -0.010895217624710112 0.003620700936156952 0 -0.010998958544218106 0.00333492784420393 0 -0.010895217624710112 0.003620700936156952 0 -0.011300849682019233 0.0036535697128380843 0 -0.01137920403559947 0.0031852595537813994 0 -0.010998958544218106 0.00333492784420393 0 -0.011300849682019233 0.0036535697128380843 0 0.00076341347053168393 0.0027867766363145665 0 0.0011139939593810498 0.0026631067304142002 0 0.0010118568063075901 0.0029630414080617697 0 -0.0048954860198058532 0.0034075665054285522 0 -0.0075643567683359664 0.0027641781730177476 0 -0.01137920403559947 0.0031852595537813994 0 -0.011300849682019233 0.0036535697128380843 0 -0.011729303478140479 0.0033652524298212983 0 0.00067705652322611379 0.0023973712344164126 0 0.00076341347053168393 0.0027867766363145665 0 0.00096444158260302086 0.002534973685656586 0 0.00076341347053168393 0.0027867766363145665 0 0.00096444158260302086 0.002534973685656586 0 0.0011139939593810498 0.0026631067304142002 0 0.00096444158260302086 0.002534973685656586 0 0.0011139939593810498 0.0026631067304142002 0 0.0011728935120252854 0.0023486307531161302 0 -0.01167403167780004 0.0038351233696244966 0 -0.012137280927719311 0.0040121134969751861 0 -0.011662010316758092 0.0044024146756519358 0 -0.0052941957162260444 0.0033649596366960867 0 -0.0023610379901114207 0.0031276653342028147 0 -0.01167403167780004 0.0038351233696244966 0 -0.011908219328552367 0.0034614123226541695 0 -0.012148494141167464 0.0036564058719756429 0 -0.0052941957162260444 0.0033649596366960867 0 -0.0075643567683359664 0.0027641781730177476 0 -0.01167403167780004 0.0038351233696244966 0 -0.011668680800878468 0.0033303991949819333 0 -0.011908219328552367 0.0034614123226541695 0 -0.010381380908073511 0.0020633421988541707 0 -0.0075643567683359664 0.0027641781730177476 0 -0.011865651986614561 0.0032158023221190196 0 -0.011668680800878468 0.0033303991949819333 0 -0.011908219328552367 0.0034614123226541695 0 -0.011865651986614561 0.0032158023221190196 0 -0.011908219328552367 0.0034614123226541695 0 -0.01217117099765379 0.0032825139379628215 0 -0.012435219291791179 0.0030156952026598157 0 -0.01217117099765379 0.0032825139379628215 0 -0.012540783483938958 0.003495681331958816 0 -0.011908219328552367 0.0034614123226541695 0 -0.01217117099765379 0.0032825139379628215 0 -0.012148494141167464 0.0036564058719756429 0 -0.01217117099765379 0.0032825139379628215 0 -0.012148494141167464 0.0036564058719756429 0 -0.012540783483938958 0.003495681331958816 0 -0.012148494141167464 0.0036564058719756429 0 -0.012540783483938958 0.003495681331958816 0 -0.012474740521049413 0.003887712646529731 0 -0.012540783483938958 0.003495681331958816 0 -0.012786241934420347 0.0039412498133562105 0 -0.013061719645590402 0.0036030262842478549 0 -0.012862662910345853 0.0031983617681829854 0 -0.012540783483938958 0.003495681331958816 0 -0.013061719645590402 0.0036030262842478549 0 -0.012786241934420347 0.0039412498133562105 0 -0.012474740521049413 0.003887712646529731 0 -0.012744453694000691 0.0042468473872518918 0 -0.012786241934420347 0.0039412498133562105 0 -0.012744453694000691 0.0042468473872518918 0 -0.013094287130448534 0.0040624262225392171 0 -0.012540783483938958 0.003495681331958816 0 -0.012786241934420347 0.0039412498133562105 0 -0.012474740521049413 0.003887712646529731 0 -0.012474740521049413 0.003887712646529731 0 -0.012137280927719311 0.0040121134969751861 0 -0.012744453694000691 0.0042468473872518918 0 -0.01167403167780004 0.0038351233696244966 0 -0.012148494141167464 0.0036564058719756429 0 -0.012137280927719311 0.0040121134969751861 0 -0.012148494141167464 0.0036564058719756429 0 -0.012474740521049413 0.003887712646529731 0 -0.012137280927719311 0.0040121134969751861 0 -0.012137280927719311 0.0040121134969751861 0 -0.012744453694000691 0.0042468473872518918 0 -0.011662010316758092 0.0044024146756519358 0 0.0024619057233489657 0.0014041416727823683 0 0.0022036354438574194 0.0011334432758287312 0 0.0018362783959733745 0.001424393651990807 0 -0.0054443814906341478 0.0027908904527122361 0 -0.0023610379901114207 0.0031276653342028147 0 0.0024619057233489657 0.0014041416727823683 0 0.0022036354438574194 0.0011334432758287312 0 0.0027730994056351919 0.0010836290393202224 0 0.0022036354438574194 0.0011334432758287312 0 0.0027730994056351919 0.0010836290393202224 0 0.0024648694605213925 0.00070171878247933485 0 0.0022036354438574194 0.0011334432758287312 0 0.0019574711972921563 0.00079301006852647933 0 0.0024648694605213925 0.00070171878247933485 0 0.0012294265258967296 0.0016744242352419122 0 0.0017474943724461436 0.0023287952686625235 0 0.0019686640205490262 0.0011364824885709912 0 0.0022036354438574194 0.0011334432758287312 0 0.0018362783959733745 0.001424393651990807 0 0.0019574711972921563 0.00079301006852647933 0 -0.0023610379901114207 0.0031276653342028147 0 0.0025478834186582521 0.00061792278268559269 0 0.00072624985327445423 0.0014082615091148447 0 0.0012294265258967296 0.0016744242352419122 0 0.0013798392119259623 0.00086628063825549976 0 0.00072624985327445423 0.0014082615091148447 0 0.0007311611691856564 0.001979167102155681 0 0.0012294265258967296 0.0016744242352419122 0 0.00096444158260302086 0.002534973685656586 0 0.0010052238516095001 0.0022922552811708839 0 0.0011728935120252854 0.0023486307531161302 0 0.0012294265258967296 0.0016744242352419122 0 0.0010052238516095001 0.0022922552811708839 0 0.0017474943724461436 0.0023287952686625235 0 0.00067705652322611379 0.0023973712344164126 0 0.0007311611691856564 0.001979167102155681 0 0.0010052238516095001 0.0022922552811708839 0 0.0007311611691856564 0.001979167102155681 0 0.0012294265258967296 0.0016744242352419122 0 0.0010052238516095001 0.0022922552811708839 0 0.00067705652322611379 0.0023973712344164126 0 0.00096444158260302086 0.002534973685656586 0 0.0010052238516095001 0.0022922552811708839 0 0.00220527641539074 0.0023963933923787967 0 -0.0023610379901114207 0.0031276653342028147 0 -0.0098702934445334747 0.0025036070089122842 0 -0.0087676310562991196 0.0034416178911446825 0 -0.0083151857692205684 0.0027807574417355583 0 -0.0038436401690220522 0.0018579501355706894 0 -0.0077632659459627136 0.0038676269035975118 0 -0.0030963746428805602 0.0024191663113703075 0 -0.0038981312212484523 0.0028317848215117921 0 -0.0037028252929011524 0.0018936946381236284 0 -0.0087676310562991196 0.0034416178911446825 0 -0.0083952685987445427 0.0032492357814841175 0 -0.0083151857692205684 0.0027807574417355583 0 -0.0077632659459627136 0.0038676269035975118 0 0.00033459078046153324 0.0025588464289523641 0 -0.0077632659459627136 0.0038676269035975118 0 -0.011775561071921386 0.0036866338879443738 0 -0.015001115321502676 0.0031514944527949438 0 -0.014583584499149626 0.0034941372227034057 0 -0.01458110292628445 0.0034701178578787823 0 -0.014761129151058308 0.003091746808415678 0 -0.014560510348066763 0.0033078467858817539 0 -0.01458110292628445 0.0034701178578787823 0 -0.01453568800779783 0.0031219463631055122 0 -0.014761129151058308 0.003091746808415678 0 -0.014560510348066763 0.0033078467858817539 0 -0.014560510348066763 0.0033078467858817539 0 -0.01458110292628445 0.0034701178578787823 0 -0.014500422446110805 0.0034015791902286549 0 -0.014586052070071487 0.0035143413785111181 0 -0.01458110292628445 0.0034701178578787823 0 -0.014455084805148406 0.0034872998340334201 0 -0.011775561071921386 0.0036866338879443738 0 -0.011858212498966502 0.0037057093962099574 0 -0.01458110292628445 0.0034701178578787823 0 -0.014455084805148406 0.0034872998340334201 0 -0.014500422446110805 0.0034015791902286549 0 -0.014455084805148406 0.0034872998340334201 0 -0.014295813532391224 0.0035026910647562052 0 -0.014332596629462905 0.0036667492416469372 0 -0.014455084805148406 0.0034872998340334201 0 -0.014399268583198779 0.0033313035717572985 0 -0.014295813532391224 0.0035026910647562052 0 -0.014455084805148406 0.0034872998340334201 0 -0.014500422446110805 0.0034015791902286549 0 -0.014399268583198779 0.0033313035717572985 0 -0.014560510348066763 0.0033078467858817539 0 -0.014500422446110805 0.0034015791902286549 0 -0.014399268583198779 0.0033313035717572985 0 -0.01453568800779783 0.0031219463631055122 0 -0.014560510348066763 0.0033078467858817539 0 -0.014399268583198779 0.0033313035717572985 0 -0.014399268583198779 0.0033313035717572985 0 -0.014295813532391224 0.0035026910647562052 0 -0.014084214028788027 0.0033183199892067652 0 -0.01432403083520712 0.0031409173489801833 0 -0.014399268583198779 0.0033313035717572985 0 -0.014084214028788027 0.0033183199892067652 0 -0.014295813532391224 0.0035026910647562052 0 -0.014158754995444292 0.0036680852902966788 0 -0.014084214028788027 0.0033183199892067652 0 -0.014295813532391224 0.0035026910647562052 0 -0.014332596629462905 0.0036667492416469372 0 -0.014158754995444292 0.0036680852902966788 0 -0.013128924383668906 0.0041988069951072442 0 -0.013925958122903688 0.0041542553285988633 0 -0.014586052070071487 0.0035143413785111181 0 -0.014455084805148406 0.0034872998340334201 0 -0.014332596629462905 0.0036667492416469372 0 -0.011775561071921386 0.0036866338879443738 0 -0.013128924383668906 0.0041988069951072442 0 -0.0077632659459627136 0.0038676269035975118 0 -0.013128924383668906 0.0041988069951072442 0 -0.0099225732861243296 0.0032209186251299631 0 -0.010229189342484743 0.0047798689002918962 0 -0.01228956456577163 0.0044300415381553701 0 -0.010803566660623294 0.0042504639323089803 0 -0.011707692715850366 0.0040581438773303752 0 -0.010830711784907169 0.0035459504773892227 0 -0.010803566660623294 0.0042504639323089803 0 -0.011763541486803888 0.0046690005731659257 0 -0.011707692715850366 0.0040581438773303752 0 -0.011763541486803888 0.0046690005731659257 0 -0.011707692715850366 0.0040581438773303752 0 -0.012360471888731957 0.0041444443852804722 0 -0.011707692715850366 0.0040581438773303752 0 -0.012360471888731957 0.0041444443852804722 0 -0.012760842097851801 0.0037624546117775073 0 -0.012360471888731957 0.0041444443852804722 0 -0.013094287130448534 0.0040624262225392171 0 -0.012760842097851801 0.0037624546117775073 0 -0.011763541486803888 0.0046690005731659257 0 -0.012360471888731957 0.0041444443852804722 0 -0.013094287130448534 0.0040624262225392171 0 -0.014510129815888806 0.0038549752496776879 0 -0.014158754995444292 0.0036680852902966788 0 -0.013094287130448534 0.0040624262225392171 0 -0.013128924383668906 0.0041988069951072442 0 -0.013080165447263715 0.0041151864102352675 0 -0.014158754995444292 0.0036680852902966788 0 -0.013595708392093078 0.0035503570818564921 0 -0.013094287130448534 0.0040624262225392171 0 -0.013606852709882905 0.0031945090135251136 0 -0.014084214028788027 0.0033183199892067652 0 -0.013595708392093078 0.0035503570818564921 0 -0.014158754995444292 0.0036680852902966788 0 -0.014084214028788027 0.0033183199892067652 0 -0.013595708392093078 0.0035503570818564921 0 -0.013606852709882905 0.0031945090135251136 0 -0.012862662910345853 0.0031983617681829854 0 -0.013061719645590402 0.0036030262842478549 0 -0.013595708392093078 0.0035503570818564921 0 -0.013061719645590402 0.0036030262842478549 0 -0.013094287130448534 0.0040624262225392171 0 -0.013606852709882905 0.0031945090135251136 0 -0.013595708392093078 0.0035503570818564921 0 -0.013061719645590402 0.0036030262842478549 0 -0.012786241934420347 0.0039412498133562105 0 -0.013061719645590402 0.0036030262842478549 0 -0.013094287130448534 0.0040624262225392171 0 -0.0054443814906341478 0.0027908904527122361 0 -0.0059405005769973488 0.002498887164104356 0 -0.012744453694000691 0.0042468473872518918 0 -0.013094287130448534 0.0040624262225392171 0 -0.012760842097851801 0.0037624546117775073 0 0.0024619057233489657 0.0014041416727823683 0 0.0027730994056351919 0.0010836290393202224 0 0.00298889105149932 0.0013863241930495165 0 0.0027730994056351919 0.0010836290393202224 0 0.0031605092546081021 0.0011027195609266678 0 0.0028751436357639455 0.00068738003120674999 0 0.0027730994056351919 0.0010836290393202224 0 0.0031605092546081021 0.0011027195609266678 0 0.00298889105149932 0.0013863241930495165 0 0.0031605092546081021 0.0011027195609266678 0 0.00298889105149932 0.0013863241930495165 0 0.0034204036754362124 0.0014094958282311872 0 -0.011707692715850366 0.0040581438773303752 0 -0.012760842097851801 0.0037624546117775073 0 -0.010830711784907169 0.0035459504773892227 0 -0.0059405005769973488 0.002498887164104356 0 0.0015737529899188902 0.0030471078673069596 0 0.0085690355725967261 0.002823767501903975 0 0.0015737529899188902 0.0030471078673069596 0 0.011503475395800333 0.0039246097407478102 0 0.012474107094781608 0.0040653997926288028 0 0.012304672075994205 0.0025518144141681224 0 0.011503475395800333 0.0039246097407478102 0 0.012474107094781608 0.0040653997926288028 0 0.012709570642792831 0.0049518003419561701 0 0.010945117105933905 0.0029539409722616687 0 0.00331907129383858 0.0026090511359344575 0 0.012474107094781608 0.0040653997926288028 0 0.013254935643896352 0.0035801988284290829 0 0.012848363036832221 0.0049581900953380147 0 0.0075891970565991063 0.0023931167379893994 0 0.0072508373955906891 0.0020763145013784337 0 0.0070431155560739403 0.0028134126486146593 0 0.012474107094781608 0.0040653997926288028 0 0.012709570642792831 0.0049518003419561701 0 0.012848363036832221 0.0049581900953380147 0 0.00015641622637551102 0.0014980947479612567 0 2.2339870044934096e-05 0.0015738229419610067 0 -2.4619452192638009e-05 0.0015073949345372564 0 0.00093295113608906949 0.0010982247921593094 0 0.00331907129383858 0.0026090511359344575 0 -0.010803566660623294 0.0042504639323089803 0 -0.010830711784907169 0.0035459504773892227 0 -0.010673517781367057 0.0036739576791117229 0 0.0015737529899188902 0.0030471078673069596 0 0.00331907129383858 0.0026090511359344575 0 0.00331907129383858 0.0026090511359344575 0 0.00033459078046153324 0.0025588464289523641 0 0.0015737529899188902 0.0030471078673069596 0 0.00033459078046153324 0.0025588464289523641 0 0.0016329499640086447 0.0042102749807489664 0 0.00060335868594373217 0.0041829453390214728 0 0.00074370719359079717 0.0034441853408376357 0 -0.0038436401690220522 0.0018579501355706894 0 0.00033459078046153324 0.0025588464289523641 0 2.2339870044934096e-05 0.0015738229419610067 0 -2.4619452192638009e-05 0.0015073949345372564 0 -2.9739620378311979e-05 0.0015267835161582406 0 0.013693584034415177 0.0020569135466296453 0 0.012304672075994205 0.0025518144141681224 0 0.012748542199315611 0.00077758717056688575 0 0.013693584034415177 0.0020569135466296453 0 0.013254935643896352 0.0035801988284290829 0 0.012304672075994205 0.0025518144141681224 0 0.010510455105336141 0.001686398186618676 0 0.010945117105933905 0.0029539409722616687 0 0.012474107094781608 0.0040653997926288028 0 0.013254935643896352 0.0035801988284290829 0 0.012304672075994205 0.0025518144141681224 0 0.012304672075994205 0.0025518144141681224 0 0.011085797546104652 0.002318900726988616 0 0.011476236665398877 0.00092233040600532307 0 0.0085690355725967261 0.002823767501903975 0 0.0062171268143924405 0.001680096900143876 0 0.011503475395800333 0.0039246097407478102 0 0.011085797546104652 0.002318900726988616 0 0.01010212564193627 0.0029131367379655018 0 0.011503475395800333 0.0039246097407478102 0 0.012304672075994205 0.0025518144141681224 0 0.011085797546104652 0.002318900726988616 0 0.011085797546104652 0.002318900726988616 0 0.01010212564193627 0.0029131367379655018 0 0.0099881524093286857 0.0010900922153368341 0 0.0099881524093286857 0.0010900922153368341 0 0.010859375965283798 -0.00039659346447852285 0 0.0095134149488505463 -0.0009941927682761433 0 0.010859375965283798 -0.00039659346447852285 0 0.012037229030550942 -0.00033366919458108283 0 0.011576223592915155 -0.0012916676810442096 0 0.010859375965283798 -0.00039659346447852285 0 0.011476236665398877 0.00092233040600532307 0 0.012037229030550942 -0.00033366919458108283 0 0.011085797546104652 0.002318900726988616 0 0.0099881524093286857 0.0010900922153368341 0 0.011476236665398877 0.00092233040600532307 0 0.0099881524093286857 0.0010900922153368341 0 0.010859375965283798 -0.00039659346447852285 0 0.011476236665398877 0.00092233040600532307 0 0.012304672075994205 0.0025518144141681224 0 0.011476236665398877 0.00092233040600532307 0 0.012748542199315611 0.00077758717056688575 0 0.011476236665398877 0.00092233040600532307 0 0.012748542199315611 0.00077758717056688575 0 0.012037229030550942 -0.00033366919458108283 0 0.012748542199315611 0.00077758717056688575 0 0.012037229030550942 -0.00033366919458108283 0 0.012977172672741002 -0.00062370190978466129 0 0.014067771285191931 0.00043744992494163876 0 0.012977172672741002 -0.00062370190978466129 0 0.013736410226416808 -0.00062534129053545113 0 0.014067771285191931 0.00043744992494163876 0 0.012748542199315611 0.00077758717056688575 0 0.012977172672741002 -0.00062370190978466129 0 0.013693584034415177 0.0020569135466296453 0 0.014067771285191931 0.00043744992494163876 0 0.012748542199315611 0.00077758717056688575 0 0.0019574711972921563 0.00079301006852647933 0 0.0022976972637384699 0.00041992774245346899 0 0.002175177291941268 3.2043657256304752e-05 0 0.0013771212032191655 0.00022051506180101286 0 0.0013798392119259623 0.00086628063825549976 0 0.002175177291941268 3.2043657256304752e-05 0 0.0025478834186582521 0.00061792278268559269 0 0.0019917682030194338 0.00023389264667483743 0 0.00068614116813116657 0.00079288482181506077 0 0.0013771212032191655 0.00022051506180101286 0 0.0013798392119259623 0.00086628063825549976 0 0.00068614116813116657 0.00079288482181506077 0 0.00072624985327445423 0.0014082615091148447 0 0.0013798392119259623 0.00086628063825549976 0 0.0012294265258967296 0.0016744242352419122 0 0.0013798392119259623 0.00086628063825549976 0 0.0019686640205490262 0.0011364824885709912 0 0.0013798392119259623 0.00086628063825549976 0 0.0019686640205490262 0.0011364824885709912 0 0.002175177291941268 3.2043657256304752e-05 0 0.0019574711972921563 0.00079301006852647933 0 0.0024648694605213925 0.00070171878247933485 0 0.0022976972637384699 0.00041992774245346899 0 0.0027730994056351919 0.0010836290393202224 0 0.0028751436357639455 0.00068738003120674999 0 0.0024648694605213925 0.00070171878247933485 0 0.01010212564193627 0.0029131367379655018 0 0.0099881524093286857 0.0010900922153368341 0 0.0083143530754986976 0.0019245624678388069 0 0.0028751436357639455 0.00068738003120674999 0 0.0024648694605213925 0.00070171878247933485 0 0.0025620395420995726 0.00016843626326051186 0 0.0062171268143924405 0.001680096900143876 0 0.0054549064297239143 0.0010591851815708359 0 0.0024648694605213925 0.00070171878247933485 0 0.0025620395420995726 0.00016843626326051186 0 0.0022976972637384699 0.00041992774245346899 0 0.0025620395420995726 0.00016843626326051186 0 0.0022976972637384699 0.00041992774245346899 0 0.002175177291941268 3.2043657256304752e-05 0 0.0025620395420995726 0.00016843626326051186 0 0.0022284411358290028 -0.00057855222414240524 0 0.002175177291941268 3.2043657256304752e-05 0 0.0083143530754986976 0.0019245624678388069 0 0.0080161842634544588 0.00028704321662231905 0 0.0055315061189488753 0.00054836087796010773 0 0.0054549064297239143 0.0010591851815708359 0 0.0038073265414982995 -0.00010672394752696318 0 0.0099881524093286857 0.0010900922153368341 0 0.0083143530754986976 0.0019245624678388069 0 0.0080161842634544588 0.00028704321662231905 0 0.0099881524093286857 0.0010900922153368341 0 0.0095134149488505463 -0.0009941927682761433 0 0.0080161842634544588 0.00028704321662231905 0 0.0080161842634544588 0.00028704321662231905 0 0.0055315061189488753 0.00054836087796010773 0 0.0066483417189806453 -0.0023403655795790294 0 0.0095134149488505463 -0.0009941927682761433 0 0.0080161842634544588 0.00028704321662231905 0 0.0066483417189806453 -0.0023403655795790294 0 0.0055315061189488753 0.00054836087796010773 0 0.0018928061096245216 -0.0017982507363547404 0 0.0044370022455486081 -0.0017040871163919824 0 0.0055315061189488753 0.00054836087796010773 0 0.0044370022455486081 -0.0017040871163919824 0 0.0066483417189806453 -0.0023403655795790294 0 0.0022284411358290028 -0.00057855222414240524 0 0.002175177291941268 3.2043657256304752e-05 0 0.0017815503594116541 -0.0002179587272875946 0 0.0013771212032191655 0.00022051506180101286 0 0.002175177291941268 3.2043657256304752e-05 0 0.0017815503594116541 -0.0002179587272875946 0 0.0013536272334312724 -0.00052373359353032501 0 0.0022284411358290028 -0.00057855222414240524 0 0.0017815503594116541 -0.0002179587272875946 0 0.001193253711118955 -0.00053353147397161983 0 0.0013797565416213109 0.00014234237099367033 0 0.0013536272334312724 -0.00052373359353032501 0 0.0013771212032191655 0.00022051506180101286 0 0.0017815503594116541 -0.0002179587272875946 0 0.0038073265414982995 -0.00010672394752696318 0 0.001946838400672508 -0.0017325133236250959 0 0.0013536272334312724 -0.00052373359353032501 0 0.0022284411358290028 -0.00057855222414240524 0 0.0018928061096245216 -0.0017982507363547404 0 0.0018928061096245216 -0.0017982507363547404 0 0.0031320588385282933 -0.0035373941751669718 0 0.0011671767338661898 -0.0031172881964218434 0 0.0018928061096245216 -0.0017982507363547404 0 0.0031320588385282933 -0.0035373941751669718 0 0.0044370022455486081 -0.0017040871163919824 0 0.0079160457034821857 -0.0020545553687622959 0 0.0075550821886883673 -0.0025295344730215737 0 0.0068202134281169988 -0.0024540405863094326 0 0.0079160457034821857 -0.0020545553687622959 0 0.0075550821886883673 -0.0025295344730215737 0 0.0080781108757848729 -0.0027366757399077952 0 0.0079160457034821857 -0.0020545553687622959 0 0.0086495931065413301 -0.0025752557416204623 0 0.0080781108757848729 -0.0027366757399077952 0 0.0079160457034821857 -0.0020545553687622959 0 0.0086495931065413301 -0.0025752557416204623 0 0.0087975511171003509 -0.0016016639823062549 0 0.0052579721370354391 -0.0028474563451817815 0 0.0077940298445080113 -0.0019129672736635079 0 0.0031320588385282933 -0.0035373941751669718 0 0.0044370022455486081 -0.0017040871163919824 0 0.0066483417189806453 -0.0023403655795790294 0 0.0093986167159147115 -0.0011024125804543503 0 0.0077940298445080113 -0.0019129672736635079 0 0.0095134149488505463 -0.0009941927682761433 0 0.0087975511171003509 -0.0016016639823062549 0 0.0096118670898972768 -0.0021671234801946518 0 0.0095134149488505463 -0.0009941927682761433 0 0.0096118670898972768 -0.0021671234801946518 0 0.010594938255954074 -0.0015532538366910371 0 0.0086495931065413301 -0.0025752557416204623 0 0.0096118670898972768 -0.0021671234801946518 0 0.0095252052178464407 -0.0029885712613414456 0 0.0086495931065413301 -0.0025752557416204623 0 0.0087975511171003509 -0.0016016639823062549 0 0.0096118670898972768 -0.0021671234801946518 0 0.0086495931065413301 -0.0025752557416204623 0 0.0095252052178464407 -0.0029885712613414456 0 0.0090870034763611066 -0.0033845470532465173 0 0.0096118670898972768 -0.0021671234801946518 0 0.0095252052178464407 -0.0029885712613414456 0 0.010227562543507185 -0.0032335632333705764 0 0.0095252052178464407 -0.0029885712613414456 0 0.0094939670192435762 -0.0037456725524245061 0 0.010227562543507185 -0.0032335632333705764 0 0.0094939670192435762 -0.0037456725524245061 0 0.010227562543507185 -0.0032335632333705764 0 0.010086272385754316 -0.0039614957989310938 0 0.0094939670192435762 -0.0037456725524245061 0 0.0090870034763611066 -0.0033845470532465173 0 0.008840182974896877 -0.0037084230345541614 0 0.0095252052178464407 -0.0029885712613414456 0 0.0094939670192435762 -0.0037456725524245061 0 0.0090870034763611066 -0.0033845470532465173 0 0.0090870034763611066 -0.0033845470532465173 0 0.008840182974896877 -0.0037084230345541614 0 0.008516965182791339 -0.0032437358309116079 0 0.008840182974896877 -0.0037084230345541614 0 0.0083744240743247808 -0.0035489236053157926 0 0.0084336296916751059 -0.0039484016284903117 0 0.008840182974896877 -0.0037084230345541614 0 0.0083744240743247808 -0.0035489236053157926 0 0.008516965182791339 -0.0032437358309116079 0 0.0083744240743247808 -0.0035489236053157926 0 0.0081098127274071702 -0.0033211376358942509 0 0.008516965182791339 -0.0032437358309116079 0 0.0083744240743247808 -0.0035489236053157926 0 0.0081573328195217159 -0.0035202707807247382 0 0.0084336296916751059 -0.0039484016284903117 0 0.0081573328195217159 -0.0035202707807247382 0 0.0084336296916751059 -0.0039484016284903117 0 0.0079764121923274617 -0.0034844593955057727 0 0.0083514390152834763 -0.0037991333595216977 0 0.011724663951139191 -0.0036889789669241834 0 0.0081573328195217159 -0.0035202707807247382 0 0.0081796558792538686 -0.0034265268922887078 0 0.0082324012988027294 -0.0033699793133611122 0 0.0081573328195217159 -0.0035202707807247382 0 0.0081796558792538686 -0.0034265268922887078 0 0.0081098127274071702 -0.0033211376358942509 0 0.0083744240743247808 -0.0035489236053157926 0 0.0081573328195217159 -0.0035202707807247382 0 0.0081098127274071702 -0.0033211376358942509 0 0.0081796558792538686 -0.0034265268922887078 0 0.0081098127274071702 -0.0033211376358942509 0 0.0082179387389448872 -0.0036550700294562311 0 0.0079764396227561471 -0.0032923520978601103 0 0.008070075270204799 -0.0035198099804761105 0 0.0075550821886883673 -0.0025295344730215737 0 0.0074128533143343065 -0.0028783192163047704 0 0.0080781108757848729 -0.0027366757399077952 0 0.0081098127274071702 -0.0033211376358942509 0 0.0074128533143343065 -0.0028783192163047704 0 0.0080781108757848729 -0.0027366757399077952 0 0.0086495931065413301 -0.0025752557416204623 0 0.0090870034763611066 -0.0033845470532465173 0 0.008516965182791339 -0.0032437358309116079 0 0.0086495931065413301 -0.0025752557416204623 0 0.0080781108757848729 -0.0027366757399077952 0 0.008516965182791339 -0.0032437358309116079 0 0.0081098127274071702 -0.0033211376358942509 0 0.0080781108757848729 -0.0027366757399077952 0 0.008516965182791339 -0.0032437358309116079 0 0.014834341599568149 -0.0014029787347655048 0 0.013657389142843854 -0.002369217971298858 0 0.013498449410872209 -0.0019435496877473152 0 0.012141155189951168 -0.00028074296582583061 0 0.01367223780583693 -0.0020412186271862912 0 0.012984745353114583 -0.0020888672359415618 0 0.012981296450597687 -0.0013484390768610738 0 0.012519450336184538 -0.0013974644117767175 0 0.014361647713250257 -0.0011392776801037842 0 0.012984745353114583 -0.0020888672359415618 0 0.013438382881072285 -0.0012539781919072947 0 0.012977172672741002 -0.00062370190978466129 0 0.013438382881072285 -0.0012539781919072947 0 0.013736410226416808 -0.00062534129053545113 0 0.012977172672741002 -0.00062370190978466129 0 0.012981296450597687 -0.0013484390768610738 0 0.012519450336184538 -0.0013974644117767175 0 0.012977172672741002 -0.00062370190978466129 0 0.013438382881072285 -0.0012539781919072947 0 0.012981296450597687 -0.0013484390768610738 0 0.012984745353114583 -0.0020888672359415618 0 0.013438382881072285 -0.0012539781919072947 0 0.012981296450597687 -0.0013484390768610738 0 0.012037229030550942 -0.00033366919458108283 0 0.012977172672741002 -0.00062370190978466129 0 0.012519450336184538 -0.0013974644117767175 0 0.012037229030550942 -0.00033366919458108283 0 0.012519450336184538 -0.0013974644117767175 0 0.011576223592915155 -0.0012916676810442096 0 0.012519450336184538 -0.0013974644117767175 0 0.012104910540912379 -0.0021020090277024395 0 0.011576223592915155 -0.0012916676810442096 0 0.013657389142843854 -0.002369217971298858 0 0.013498449410872209 -0.0019435496877473152 0 0.011975907259401886 -0.0029899014347004932 0 0.012984745353114583 -0.0020888672359415618 0 0.012104910540912379 -0.0021020090277024395 0 0.011975907259401886 -0.0029899014347004932 0 0.012984745353114583 -0.0020888672359415618 0 0.012519450336184538 -0.0013974644117767175 0 0.012104910540912379 -0.0021020090277024395 0 0.012104910540912379 -0.0021020090277024395 0 0.01150211385302477 -0.0024516335058573555 0 0.011975907259401886 -0.0029899014347004932 0 0.012104910540912379 -0.0021020090277024395 0 0.01150211385302477 -0.0024516335058573555 0 0.011360372088991207 -0.0019368115043278266 0 0.01150211385302477 -0.0024516335058573555 0 0.011360372088991207 -0.0019368115043278266 0 0.01069771523922239 -0.0023619853287390963 0 0.012104910540912379 -0.0021020090277024395 0 0.011360372088991207 -0.0019368115043278266 0 0.011576223592915155 -0.0012916676810442096 0 0.010859375965283798 -0.00039659346447852285 0 0.011576223592915155 -0.0012916676810442096 0 0.010594938255954074 -0.0015532538366910371 0 0.011360372088991207 -0.0019368115043278266 0 0.011576223592915155 -0.0012916676810442096 0 0.010594938255954074 -0.0015532538366910371 0 0.010859375965283798 -0.00039659346447852285 0 0.0095134149488505463 -0.0009941927682761433 0 0.010594938255954074 -0.0015532538366910371 0 0.0096118670898972768 -0.0021671234801946518 0 0.010594938255954074 -0.0015532538366910371 0 0.01069771523922239 -0.0023619853287390963 0 0.011360372088991207 -0.0019368115043278266 0 0.010594938255954074 -0.0015532538366910371 0 0.01069771523922239 -0.0023619853287390963 0 0.01069771523922239 -0.0023619853287390963 0 0.010227562543507185 -0.0032335632333705764 0 0.011170486600750547 -0.0029704534366982644 0 0.0096118670898972768 -0.0021671234801946518 0 0.01069771523922239 -0.0023619853287390963 0 0.010227562543507185 -0.0032335632333705764 0 0.010227562543507185 -0.0032335632333705764 0 0.011225021702529812 -0.0037236804587592173 0 0.011170486600750547 -0.0029704534366982644 0 0.010227562543507185 -0.0032335632333705764 0 0.011085473926252249 -0.0046798379245652803 0 0.011225021702529812 -0.0037236804587592173 0 0.010227562543507185 -0.0032335632333705764 0 0.011085473926252249 -0.0046798379245652803 0 0.01017070606357345 -0.0047932739646305419 0 0.010235411800820469 -0.0033190958673007726 0 0.010014372967638602 -0.0043529560760221381 0 0.011790672368130991 -0.0043171747280911082 0 0.012355005303319191 -0.0034761892934254005 0 0.01250897509928427 -0.0051351226905000094 0 0.011225021702529812 -0.0037236804587592173 0 0.011790672368130991 -0.0043171747280911082 0 0.011695287980149927 -0.003482216160827094 0 0.011085473926252249 -0.0046798379245652803 0 0.011225021702529812 -0.0037236804587592173 0 0.011790672368130991 -0.0043171747280911082 0 0.011790672368130991 -0.0043171747280911082 0 0.012355005303319191 -0.0034761892934254005 0 0.011695287980149927 -0.003482216160827094 0 0.012355005303319191 -0.0034761892934254005 0 0.011975907259401886 -0.0029899014347004932 0 0.011695287980149927 -0.003482216160827094 0 0.011975907259401886 -0.0029899014347004932 0 0.011695287980149927 -0.003482216160827094 0 0.011170486600750547 -0.0029704534366982644 0 0.011225021702529812 -0.0037236804587592173 0 0.011695287980149927 -0.003482216160827094 0 0.011170486600750547 -0.0029704534366982644 0 0.01150211385302477 -0.0024516335058573555 0 0.011975907259401886 -0.0029899014347004932 0 0.011170486600750547 -0.0029704534366982644 0 0.01150211385302477 -0.0024516335058573555 0 0.01069771523922239 -0.0023619853287390963 0 0.011170486600750547 -0.0029704534366982644 0 0.014163535964310943 -0.0024980539989644672 0 0.012370484206229189 -0.0034475236731493215 0 0.014333454749434118 -0.0024718163534324274 0 0.012355005303319191 -0.0034761892934254005 0 0.013909925750771749 -0.0033177841326045227 0 0.013657389142843854 -0.002369217971298858 0 0.012355005303319191 -0.0034761892934254005 0 0.011975907259401886 -0.0029899014347004932 0 0.01367223780583693 -0.0020412186271862912 0 0.011866015357243666 -0.0029710733908848183 0 0.012355005303319191 -0.0034761892934254005 0 0.013909925750771749 -0.0033177841326045227 0 0.01250897509928427 -0.0051351226905000094 0 0.014113920755527127 -0.0032148440512033893 0 0.012999436422259161 -0.0046577669165996623 0 0.013909925750771749 -0.0033177841326045227 0 0.014420433353140217 -0.0037098335740336709 0 0.014530034906626292 -0.0038442530523247267 0 0.013909925750771749 -0.0033177841326045227 0 0.014420433353140217 -0.0037098335740336709 0 0.014648613835908066 -0.0031920582793728046 0 0.014843193874490429 -0.003848988422018459 0 0.014420433353140217 -0.0037098335740336709 0 0.014648613835908066 -0.0031920582793728046 0 0.014333454749434118 -0.0024718163534324274 0 0.013909925750771749 -0.0033177841326045227 0 0.014648613835908066 -0.0031920582793728046 0 0.014877658083713295 -0.0026157924324390781 0 0.014333454749434118 -0.0024718163534324274 0 0.014648613835908066 -0.0031920582793728046 0 0.014427626322872143 -0.0039768093275859076 0 0.014263953083280989 -0.0038898014665859101 0 0.014634426094279878 -0.0040102919967567813 0 0.016367058273091484 -0.0020572264427326393 0 0.014986654803602483 -0.0030516817109069749 0 0.014263953083280989 -0.0038898014665859101 0 0.014634426094279878 -0.0040102919967567813 0 0.015142238524301485 -0.0039712776101663849 0 0.014634426094279878 -0.0040102919967567813 0 0.014585707483922588 -0.0039638806652639936 0 0.014759884455235262 -0.003968791283439823 0 0.014427626322872143 -0.0039768093275859076 0 0.014634426094279878 -0.0040102919967567813 0 0.014585707483922588 -0.0039638806652639936 0 0.014843193874490429 -0.003848988422018459 0 0.014420433353140217 -0.0037098335740336709 0 0.014585707483922588 -0.0039638806652639936 0 0.014843193874490429 -0.003848988422018459 0 0.014427626322872143 -0.0039768093275859076 0 0.014585707483922588 -0.0039638806652639936 0 0.014585707483922588 -0.0039638806652639936 0 0.014530034906626292 -0.0038442530523247267 0 0.014759884455235262 -0.003968791283439823 0 0.014420433353140217 -0.0037098335740336709 0 0.014585707483922588 -0.0039638806652639936 0 0.014530034906626292 -0.0038442530523247267 0 0.014530034906626292 -0.0038442530523247267 0 0.014693654199284546 -0.0039799555663226228 0 0.014759884455235262 -0.003968791283439823 0 0.014693654199284546 -0.0039799555663226228 0 0.015142238524301485 -0.0039712776101663849 0 0.014475171988670861 -0.0041275300740864088 0 0.015696518372127641 -0.0038490763653797346 0 0.016306544571200322 -0.0050166328036808641 0 0.015142238524301485 -0.0039712776101663849 0 0.02007057507802526 -0.004336635101743991 0 0.01806076901380101 -0.0029746839222251041 0 0.014693654199284546 -0.0039799555663226228 0 0.014759884455235262 -0.003968791283439823 0 0.015142238524301485 -0.0039712776101663849 0 0.014634426094279878 -0.0040102919967567813 0 0.014759884455235262 -0.003968791283439823 0 0.015142238524301485 -0.0039712776101663849 0 0.01250897509928427 -0.0051351226905000094 0 0.011559528958288901 -0.0066319612471365053 0 0.011509890550082018 -0.0058660152970288343 0 0.014530034906626292 -0.0038442530523247267 0 0.014693654199284546 -0.0039799555663226228 0 0.014475171988670861 -0.0041275300740864088 0 0.012999436422259161 -0.0046577669165996623 0 0.016306544571200322 -0.0050166328036808641 0 0.011559528958288901 -0.0066319612471365053 0 0.011509890550082018 -0.0058660152970288343 0 0.011143915301933486 -0.0065385931451861145 0 0.01250897509928427 -0.0051351226905000094 0 0.011509890550082018 -0.0058660152970288343 0 0.011548018757257614 -0.0052472909530670801 0 0.011790672368130991 -0.0043171747280911082 0 0.01250897509928427 -0.0051351226905000094 0 0.011548018757257614 -0.0052472909530670801 0 0.011085473926252249 -0.0046798379245652803 0 0.011790672368130991 -0.0043171747280911082 0 0.011548018757257614 -0.0052472909530670801 0 0.011509890550082018 -0.0058660152970288343 0 0.011548018757257614 -0.0052472909530670801 0 0.010872813573033494 -0.0057314087306310846 0 0.010872813573033494 -0.0057314087306310846 0 0.01017070606357345 -0.0047932739646305419 0 0.010132235765545268 -0.006212908010493917 0 0.011085473926252249 -0.0046798379245652803 0 0.011548018757257614 -0.0052472909530670801 0 0.010872813573033494 -0.0057314087306310846 0 0.011085473926252249 -0.0046798379245652803 0 0.010872813573033494 -0.0057314087306310846 0 0.01017070606357345 -0.0047932739646305419 0 0.019993045777276282 -0.0046983321857717022 0 0.02303858208993197 -0.0037418115857970704 0 0.024578874368918962 -0.0045879402269207612 0 0.011559528958288901 -0.0066319612471365053 0 0.011143915301933486 -0.0065385931451861145 0 0.010432043448408845 -0.0066301426885151029 0 0.016306544571200322 -0.0050166328036808641 0 0.017604960126231993 -0.0036533784978814332 0 0.010872813573033494 -0.0057314087306310846 0 0.011143915301933486 -0.0065385931451861145 0 0.010132235765545268 -0.006212908010493917 0 0.011509890550082018 -0.0058660152970288343 0 0.010872813573033494 -0.0057314087306310846 0 0.011143915301933486 -0.0065385931451861145 0 0.010631687906952758 -0.0061904690986155147 0 0.012317318958955121 -0.0056275255700292933 0 0.011143915301933486 -0.0065385931451861145 0 0.010474862191694164 -0.0062451144428763298 0 0.010432043448408845 -0.0066301426885151029 0 0.016306544571200322 -0.0050166328036808641 0 0.02289173221863389 -0.00050017802210797647 0 0.019993045777276282 -0.0046983321857717022 0 0.022433087825801439 -0.0030222738818740115 0 0.022257817565255404 -0.00080953040146103503 0 0.02303858208993197 -0.0037418115857970704 0 0.022433087825801439 -0.0030222738818740115 0 0.023545954360973644 -0.0020446966922691308 0 0.02303858208993197 -0.0037418115857970704 0 0.023545954360973644 -0.0020446966922691308 0 0.024578874368918962 -0.0045879402269207612 0 0.019993045777276282 -0.0046983321857717022 0 0.02303858208993197 -0.0037418115857970704 0 0.022433087825801439 -0.0030222738818740115 0 0.023545954360973644 -0.0020446966922691308 0 0.023639205997371848 -0.00060389432014602341 0 0.022257817565255404 -0.00080953040146103503 0 0.022433087825801439 -0.0030222738818740115 0 0.023545954360973644 -0.0020446966922691308 0 0.022257817565255404 -0.00080953040146103503 0 0.020073048501759207 0.0023168040829687373 0 0.023339967403738698 0.00034636858925108841 0 0.025039331220006032 0.00077725098638605817 0 0.023545954360973644 -0.0020446966922691308 0 0.023639205997371848 -0.00060389432014602341 0 0.024987702954364695 0.00059980062757431841 0 0.020073048501759207 0.0023168040829687373 0 0.023339967403738698 0.00034636858925108841 0 0.022257817565255404 -0.00080953040146103503 0 0.023639205997371848 -0.00060389432014602341 0 0.023339967403738698 0.00034636858925108841 0 0.024987702954364695 0.00059980062757431841 0 0.023639205997371848 -0.00060389432014602341 0 0.023339967403738698 0.00034636858925108841 0 0.022257817565255404 -0.00080953040146103503 0 0.022257817565255404 -0.00080953040146103503 0 0.019301874711406986 1.11557364738935e-05 0 0.019494291825159018 -0.001860584116250512 0 0.020073048501759207 0.0023168040829687373 0 0.022257817565255404 -0.00080953040146103503 0 0.019301874711406986 1.11557364738935e-05 0 0.020073048501759207 0.0023168040829687373 0 0.019301874711406986 1.11557364738935e-05 0 0.017369521434057438 0.0010126003624737919 0 0.019301874711406986 1.11557364738935e-05 0 0.019494291825159018 -0.001860584116250512 0 0.017549211696574581 -0.0012341964096632566 0 0.02007057507802526 -0.004336635101743991 0 0.022257817565255404 -0.00080953040146103503 0 0.019494291825159018 -0.001860584116250512 0 0.019494291825159018 -0.001860584116250512 0 0.01806076901380101 -0.0029746839222251041 0 0.017549211696574581 -0.0012341964096632566 0 0.02007057507802526 -0.004336635101743991 0 0.019494291825159018 -0.001860584116250512 0 0.01806076901380101 -0.0029746839222251041 0 0.016368370924892784 -0.0026045478106377115 0 0.017549211696574581 -0.0012341964096632566 0 0.014238068749753533 -0.0010847400408868916 0 0.015142238524301485 -0.0039712776101663849 0 0.016368370924892784 -0.0026045478106377115 0 0.014238068749753533 -0.0010847400408868916 0 0.015142238524301485 -0.0039712776101663849 0 0.01806076901380101 -0.0029746839222251041 0 0.016368370924892784 -0.0026045478106377115 0 0.01806076901380101 -0.0029746839222251041 0 0.016368370924892784 -0.0026045478106377115 0 0.017549211696574581 -0.0012341964096632566 0 0.015492268077858255 0.0031218773459466883 0 0.017369521434057438 0.0010126003624737919 0 0.014238068749753533 -0.0010847400408868916 0 0.017549211696574581 -0.0012341964096632566 0 0.017369521434057438 0.0010126003624737919 0 0.014238068749753533 -0.0010847400408868916 0 0.019301874711406986 1.11557364738935e-05 0 0.017549211696574581 -0.0012341964096632566 0 0.017369521434057438 0.0010126003624737919 0 0.021343217016971408 0.00096755575613729247 0 0.016654532316310044 -0.00036144323612152752 0 0.014263953083280989 -0.0038898014665859101 0 0.015142238524301485 -0.0039712776101663849 0 0.014238068749753533 -0.0010847400408868916 0 0.016367058273091484 -0.0020572264427326393 0 0.016654532316310044 -0.00036144323612152752 0 0.013783160402696074 -0.0042630119557871948 0 0.014263953083280989 -0.0038898014665859101 0 0.014238068749753533 -0.0010847400408868916 0 0.018203127119819744 -0.0037958749902589797 0 0.018166182633399031 -0.0036166427109753244 0 0.018312490719078034 -0.0037080482669702344 0 0.018203127119819744 -0.0037958749902589797 0 0.018166182633399031 -0.0036166427109753244 0 0.017884297921179342 -0.0039205166532764405 0 0.018203127119819744 -0.0037958749902589797 0 0.018312490719078034 -0.0037080482669702344 0 0.018335111352313808 -0.0038617676700290872 0 0.018312490719078034 -0.0037080482669702344 0 0.018335111352313808 -0.0038617676700290872 0 0.018456982568929935 -0.0037718719118185833 0 0.013569580617267298 -0.0040259402754498057 0 0.011724663951139191 -0.0036889789669241834 0 0.018335111352313808 -0.0038617676700290872 0 0.018190113077719866 -0.0039605668391843613 0 0.018355247938089729 -0.004024646063281582 0 0.018203127119819744 -0.0037958749902589797 0 0.018335111352313808 -0.0038617676700290872 0 0.018190113077719866 -0.0039605668391843613 0 0.008840182974896877 -0.0037084230345541614 0 0.0084336296916751059 -0.0039484016284903117 0 0.0092003548670263405 -0.0043989543480048281 0 0.018203127119819744 -0.0037958749902589797 0 0.018190113077719866 -0.0039605668391843613 0 0.017884297921179342 -0.0039205166532764405 0 0.013569580617267298 -0.0040259402754498057 0 0.013685392738138305 -0.0040640957339962026 0 0.0094939670192435762 -0.0037456725524245061 0 0.008840182974896877 -0.0037084230345541614 0 0.0092003548670263405 -0.0043989543480048281 0 0.0092003548670263405 -0.0043989543480048281 0 0.0096877005702186193 -0.0042361427427161395 0 0.010024638993254427 -0.0047578647067943874 0 0.010014372967638602 -0.0043529560760221381 0 0.012317318958955121 -0.0056275255700292933 0 0.010086272385754316 -0.0039614957989310938 0 0.0096877005702186193 -0.0042361427427161395 0 0.010024638993254427 -0.0047578647067943874 0 0.0094939670192435762 -0.0037456725524245061 0 0.0092003548670263405 -0.0043989543480048281 0 0.0096877005702186193 -0.0042361427427161395 0 0.0094939670192435762 -0.0037456725524245061 0 0.010086272385754316 -0.0039614957989310938 0 0.0096877005702186193 -0.0042361427427161395 0 0.013685392738138305 -0.0040640957339962026 0 0.012317318958955121 -0.0056275255700292933 0 0.017884297921179342 -0.0039205166532764405 0 0.017352068167050209 -0.0037748127433919311 0 0.017584787574368536 -0.0036887357867478776 0 0.017584787574368536 -0.0036887357867478776 0 0.017378427310577073 -0.0035674791009510719 0 0.017782769536477831 -0.0035732563796016205 0 0.017604960126231993 -0.0036533784978814332 0 0.018028308694964988 -0.003580196604462094 0 0.012317318958955121 -0.0056275255700292933 0 0.017604960126231993 -0.0036533784978814332 0 0.017352068167050209 -0.0037748127433919311 0 0.017584787574368536 -0.0036887357867478776 0 0.017378427310577073 -0.0035674791009510719 0 0.018133466545913534 -0.0035993258217424631 0 0.018028308694964988 -0.003580196604462094 0 0.018166182633399031 -0.0036166427109753244 0 0.017884297921179342 -0.0039205166532764405 0 0.017782769536477831 -0.0035732563796016205 0 0.017884297921179342 -0.0039205166532764405 0 0.017584787574368536 -0.0036887357867478776 0 0.017782769536477831 -0.0035732563796016205 0 0.018166182633399031 -0.0036166427109753244 0 0.018214203253784356 -0.0035707346122453979 0 0.018231944555993404 -0.0035440013798400233 0 0.018214203253784356 -0.0035707346122453979 0 0.018222960858200757 -0.0035449365877866313 0 0.018231944555993404 -0.0035440013798400233 0 0.023545954360973644 -0.0020446966922691308 0 0.024578874368918962 -0.0045879402269207612 0 0.024987702954364695 0.00059980062757431841 0 0.018205503883083549 -0.003564903013905862 0 0.018222960858200757 -0.0035449365877866313 0 0.018227951403703643 -0.0035137012868398914 0 0.017604960126231993 -0.0036533784978814332 0 0.021958668869399935 -0.001540973880256688 0 0.018205503883083549 -0.003564903013905862 0 0.018214203253784356 -0.0035707346122453979 0 0.018222960858200757 -0.0035449365877866313 0 0.018222960858200757 -0.0035449365877866313 0 0.018231905697312239 -0.0035294770810014673 0 0.018227951403703643 -0.0035137012868398914 0 0.018222960858200757 -0.0035449365877866313 0 0.018231905697312239 -0.0035294770810014673 0 0.018231944555993404 -0.0035440013798400233 0 0.018231905697312239 -0.0035294770810014673 0 0.018243086010683883 -0.0035108223427013498 0 0.018227951403703643 -0.0035137012868398914 0 0.018251027437429877 -0.0034900762779054143 0 0.018243086010683883 -0.0035108223427013498 0 0.018227951403703643 -0.0035137012868398914 0 0.018264466138055213 -0.0034880325706105036 0 0.018251027437429877 -0.0034900762779054143 0 0.018243086010683883 -0.0035108223427013498 0 0.023339967403738698 0.00034636858925108841 0 0.025039331220006032 0.00077725098638605817 0 0.024987702954364695 0.00059980062757431841 0 0.018305114972596712 -0.003476657182649061 0 0.018264466138055213 -0.0034880325706105036 0 0.018231944555993404 -0.0035440013798400233 0 0.018264466138055213 -0.0034880325706105036 0 0.018243086010683883 -0.0035108223427013498 0 0.018231944555993404 -0.0035440013798400233 0 0.018231905697312239 -0.0035294770810014673 0 0.018243086010683883 -0.0035108223427013498 0 0.018231944555993404 -0.0035440013798400233 0 0.018305114972596712 -0.003476657182649061 0 0.018231944555993404 -0.0035440013798400233 0 0.018296008860191244 -0.0035624442693811152 0 0.018166182633399031 -0.0036166427109753244 0 0.018231944555993404 -0.0035440013798400233 0 0.018296008860191244 -0.0035624442693811152 0 0.018166182633399031 -0.0036166427109753244 0 0.018312490719078034 -0.0037080482669702344 0 0.018296008860191244 -0.0035624442693811152 0 0.018312490719078034 -0.0037080482669702344 0 0.018296008860191244 -0.0035624442693811152 0 0.018445103762899966 -0.0036198184262008805 0 0.018296008860191244 -0.0035624442693811152 0 0.018442374762059788 -0.0034893770355576563 0 0.018445103762899966 -0.0036198184262008805 0 0.018305114972596712 -0.003476657182649061 0 0.018296008860191244 -0.0035624442693811152 0 0.018442374762059788 -0.0034893770355576563 0 0.024070359328076704 -0.0030849977918604708 0 0.023509255669343469 -0.0026142075938189353 0 0.018442374762059788 -0.0034893770355576563 0 0.018676838504109759 -0.0034955953729959906 0 0.018445103762899966 -0.0036198184262008805 0 0.030105318535142048 -0.0019810272857768022 0 0.029155005675070126 -0.0024737464864866888 0 0.030447005973541743 -0.0029036990372026806 0 0.030105318535142048 -0.0019810272857768022 0 0.030538763959368775 -0.002322387438083791 0 0.030447005973541743 -0.0029036990372026806 0 0.018676838504109759 -0.0034955953729959906 0 0.018575440294419928 -0.0036951737703812397 0 0.018445103762899966 -0.0036198184262008805 0 0.018676838504109759 -0.0034955953729959906 0 0.018575440294419928 -0.0036951737703812397 0 0.01877989263961943 -0.0037859607687467088 0 0.018312490719078034 -0.0037080482669702344 0 0.018445103762899966 -0.0036198184262008805 0 0.018456982568929935 -0.0037718719118185833 0 0.018575440294419928 -0.0036951737703812397 0 0.018445103762899966 -0.0036198184262008805 0 0.018456982568929935 -0.0037718719118185833 0 0.018335111352313808 -0.0038617676700290872 0 0.018456982568929935 -0.0037718719118185833 0 0.018470418663181491 -0.0038995413855776504 0 0.018456982568929935 -0.0037718719118185833 0 0.018550242387919514 -0.0038206633058194138 0 0.018470418663181491 -0.0038995413855776504 0 0.018575440294419928 -0.0036951737703812397 0 0.018456982568929935 -0.0037718719118185833 0 0.018550242387919514 -0.0038206633058194138 0 0.018575440294419928 -0.0036951737703812397 0 0.018655065827505674 -0.0038187033155505879 0 0.018550242387919514 -0.0038206633058194138 0 0.018575440294419928 -0.0036951737703812397 0 0.018655065827505674 -0.0038187033155505879 0 0.01877989263961943 -0.0037859607687467088 0 0.018655065827505674 -0.0038187033155505879 0 0.018591914239822021 -0.0038985625365534318 0 0.018709030131418624 -0.0038700129736285427 0 0.018550242387919514 -0.0038206633058194138 0 0.018591914239822021 -0.0038985625365534318 0 0.018470418663181491 -0.0038995413855776504 0 0.018655065827505674 -0.0038187033155505879 0 0.018550242387919514 -0.0038206633058194138 0 0.018591914239822021 -0.0038985625365534318 0 0.015878906755308592 -0.0044675434859847724 0 0.014026856858656928 -0.0037859140541201229 0 0.018591914239822021 -0.0038985625365534318 0 0.018470418663181491 -0.0038995413855776504 0 0.018536690221258 -0.0040140014341038715 0 0.018591914239822021 -0.0038985625365534318 0 0.018696175249528314 -0.0039983528168191949 0 0.018536690221258 -0.0040140014341038715 0 0.018335111352313808 -0.0038617676700290872 0 0.018470418663181491 -0.0038995413855776504 0 0.018355247938089729 -0.004024646063281582 0 0.018470418663181491 -0.0038995413855776504 0 0.018355247938089729 -0.004024646063281582 0 0.018536690221258 -0.0040140014341038715 0 0.01963006838462104 -0.0053192445965944855 0 0.015878906755308592 -0.0044675434859847724 0 0.019724563714854326 -0.0053183063901656507 0 0.01932938590321772 -0.0047959591298951561 0 0.019972460063078075 -0.0045256728635636231 0 0.019724563714854326 -0.0053183063901656507 0 0.01932938590321772 -0.0047959591298951561 0 0.018841737229905432 -0.005394821469161008 0 0.018591914239822021 -0.0038985625365534318 0 0.018696175249528314 -0.0039983528168191949 0 0.018709030131418624 -0.0038700129736285427 0 0.01932938590321772 -0.0047959591298951561 0 0.018841737229905432 -0.005394821469161008 0 0.018769237244580281 -0.0045886360130619743 0 0.015878906755308592 -0.0044675434859847724 0 0.01869992172706934 -0.0043270874338968311 0 0.01932938590321772 -0.0047959591298951561 0 0.018769237244580281 -0.0045886360130619743 0 0.0192496374996644 -0.0042047666943222668 0 0.01869992172706934 -0.0043270874338968311 0 0.018746523176877996 -0.0038189335578568029 0 0.018769237244580281 -0.0045886360130619743 0 0.0192496374996644 -0.0042047666943222668 0 0.01877989263961943 -0.0037859607687467088 0 0.018655065827505674 -0.0038187033155505879 0 0.018709030131418624 -0.0038700129736285427 0 0.01877989263961943 -0.0037859607687467088 0 0.0192496374996644 -0.0042047666943222668 0 0.019972460063078075 -0.0045256728635636231 0 0.019486757937584025 -0.003587679050968056 0 0.01932938590321772 -0.0047959591298951561 0 0.0192496374996644 -0.0042047666943222668 0 0.019972460063078075 -0.0045256728635636231 0 0.020524909042214656 -0.0035756926266612352 0 0.020615356908100485 -0.0033348288846877967 0 0.02077702658829406 -0.0035380107290831149 0 0.0192496374996644 -0.0042047666943222668 0 0.019486757937584025 -0.003587679050968056 0 0.01877989263961943 -0.0037859607687467088 0 0.023509255669343469 -0.0026142075938189353 0 0.01920489041068545 -0.0035593452434813429 0 0.020248194139769238 -0.0033971638084117173 0 0.020524909042214656 -0.0035756926266612352 0 0.020451336324037558 -0.0033624132953965699 0 0.018676838504109759 -0.0034955953729959906 0 0.019486757937584025 -0.003587679050968056 0 0.01877989263961943 -0.0037859607687467088 0 0.025927692511415315 -0.0026240151257431962 0 0.023509255669343469 -0.0026142075938189353 0 0.031067739408929325 -0.0020849207818906998 0 0.030538763959368775 -0.002322387438083791 0 0.030447005973541743 -0.0029036990372026806 0 0.020423130501968329 -0.0031319874280300157 0 0.020248194139769238 -0.0033971638084117173 0 0.020451336324037558 -0.0033624132953965699 0 0.020524909042214656 -0.0035756926266612352 0 0.020451336324037558 -0.0033624132953965699 0 0.020615356908100485 -0.0033348288846877967 0 0.020423130501968329 -0.0031319874280300157 0 0.020451336324037558 -0.0033624132953965699 0 0.020615356908100485 -0.0033348288846877967 0 0.020641991977820007 -0.0031223032557858364 0 0.020423130501968329 -0.0031319874280300157 0 0.020615356908100485 -0.0033348288846877967 0 0.020641991977820007 -0.0031223032557858364 0 0.020615356908100485 -0.0033348288846877967 0 0.020884476060536256 -0.0031820575471360616 0 0.020615356908100485 -0.0033348288846877967 0 0.020884476060536256 -0.0031820575471360616 0 0.02077702658829406 -0.0035380107290831149 0 0.021836971127233779 -0.003479936998857108 0 0.023169942519691001 -0.004029416321409714 0 0.022835750033725236 -0.0045571050838053235 0 0.020512218625241878 -0.0031955454726153147 0 0.022284726742447289 -0.0042149908262294131 0 0.023301229142774313 -0.0027138312293474034 0 0.021836971127233779 -0.003479936998857108 0 0.023169942519691001 -0.004029416321409714 0 0.020884476060536256 -0.0031820575471360616 0 0.021444665924858337 -0.0036641311063455181 0 0.02077702658829406 -0.0035380107290831149 0 0.01920489041068545 -0.0035593452434813429 0 0.021175525705474242 -0.0040213637589590042 0 0.021444665924858337 -0.0036641311063455181 0 0.02077702658829406 -0.0035380107290831149 0 0.020879307032291253 -0.0039862546707152714 0 0.020524909042214656 -0.0035756926266612352 0 0.02077702658829406 -0.0035380107290831149 0 0.020879307032291253 -0.0039862546707152714 0 0.025083121229642621 -0.0029959365067467594 0 0.026963102887895374 -0.0042100639030485517 0 0.02509365962730364 -0.0048370826923878688 0 0.025083121229642621 -0.0029959365067467594 0 0.024336677382905816 -0.003767078939242551 0 0.02509365962730364 -0.0048370826923878688 0 0.023301229142774313 -0.0027138312293474034 0 0.023169942519691001 -0.004029416321409714 0 0.024336677382905816 -0.003767078939242551 0 0.023169942519691001 -0.004029416321409714 0 0.024336677382905816 -0.003767078939242551 0 0.02509365962730364 -0.0048370826923878688 0 0.023169942519691001 -0.004029416321409714 0 0.02509365962730364 -0.0048370826923878688 0 0.024259193481913067 -0.0068530589375970907 0 0.022710077620975048 -0.0037105006090091394 0 0.024851270003451192 -0.0065548172302929671 0 0.023169942519691001 -0.004029416321409714 0 0.022835750033725236 -0.0045571050838053235 0 0.02276698045402531 -0.0047423904865916992 0 0.026963102887895374 -0.0042100639030485517 0 0.026504439562789729 -0.0065792145514676943 0 0.02509365962730364 -0.0048370826923878688 0 0.026504439562789729 -0.0065792145514676943 0 0.02509365962730364 -0.0048370826923878688 0 0.024259193481913067 -0.0068530589375970907 0 0.026504439562789729 -0.0065792145514676943 0 0.025772985587566744 -0.0078381398977054508 0 0.024259193481913067 -0.0068530589375970907 0 0.025772985587566744 -0.0078381398977054508 0 0.024259193481913067 -0.0068530589375970907 0 0.025303406185090992 -0.0094314797969737973 0 0.022284726742447289 -0.0042149908262294131 0 0.022599230991702308 -0.0049696496878647682 0 0.021444665924858337 -0.0036641311063455181 0 0.022640174976124916 -0.0050460242010009594 0 0.021612931439811772 -0.0046102127807945885 0 0.022835750033725236 -0.0045571050838053235 0 0.02276698045402531 -0.0047423904865916992 0 0.022640174976124916 -0.0050460242010009594 0 0.022640174976124916 -0.0050460242010009594 0 0.022805044423993188 -0.0054278040097811659 0 0.021773193225815342 -0.005254310743543115 0 0.024851270003451192 -0.0065548172302929671 0 0.015488263024042995 -0.0052888105469239902 0 0.022640174976124916 -0.0050460242010009594 0 0.021612931439811772 -0.0046102127807945885 0 0.021773193225815342 -0.005254310743543115 0 0.02276698045402531 -0.0047423904865916992 0 0.022640174976124916 -0.0050460242010009594 0 0.022805044423993188 -0.0054278040097811659 0 0.022805044423993188 -0.0054278040097811659 0 0.021773193225815342 -0.005254310743543115 0 0.021625686332963568 -0.0061888764441944263 0 0.019972460063078075 -0.0045256728635636231 0 0.020879307032291253 -0.0039862546707152714 0 0.020892095862481173 -0.0046868912158735433 0 0.019972460063078075 -0.0045256728635636231 0 0.019486757937584025 -0.003587679050968056 0 0.020879307032291253 -0.0039862546707152714 0 0.021444665924858337 -0.0036641311063455181 0 0.020879307032291253 -0.0039862546707152714 0 0.021612931439811772 -0.0046102127807945885 0 0.020879307032291253 -0.0039862546707152714 0 0.021612931439811772 -0.0046102127807945885 0 0.020892095862481173 -0.0046868912158735433 0 0.021773193225815342 -0.005254310743543115 0 0.020542088618389534 -0.0053013362751469914 0 0.021625686332963568 -0.0061888764441944263 0 0.020892095862481173 -0.0046868912158735433 0 0.021773193225815342 -0.005254310743543115 0 0.020542088618389534 -0.0053013362751469914 0 0.021612931439811772 -0.0046102127807945885 0 0.020892095862481173 -0.0046868912158735433 0 0.021773193225815342 -0.005254310743543115 0 0.01963006838462104 -0.0053192445965944855 0 0.020271351951670374 -0.0052957843134853822 0 0.019724563714854326 -0.0053183063901656507 0 0.019972460063078075 -0.0045256728635636231 0 0.020542088618389534 -0.0053013362751469914 0 0.019972460063078075 -0.0045256728635636231 0 0.020892095862481173 -0.0046868912158735433 0 0.020542088618389534 -0.0053013362751469914 0 0.018787465269807357 -0.0053531587444245856 0 0.020542088618389534 -0.0053013362751469914 0 0.019686355518650351 -0.0071114113720456354 0 0.020542088618389534 -0.0053013362751469914 0 0.021625686332963568 -0.0061888764441944263 0 0.019686355518650351 -0.0071114113720456354 0 0.00213538711264824 -0.003338243123944947 0 0.0025045274395247711 -0.0025147028225651004 0 0.003514782494665602 -0.0029837552792564529 0 0.011128755828416615 -0.0047859414084557789 0 0.012041994764777825 -0.0050608008217319393 0 0.0025045274395247711 -0.0025147028225651004 0 0.0016284005617401016 -0.0025304862330205588 0 0.0022066201604263214 -0.0017618210580121285 0 0.00213538711264824 -0.003338243123944947 0 0.0025045274395247711 -0.0025147028225651004 0 0.0016284005617401016 -0.0025304862330205588 0 0.003514782494665602 -0.0029837552792564529 0 0.0031148606723527066 -0.0018499599354889762 0 0.0041520490810404032 -0.0017514632633582816 0 0.0025045274395247711 -0.0025147028225651004 0 0.003514782494665602 -0.0029837552792564529 0 0.0031148606723527066 -0.0018499599354889762 0 0.0013054461114851523 -0.003534701897950041 0 0.0014347851266297753 -0.0030515885533685012 0 0.0010231031673589089 -0.0029143536581892949 0 0.015488263024042995 -0.0052888105469239902 0 0.0040071058587245008 -0.0034004764992572284 0 0.012649687984015471 -0.0038859126261009008 0 0.011586665322291995 -0.0035349920249262267 0 0.012074333277630642 -0.0047868281874749365 0 0.0013054461114851523 -0.003534701897950041 0 0.00213538711264824 -0.003338243123944947 0 0.0014347851266297753 -0.0030515885533685012 0 0.00213538711264824 -0.003338243123944947 0 0.0014347851266297753 -0.0030515885533685012 0 0.0016284005617401016 -0.0025304862330205588 0 0.015488263024042995 -0.0052888105469239902 0 0.011128755828416615 -0.0047859414084557789 0 0.0001884338434115613 -0.0025980942233663749 0 0.0040071058587245008 -0.0034004764992572284 0 0.0014347851266297753 -0.0030515885533685012 0 0.0016284005617401016 -0.0025304862330205588 0 0.0010231031673589089 -0.0029143536581892949 0 0.0016284005617401016 -0.0025304862330205588 0 -0.0001230475695691394 -0.0027914650053580841 0 0.00087202768208524705 -0.0020156451951776019 0 -0.00038401678853863992 -0.0021864089633618529 0 4.813389103367891e-05 -0.0021914232525588623 0 -0.00016100499027542085 -0.0026910811647311056 0 4.813389103367891e-05 -0.0021914232525588623 0 -0.0001230475695691394 -0.0027914650053580841 0 0.00087202768208524705 -0.0020156451951776019 0 -0.00026932221339686659 -0.0018507264696475459 0 -0.00038401678853863992 -0.0021864089633618529 0 4.813389103367891e-05 -0.0021914232525588623 0 4.813389103367891e-05 -0.0021914232525588623 0 -0.0001230475695691394 -0.0027914650053580841 0 -0.00016100499027542085 -0.0026910811647311056 0 0.0040071058587245008 -0.0034004764992572284 0 0.0038412406158106591 -0.0032385196021439775 0 0.00018170779023485905 -0.0015712329349189546 0 0.00087202768208524705 -0.0020156451951776019 0 0.00086733104906546084 -0.0010418789763787161 0 -0.00043710180827904809 -0.0014110721675558398 0 0.00018170779023485905 -0.0015712329349189546 0 -2.0235872088452287e-05 -0.00092748865649269448 0 -0.00026932221339686659 -0.0018507264696475459 0 4.813389103367891e-05 -0.0021914232525588623 0 0.00018170779023485905 -0.0015712329349189546 0 -0.00043710180827904809 -0.0014110721675558398 0 -0.00026932221339686659 -0.0018507264696475459 0 0.00018170779023485905 -0.0015712329349189546 0 4.813389103367891e-05 -0.0021914232525588623 0 0.00018170779023485905 -0.0015712329349189546 0 0.00087202768208524705 -0.0020156451951776019 0 0.00018170779023485905 -0.0015712329349189546 0 0.00086733104906546084 -0.0010418789763787161 0 -2.0235872088452287e-05 -0.00092748865649269448 0 0.0016284005617401016 -0.0025304862330205588 0 0.0014278559149845426 -0.0015289945185448584 0 0.0022066201604263214 -0.0017618210580121285 0 0.00087202768208524705 -0.0020156451951776019 0 0.0014278559149845426 -0.0015289945185448584 0 0.00086733104906546084 -0.0010418789763787161 0 0.0016284005617401016 -0.0025304862330205588 0 0.00087202768208524705 -0.0020156451951776019 0 0.0014278559149845426 -0.0015289945185448584 0 0.0014278559149845426 -0.0015289945185448584 0 0.00086733104906546084 -0.0010418789763787161 0 0.0018396730668489535 -0.00090919887718270468 0 0.0015371001296188205 -0.0001131532145125201 0 0.00086733104906546084 -0.0010418789763787161 0 0.00024864975023182679 -0.0002611729595777024 0 0.0015371001296188205 -0.0001131532145125201 0 0.00086733104906546084 -0.0010418789763787161 0 0.0018396730668489535 -0.00090919887718270468 0 -0.00092224096542250621 -0.00035288303149769932 0 0.00024864975023182679 -0.0002611729595777024 0 -2.0235872088452287e-05 -0.00092748865649269448 0 0.00086733104906546084 -0.0010418789763787161 0 0.00024864975023182679 -0.0002611729595777024 0 -2.0235872088452287e-05 -0.00092748865649269448 0 0.0031148606723527066 -0.0018499599354889762 0 0.002697756575458312 -0.00085802453534822656 0 0.0036805078429306515 -0.000863886558420646 0 0.0031148606723527066 -0.0018499599354889762 0 0.0036805078429306515 -0.000863886558420646 0 0.0041520490810404032 -0.0017514632633582816 0 0.0031148606723527066 -0.0018499599354889762 0 0.0022066201604263214 -0.0017618210580121285 0 0.002697756575458312 -0.00085802453534822656 0 0.0025045274395247711 -0.0025147028225651004 0 0.0031148606723527066 -0.0018499599354889762 0 0.0022066201604263214 -0.0017618210580121285 0 0.0014278559149845426 -0.0015289945185448584 0 0.0022066201604263214 -0.0017618210580121285 0 0.0018396730668489535 -0.00090919887718270468 0 0.0022066201604263214 -0.0017618210580121285 0 0.002697756575458312 -0.00085802453534822656 0 0.0018396730668489535 -0.00090919887718270468 0 0.0022969366658595254 -0.0001391250741101118 0 0.0015371001296188205 -0.0001131532145125201 0 0.0018396730668489535 -0.00090919887718270468 0 0.0022969366658595254 -0.0001391250741101118 0 0.002697756575458312 -0.00085802453534822656 0 0.0018396730668489535 -0.00090919887718270468 0 0.0022969366658595254 -0.0001391250741101118 0 0.002697756575458312 -0.00085802453534822656 0 0.0030647565644519982 -0.0001702396954623768 0 0.0040556159966738852 0.00020018667675918153 0 0.0030647565644519982 -0.0001702396954623768 0 0.0036805078429306515 -0.000863886558420646 0 0.002697756575458312 -0.00085802453534822656 0 0.0030647565644519982 -0.0001702396954623768 0 0.0036805078429306515 -0.000863886558420646 0 0.0040556159966738852 0.00020018667675918153 0 0.0036805078429306515 -0.000863886558420646 0 0.0047441695209778619 -0.00080822771546531298 0 0.0036805078429306515 -0.000863886558420646 0 0.0041520490810404032 -0.0017514632633582816 0 0.0047441695209778619 -0.00080822771546531298 0 0.0041520490810404032 -0.0017514632633582816 0 0.0047441695209778619 -0.00080822771546531298 0 0.0050014627167513205 -0.0024714182869981774 0 0.0047441695209778619 -0.00080822771546531298 0 0.005489299384629262 -0.00085784143708994391 0 0.0049919938806727215 -0.0025217040312431258 0 0.005489299384629262 -0.00085784143708994391 0 0.0060569181482503075 -0.0013467574415512472 0 0.0049919938806727215 -0.0025217040312431258 0 0.0035650499279335458 2.2806049513850781e-05 0 0.0095127832629593855 -0.0043971484121540193 0 0.0029783285199919802 -0.00020785146124798176 0 0.0031605727097755911 -0.0012937858526218488 0 -0.00036823155329507247 -0.00078332186191269282 0 0.0031605727097755911 -0.0012937858526218488 0 0.0040556159966738852 0.00020018667675918153 0 0.0047441695209778619 -0.00080822771546531298 0 0.005489299384629262 -0.00085784143708994391 0 -0.0004601326766006314 -0.0019305652693435737 0 0.00013421184548331597 -0.0018861189530840078 0 0.00029225666357467596 -0.0024702539899587846 0 0.00010526512691042343 -0.0012614337778012776 0 -0.0004601326766006314 -0.0019305652693435737 0 0.00013421184548331597 -0.0018861189530840078 0 0.00010526512691042343 -0.0012614337778012776 0 0.00013421184548331597 -0.0018861189530840078 0 0.00063448020871803665 -0.0015769358086439368 0 0.0031605727097755911 -0.0012937858526218488 0 0.0058635618086547029 -0.0017899198264365195 0 0.00013421184548331597 -0.0018861189530840078 0 0.00063448020871803665 -0.0015769358086439368 0 0.00029225666357467596 -0.0024702539899587846 0 0.00081775269475686026 -0.0017141969286986966 0 0.0011671767338661898 -0.0031172881964218434 0 0.00046557595606849214 -0.0035336468840924925 0 0.00081775269475686026 -0.0017141969286986966 0 0.00046557595606849214 -0.0035336468840924925 0 -0.0002677473759292551 -0.0039395319596599795 0 0.00043437924102518032 -0.0018860185220954239 0 0.0030003078869099437 -0.0028360862449543348 0 0.0018928061096245216 -0.0017982507363547404 0 0.00081775269475686026 -0.0017141969286986966 0 0.0011671767338661898 -0.0031172881964218434 0 0.0052579721370354391 -0.0028474563451817815 0 0.0049024933990035394 -0.0032578809075637879 0 0.0031320588385282933 -0.0035373941751669718 0 0.0011671767338661898 -0.0031172881964218434 0 0.0002724476988529873 -0.0043455633779421951 0 0.0011671767338661898 -0.0031172881964218434 0 0.00046557595606849214 -0.0035336468840924925 0 0.0002724476988529873 -0.0043455633779421951 0 0.00046557595606849214 -0.0035336468840924925 0 0.0002724476988529873 -0.0043455633779421951 0 -0.0002677473759292551 -0.0039395319596599795 0 0.0049024933990035394 -0.0032578809075637879 0 0.0030003078869099437 -0.0028360862449543348 0 0.0075550821886883673 -0.0025295344730215737 0 0.0074128533143343065 -0.0028783192163047704 0 0.0068202134281169988 -0.0024540405863094326 0 0.008070075270204799 -0.0035198099804761105 0 0.0049024933990035394 -0.0032578809075637879 0 0.0031605727097755911 -0.0012937858526218488 0 0.0030003078869099437 -0.0028360862449543348 0 0.0054536439563767428 -0.00085361088709389615 0 0.0060569181482503075 -0.0013467574415512472 0 0.0065130191820686519 -0.0016083500574936153 0 0.0060569181482503075 -0.0013467574415512472 0 0.0063485565022597164 -0.0019963561608400838 0 0.0049919938806727215 -0.0025217040312431258 0 0.0060569181482503075 -0.0013467574415512472 0 0.0065130191820686519 -0.0016083500574936153 0 0.0063485565022597164 -0.0019963561608400838 0 0.0030003078869099437 -0.0028360862449543348 0 0.0063762727753420845 -0.0027793285824093787 0 0.0043242158059719317 -0.0031932594888446192 0 0.0047116227785088532 -0.0034747068946457036 0 0.0049288378875703611 -0.002964065742906646 0 0.0049024933990035394 -0.0032578809075637879 0 0.0063762727753420845 -0.0027793285824093787 0 0.0087680644611659968 -0.0037039313105763972 0 0.0088785311427431041 -0.0035572124578222104 0 0.0092087040912161664 -0.0036124764175481574 0 0.00869232842837191 -0.0038811798108246121 0 0.0087680644611659968 -0.0037039313105763972 0 0.0092087040912161664 -0.0036124764175481574 0 0.0063762727753420845 -0.0027793285824093787 0 0.0095127832629593855 -0.0043971484121540193 0 0.0063762727753420845 -0.0027793285824093787 0 0.0074338415733592568 -0.0032126451294288046 0 0.0086669895960193189 -0.0038686374014099676 0 0.0087680644611659968 -0.0037039313105763972 0 0.0085001304308617489 -0.0036505911956098988 0 0.0087680644611659968 -0.0037039313105763972 0 0.0086331950397797504 -0.0035383334997053121 0 0.0088785311427431041 -0.0035572124578222104 0 0.0087680644611659968 -0.0037039313105763972 0 0.0086331950397797504 -0.0035383334997053121 0 0.0085001304308617489 -0.0036505911956098988 0 0.0084797354625377984 -0.0039176664182416837 0 0.0086669895960193189 -0.0038686374014099676 0 0.0085001304308617489 -0.0036505911956098988 0 0.0082179387389448872 -0.0036550700294562311 0 0.0084797354625377984 -0.0039176664182416837 0 0.0085001304308617489 -0.0036505911956098988 0 0.0086331950397797504 -0.0035383334997053121 0 0.0085001304308617489 -0.0036505911956098988 0 0.0084571034274485007 -0.0034408918083532417 0 0.0085001304308617489 -0.0036505911956098988 0 0.0083224466061959552 -0.0034702826131940028 0 0.0084571034274485007 -0.0034408918083532417 0 0.0081796558792538686 -0.0034265268922887078 0 0.0082179387389448872 -0.0036550700294562311 0 0.0083224466061959552 -0.0034702826131940028 0 0.0082179387389448872 -0.0036550700294562311 0 0.0085001304308617489 -0.0036505911956098988 0 0.0083224466061959552 -0.0034702826131940028 0 0.0097823346065381653 -0.003607577602939665 0 0.0093695625767242687 -0.003461926918483895 0 0.0093285750956178699 -0.0036236984138189369 0 0.011724663951139191 -0.0036889789669241834 0 0.014026856858656928 -0.0037859140541201229 0 0.011724663951139191 -0.0036889789669241834 0 0.0085714590944306907 -0.0032592023032724528 0 0.0084571034274485007 -0.0034408918083532417 0 0.0082324012988027294 -0.0033699793133611122 0 0.0086083170736430178 -0.0033216858743037353 0 0.0083224466061959552 -0.0034702826131940028 0 0.0084571034274485007 -0.0034408918083532417 0 0.0082324012988027294 -0.0033699793133611122 0 0.0081796558792538686 -0.0034265268922887078 0 0.0083224466061959552 -0.0034702826131940028 0 0.0082324012988027294 -0.0033699793133611122 0 0.0086331950397797504 -0.0035383334997053121 0 0.0084571034274485007 -0.0034408918083532417 0 0.0086083170736430178 -0.0033216858743037353 0 0.0091681668366819513 -0.0035068180197008595 0 0.0093285750956178699 -0.0036236984138189369 0 0.0092168719413791133 -0.0035270910834466797 0 0.0093695625767242687 -0.003461926918483895 0 0.0092168719413791133 -0.0035270910834466797 0 0.0091142211586672742 -0.0035167664873512394 0 0.0085714590944306907 -0.0032592023032724528 0 0.0092573807827740009 -0.0035484363522350067 0 0.0088785311427431041 -0.0035572124578222104 0 0.0086083170736430178 -0.0033216858743037353 0 0.0091142211586672742 -0.0035167664873512394 0 0.0086331950397797504 -0.0035383334997053121 0 0.0088785311427431041 -0.0035572124578222104 0 0.0086083170736430178 -0.0033216858743037353 0 0.0093695625767242687 -0.003461926918483895 0 0.0093285750956178699 -0.0036236984138189369 0 0.0092168719413791133 -0.0035270910834466797 0 0.015878906755308592 -0.0044675434859847724 0 0.0095127832629593855 -0.0043971484121540193 0 0.0091681668366819513 -0.0035068180197008595 0 0.0091142211586672742 -0.0035167664873512394 0 0.0092087040912161664 -0.0036124764175481574 0 0.0091681668366819513 -0.0035068180197008595 0 0.0092168719413791133 -0.0035270910834466797 0 0.0091142211586672742 -0.0035167664873512394 0 0.017048138754670351 -0.0054872859191483396 0 0.018215072489102029 -0.0064843464440357155 0 0.017310098573425376 -0.0080001329420139548 0 0.018787465269807357 -0.0053531587444245856 0 0.017048138754670351 -0.0054872859191483396 0 0.018215072489102029 -0.0064843464440357155 0 0.018787465269807357 -0.0053531587444245856 0 0.019686355518650351 -0.0071114113720456354 0 0.018215072489102029 -0.0064843464440357155 0 0.012041994764777825 -0.0050608008217319393 0 0.0095127832629593855 -0.0043971484121540193 0 0.019686355518650351 -0.0071114113720456354 0 0.018215072489102029 -0.0064843464440357155 0 0.017310098573425376 -0.0080001329420139548 0 0.003514782494665602 -0.0029837552792564529 0 0.0041520490810404032 -0.0017514632633582816 0 0.0050014627167513205 -0.0024714182869981774 0 0.0088785311427431041 -0.0035572124578222104 0 0.0091142211586672742 -0.0035167664873512394 0 0.0092087040912161664 -0.0036124764175481574 0 
</DataArray>
</PointData>
<CellData Scalars="region_id,cross_section_updated," Vectors="" Tensors="stress,">
<DataArray type="Float64" Name="region_id" format="ascii">
5 5 5 5 5 5 5 5 5 5 6 5 6 5 5 5 5 6 5 5 5 6 5 6 5 5 5 6 5 5 5 5 6 5 5 5 5 5 5 5 5 5 5 6 5 5 5 5 5 5 5 5 5 5 5 5 5 5 5 5 5 5 5 5 5 5 5 5 5 5 5 6 5 5 5 5 6 5 5 5 5 6 5 5 5 5 5 5 5 5 5 5 6 5 6 5 5 6 5 5 5 5 5 5 5 6 5 5 5 5 5 5 5 5 5 5 6 6 5 5 5 6 5 5 6 5 5 5 5 5 5 5 5 5 5 5 5 5 6 5 5 5 5 5 5 6 5 5 5 5 5 5 5 5 5 5 5 5 5 5 5 5 5 5 5 5 5 5 5 5 5 5 5 5 5 5 5 5 5 5 5 5 5 5 5 5 5 5 5 5 5 5 5 5 5 5 5 5 5 5 5 5 5 5 5 5 5 6 5 5 5 5 5 5 5 5 5 5 5 5 5 5 5 5 5 5 5 5 5 5 5 5 5 6 5 6 5 5 5 5 5 5 5 5 5 6 5 6 5 5 5 5 5 5 5 5 5 5 5 5 5 5 5 5 5 5 5 5 5 5 5 5 5 6 5 5 5 5 5 5 5 5 5 5 5 5 6 5 5 5 5 5 6 5 5 5 5 5 5 5 5 6 5 5 5 5 6 5 5 5 5 5 6 5 5 5 5 5 5 5 5 5 5 5 5 5 5 5 5 5 5 5 5 5 5 5 5 5 5 5 5 6 5 5 5 5 5 5 5 5 5 5 5 5 5 5 5 5 5 5 5 5 5 5 5 6 5 5 5 5 5 5 5 5 6 5 5 5 5 6 5 5 5 6 5 5 6 5 5 6 5 6 5 5 6 5 5 5 5 5 5 5 6 6 5 5 5 6 5 5 5 5 5 6 5 5 5 5 5 5 5 5 5 5 5 5 5 6 5 5 5 5 5 5 5 5 5 5 5 6 5 6 5 5 5 5 5 5 5 5 5 5 6 5 5 6 5 5 5 6 5 5 5 6 5 5 6 5 6 5 6 5 6 6 5 5 5 6 6 6 6 5 5 5 5 5 5 5 5 6 5 5 5 5 6 5 6 5 6 5 5 6 5 5 5 5 6 5 5 5 5 5 5 5 5 5 5 6 6 5 5 5 5 5 6 5 5 5 5 5 5 5 5 5 5 5 5 5 6 5 5 5 5 5 5 5 5 5 5 5 5 6 6 6 5 5 5 5 5 5 5 5 5 5 5 5 5 5 5 5 5 5 5 5 5 6 5 5 5 6 5 5 5 5 5 5 5 5 5 5 5 5 5 5 5 5 5 5 5 5 5 5 5 5 5 5 5 5 5 5 5 5 5 6 5 5 6 5 5 5 5 5 5 5 5 5 5 5 5 5 5 5 5 5 5 5 5 5 6 5 5 5 5 5 5 5 5 5 5 5 5 5 5 5 5 5 5 5 6 5 5 5 5 5 5 5 5 5 5 6 5 6 5 5 6 5 5 5 6 5 5 5 5 5 6 5 6 5 5 6 5 5 5 5 5 5 5 6 5 5 5 6 6 5 5 5 5 5 5 5 6 5 5 6 5 6 6 5 5 5 6 5 5 6 6 6 5 5 5 6 5 5 6 6 5 5 5 6 5 5 6 5 5 6 6 6 5 5 5 6 5 5 5 5 5 5 5 6 5 5 5 5 5 5 5 5 5 5 5 5 5 5 5 5 5 5 5 5 5 5 5 5 5 5 5 5 6 5 5 5 6 6 5 5 6 5 5 5 5 5 5 5 5 6 5 5 5 5 6 5 5 5 5 5 5 5 5 5 6 5 5 5 6 5 5 6 5 6 5 5 6 5 5 5 6 6 5 5 6 5 5 6 6 5 5 5 5 5 5 5 5 5 5 5 6 5 5 5 5 5 5 5 5 5 5 6 5 5 6 5 6 6 6 5 6 5 5 5 5 5 5 5 5 5 5 5 5 5 5 5 5 5 5 5 5 5 5 5 5 5 5 5 5 5 5 5 5 5 5 5 5 5 6 5 5 6 5 6 5 5 6 5 5 5 6 5 6 5 6 5 5 5 5 5 5 5 5 5 5 5 5 5 5 5 5 5 5 5 6 5 6 5 5 5 5 5 5 5 5 5 5 5 5 5 5 5 5 5 5 6 5 6 5 5 6 5 5 5 6 5 5 5 5 6 5 5 6 5 6 6 5 5 6 6 5 5 6 5 5 6 6 5 5 5 5 6 5 5 5 5 6 5 5 5 6 6 5 5 6 5 5 6 5 5 5 5 5 5 6 5 5 6 5 6 5 5 5 5 5 5 5 5 5 5 6 5 5 5 5 5 5 5 5 5 5 5 5 5 5 5 5 6 5 5 5 5 5 5 5 6 6 5 5 6 5 5 5 5 6 6 5 5 5 5 5 5 5 5 5 5 5 5 5 5 5 5 5 5 5 5 6 5 5 5 5 5 5 5 5 5 5 5 5 5 5 5 5 5 5 6 5 5 6 5 5 5 5 6 5 5 5 5 5 5 5 5 5 5 5 5 5 5 5 5 5 5 5 5 6 5 5 5 5 5 5 5 5 6 5 5 5 5 5 5 5 6 5 5 5 5 5 5 5 5 5 5 5 6 5 5 5 6 5 5 5 5 5 5 5 5 5 5 5 5 5 5 5 5 5 5 5 5 5 5 5 5 5 5 5 5 5 5 6 5 5 5 5 5 5 5 6 5 5 5 5 5 5 5 5 5 5 5 5 5 5 5 5 5 5 5 5 5 5 5 5 5 5 5 5 5 5 5 6 5 5 5 5 5 5 5 6 5 5 5 6 5 5 5 6 5 5 5 5 5 5 5 6 5 5 5 6 5 5 5 5 5 5 5 5 5 5 5 5 5 5 5 5 6 5 5 5 5 5 5 5 5 5 6 5 5 5 5 5 5 5 6 5 5 5 5 6 5 5 5 6 6 5 5 5 5 6 5 5 5 5 5 5 5 5 5 5 5 5 5 5 5 6 5 5 5 5 5 5 5 5 5 5 5 5 5 5 5 5 5 5 5 5 5 5 5 5 5 5 5 6 5 5 5 5 5 5 5 5 5 5 5 6 5 5 6 5 5 6 5 5 5 6 5 5 6 5 5 5 5 5 5 5 5 6 5 5 6 5 5 5 5 5 5 5 5 5 5 5 5 5 6 5 5 5 6 5 5 5 5 5 5 5 5 5 5 5 5 5 5 5 5 6 5 5 6 5 5 5 5 5 6 5 5 5 5 5 5 5 5 5 5 5 5 5 5 5 5 5 5 5 5 5 6 5 6 6 5 5 5 5 5 6 5 5 6 5 6 5 5 5 5 5 5 5 6 5 5 5 5 5 5 5 5 5 5 5 5 5 5 6 5 5 5 5 5 5 5 5 5 5 5 5 5 5 5 5 6 5 5 6 5 5 5 5 5 5 5 5 6 5 6 5 6 6 5 5 5 5 6 5 5 5 5 6 5 5 5 5 5 5 5 5 5 5 6 5 5 5 5 5 5 5 5 5 5 5 5 6 5 5 6 5 5 6 6 5 5 5 5 5 5 5 5 6 5 5 5 5 5 5 5 5 5 6 5 5 6 5 5 5 6 6 5 5 5 5 5 5 5 5 5 5 6 5 5 6 6 5 6 5 5 6 5 5 5 5 5 5 5 5 5 5 5 6 5 5 5 5 5 5 5 5 5 6 5 5 5 5 5 5 5 6 5 5 5 5 5 5 5 5 6 5 5 5 5 5 5 6 6 5 5 5 5 5 5 5 5 5 6 5 5 5 5 6 5 5 5 5 5 5 5 5 5 5 5 6 5 5 5 5 5 6 5 5 5 5 5 5 5 5 5 5 5 5 5 5 5 5 5 5 5 5 5 5 5 5 5 5 5 5 5 5 5 5 5 5 5 5 5 5 5 5 5 5 5 5 5 5 5 5 5 5 5 6 5 5 5 5 5 6 5 5 6 5 5 5 5 5 5 5 5 5 5 5 5 5 5 5 6 5 5 5 6 5 5 5 6 6 5 5 5 5 5 5 5 5 5 5 5 6 5 5 5 5 5 6 5 5 5 5 5 5 5 5 5 5 5 5 5 5 5 5 5 5 5 5 5 5 5 5 5 5 5 5 6 5 5 5 5 5 5 5 5 5 5 5 6 5 5 6 5 6 6 5 5 5 5 5 5 5 6 6 5 5 5 6 5 5 5 5 5 5 5 5 5 5 5 5 5 6 5 5 6 5 6 5 5 5 5 6 5 6 5 5 5 6 6 5 5 5 5 5 5 5 5 5 5 5 5 6 5 5 5 5 6 5 5 5 6 5 5 6 6 5 5 6 5 6 5 5 5 5 5 5 5 5 6 5 5 5 6 5 5 5 5 5 5 5 5 5 5 5 5 5 5 5 5 5 5 5 5 5 5 5 5 5 5 5 5 5 5 6 5 5 5 6 5 6 6 5 5 5 5 5 6 6 5 5 5 5 6 5 5 5 5 5 5 5 5 5 5 5 5 5 6 5 5 5 5 6 5 5 5 5 5 5 5 5 5 6 5 5 5 6 5 5 5 5 5 6 5 5 5 6 5 6 5 5 6 5 6 5 5 6 5 5 5 6 6 5 5 5 5 6 5 5 5 6 5 6 5 6 5 5 5 6 5 5 5 5 5 5 5 5 5 6 5 5 6 6 6 5 5 5 5 5 5 5 5 6 5 5 5 5 5 5 6 5 5 5 5 5 5 5 5 5 6 5 5 5 5 5 5 5 5 5 5 5 5 5 5 5 5 5 5 5 5 5 5 5 5 5 5 5 5 5 5 5 6 5 5 5 6 5 5 5 5 5 5 5 5 6 5 5 5 5 5 5 5 5 5 5 6 5 6 5 5 5 5 5 5 5 5 5 5 5 5 6 5 6 5 5 5 5 5 6 5 5 6 5 5 5 5 5 5 5 5 6 5 5 5 5 5 5 6 5 5 5 5 5 5 5 5 5 5 5 5 5 5 5 5 5 5 5 5 5 5 5 5 5 5 5 6 5 5 5 5 6 5 5 5 6 5 6 5 6 5 5 5 6 6 5 5 5 5 5 6 5 5 5 5 5 5 5 5 5 5 5 6 5 5 5 5 6 5 6 5 5 5 5 6 5 6 5 6 5 6 5 6 5 6 5 6 5 5 6 5 5 5 5 5 5 5 6 5 5 5 5 5 5 5 5 5 6 5 5 5 5 5 5 5 5 5 6 5 5 5 5 5 5 5 5 5 5 5 5 5 6 5 5 5 5 5 5 5 5 5 6 5 5 5 5 5 5 5 6 5 5 5 5 6 5 5 6 5 5 5 6 5 5 5 5 5 6 6 5 6 5 5 6 5 5 5 6 5 5 5 5 5 5 5 5 5 5 6 5 5 5 5 5 5 6 5 5 5 5 5 5 5 5 5 5 5 5 5 5 6 6 5 5 5 5 5 6 5 5 5 6 5 6 5 5 6 5 5 5 5 6 5 5 5 5 5 5 5 5 5 5 5 5 5 5 5 5 5 5 5 5 5 5 5 5 5 5 5 5 5 5 6 5 5 6 5 5 5 5 5 5 5 5 5 6 5 5 5 5 5 5 5 5 6 6 6 5 5 6 5 6 5 5 5 6 5 6 6 5 5 5 5 6 5 5 5 6 6 5 5 6 5 6 5 5 5 6 5 5 5 5 5 5 6 5 5 5 5 5 5 5 5 5 5 5 5 5 5 5 6 5 5 5 6 5 5 5 5 5 5 5 5 5 5 5 5 5 5 5 5 5 5 5 5 5 5 5 5 5 5 5 5 5 5 5 5 5 5 5 5 5 5 5 5 5 5 5 5 5 6 5 5 6 5 5 5 5 5 5 5 5 5 6 5 5 5 5 5 5 5 5 5 5 5 6 5 5 5 5 5 5 5 5 5 5 6 5 5 6 5 5 5 6 5 5 5 6 5 5 5 5 5 5 5 5 6 5 5 5 5 5 5 5 5 5 5 5 5 5 5 5 6 5 5 5 5 6 5 5 5 5 5 5 5 5 5 5 5 5 5 5 5 5 5 5 5 5 5 5 5 5 5 5 5 5 5 5 5 6 5 5 5 5 5 5 5 6 5 5 5 6 5 5 6 5 5 5 6 5 5 5 5 5 5 5 5 6 5 5 5 5 5 5 5 5 5 5 5 5 6 5 5 5 5 5 6 5 6 5 5 5 5 5 5 6 5 5 6 5 5 6 5 5 5 5 5 6 5 6 5 5 5 6 5 5 5 5 5 5 6 5 5 5 6 5 5 5 5 5 5 5 5 5 5 5 5 5 5 6 5 6 5 6 5 5 5 5 5 6 5 6 5 6 5 5 5 5 5 6 5 5 5 6 5 5 5 5 5 5 6 5 6 5 6 5 5 5 5 6 6 5 5 5 5 5 5 5 5 5 5 5 5 5 5 5 5 5 6 5 5 5 5 6 5 5 5 5 5 5 5 5 5 5 6 5 5 5 5 5 5 5 6 5 5 5 6 5 5 5 6 5 5 5 5 5 5 5 5 5 5 5 5 5 5 5 5 5 5 5 5 5 5 5 5 5 5 5 5 5 5 5 5 5 5 5 5 5 5 5 5 5 5 5 5 5 5 5 5 5 5 5 5 5 5 5 5 5 5 5 6 5 5 5 5 6 5 5 5 5 5 6 5 5 5 5 5 5 5 5 5 5 5 5 5 5 5 5 6 5 6 5 5 5 5 6 6 5 5 5 5 6 6 5 5 5 5 5 5 6 5 6 6 5 5 5 5 6 6 5 5 5 5 5 5 6 5 5 5 5 5 5 6 5 5 5 5 6 6 5 5 6 6 5 5 5 5 6 5 5 5 6 6 5 5 6 5 6 6 5 5 5 6 5 6 5 6 5 5 5 5 6 5 5 6 5 5 5 5 5 6 6 5 5 5 5 5 5 6 6 5 5 5 5 5 6 5 5 6 5 5 5 5 5 5 5 6 5 5 5 6 5 5 5 5 5 6 5 5 5 5 5 6 5 5 5 5 5 5 5 5 5 6 5 5 5 6 5 5 5 5 5 5 5 5 5 6 5 6 5 5 5 5 5 5 6 5 5 6 5 5 5 5 5 5 6 5 5 5 5 5 5 5 5 5 5 5 5 6 6 5 5 6 5 5 5 5 5 6 5 5 6 6 5 5 5 5 5 5 5 6 5 5 5 5 5 5 5 6 5 5 5 5 5 5 5 5 5 5 5 5 5 5 5 5 5 5 5 6 5 5 5 6 5 5 5 5 5 5 5 5 5 5 5 5 5 5 6 5 5 5 5 5 5 5 5 5 5 5 6 5 5 5 5 5 5 5 6 5 5 5 5 5 5 5 5 5 5 5 6 5 5 5 5 5 5 5 5 5 5 6 5 5 5 5 5 5 5 5 5 5 5 6 5 5 5 5 5 5 5 5 5 5 5 5 6 6 5 5 5 5 5 5 5 5 5 5 5 5 6 5 6 5 5 5 6 5 5 6 5 5 5 5 5 5 5 5 5 5 5 5 5 5 6 5 5 5 5 5 5 5 5 5 5 6 5 5 5 5 5 5 5 5 5 5 5 5 5 5 5 5 5 5 5 5 5 5 5 5 5 5 5 6 6 5 5 5 5 5 5 5 5 5 5 5 5 6 5 6 5 5 5 5 5 5 6 5 5 6 5 5 5 5 5 5 6 5 6 5 5 5 5 5 5 5 5 5 5 5 5 5 5 5 6 5 5 6 5 5 5 6 5 6 5 5 5 5 5 5 5 5 5 5 5 5 5 5 5 5 5 5 5 5 5 5 6 6 5 5 5 6 5 5 5 5 5 5 5 5 5 5 5 5 5 5 5 5 5 5 5 5 5 5 5 5 5 5 5 6 5 6 5 5 5 5 5 5 5 5 5 5 5 5 5 5 5 5 5 5 5 5 5 5 5 5 5 5 5 6 5 5 5 5 5 5 5 5 5 5 5 5 5 5 5 5 5 5 5 5 5 5 5 5 5 5 5 5 5 5 5 5 5 5 5 5 5 5 5 5 5 5 5 5 5 5 5 5 5 5 5 5 5 5 6 5 6 5 5 6 5 5 5 5 6 5 5 5 5 5 6 5 5 5 6 6 5 5 5 5 6 6 5 5 6 6 5 5 6 5 5 6 6 5 5 5 6 5 5 5 5 6 5 5 5 5 6 5 6 5 5 6 5 5 5 6 6 5 6 5 5 5 6 6 5 5 5 5 5 6 5 5 5 5 5 5 6 5 5 5 5 5 5 6 5 5 5 5 6 5 5 6 5 6 5 5 5 5 5 5 5 5 5 5 5 5 6 5 5 6 5 6 5 6 5 5 5 5 5 6 5 6 5 5 5 6 5 5 5 6 5 5 6 5 6 5 5 6 5 5 5 5 5 5 5 5 5 5 5 5 6 5 5 5 5 5 5 6 5 6 5 5 5 5 5 6 5 5 5 5 5 5 5 5 6 5 5 5 5 5 6 5 6 5 5 6 6 5 6 5 5 5 5 5 5 5 5 5 5 5 5 5 5 6 5 5 5 5 5 5 6 5 6 5 5 5 5 6 6 5 5 5 5 5 6 5 5 5 5 6 6 5 5 5 5 6 5 5 5 5 5 5 6 5 5 5 5 5 5 5 6 5 5 5 5 5 5 5 5 5 5 6 5 6 5 6 5 5 6 5 5 6 5 6 5 5 5 5 5 5 5 6 5 5 5 5 6 5 5 5 6 5 6 5 6 6 6 6 5 5 6 6 5 5 5 6 5 6 5 5 5 5 5 6 5 5 5 5 5 5 5 5 5 6 5 5 5 5 5 5 5 5 5 5 5 5 5 5 5 5 5 5 6 5 5 5 5 6 5 5 6 5 5 5 5 5 5 5 5 6 5 5 6 5 5 5 5 5 5 5 5 5 5 5 5 5 5 6 5 5 5 5 6 5 5 6 5 6 5 5 5 5 5 5 5 5 5 5 5 5 5 5 5 5 5 5 5 5 5 5 5 6 5 5 5 5 5 5 5 5 6 5 6 5 5 6 5 5 5 5 5 5 5 5 5 5 5 5 5 6 5 5 6 5 5 5 5 5 5 6 5 5 5 5 6 5 5 5 5 5 6 5 5 5 6 5 5 5 5 5 5 5 5 5 5 5 5 5 5 6 5 5 5 5 5 5 5 5 5 6 5 5 5 5 5 5 5 5 5 6 5 5 5 5 5 5 5 5 6 5 5 5 5 5 5 5 5 5 5 5 5 5 5 5 5 5 5 5 5 5 5 5 5 5 5 5 5 5 5 5 5 5 5 5 5 5 5 5 5 5 5 6 5 5 5 6 5 5 5 5 5 5 5 5 5 6 6 5 5 6 5 6 5 5 5 5 5 6 5 5 6 6 5 5 6 5 6 5 5 5 6 5 5 5 5 5 5 5 5 5 5 5 6 5 5 5 5 5 5 5 5 5 6 5 5 5 5 5 5 6 5 5 5 5 5 5 5 5 5 6 5 5 5 5 5 5 5 6 5 5 5 5 5 5 5 5 5 5 6 5 6 5 5 5 5 5 5 5 5 5 5 5 5 5 5 5 5 5 5 5 5 5 5 6 5 5 5 5 5 5 5 5 6 5 5 6 5 5 6 5 5 5 5 6 6 5 5 6 5 6 6 5 5 6 5 5 6 5 5 6 5 6 5 5 6 5 5 5 5 5 5 6 5 5 5 6 5 5 5 5 5 6 5 5 5 5 5 5 5 5 5 6 5 5 6 5 5 5 5 6 5 5 5 5 6 5 5 6 5 5 5 5 6 6 5 5 5 5 5 5 5 5 6 5 5 6 5 5 5 5 5 5 5 5 5 5 5 5 6 5 5 5 5 5 5 5 5 6 5 5 5 6 5 5 5 5 6 5 6 5 5 5 5 5 6 6 5 5 5 6 5 5 5 6 5 6 5 5 5 6 5 5 6 5 5 5 6 5 5 6 5 5 5 5 5 6 5 5 6 5 5 5 5 5 5 5 5 5 5 5 5 5 5 5 5 5 5 5 5 5 5 6 5 5 5 5 5 5 5 6 6 5 5 5 5 5 5 5 5 5 5 6 5 5 6 5 5 5 6 5 5 6 5 5 6 6 5 6 5 6 6 5 6 5 6 5 5 6 5 5 5 6 6 5 6 5 5 5 5 5 6 6 5 6 5 5 5 5 5 6 5 5 5 5 5 5 6 5 5 5 5 5 5 5 5 5 5 5 5 5 6 5 5 5 5 5 5 5 5 5 5 5 5 5 5 6 6 6 5 5 6 5 6 6 6 5 5 5 5 5 5 5 6 5 5 5 5 5 6 5 5 5 5 5 5 5 5 5 5 5 5 5 6 5 6 5 6 5 6 5 5 5 5 5 5 5 5 5 5 5 5 5 5 5 5 5 5 5 5 6 5 5 6 6 5 5 5 5 5 5 5 5 5 5 5 5 5 6 5 5 5 5 5 5 5 5 5 5 5 6 6 5 5 5 5 6 5 5 5 5 5 6 5 5 5 6 5 5 5 5 5 5 6 6 5 6 5 5 6 5 5 5 5 5 6 5 6 5 5 5 5 5 5 5 6 5 5 5 5 5 5 5 5 5 5 5 5 5 5 5 5 5 6 5 5 5 5 5 5 5 5 6 5 6 5 5 5 5 5 5 5 5 5 5 5 5 5 5 5 5 5 5 5 6 5 5 5 5 5 5 6 5 6 5 6 5 5 5 5 6 5 5 5 5 5 5 5 5 5 5 5 5 5 5 5 5 5 5 5 5 5 5 5 5 5 5 5 5 5 6 5 5 6 5 5 5 5 5 5 5 5 5 5 5 5 5 5 5 5 5 5 5 5 5 5 5 5 5 5 5 5 5 5 5 6 5 5 6 6 5 5 5 5 5 5 6 5 5 5 6 5 5 5 5 5 5 5 5 5 5 5 5 6 5 6 5 6 5 5 5 5 5 5 5 6 5 6 5 5 5 5 5 5 5 5 5 6 6 5 5 6 6 5 5 5 5 5 5 6 5 6 5 5 5 5 5 5 6 5 5 5 5 5 5 5 6 5 5 5 6 5 5 5 5 5 5 6 5 6 5 5 6 5 5 6 5 5 6 5 5 6 5 5 5 5 5 5 5 5 5 5 5 5 5 5 5 5 5 5 5 5 5 5 6 5 5 5 5 5 6 5 5 6 5 6 6 6 5 5 6 5 6 5 6 5 6 5 5 6 5 6 5 5 5 5 5 5 5 5 5 5 5 5 5 5 5 5 5 5 5 5 5 5 5 5 5 5 5 5 5 5 5 5 6 5 5 5 5 5 5 5 5 6 5 5 5 6 5 5 5 5 6 5 5 5 5 6 5 5 5 5 5 6 5 5 5 6 5 5 5 5 5 6 5 5 5 5 5 5 5 5 5 6 5 5 5 5 5 5 5 5 5 5 6 5 5 5 6 5 5 5 5 5 5 5 5 5 5 5 5 5 5 5 5 5 5 5 5 5 5 5 5 6 5 5 6 5 5 5 6 5 5 5 5 5 5 5 5 5 5 6 5 5 5 5 6 5 5 5 6 5 5 6 5 6 5 5 5 5 6 5 6 5 5 5 5 5 5 5 5 5 5 5 5 5 5 5 5 5 5 6 5 5 5 5 5 5 5 5 5 5 5 6 5 5 5 5 5 5 5 6 5 5 5 5 5 5 5 6 5 5 5 5 6 5 5 5 5 5 5 5 5 5 5 5 5 5 5 6 5 5 5 5 5 5 5 5 5 5 5 5 5 5 5 5 5 5 5 5 6 5 5 6 5 5 5 5 5 5 5 5 5 5 5 5 5 5 5 5 5 5 5 5 5 6 6 5 5 5 5 5 5 5 5 5 5 5 6 5 5 5 6 5 5 5 5 6 5 5 5 5 5 5 5 5 6 5 5 5 5 5 6 5 5 5 5 5 6 5 5 5 5 5 5 6 5 5 5 5 5 6 6 6 5 5 6 5 5 6 6 5 5 5 6 6 5 6 5 5 5 5 5 6 5 5 5 6 5 5 6 5 5 5 6 6 5 5 6 6 5 5 5 5 5 6 5 6 6 5 5 5 5 5 6 5 6 5 5 5 6 6 5 6 5 6 5 5 5 5 5 6 5 6 5 5 5 5 5 5 5 5 5 5 5 5 5 5 6 5 5 6 5 5 5 6 5 5 5 5 5 5 5 5 6 5 5 6 5 5 5 5 5 5 5 5 6 5 5 5 5 5 5 5 5 5 5 5 5 5 5 5 5 6 5 5 6 5 5 5 5 5 5 5 5 5 5 5 6 5 5 5 6 6 6 5 5 6 5 5 6 5 5 5 5 5 5 5 5 5 5 6 5 5 5 5 5 5 5 5 5 5 5 5 5 5 5 5 5 5 5 5 5 5 6 5 5 5 5 5 6 5 6 6 5 5 5 5 6 5 5 5 5 5 5 5 5 5 5 6 6 5 6 5 5 5 6 5 5 5 6 5 5 5 5 5 5 5 5 5 5 5 5 5 5 6 5 5 5 5 5 5 5 6 5 5 5 5 5 5 5 5 5 5 5 6 5 5 5 5 5 5 5 5 5 5 5 6 6 5 5 5 5 5 5 5 5 5 5 5 5 5 5 6 5 5 5 6 5 5 6 5 5 5 5 5 5 5 5 5 5 5 5 5 5 5 5 5 5 5 5 5 5 5 5 5 5 5 5 5 5 5 5 5 5 5 5 5 5 5 5 5 5 6 6 5 5 5 5 5 5 6 5 6 5 5 5 5 5 5 5 5 5 5 5 5 6 5 5 6 5 5 6 5 5 6 5 5 5 5 5 5 5 5 5 5 5 5 5 5 6 5 5 5 5 6 5 5 5 5 5 5 5 5 5 6 5 5 6 5 5 5 5 5 5 5 5 5 5 5 5 6 5 5 5 5 5 5 5 6 5 6 5 5 6 5 5 5 5 5 5 5 5 5 5 5 5 5 5 5 6 6 6 5 6 5 5 5 5 5 5 6 5 6 5 5 5 5 5 5 5 5 6 5 5 5 6 5 5 6 5 5 5 5 5 5 5 5 6 5 5 5 5 5 5 6 5 5 5 5 5 5 5 6 5 6 5 5 6 5 5 5 5 5 5 5 5 5 5 5 5 5 5 5 5 5 6 5 5 5 5 6 5 5 5 5 5 5 5 5 6 5 5 5 5 5 5 5 5 5 5 5 5 5 5 5 5 5 5 5 5 5 5 5 5 6 5 5 5 6 6 5 5 5 5 5 5 5 5 5 6 5 5 5 5 6 6 5 6 5 5 6 5 5 5 6 6 5 5 5 5 5 5 5 6 5 5 6 5 5 6 5 5 5 5 5 5 6 5 6 5 5 5 5 6 5 6 5 5 5 5 6 5 5 5 5 5 5 5 5 5 5 5 5 5 6 5 5 6 5 5 5 5 5 5 5 5 5 5 5 5 5 5 5 5 5 5 5 5 5 5 5 5 5 5 5 5 5 5 5 5 5 6 5 5 5 5 5 5 5 5 5 5 5 5 5 5 5 5 6 5 5 5 5 5 5 5 5 6 5 5 6 5 5 5 5 5 5 5 6 5 5 6 5 5 5 5 5 5 5 5 5 5 5 5 5 5 5 5 5 5 5 5 5 5 5 5 5 5 5 5 5 5 5 5 5 5 5 5 5 5 5 6 5 6 5 5 5 5 5 5 5 5 5 5 5 6 5 5 5 5 5 5 5 5 5 5 5 5 5 5 5 5 5 5 5 5 5 6 5 5 5 6 5 6 5 6 5 5 6 5 5 5 5 6 5 5 6 5 6 6 5 5 5 6 5 5 6 5 5 6 5 5 6 5 6 5 5 5 5 5 6 6 5 6 5 5 6 5 5 5 5 5 5 5 5 5 5 6 6 5 5 5 5 6 6 5 5 5 5 5 5 5 5 6 5 5 6 6 5 5 6 6 6 5 6 6 6 5 5 5 5 6 5 5 5 5 5 5 5 5 6 5 6 5 5 5 5 5 5 5 6 5 5 5 6 5 5 5 5 5 6 5 5 5 5 5 5 5 5 5 5 5 5 5 5 5 5 6 5 6 5 6 5 5 5 5 6 6 6 5 5 6 5 5 5 6 6 5 5 6 6 5 6 6 5 5 5 5 5 5 5 6 5 5 5 5 5 5 5 5 5 5 5 6 5 5 5 5 6 6 5 6 5 5 6 5 5 5 5 5 6 5 5 5 5 5 5 5 5 5 5 5 5 5 5 5 6 5 5 6 5 5 5 5 5 5 5 5 6 5 5 5 5 5 5 5 5 6 5 5 5 5 5 6 5 5 5 5 5 5 5 5 6 5 5 5 5 5 6 6 5 6 5 5 5 5 6 5 6 5 6 5 5 5 6 5 5 5 5 5 6 5 5 5 5 6 5 6 5 5 6 5 5 5 5 5 5 5 5 5 5 5 5 5 5 5 5 5 5 6 5 5 5 5 5 5 5 5 6 5 5 6 5 5 5 6 5 5 6 6 5 5 6 6 6 5 6 5 5 5 5 5 6 5 5 5 5 5 5 6 5 5 5 5 5 5 5 5 5 5 5 5 5 5 5 5 5 5 5 5 5 5 5 5 5 5 5 5 6 5 5 5 5 5 5 5 6 5 5 5 5 5 5 6 5 5 6 5 6 5 6 5 6 5 5 5 5 5 5 6 5 5 6 5 5 5 5 5 5 5 5 5 5 5 5 5 5 5 6 5 5 6 5 5 5 5 5 6 5 5 5 5 5 5 6 6 5 5 5 5 5 5 5 5 5 5 5 5 5 5 5 6 5 5 5 5 5 5 5 5 5 5 6 6 5 5 5 5 5 5 5 5 5 6 5 5 5 5 5 5 5 6 5 6 5 5 5 5 6 5 5 5 5 5 6 5 5 5 6 5 5 5 5 5 5 6 5 5 5 5 5 5 5 5 5 5 5 5 6 5 5 5 5 5 5 5 5 5 5 5 5 6 5 5 5 5 6 6 6 6 5 6 5 5 5 5 5 6 5 6 6 5 6 5 5 5 5 5 5 5 5 5 6 6 5 6 5 6 5 6 5 6 6 5 5 5 6 5 5 5 5 5 5 5 6 5 5 6 5 5 6 5 6 5 5 6 5 5 5 5 6 5 5 5 5 5 5 5 5 5 5 5 5 5 5 5 5 5 5 5 5 5 5 5 5 5 5 5 5 5 5 5 5 6 5 6 5 5 6 5 6 5 5 5 5 5 6 5 5 5 5 5 5 5 5 5 5 5 5 6 6 5 5 5 6 5 5 5 5 5 5 5 6 5 5 5 5 5 5 6 5 6 5 5 6 5 5 5 5 6 5 5 6 5 5 5 5 5 5 6 5 6 5 5 5 5 5 5 5 5 5 5 6 5 6 5 5 5 5 5 5 5 5 5 5 5 5 5 6 5 5 5 5 5 5 5 5 5 5 5 5 5 6 6 5 5 6 5 5 5 6 5 5 5 5 5 6 6 5 5 6 5 5 5 6 5 5 5 5 5 5 5 5 5 5 5 5 5 5 5 5 5 5 5 5 6 5 5 5 5 5 5 5 5 5 5 5 5 5 5 5 5 5 5 5 5 5 5 5 5 5 5 5 5 5 5 5 5 5 5 5 5 5 5 5 5 5 5 5 5 5 5 5 5 5 5 5 5 5 5 5 5 5 5 5 5 5 5 5 5 5 5 5 5 5 5 5 5 5 5 5 5 6 5 5 5 6 5 5 5 5 5 5 5 5 5 6 5 5 5 6 5 5 5 5 5 5 5 5 5 5 5 5 5 5 6 5 5 5 5 5 5 6 5 6 5 5 5 5 5 5 5 5 5 5 5 5 5 5 5 5 5 5 5 5 5 5 5 5 5 5 5 5 5 5 5 5 5 5 5 5 5 5 5 5 5 5 5 5 5 5 6 5 6 5 5 6 6 5 5 5 6 5 5 5 5 5 5 5 5 5 5 5 5 5 5 5 5 5 5 5 5 5 5 5 5 5 6 5 5 5 5 5 5 5 5 5 5 5 5 5 5 5 5 5 5 5 5 5 5 5 5 5 5 5 5 5 5 5 5 5 5 5 5 5 5 5 5 5 6 5 5 5 5 5 5 5 6 5 5 5 5 5 5 5 5 5 5 5 5 5 5 5 5 5 5 5 5 5 6 5 5 5 5 5 6 5 5 5 6 5 5 5 5 5 5 5 5 5 5 5 5 5 5 5 5 5 5 5 5 5 5 5 5 5 5 5 5 5 5 5 6 5 5 6 5 5 6 5 5 5 5 5 5 5 5 5 5 6 5 5 5 6 6 5 5 5 5 5 5 6 5 6 5 5 6 5 5 5 5 5 6 6 5 5 5 5 6 5 6 6 5 6 5 5 5 5 5 5 6 5 6 5 5 6 5 5 5 6 5 5 5 5 5 5 5 5 5 5 5 5 5 5 5 5 5 5 5 5 6 5 5 5 5 5 5 5 5 5 5 6 5 5 5 5 5 6 5 5 5 5 5 5 5 5 6 5 5 5 5 6 6 5 5 6 5 5 5 5 6 5 5 5 6 6 5 6 5 5 6 5 6 5 6 5 5 5 5 5 5 5 6 5 5 6 5 5 5 5 5 6 5 5 5 6 5 5 6 5 5 5 6 5 5 5 5 5 5 5 5 6 5 5 5 6 5 5 5 5 5 5 5 6 5 5 5 6 5 5 5 5 5 5 5 5 6 5 5 5 5 5 5 5 5 5 5 5 5 5 5 5 5 5 5 5 5 5 5 5 6 5 5 5 5 5 5 5 5 5 5 5 5 5 5 5 5 5 5 5 5 5 6 5 5 5 5 5 5 6 5 5 5 5 5 5 5 5 5 5 5 5 5 5 5 5 5 5 5 5 5 5 5 5 5 6 5 5 5 5 5 5 5 5 5 5 5 5 5 5 5 5 5 5 5 5 5 5 6 5 5 5 5 5 5 6 5 5 5 5 5 5 5 5 5 5 5 5 5 5 5 5 5 6 5 5 5 5 6 5 5 5 5 5 5 6 5 5 5 5 5 5 6 5 5 5 5 5 5 5 5 5 5 5 5 5 5 5 6 5 5 5 5 5 5 5 6 6 6 5 5 5 5 5 5 5 5 5 5 5 5 5 5 5 5 5 5 6 6 5 5 5 5 5 6 5 5 6 5 5 5 6 5 5 5 5 5 5 5 5 5 6 5 5 5 5 5 5 5 5 5 5 5 6 6 5 5 6 5 5 5 5 5 6 5 5 5 6 5 6 5 5 6 5 5 5 5 6 5 5 6 5 5 5 5 5 6 5 5 5 5 5 5 5 5 5 5 5 5 5 5 5 6 5 5 5 5 6 5 5 5 5 5 5 5 6 5 5 5 5 5 5 6 6 5 5 5 5 5 5 5 5 5 5 5 5 5 5 5 5 6 5 5 5 5 6 5 5 5 5 5 5 6 5 5 5 5 5 5 5 5 5 5 5 5 5 5 5 5 5 5 5 5 5 5 6 5 5 5 6 5 6 5 5 5 6 5 5 5 5 5 5 5 5 5 5 5 5 5 5 5 5 5 5 5 5 5 5 5 5 5 5 5 5 5 5 5 5 5 5 5 5 5 5 5 5 5 5 5 5 5 5 5 5 5 5 6 6 5 5 5 5 5 5 5 5 5 5 5 5 5 5 5 5 5 5 5 5 5 5 6 5 6 5 5 5 5 5 5 6 5 5 5 5 5 5 5 5 5 5 6 5 5 5 5 5 5 5 5 6 5 5 5 5 6 5 5 6 5 5 5 5 5 6 5 6 5 5 5 5 5 5 5 5 5 5 5 5 5 5 5 5 5 5 5 5 5 5 5 5 5 6 5 5 5 5 5 5 5 6 5 5 5 5 5 5 5 6 5 5 5 5 5 5 5 5 5 5 5 6 5 5 6 5 6 5 5 5 5 5 5 5 6 5 6 5 6 5 5 5 6 5 6 5 5 5 5 5 5 5 6 5 5 5 5 5 6 5 5 6 5 5 5 5 5 5 6 5 5 5 5 5 5 5 5 5 5 5 5 5 6 5 5 5 5 6 5 5 5 6 5 6 5 6 5 5 6 5 5 5 6 6 5 5 5 5 5 5 5 5 5 5 5 5 6 6 5 6 5 5 5 5 5 5 5 5 5 5 6 5 5 5 6 5 5 5 6 5 6 5 5 5 5 5 5 5 5 6 5 5 5 5 5 5 5 5 5 5 5 6 5 5 5 5 5 5 5 5 5 5 5 5 5 5 5 5 5 5 5 5 5 5 6 5 5 5 5 5 5 5 5 5 5 5 5 5 6 5 5 5 5 5 6 5 5 5 6 5 6 5 5 5 5 5 5 5 5 5 5 5 5 5 5 5 5 6 5 5 5 5 5 5 6 5 5 5 5 5 6 5 5 6 5 5 5 6 5 5 5 5 5 6 5 5 5 6 5 5 5 6 6 5 5 5 5 6 5 5 6 5 5 6 5 5 5 6 6 5 5 5 5 5 5 6 5 6 5 6 5 5 6 5 6 5 6 5 5 6 5 5 5 5 5 5 5 5 5 5 5 5 5 5 5 5 5 5 5 5 5 5 5 5 5 5 5 5 5 5 6 5 5 5 5 5 5 5 5 5 6 5 5 5 5 5 6 5 5 5 5 5 5 5 5 5 5 5 5 5 5 5 5 6 5 5 5 5 5 5 5 6 5 5 6 5 5 5 5 5 6 5 5 5 5 5 5 5 5 5 5 5 6 5 5 5 5 5 5 5 5 5 5 5 5 5 5 5 5 5 5 5 5 5 5 5 5 5 5 5 5 5 5 5 5 5 5 5 5 5 5 5 5 5 5 5 5 5 5 5 5 5 5 5 5 5 5 5 5 5 5 5 5 5 5 5 5 5 5 5 5 6 5 5 5 5 6 5 5 5 6 5 6 5 5 6 5 5 5 5 6 6 5 5 6 6 5 6 5 5 5 6 6 5 5 5 6 5 5 5 5 5 5 5 5 5 6 6 5 5 5 5 5 5 5 6 5 5 5 5 5 5 5 5 6 5 5 5 5 5 6 5 5 5 5 5 6 5 5 5 5 5 6 5 5 5 5 5 5 5 5 5 5 5 5 5 5 5 5 5 5 5 5 5 5 5 5 5 5 6 5 5 5 5 5 5 5 5 5 5 5 6 5 5 5 5 5 5 5 5 5 5 5 5 5 5 5 5 5 5 5 5 5 5 5 5 5 5 5 5 5 5 5 5 5 5 5 5 5 5 5 5 5 5 6 6 5 5 6 5 6 5 5 5 5 5 5 5 5 5 5 5 5 5 5 5 5 5 6 5 5 5 6 5 5 5 5 6 5 5 5 5 5 6 5 6 6 5 5 5 5 5 5 5 5 6 5 5 5 5 6 5 5 6 5 5 5 5 5 5 5 5 5 6 5 5 6 5 5 5 5 5 5 5 5 5 5 5 5 5 5 5 6 5 5 6 5 5 5 5 6 5 6 5 6 6 5 5 5 5 5 6 5 5 5 5 5 5 6 5 5 5 6 5 5 5 5 5 5 5 5 5 5 5 5 5 5 5 5 5 5 5 5 5 5 5 5 5 6 5 5 5 5 5 5 5 5 5 5 5 6 5 5 5 6 5 5 5 5 6 5 5 5 5 5 5 5 5 5 5 5 5 5 6 5 5 6 5 5 5 5 5 5 5 5 5 5 5 6 5 5 5 5 5 5 5 5 5 5 5 5 5 6 5 5 5 5 5 5 5 5 5 5 5 5 5 5 5 5 5 6 5 5 5 6 5 5 5 5 5 5 5 5 5 6 5 5 5 5 5 5 5 5 5 5 5 5 5 5 5 5 5 5 5 5 5 6 5 6 5 5 5 5 5 5 5 5 5 5 6 5 5 5 5 5 5 6 5 5 5 5 5 5 5 5 6 5 5 6 5 5 5 5 5 6 5 5 5 6 5 5 5 6 5 5 5 5 5 5 5 5 5 5 5 5 5 5 5 5 5 5 5 5 5 5 5 5 5 5 5 5 5 5 5 5 5 6 5 5 5 5 5 5 5 6 5 6 5 5 5 5 5 5 6 5 6 5 5 6 5 5 5 5 5 5 5 5 5 5 6 6 5 5 5 5 5 5 5 6 5 5 5 5 5 5 5 5 5 5 6 5 5 5 5 5 5 5 5 5 5 5 5 5 5 5 5 5 6 5 6 5 5 5 5 5 5 5 5 5 6 5 5 5 6 5 6 5 5 5 5 5 5 5 5 5 5 5 6 6 5 5 5 5 5 5 5 5 5 5 5 6 5 5 5 5 5 5 5 5 5 5 5 5 5 5 5 5 5 5 6 5 5 5 5 6 5 6 5 6 5 5 5 6 5 5 5 5 5 5 5 5 6 5 5 5 5 5 5 5 5 5 6 5 5 5 5 5 5 6 5 6 5 6 5 5 5 5 5 5 5 6 5 5 5 5 5 6 5 5 5 5 5 5 5 5 5 5 6 5 5 6 5 5 5 5 6 5 5 5 5 5 5 5 5 5 5 5 5 5 5 5 5 5 5 5 5 5 5 6 5 5 6 6 5 5 5 5 5 5 5 5 6 5 5 5 5 6 5 5 5 5 6 5 5 5 5 5 5 6 5 5 6 5 6 5 5 6 5 6 5 5 5 6 5 6 5 5 6 5 5 6 5 5 5 5 5 6 6 5 5 5 5 6 5 5 6 5 5 6 5 5 5 5 5 6 5 5 6 5 5 5 5 5 6 5 5 5 5 5 5 5 5 6 5 5 5 5 5 5 5 5 5 5 6 5 5 5 6 5 5 5 6 5 5 5 5 5 6 5 5 5 5 5 5 5 5 5 5 5 5 6 5 5 5 5 5 5 5 5 5 5 5 5 5 5 5 5 5 5 5 5 5 5 5 5 5 5 5 5 5 5 6 6 5 5 5 5 5 5 5 6 5 5 6 5 5 5 5 5 5 5 5 5 5 5 5 5 5 5 5 6 5 5 5 5 5 5 5 5 5 5 5 5 5 5 5 5 5 6 6 5 5 5 5 5 5 5 5 5 5 5 5 5 5 5 5 5 5 5 6 5 5 5 5 5 6 5 5 5 5 5 5 5 5 5 6 5 5 5 5 5 5 5 5 6 5 5 6 5 5 5 5 6 6 5 5 6 5 5 5 5 5 6 6 5 5 5 5 5 5 5 5 5 6 5 5 5 5 5 5 5 5 5 5 5 5 5 5 6 5 5 5 5 5 5 5 5 5 5 5 5 5 5 5 5 5 5 5 5 5 5 5 5 6 5 6 5 5 5 5 5 5 5 5 5 5 5 5 5 6 5 6 5 5 5 5 5 6 5 5 5 5 6 5 5 5 5 5 5 5 5 6 5 5 6 5 6 5 5 5 5 5 5 5 5 5 5 5 6 5 5 5 6 5 5 5 5 5 6 5 5 6 5 5 5 5 5 5 5 5 5 5 5 5 5 6 5 5 5 5 6 5 5 5 6 5 5 5 5 5 5 5 5 5 6 5 5 5 6 6 5 5 5 5 6 6 5 6 5 6 5 5 5 5 6 5 5 5 5 5 5 5 5 6 5 5 5 5 5 5 5 5 6 5 5 6 6 5 5 6 5 6 5 5 5 5 6 5 5 5 5 5 5 5 5 5 5 5 5 5 5 5 5 5 5 5 5 5 5 5 5 6 5 5 5 5 5 5 5 5 5 5 6 5 5 5 5 6 5 5 5 5 5 5 5 5 5 6 5 5 6 5 5 5 5 5 5 5 5 5 6 5 6 5 5 6 6 6 5 5 6 5 6 5 5 5 6 5 5 6 5 5 5 5 6 5 5 5 5 6 5 5 5 5 5 5 6 5 5 5 5 5 6 5 6 5 6 5 5 5 5 5 5 5 5 5 5 5 5 5 5 5 5 6 5 5 5 5 5 6 5 5 5 5 5 5 5 6 5 6 5 5 6 6 5 5 5 5 5 6 5 5 5 5 5 5 5 5 5 5 6 5 6 6 5 5 5 5 5 5 5 5 6 5 5 5 5 5 5 5 6 5 5 5 5 5 5 6 6 5 5 6 5 5 5 5 6 5 6 6 6 5 6 5 5 5 6 5 5 6 5 5 5 5 5 5 5 5 5 5 5 5 5 5 5 5 6 5 5 5 5 5 5 5 5 6 5 5 5 5 6 5 5 5 5 5 5 5 5 5 6 5 6 5 5 5 5 5 5 5 6 5 6 5 5 5 5 5 5 5 5 5 5 5 5 5 5 5 5 6 5 5 5 5 6 5 5 5 5 5 5 6 5 5 5 5 5 5 5 5 5 5 5 5 5 5 5 5 5 5 5 5 5 5 5 5 5 5 6 5 5 5 5 5 5 5 5 5 6 5 5 6 5 6 5 5 5 5 5 5 6 5 5 5 5 5 5 5 5 5 6 5 5 5 5 5 6 5 5 5 5 5 5 5 5 5 5 6 5 5 6 5 6 5 5 5 5 5 5 5 5 5 5 5 5 5 5 5 5 5 5 5 5 5 5 5 5 5 6 5 6 5 5 5 5 5 6 5 5 5 5 6 5 5 6 5 5 5 6 5 5 6 6 5 6 5 5 5 5 5 5 6 5 5 5 5 5 5 5 5 5 5 5 5 5 5 5 5 6 5 5 5 5 5 5 5 5 5 5 5 5 5 5 5 6 5 5 5 5 6 5 5 5 5 6 5 6 5 5 5 5 5 5 6 5 5 6 5 5 5 5 5 5 5 5 6 5 5 6 5 5 5 5 5 5 5 6 5 5 5 5 5 6 5 5 5 6 5 5 5 5 5 5 5 5 5 5 6 5 5 5 5 5 6 5 5 5 5 5 6 5 5 5 6 6 5 5 5 5 5 5 6 5 5 5 5 5 5 5 5 5 5 5 5 5 5 5 5 5 5 5 5 5 5 5 5 5 5 5 5 5 5 6 6 6 5 5 5 5 6 5 5 5 6 5 6 5 5 5 6 5 6 6 5 5 5 6 5 6 5 5 6 6 5 5 5 5 5 5 5 5 5 5 6 6 5 5 5 5 5 5 6 5 5 5 6 5 5 5 5 5 6 5 5 5 
</DataArray>
<DataArray type="Float64" Name="stress" NumberOfComponents="9" format="ascii">
4492.4607216142103 -1404.3930594688209 0 -1404.3930594688209 -478.06558910428851 0 0 0 0 855.50266145215573 -213.10069575118911 0 -213.10069575118911 0.11172857168371453 0 0 0 0 2676.1573665881297 -1250.2760510060575 0 -1250.2760510060575 -249.76055537668225 0 0 0 0 2191.795861612045 -1139.8555164209174 0 -1139.8555164209174 -265.97284110419128 0 0 0 0 1305.7769560736269 -688.56815066600734 0 -688.56815066600734 -122.69920949167658 0 0 0 0 2881.6648964732303 -1303.5992154919591 0 -1303.5992154919591 -1240.6423311760063 0 0 0 0 1131.6933571979025 -487.16049962887951 0 -487.16049962887951 111.50390470122011 0 0 0 0 1683.5213336399829 -1430.6509127237875 0 -1430.6509127237875 915.71388115294815 0 0 0 0 507.96097709631431 -677.39580407318908 0 -677.39580407318908 1122.2762997137434 0 0 0 0 4498.8695845909824 -2483.2151321197098 0 -2483.2151321197098 493.94247680650977 0 0 0 0 63.156403068711995 -3.5681558492896386 0 -3.5681558492896386 -8.5409749442094096 0 0 0 0 -13.541390516271349 -84.376882749509377 0 -84.376882749509377 -87.795467459545478 0 0 0 0 17.479911600811455 -0.96820163951690574 0 -0.96820163951690574 -8.6080379706583603 0 0 0 0 1150.0113457792322 -680.91291681313464 0 -680.91291681313464 478.57674679112677 0 0 0 0 1.3617908079850167 -146.48291677809104 0 -146.48291677809104 -248.43071240384097 0 0 0 0 451.16231913208321 -18.773231939657592 0 -18.773231939657592 -431.86549677628341 0 0 0 0 80.445807825410157 -38.250824793198888 0 -38.250824793198888 -397.99308589861914 0 0 0 0 4.228072987983694 -0.41661180227706751 0 -0.41661180227706751 -0.35138183207736695 0 0 0 0 2169.3104878540835 -556.62804451421232 0 -556.62804451421232 53.766100703372103 0 0 0 0 31.916385933305719 -403.81021708413107 0 -403.81021708413107 154.62736247316371 0 0 0 0 -74.204712200502399 -94.010949937103078 0 -94.010949937103078 -33.902615571796787 0 0 0 0 11.228592564291318 -0.21200535663066944 0 -0.21200535663066944 -0.37768426481708861 0 0 0 0 655.14159087509324 187.80285847645135 0 187.80285847645135 -505.83332822274224 0 0 0 0 7.3001665487294645 -0.41087838293349677 0 -0.41087838293349677 -0.48893546455114401 0 0 0 0 2789.8606919806916 -895.5037377391352 0 -895.5037377391352 46.883084238123161 0 0 0 0 2384.1655915486299 -1571.5018289787856 0 -1571.5018289787856 850.25911700305164 0 0 0 0 2091.0821521939506 376.88926348095356 0 376.88926348095356 -2021.5716350971852 0 0 0 0 16.220131687322692 -2.5066108906132669 0 -2.5066108906132669 -1.2960730246846885 0 0 0 0 3802.5592674565069 -1505.5894393861272 0 -1505.5894393861272 -417.05743834415989 0 0 0 0 3890.989083743334 -2105.2246860741861 0 -2105.2246860741861 176.91374092838817 0 0 0 0 63.448381311056437 247.47788739599582 0 247.47788739599582 234.41155499933961 0 0 0 0 851.4447966364387 313.01990200572482 0 313.01990200572482 -1473.100794526661 0 0 0 0 19.658598563885164 -3.400637894607037 0 -3.400637894607037 -0.92354720518666333 0 0 0 0 1721.0497855776775 -2097.9868852964551 0 -2097.9868852964551 2484.9823397404016 0 0 0 0 4159.5723184790259 -1534.4399224408903 0 -1534.4399224408903 290.12175258889602 0 0 0 0 1212.0563546726917 -224.8431138957983 0 -224.8431138957983 255.75042351395405 0 0 0 0 2700.8717980106667 771.1043696506722 0 771.1043696506722 -149.02200413771789 0 0 0 0 40.966370337730041 -47.591789467208741 0 -47.591789467208741 -263.28537801477955 0 0 0 0 175.30496726901765 75.681359733351343 0 75.681359733351343 -30.784778365211878 0 0 0 0 -364.42581808427349 -239.88301097700082 0 -239.88301097700082 -46.801751972533424 0 0 0 0 371.55132734583458 -849.05385148277264 0 -849.05385148277264 1490.4484001262585 0 0 0 0 377.57117226267292 -278.02088253976626 0 -278.02088253976626 368.65551277539385 0 0 0 0 68.975633955968078 -64.24526439241879 0 -64.24526439241879 -272.14455712111521 0 0 0 0 47.366550915323899 -5.1215222244809624 0 -5.1215222244809624 -2.9975122479353207 0 0 0 0 68.497981288906885 -184.63995772591613 0 -184.63995772591613 -606.4685046522884 0 0 0 0 342.06684898152889 -584.5580219366268 0 -584.5580219366268 687.51552490851577 0 0 0 0 167.82505784082605 -278.55667601008975 0 -278.55667601008975 183.61996505470961 0 0 0 0 992.79403783179441 -357.51976329689342 0 -357.51976329689342 -65.089758224085472 0 0 0 0 1633.3841557108244 -738.39547582120667 0 -738.39547582120667 -44.234205954236074 0 0 0 0 1669.7482466953079 356.11119090708746 0 356.11119090708746 250.21166760897813 0 0 0 0 2151.050799610286 -638.24171111107785 0 -638.24171111107785 131.66802337609988 0 0 0 0 1406.2124991468154 -436.6229182002844 0 -436.6229182002844 148.1131138636915 0 0 0 0 1548.5626944753458 -918.41079273813853 0 -918.41079273813853 304.37760204711753 0 0 0 0 2120.6575207769347 -1155.4706302574054 0 -1155.4706302574054 376.32184118265468 0 0 0 0 1907.3631889442913 -668.93396515360564 0 -668.93396515360564 348.315043329579 0 0 0 0 1264.0424092024041 -679.6902406830593 0 -679.6902406830593 102.54542703032538 0 0 0 0 1787.7342079710725 -685.35050129049671 0 -685.35050129049671 99.690824898701976 0 0 0 0 1528.5214349603411 -285.74189808673884 0 -285.74189808673884 160.91891494890297 0 0 0 0 794.75078592277714 -240.72521936201611 0 -240.72521936201611 205.76270489637227 0 0 0 0 570.38258785751532 -456.39859665949268 0 -456.39859665949268 648.04438159761492 0 0 0 0 635.0598470793193 -208.05113475586575 0 -208.05113475586575 457.52038050024339 0 0 0 0 1294.2223437984539 -571.96745489013949 0 -571.96745489013949 334.3248818591519 0 0 0 0 1593.3715260766621 -1108.6406332207266 0 -1108.6406332207266 661.18816194946112 0 0 0 0 1221.8765533496044 -216.12966511903818 0 -216.12966511903818 783.12165834061068 0 0 0 0 2545.8908641981543 -1328.6792085394866 0 -1328.6792085394866 535.51893391536578 0 0 0 0 832.51843241389724 -497.35640326406497 0 -497.35640326406497 718.27903469685748 0 0 0 0 1072.2057867083859 -596.94200723374411 0 -596.94200723374411 274.42644496794583 0 0 0 0 353.3056928771548 -543.26927741251097 0 -543.26927741251097 549.00138442237346 0 0 0 0 1.9313930290518329 19.603665227140709 0 19.603665227140709 259.93270474598864 0 0 0 0 141.75061296901549 -308.97731459782892 0 -308.97731459782892 514.26301294034351 0 0 0 0 402.85027773015599 -559.73100285561941 0 -559.73100285561941 126.50815572772808 0 0 0 0 18.585688259739641 -2.5563731823097982 0 -2.5563731823097982 -3.615147678677483 0 0 0 0 460.63002305368718 257.70492621549676 0 257.70492621549676 -889.59266250225619 0 0 0 0 1062.4588914101769 -1174.1687530580048 0 -1174.1687530580048 1437.0389502270732 0 0 0 0 1525.6555206641642 -2443.4056213385984 0 -2443.4056213385984 2544.8428634837273 0 0 0 0 1049.3683802609012 -961.73648601087461 0 -961.73648601087461 398.16535601680101 0 0 0 0 44.259754775213764 1.0207939882778874 0 1.0207939882778874 -7.2142392529223596 0 0 0 0 408.13990500291766 -548.10618766666255 0 -548.10618766666255 223.11387770139845 0 0 0 0 507.68060632783454 -240.65140294566208 0 -240.65140294566208 -439.11802365343658 0 0 0 0 1205.0952967522317 -408.39966169064292 0 -408.39966169064292 -91.908629323016612 0 0 0 0 -817.17511624783219 -379.17051671558994 0 -379.17051671558994 216.59024599852467 0 0 0 0 -1.5599431587172958 -0.86583535095073216 0 -0.86583535095073216 -5.1462336292032891 0 0 0 0 292.51433861802798 -570.55727451669236 0 -570.55727451669236 418.95904559608653 0 0 0 0 571.4305842895119 -259.12282265444492 0 -259.12282265444492 473.1285871439768 0 0 0 0 1812.8274009178131 -1082.002497204141 0 -1082.002497204141 -71.740531533455396 0 0 0 0 4500.6730957440959 -611.29636828778303 0 -611.29636828778303 -657.20378393245642 0 0 0 0 2787.5196712884936 315.5931654113021 0 315.5931654113021 -825.19372409753726 0 0 0 0 2058.3515233250946 174.00590333150379 0 174.00590333150379 -807.63179545774949 0 0 0 0 1601.1877995295581 505.51740972789077 0 505.51740972789077 -189.2306626316423 0 0 0 0 633.41518090856607 -370.38224691050499 0 -370.38224691050499 -46.077287667450378 0 0 0 0 4491.9922794473096 1212.2568295289798 0 1212.2568295289798 -695.85048543899279 0 0 0 0 938.80226497167314 1747.1564732507254 0 1747.1564732507254 1276.0714344544715 0 0 0 0 26.245003469300457 -0.17878622926237853 0 -0.17878622926237853 3.5777974217664053 0 0 0 0 1504.190317811459 -2689.500702082094 0 -2689.500702082094 3356.5125224376834 0 0 0 0 63.583568519882078 3.0800862589205664 0 3.0800862589205664 -7.0355824230750841 0 0 0 0 300.78240784010268 -181.42284758695564 0 -181.42284758695564 125.12714781323211 0 0 0 0 50.98928586623515 -51.621954694354542 0 -51.621954694354542 -83.277124194130693 0 0 0 0 17.611980264565947 -4.1428152207817561 0 -4.1428152207817561 -21.474156288455152 0 0 0 0 293.82405016146367 -155.04414444251324 0 -155.04414444251324 81.841166659986243 0 0 0 0 438.95160730821954 -440.0199654526607 0 -440.0199654526607 272.05060693958058 0 0 0 0 393.62707329603654 -197.37780854642929 0 -197.37780854642929 58.675782092251211 0 0 0 0 138.81606335322431 -24.495263361264385 0 -24.495263361264385 0.25143372753784243 0 0 0 0 211.51078298018547 -27.331134916270457 0 -27.331134916270457 -228.79156638260372 0 0 0 0 404.52550423203502 -158.86400030029142 0 -158.86400030029142 9.3297435753590321 0 0 0 0 923.96115556108998 -687.61851353090526 0 -687.61851353090526 -3.7180921419912654 0 0 0 0 6.0746580157784251 1.8906602504475529 0 1.8906602504475529 0.96447870734460683 0 0 0 0 470.36598234373741 -285.75025244394351 0 -285.75025244394351 187.89238785141049 0 0 0 0 557.47574724967126 -52.482899470348514 0 -52.482899470348514 4.4824415914769418 0 0 0 0 206.66032498509958 65.385946826331235 0 65.385946826331235 -12.98518325436396 0 0 0 0 171.17087500471098 -37.971677062208528 0 -37.971677062208528 29.116692960158058 0 0 0 0 376.18246737329173 -78.932242365595172 0 -78.932242365595172 -50.239708415614878 0 0 0 0 243.80313108452538 -53.213962149023878 0 -53.213962149023878 289.13956822739829 0 0 0 0 229.67122385183029 26.147069441659781 0 26.147069441659781 -10.986143887321049 0 0 0 0 247.18133002483228 -148.58441888468661 0 -148.58441888468661 29.557264558348493 0 0 0 0 548.51769191634958 -128.64813565211091 0 -128.64813565211091 -37.519270993702662 0 0 0 0 116.09257812176656 80.997034513054643 0 80.997034513054643 80.108546857560086 0 0 0 0 2.8495501170373245 -2.3945763785566747 0 -2.3945763785566747 3.630595288141131 0 0 0 0 4.350928379331652 -2.62254853523919 0 -2.62254853523919 -0.4499683653999465 0 0 0 0 65.861650105958688 2.6680164653131593 0 2.6680164653131593 -8.2373007985909616 0 0 0 0 12.616192211086855 -3.5273023167932291 0 -3.5273023167932291 -5.0883776497618918 0 0 0 0 61.446110042830696 -13.138891215627581 0 -13.138891215627581 -12.251999983237177 0 0 0 0 21.747424370999056 -10.824458162279026 0 -10.824458162279026 -0.72295982786025914 0 0 0 0 -17.942201619793195 -49.977537835178282 0 -49.977537835178282 -0.87548004184282036 0 0 0 0 -18.315450996975414 -49.469725479842964 0 -49.469725479842964 -1.4498806687666956 0 0 0 0 1.6417328230121484 -5.9885969266705672 0 -5.9885969266705672 19.195053415029154 0 0 0 0 360.78144371630333 -160.81401704110809 0 -160.81401704110809 46.897815806111794 0 0 0 0 5.1233411226130556 -34.967435157901264 0 -34.967435157901264 -8.5229139068987934 0 0 0 0 -34.970299429725856 -17.59934102625266 0 -17.59934102625266 7.2298477112790351 0 0 0 0 -97.536263402056647 -46.855453737523021 0 -46.855453737523021 10.844019598905788 0 0 0 0 -119.99233245089999 -90.083282537122614 0 -90.083282537122614 4.9959437244895071 0 0 0 0 -87.430255384402699 -141.75106726396302 0 -141.75106726396302 31.333872748547947 0 0 0 0 -50.165212867992523 -71.79569334064729 0 -71.79569334064729 -15.606708803534275 0 0 0 0 1872.1503683812043 -600.90475682154715 0 -600.90475682154715 0.074817640340197611 0 0 0 0 -74.554586580139585 -166.56914691548241 0 -166.56914691548241 -37.790994356740612 0 0 0 0 -78.983771943821921 -152.24985701166065 0 -152.24985701166065 17.125877948491507 0 0 0 0 -61.861360178885661 -169.85695165015471 0 -169.85695165015471 -3.5454821398143395 0 0 0 0 -53.314894732044195 -224.19174537727304 0 -224.19174537727304 -92.297649478799485 0 0 0 0 6.9913657074139337 -88.831453890290391 0 -88.831453890290391 -74.334506088735907 0 0 0 0 27.758679636932243 -9.5649552463394585 0 -9.5649552463394585 -2.5310275111375158 0 0 0 0 12.899519979742763 -151.42753849225619 0 -151.42753849225619 -282.56518714087724 0 0 0 0 84.272700199879182 5.0375046520318731 0 5.0375046520318731 -18.235719317499338 0 0 0 0 222.29908498325676 -101.79489790867714 0 -101.79489790867714 -11.2236765815338 0 0 0 0 156.17559703156257 -305.29299816022785 0 -305.29299816022785 292.90171722633664 0 0 0 0 360.11297833325807 -158.04347170697653 0 -158.04347170697653 355.13821030107357 0 0 0 0 19.301560624400736 -362.1645922524483 0 -362.1645922524483 -799.29771300383095 0 0 0 0 31.649191649568877 -7.4840217933581457 0 -7.4840217933581457 -2.1716893996628208 0 0 0 0 220.35882340515673 797.44471908752621 0 797.44471908752621 -158.30964565098293 0 0 0 0 -334.99809319848282 -306.56696460512819 0 -306.56696460512819 238.6312353156045 0 0 0 0 198.91356333941803 198.00888529647773 0 198.00888529647773 380.09141475413867 0 0 0 0 673.07271945136017 -128.96985759005088 0 -128.96985759005088 244.23353746757675 0 0 0 0 696.23329761066998 -9.393540665686487 0 -9.393540665686487 432.13605587880375 0 0 0 0 -37.112948233138013 -209.11669745959045 0 -209.11669745959045 285.80045451215847 0 0 0 0 -4.943507831194438 -198.52378334231207 0 -198.52378334231207 -3.5061107405109966 0 0 0 0 197.3405567209993 -1.9777506237032867 0 -1.9777506237032867 315.13410953217044 0 0 0 0 -41.679381035850383 15.505289310153557 0 15.505289310153557 438.11384334687364 0 0 0 0 12.665380591904977 95.887121604481308 0 95.887121604481308 368.60896154610043 0 0 0 0 458.83641155215446 35.214448651438715 0 35.214448651438715 338.19462885639996 0 0 0 0 191.73614898655069 3.4772599535021982 0 3.4772599535021982 442.50097626270872 0 0 0 0 680.53542183134414 -304.94518876271468 0 -304.94518876271468 438.0900959364385 0 0 0 0 369.46859645610675 -64.187642914695516 0 -64.187642914695516 391.73898015485588 0 0 0 0 115.36469916522037 10.674624210312913 0 10.674624210312913 444.63327908787028 0 0 0 0 149.12615897944488 137.2709847929865 0 137.2709847929865 304.85486788580738 0 0 0 0 292.64967269107728 -117.94661343714279 0 -117.94661343714279 389.79165494142262 0 0 0 0 -29.187151257472578 37.938654898282124 0 37.938654898282124 415.58206776156294 0 0 0 0 124.39123770775041 76.467789420988552 0 76.467789420988552 224.59555927712512 0 0 0 0 64.206850064590981 219.17066948576013 0 219.17066948576013 118.85241323518255 0 0 0 0 9.6991859033005312 192.48880832535065 0 192.48880832535065 110.60764741118908 0 0 0 0 -53.222850508260308 364.24711197666204 0 364.24711197666204 -187.44501128017691 0 0 0 0 66.682328711671289 -62.241216561149713 0 -62.241216561149713 -31.630708812354669 0 0 0 0 -335.76600649784086 80.524360625777717 0 80.524360625777717 255.50044178019931 0 0 0 0 56.954935605201172 279.04316998913458 0 279.04316998913458 -38.930408660314953 0 0 0 0 29.877506721066311 202.80613426022128 0 202.80613426022128 114.41221550213527 0 0 0 0 51.122546911443351 168.97521051220565 0 168.97521051220565 91.048692120751298 0 0 0 0 12.689612117246725 109.08997186327679 0 109.08997186327679 329.27921434716836 0 0 0 0 50.724695452692686 116.67247609326023 0 116.67247609326023 325.23764364201952 0 0 0 0 43.936746607680107 209.03106148002996 0 209.03106148002996 187.15714110126055 0 0 0 0 121.6009856754481 98.204367357798944 0 98.204367357798944 272.27924065723255 0 0 0 0 19.204960653940361 156.64841926203428 0 156.64841926203428 210.99728969526768 0 0 0 0 -13.668321198492777 38.782758923113761 0 38.782758923113761 245.49855713641637 0 0 0 0 -3.6497068621829385 124.14388765540605 0 124.14388765540605 112.01626593641345 0 0 0 0 -5.7729041372876964 129.86123360699492 0 129.86123360699492 97.313279045426043 0 0 0 0 -12.456221704283962 132.22611102976873 0 132.22611102976873 192.74770201535875 0 0 0 0 26.878360403352417 150.93596718354229 0 150.93596718354229 93.97492801982915 0 0 0 0 20.428696790026152 133.09635598404256 0 133.09635598404256 48.178532844101483 0 0 0 0 40.604995784116909 176.7452896710216 0 176.7452896710216 -18.681267527495606 0 0 0 0 40.714854697231203 74.769071369039807 0 74.769071369039807 57.336250914486271 0 0 0 0 33.058480263673118 80.985631040459964 0 80.985631040459964 52.641094599175858 0 0 0 0 41.122391004784731 98.548001609692733 0 98.548001609692733 17.316324018874639 0 0 0 0 -8.2475039399869274 108.36675606621907 0 108.36675606621907 83.94838275576933 0 0 0 0 -8.4185376766254194 80.528379130160943 0 80.528379130160943 57.572110843187652 0 0 0 0 -1.4893543171056081 85.040941418250782 0 85.040941418250782 58.633915220699464 0 0 0 0 -27.878347025485709 74.216410718971701 0 74.216410718971701 82.178136306695251 0 0 0 0 -52.717766670131823 58.201359457542139 0 58.201359457542139 168.37560489304292 0 0 0 0 -66.502786393641145 14.132934633277102 0 14.132934633277102 59.028618994186218 0 0 0 0 -82.662744482338894 -36.002242987570924 0 -36.002242987570924 64.92540410987931 0 0 0 0 -90.456770331293228 -30.895709641847304 0 -30.895709641847304 181.63625111061447 0 0 0 0 -56.644182167685358 5.3443516112583893 0 5.3443516112583893 120.66517011475094 0 0 0 0 -49.386946198894293 42.354932560658426 0 42.354932560658426 307.67599319967348 0 0 0 0 -8.0561358400118479 -76.984065349540117 0 -76.984065349540117 187.50673781813566 0 0 0 0 -71.368609772558557 -115.41137000181698 0 -115.41137000181698 129.80315422183116 0 0 0 0 -60.555470818508184 -190.31919679264013 0 -190.31919679264013 54.251446460842089 0 0 0 0 -65.291631668864284 -73.970376729723739 0 -73.970376729723739 216.22782323326192 0 0 0 0 -71.78452538716374 -181.36630500468823 0 -181.36630500468823 181.21516849065756 0 0 0 0 -102.40149208397634 -133.67901422126596 0 -133.67901422126596 76.226610757171329 0 0 0 0 -90.171686476795003 -100.51200028584708 0 -100.51200028584708 118.26602587153684 0 0 0 0 -149.9864558780846 -113.24379681963717 0 -113.24379681963717 43.386339506473632 0 0 0 0 -122.75686155198491 -101.8382143395927 0 -101.8382143395927 26.508729979133733 0 0 0 0 0.0010506299035846212 -3.8950585242281477 0 -3.8950585242281477 13.074598369702484 0 0 0 0 731.67485695650976 -199.07396851481894 0 -199.07396851481894 844.68901656728644 0 0 0 0 -181.56696764414664 -73.527923800329518 0 -73.527923800329518 27.341082675511188 0 0 0 0 -156.73451982138795 -53.724559130508851 0 -53.724559130508851 -42.020627113054161 0 0 0 0 933.04237902844761 233.68490158812304 0 233.68490158812304 -163.32168176737113 0 0 0 0 731.458393154433 201.05582169719113 0 201.05582169719113 -203.11780012702161 0 0 0 0 -297.04062657229952 36.661026973690468 0 36.661026973690468 -3.308226787376725 0 0 0 0 -229.11758319335058 -84.592206118219451 0 -84.592206118219451 37.042374333626867 0 0 0 0 -125.83948532352224 -63.858297676136317 0 -63.858297676136317 58.907261820485019 0 0 0 0 -142.36820909616654 -28.878938481015439 0 -28.878938481015439 -10.044625547021951 0 0 0 0 -144.50863547627523 -48.884612608786483 0 -48.884612608786483 26.344144967001284 0 0 0 0 -59.002160897653084 17.858551827519705 0 17.858551827519705 38.85933568223777 0 0 0 0 -150.1456766318297 -36.176504398075281 0 -36.176504398075281 -1.8930035560993019 0 0 0 0 -271.41465068771504 -123.46824408086491 0 -123.46824408086491 33.465420450453735 0 0 0 0 -125.06913423835067 -67.382513307598231 0 -67.382513307598231 23.353582840529839 0 0 0 0 -74.272791829775088 -97.867259986786848 0 -97.867259986786848 6.4784718423306913 0 0 0 0 -58.261660645235679 25.898030433533108 0 25.898030433533108 43.651500354004384 0 0 0 0 1.055576020735316 -2.003415705519842 0 -2.003415705519842 9.5569462398615883 0 0 0 0 -1.0818458980938885 28.81802635923172 0 28.81802635923172 52.038920187884287 0 0 0 0 28.74049791629659 55.15232965607224 0 55.15232965607224 41.984463378933562 0 0 0 0 179.6802162824024 -17.379793729944367 0 -17.379793729944367 8.8803580618889555 0 0 0 0 85.046960406689323 -57.712391040882693 0 -57.712391040882693 18.059280309613087 0 0 0 0 143.11473682140058 65.563648795522909 0 65.563648795522909 62.455819324175536 0 0 0 0 41.833595442949445 80.029357128030085 0 80.029357128030085 73.71998204809006 0 0 0 0 88.767213622137206 19.84202469563094 0 19.84202469563094 52.87695605061991 0 0 0 0 9.5696616122877458 38.063584245002858 0 38.063584245002858 -100.47326234644709 0 0 0 0 2.3333315790532936 1.6085411712544442 0 1.6085411712544442 0.21538577639524403 0 0 0 0 147.04754252133716 -94.953197038853659 0 -94.953197038853659 -14.030054770945782 0 0 0 0 0.30500534286706582 -1.184381857195973 0 -1.184381857195973 4.1982838933203492 0 0 0 0 935.45041406153541 -105.11691190633049 0 -105.11691190633049 -276.21339314579973 0 0 0 0 -488.87586182530504 -98.979156367568194 0 -98.979156367568194 111.69242239770256 0 0 0 0 262.82220784577657 -784.82776895965026 0 -784.82776895965026 354.3976145722919 0 0 0 0 636.50775822391734 -27.843980961509715 0 -27.843980961509715 -6.8072569999078496 0 0 0 0 -240.7436315214436 -252.81352723368082 0 -252.81352723368082 5.6386970870764799 0 0 0 0 -87.831132568942849 -235.53754931582694 0 -235.53754931582694 -34.610410398188151 0 0 0 0 513.73729028832167 -433.25710185405626 0 -433.25710185405626 186.84891237077849 0 0 0 0 -25.302426383655984 -10.362193933905758 0 -10.362193933905758 -63.106577143929201 0 0 0 0 353.40480494041185 88.113382127037411 0 88.113382127037411 -82.81367559708815 0 0 0 0 7.4545528490395156 5.0879247121426374 0 5.0879247121426374 -0.16393142970656716 0 0 0 0 -143.01748805870011 128.43444358081427 0 128.43444358081427 -48.040802073964187 0 0 0 0 2.5563728066796614 2.3917734155539563 0 2.3917734155539563 1.7761081999590296 0 0 0 0 -209.20172792507219 35.039213744834058 0 35.039213744834058 109.13021457141878 0 0 0 0 285.31730462299311 -273.26951657701102 0 -273.26951657701102 411.93059820262073 0 0 0 0 488.98994049913017 0.062411706113380205 0 0.062411706113380205 168.82373752259127 0 0 0 0 298.61179197393358 -149.55097789027786 0 -149.55097789027786 51.46779172548122 0 0 0 0 320.20671650176519 -64.225532872960684 0 -64.225532872960684 -111.45053884063236 0 0 0 0 678.58344733828562 -187.45757293725467 0 -187.45757293725467 -63.949429985961615 0 0 0 0 259.25185530126328 -28.030981843105451 0 -28.030981843105451 -286.95371115475518 0 0 0 0 -79.06106151631684 1.7062172445751003 0 1.7062172445751003 -84.326840432807444 0 0 0 0 187.81254600657849 -6.7050955030390469 0 -6.7050955030390469 -23.074058231547156 0 0 0 0 243.97113999334397 -242.00204289680846 0 -242.00204289680846 69.532468992119789 0 0 0 0 329.19511327866348 -230.65217217996508 0 -230.65217217996508 50.906683860989688 0 0 0 0 175.55524659249932 -203.61639847577214 0 -203.61639847577214 104.17624776525463 0 0 0 0 262.53910677699605 -167.82192273061196 0 -167.82192273061196 81.69828067164417 0 0 0 0 206.14138362290396 -17.478313105559977 0 -17.478313105559977 -109.23047999850246 0 0 0 0 367.25788144802209 -107.12640929524261 0 -107.12640929524261 20.135830600158442 0 0 0 0 572.48588957992615 -234.43627201056864 0 -234.43627201056864 95.007914652012232 0 0 0 0 313.7182770777581 -137.79473572416248 0 -137.79473572416248 134.64734433497131 0 0 0 0 390.9476167508401 -334.02882035018604 0 -334.02882035018604 154.43747343111761 0 0 0 0 501.20686313258193 -138.57215590385215 0 -138.57215590385215 224.06864670934704 0 0 0 0 365.94315097865183 -228.58205662663812 0 -228.58205662663812 248.63466694142738 0 0 0 0 475.47104859421961 -194.37581336844841 0 -194.37581336844841 103.54968519425313 0 0 0 0 353.09018663479947 -260.83546272160487 0 -260.83546272160487 352.87326217096694 0 0 0 0 -141.46579986541474 223.9723284643344 0 223.9723284643344 0.10804309092858944 0 0 0 0 402.81682747055311 -165.68819370005741 0 -165.68819370005741 340.83728172499229 0 0 0 0 724.58126701714355 -372.71185887988054 0 -372.71185887988054 77.575196835776637 0 0 0 0 2.3491257873514257 1.5602022562394779 0 1.5602022562394779 0.41369790355523933 0 0 0 0 640.20261277386453 -358.80838970455585 0 -358.80838970455585 174.74319306884883 0 0 0 0 -322.24190131448267 -10.904606592286108 0 -10.904606592286108 167.26184436886604 0 0 0 0 71.264613242034102 94.433898741713278 0 94.433898741713278 -272.93382455838582 0 0 0 0 537.32366001122864 -0.91940128443377489 0 -0.91940128443377489 -231.37305979668167 0 0 0 0 212.01955840317532 -149.36753321028414 0 -149.36753321028414 -187.21344909061688 0 0 0 0 446.39977664669277 116.50493025511696 0 116.50493025511696 -71.283208278722896 0 0 0 0 -348.98398026949144 69.565346470551688 0 69.565346470551688 56.674018582235874 0 0 0 0 82.611779548460618 255.67467482898533 0 255.67467482898533 -10.13941642972344 0 0 0 0 308.22795746389238 335.47582714292389 0 335.47582714292389 64.95969638555917 0 0 0 0 -82.013193537539337 101.74807010252056 0 101.74807010252056 39.004109869399464 0 0 0 0 339.17288378332159 -35.884208879784893 0 -35.884208879784893 -133.94570701203565 0 0 0 0 -149.76711210736539 158.25590310924125 0 158.25590310924125 38.154227039301674 0 0 0 0 0.24964854881679344 0.95611807339761867 0 0.95611807339761867 1.301270961809516 0 0 0 0 18.536179985851049 35.331642823299177 0 35.331642823299177 -14.249291835214876 0 0 0 0 -152.40149586304324 128.72720744556705 0 128.72720744556705 -88.884107641891603 0 0 0 0 -258.02700470147101 285.39233406341413 0 285.39233406341413 51.444817894899359 0 0 0 0 -166.92358355579927 301.0354643053289 0 301.0354643053289 21.573513350608238 0 0 0 0 291.59762345629861 321.51499740626582 0 321.51499740626582 -249.85937670079511 0 0 0 0 15.690841065848048 8.6183594148878555 0 8.6183594148878555 3.9523266142643472 0 0 0 0 -15.898710566343652 -41.770613260900177 0 -41.770613260900177 164.30089395146479 0 0 0 0 24.947447434620699 -7.4360536282295016 0 -7.4360536282295016 -47.880118882750821 0 0 0 0 -228.19542391774303 -409.00031185460102 0 -409.00031185460102 777.79615270470094 0 0 0 0 -227.27253181315245 -357.52829374561884 0 -357.52829374561884 296.42853286414356 0 0 0 0 -203.98302031894127 -63.464724304591527 0 -63.464724304591527 -126.79939412832482 0 0 0 0 -18.813635444210377 546.06126009659374 0 546.06126009659374 1297.9646362852636 0 0 0 0 1662.1082345643808 814.55274493674142 0 814.55274493674142 107.62983690844158 0 0 0 0 933.16807231870189 640.06437573943117 0 640.06437573943117 -432.68153725297088 0 0 0 0 19.6446855668853 2.1932677430391294 0 2.1932677430391294 0.85519020082085362 0 0 0 0 131.027879901696 -639.69675016511428 0 -639.69675016511428 865.51971923608562 0 0 0 0 -358.55646989832167 245.53055675649648 0 245.53055675649648 265.96183273161296 0 0 0 0 641.35757985625241 -118.66142421991208 0 -118.66142421991208 -759.05526520005924 0 0 0 0 691.39819516894931 -398.57986066190688 0 -398.57986066190688 -895.02708771169068 0 0 0 0 161.69005878128448 3.3062353407494776 0 3.3062353407494776 -1.0856686257224619 0 0 0 0 461.20524007000495 -428.9884485269813 0 -428.9884485269813 26.962642075772692 0 0 0 0 999.34194883232703 -823.15800855094039 0 -823.15800855094039 33.734138832529425 0 0 0 0 859.77563503757119 -607.77418079787003 0 -607.77418079787003 -480.00906088942429 0 0 0 0 -130.45855549338739 -588.81846808108821 0 -588.81846808108821 -476.35915828741781 0 0 0 0 202.10895608461578 -283.0407919835111 0 -283.0407919835111 -112.0662893392871 0 0 0 0 28.407558285478387 -11.555211847618864 0 -11.555211847618864 -5.2150751125487762 0 0 0 0 92.446527569773025 320.84915404643232 0 320.84915404643232 -514.3366246066189 0 0 0 0 -194.94526414561551 233.35238338111139 0 233.35238338111139 -194.38630900529824 0 0 0 0 107.35547153378138 238.19578464297319 0 238.19578464297319 -358.1514426733952 0 0 0 0 121.13554845313774 149.69678670873191 0 149.69678670873191 -266.19162749910402 0 0 0 0 189.72366165567655 57.416970318737185 0 57.416970318737185 -280.22278542702907 0 0 0 0 147.35749168535403 36.724236030996053 0 36.724236030996053 -98.167171993841293 0 0 0 0 129.81525569883524 -1.5900599584585962 0 -1.5900599584585962 -585.70465359577702 0 0 0 0 373.21926266833907 -202.99096561780607 0 -202.99096561780607 -65.14191833375753 0 0 0 0 402.96566066297237 -286.41383798289229 0 -286.41383798289229 -41.702201599548061 0 0 0 0 461.60759263588261 -70.557705464393223 0 -70.557705464393223 -103.02597699588841 0 0 0 0 279.16025882947724 -5.738234142022975 0 -5.738234142022975 -190.41457213919966 0 0 0 0 305.90541966637829 -74.961931425614239 0 -74.961931425614239 -142.24855608618236 0 0 0 0 194.27057222649455 -119.2343989939327 0 -119.2343989939327 -74.987123961939687 0 0 0 0 163.80954926769482 21.04766070281039 0 21.04766070281039 -216.1772117734763 0 0 0 0 124.45154145383276 -77.965739111503694 0 -77.965739111503694 -84.173644410388079 0 0 0 0 38.845640618703328 112.68908867306254 0 112.68908867306254 -189.20366786398523 0 0 0 0 -59.280889489629772 98.173266882378812 0 98.173266882378812 -141.19987459981894 0 0 0 0 6.9090425544418395 -15.496614736139918 0 -15.496614736139918 -178.00063793357185 0 0 0 0 41.654733967268839 48.609170476305735 0 48.609170476305735 -209.13634359224488 0 0 0 0 64.160897625843063 -71.449122968266238 0 -71.449122968266238 -206.12261586741079 0 0 0 0 193.38784958334872 -28.528655645748586 0 -28.528655645748586 -210.66434991083406 0 0 0 0 424.1669530756044 -295.47227845938642 0 -295.47227845938642 -53.758841968858178 0 0 0 0 207.14421638729982 -149.38924772373957 0 -149.38924772373957 -96.679744461125665 0 0 0 0 272.20969137135398 -227.27952927437445 0 -227.27952927437445 -39.040499722374079 0 0 0 0 291.65362018707674 -113.0220432019978 0 -113.0220432019978 -99.860048725550314 0 0 0 0 249.60708703045384 -202.26863513902526 0 -202.26863513902526 200.36019515823682 0 0 0 0 22.207534038214362 1045.6194088435122 0 1045.6194088435122 -446.98758782442928 0 0 0 0 199.85456794407219 109.40973432848114 0 109.40973432848114 -173.98665072340373 0 0 0 0 158.38663910227234 38.021765757635436 0 38.021765757635436 -4.92284939067211 0 0 0 0 189.88012776657706 241.72793937625647 0 241.72793937625647 -305.56003853149605 0 0 0 0 222.81557760492433 52.24865919158583 0 52.24865919158583 -375.57595959138416 0 0 0 0 169.89266885141842 14.287941058419165 0 14.287941058419165 -401.69954467189655 0 0 0 0 -210.47243174778123 -71.717192129769501 0 -71.717192129769501 -258.52413053998316 0 0 0 0 -210.4724317479413 -71.717192129883188 0 -71.717192129883188 -258.52413053996861 0 0 0 0 -108.83166235778481 20.716011268960756 0 20.716011268960756 -204.29294485338323 0 0 0 0 -210.4724317479413 -71.717192129886826 0 -71.717192129886826 -258.52413053996133 0 0 0 0 -11.993896072846837 -51.127952751423436 0 -51.127952751423436 -362.12261696100904 0 0 0 0 69.976817475515418 -57.186013261579319 0 -57.186013261579319 -364.01216540152382 0 0 0 0 132.44254577020183 38.591473347179999 0 38.591473347179999 -218.35439523259174 0 0 0 0 -842.92280984875106 311.6286843295743 0 311.6286843295743 -34.63891253163456 0 0 0 0 83.899878415337298 286.83308964184107 0 286.83308964184107 -35.85703009027111 0 0 0 0 -125.79839917713252 420.52280145968052 0 420.52280145968052 -78.251280305867112 0 0 0 0 534.52363866844462 976.92218689937829 0 976.92218689937829 -504.83933232163872 0 0 0 0 81.281785499042599 241.29653005918908 0 241.29653005918908 -96.708128850990761 0 0 0 0 205.66544151090784 -91.033381469967935 0 -91.033381469967935 -96.460708872980433 0 0 0 0 421.53241347160656 34.329168259444032 0 34.329168259444032 -54.764968426366977 0 0 0 0 187.21723378791648 -31.519278706506384 0 -31.519278706506384 387.81585127452854 0 0 0 0 225.93569083679904 6.621427548524025 0 6.621427548524025 5.7926162376461434 0 0 0 0 250.04464780184207 -17.16076833889656 0 -17.16076833889656 -56.097669797356502 0 0 0 0 -137.89682187576545 101.54810325809956 0 101.54810325809956 58.436828965898712 0 0 0 0 309.83505514760327 -384.56841475290639 0 -384.56841475290639 255.00879318052466 0 0 0 0 567.11423860136711 -419.75896597380472 0 -419.75896597380472 11.330863203227636 0 0 0 0 9.8340946759835504 9.8183848481086784 0 9.8183848481086784 1.1516011764313872 0 0 0 0 77.261072206572862 44.743134569920358 0 44.743134569920358 138.6796643108853 0 0 0 0 73.725146571683581 28.137211664175709 0 28.137211664175709 72.787867783828688 0 0 0 0 218.46542838751338 -8.6439564554939352 0 -8.6439564554939352 -112.82024575013611 0 0 0 0 141.48637196862546 -58.839217899914388 0 -58.839217899914388 65.322103553958186 0 0 0 0 101.64065203332575 15.13955432537341 0 15.13955432537341 -31.643096194005011 0 0 0 0 352.52613987682707 -119.92616476499234 0 -119.92616476499234 -60.217176328833375 0 0 0 0 72.8015064203355 66.180799640804253 0 66.180799640804253 -64.342415656420144 0 0 0 0 104.64198739599669 7.1269199825542273 0 7.1269199825542273 -47.553267477489499 0 0 0 0 30.523811623809252 10.434080519045892 0 10.434080519045892 6.2110842414742127 0 0 0 0 105.17536710898275 8.9855086428451614 0 8.9855086428451614 -56.547517285058348 0 0 0 0 145.71587585870293 67.132765625086449 0 67.132765625086449 -103.42724245284359 0 0 0 0 96.601174163399264 14.067889985173679 0 14.067889985173679 -58.332468647878159 0 0 0 0 74.196226076712264 20.668736934325707 0 20.668736934325707 -49.175426178137968 0 0 0 0 76.983393514008441 20.947975802015854 0 20.947975802015854 -4.898155878969721 0 0 0 0 108.88115235135774 -30.289048425050169 0 -30.289048425050169 17.921906460432183 0 0 0 0 55.207485143066151 34.956213861650212 0 34.956213861650212 -43.663705639717591 0 0 0 0 -737.0656913905259 -174.4388496502097 0 -174.4388496502097 2.9701627532595012 0 0 0 0 91.185070704550355 -18.097568117230878 0 -18.097568117230878 -12.544118470450998 0 0 0 0 117.08370213028684 4.9100598719887785 0 4.9100598719887785 163.62570074389441 0 0 0 0 114.60244382434757 -74.252691190255064 0 -74.252691190255064 169.57139623379408 0 0 0 0 99.36265428861293 42.270407809210184 0 42.270407809210184 -1.3254819113878824 0 0 0 0 297.50489621487213 -17.951618072572273 0 -17.951618072572273 -104.999988547763 0 0 0 0 -15.399365204095375 238.35875397502605 0 238.35875397502605 -66.821122389257198 0 0 0 0 143.1156228400985 32.175046764000825 0 32.175046764000825 -0.69273686534772594 0 0 0 0 -332.58904395368154 -171.40454046697027 0 -171.40454046697027 436.92774812518473 0 0 0 0 18.921201181314245 26.612056866276887 0 26.612056866276887 -4.191730442534829 0 0 0 0 77.605130487005226 -16.24085749331698 0 -16.24085749331698 264.1176849174999 0 0 0 0 160.52292575409228 13.117284489485883 0 13.117284489485883 -232.064352889605 0 0 0 0 16.717252972964161 7.4785952505488353 0 7.4785952505488353 2.7577666928304883 0 0 0 0 103.55507887460408 -92.698394442843892 0 -92.698394442843892 222.31668253764974 0 0 0 0 225.01893296411436 -216.73188829836477 0 -216.73188829836477 -188.29062196164205 0 0 0 0 170.82229687299696 -108.75063360224294 0 -108.75063360224294 -77.212436161794585 0 0 0 0 146.96632878182777 -52.225595763813892 0 -52.225595763813892 29.819742273091833 0 0 0 0 149.3216121482983 -78.984501337859911 0 -78.984501337859911 -52.920700705254603 0 0 0 0 96.041843477083603 -130.55094697397908 0 -130.55094697397908 86.697880798041751 0 0 0 0 78.731405410551815 -29.795232889146291 0 -29.795232889146291 -2.2785233208346654 0 0 0 0 52.451269325934049 8.2354763297218625 0 8.2354763297218625 -8.9355078556322134 0 0 0 0 36.577063783562863 10.32604723222839 0 10.32604723222839 8.2160094443793117 0 0 0 0 692.06129808846163 186.67527663053079 0 186.67527663053079 -24.062081174712148 0 0 0 0 145.19705552709979 41.442274777838719 0 41.442274777838719 -7.2974105177736419 0 0 0 0 210.11010171867383 -238.32709576766524 0 -238.32709576766524 10.448135549454491 0 0 0 0 4.4314925086217158 0.84027374769622298 0 0.84027374769622298 0.38809378107915649 0 0 0 0 -282.48206205650786 -35.951970674824224 0 -35.951970674824224 454.10159259160173 0 0 0 0 -60.34913020656677 -12.187460096030463 0 -12.187460096030463 139.02638583606858 0 0 0 0 23.378126927054836 17.30921534860272 0 17.30921534860272 34.454323046560603 0 0 0 0 -51.543671775230905 114.2971393529815 0 114.2971393529815 -13.646191677215484 0 0 0 0 -89.949430620676139 59.890070283806381 0 59.890070283806381 113.24626645280887 0 0 0 0 77.284472717593133 -3.4327665499335893 0 -3.4327665499335893 -4.7199576335234878 0 0 0 0 543.11178061146347 -197.54840832996979 0 -197.54840832996979 -290.72121032128143 0 0 0 0 84.068449975151452 13.211618863238527 0 13.211618863238527 -44.190579547442212 0 0 0 0 87.613468972063856 9.527491962665863 0 9.527491962665863 -48.305372563741003 0 0 0 0 88.881469939857197 7.4269697671475114 0 7.4269697671475114 -46.071790120779951 0 0 0 0 70.973110027582152 -6.0753323818698846 0 -6.0753323818698846 -54.832512522455318 0 0 0 0 92.407332976203179 5.4167243666661307 0 5.4167243666661307 -45.049865066773236 0 0 0 0 102.64946572474764 8.3571628517562999 0 8.3571628517562999 -44.964106558488311 0 0 0 0 81.411448696890147 18.402190448678311 0 18.402190448678311 13.088686768602884 0 0 0 0 78.878298532974441 37.161540851802329 0 37.161540851802329 -65.679463345445583 0 0 0 0 63.512932011362864 54.993070110877625 0 54.993070110877625 2.182197750706905 0 0 0 0 77.093961561360629 134.32248899587648 0 134.32248899587648 -9.8157054047970007 0 0 0 0 68.169330574717605 115.71785797815051 0 115.71785797815051 -48.464965158394307 0 0 0 0 70.360941484192153 27.439854349358029 0 27.439854349358029 -76.642439145511617 0 0 0 0 66.076113220817433 -3.8093926123287432 0 -3.8093926123287432 -4.1722077914984457 0 0 0 0 82.109646647379122 -14.866320518849193 0 -14.866320518849193 -140.78151792467088 0 0 0 0 44.581441004876979 62.669918143710674 0 62.669918143710674 -126.82642181543588 0 0 0 0 91.019582911379985 29.448785523045103 0 29.448785523045103 -116.17460589941538 0 0 0 0 89.316287351393839 11.245343219976007 0 11.245343219976007 -154.9346630514367 0 0 0 0 86.517742086994076 -31.106784886117886 0 -31.106784886117886 -387.12392860117552 0 0 0 0 98.607416177983396 220.73374450274855 0 220.73374450274855 -308.05063540125002 0 0 0 0 73.779281993454788 155.11137115977272 0 155.11137115977272 -106.25102605340339 0 0 0 0 96.842917422036408 150.76056189863959 0 150.76056189863959 -199.29410820750627 0 0 0 0 -97.781535444810288 508.55959336434717 0 508.55959336434717 -840.66911128454922 0 0 0 0 -970.85803892085096 -23.303297111242159 0 -23.303297111242159 -24.805106921290417 0 0 0 0 51.013251443131594 189.09730427771956 0 189.09730427771956 -227.47026432337941 0 0 0 0 16.050472331287381 5.2515168039627156 0 5.2515168039627156 -8.2656693161952752 0 0 0 0 36.369206079281867 -378.87199813201505 0 -378.87199813201505 -681.68299940314967 0 0 0 0 55.990809106806068 0.38412945243781849 0 0.38412945243781849 -6.6313638291072596 0 0 0 0 72.084275021028589 -0.68973851544478748 0 -0.68973851544478748 -6.4444216504070937 0 0 0 0 17.282950475026155 -26.671935124403376 0 -26.671935124403376 -273.59252296484237 0 0 0 0 56.929585971760389 10.176952065586647 0 10.176952065586647 4.6283524013915667 0 0 0 0 61.759720715977892 10.29890936841457 0 10.29890936841457 -7.9747999692717713 0 0 0 0 57.087838020146592 1.2003760031175261 0 1.2003760031175261 -24.629345551709775 0 0 0 0 41.061204010562506 24.27641105553721 0 24.27641105553721 -25.00939890513655 0 0 0 0 58.490831343733589 21.963667910482854 0 21.963667910482854 -40.563257122792493 0 0 0 0 57.223071611864725 2.7809586485268483 0 2.7809586485268483 -8.7139943269385185 0 0 0 0 9.3763896008676966 53.158214706028048 0 53.158214706028048 -26.479315623117145 0 0 0 0 79.206886890839087 -14.139738540209692 0 -14.139738540209692 15.207469464233725 0 0 0 0 13.979387751507204 4.7896439812970186 0 4.7896439812970186 1.5854868249228797 0 0 0 0 16.888733141298871 19.566469561337726 0 19.566469561337726 -16.350624206126668 0 0 0 0 25.527107053101645 36.04335661997311 0 36.04335661997311 -10.735657683780119 0 0 0 0 30.23696230991635 2.7036749931909725 0 2.7036749931909725 3.4245725551255113 0 0 0 0 57.176396948154434 5.5711749713809695 0 5.5711749713809695 -36.865402989298218 0 0 0 0 26.932275363447843 6.9142956135283384 0 6.9142956135283384 -23.798254813011226 0 0 0 0 58.150093665426539 -26.444495996087653 0 -26.444495996087653 20.851121290516858 0 0 0 0 47.417848480976858 -12.866928968160153 0 -12.866928968160153 5.7123471847153642 0 0 0 0 79.18152805376485 -38.796195453974178 0 -38.796195453974178 24.57632662270953 0 0 0 0 60.602620857011061 -14.619383953156103 0 -14.619383953156103 -21.046632880665584 0 0 0 0 72.119589068752248 -10.121298537854273 0 -10.121298537854273 -19.521801930854508 0 0 0 0 66.861894377675583 -8.0920571368183136 0 -8.0920571368183136 -1.8882687335724258 0 0 0 0 66.873251095035812 -12.562661314990237 0 -12.562661314990237 -11.428167823607708 0 0 0 0 54.595135159383062 -26.040623673390655 0 -26.040623673390655 -12.352255371869887 0 0 0 0 5.4308625602607208 -4.318862912886182 0 -4.318862912886182 -1.3520710441714092 0 0 0 0 14.89140348203 -1.1310586107134668 0 -1.1310586107134668 -17.908207248052349 0 0 0 0 53.129232841648673 1.7741335876256557 0 1.7741335876256557 -12.546332973033181 0 0 0 0 80.207247261772864 -34.346394128401698 0 -34.346394128401698 13.342159231367987 0 0 0 0 2.0552339333284522 -3.3823871742587919 0 -3.3823871742587919 0.96141193036889638 0 0 0 0 100.05444529598753 -81.053515640678143 0 -81.053515640678143 50.116018872448194 0 0 0 0 16.817437635645376 -5.8284381280339232 0 -5.8284381280339232 -8.7341766803493108 0 0 0 0 -2.6519374979203008 -2.9802728131240599 0 -2.9802728131240599 2.4574617823674512 0 0 0 0 23.910553303488996 9.2029901033292845 0 9.2029901033292845 -21.997847012514285 0 0 0 0 90.935064255289035 36.672050251439941 0 36.672050251439941 -40.147409510580474 0 0 0 0 36.816451790626161 1.4603243975370788 0 1.4603243975370788 -24.474570455578942 0 0 0 0 30.802205189112613 14.405828537032903 0 14.405828537032903 -18.308821829902101 0 0 0 0 56.32091956844549 3.859959335522575 0 3.859959335522575 -20.438042666917625 0 0 0 0 40.628463899730662 -1.7089115267833606 0 -1.7089115267833606 -0.55372548519611087 0 0 0 0 30.599071986649662 -26.435084303401837 0 -26.435084303401837 8.0273043557201866 0 0 0 0 47.9555804447009 -49.142889222645181 0 -49.142889222645181 29.686534308744285 0 0 0 0 70.297812308668654 -43.461296747855073 0 -43.461296747855073 -1.7843782496870517 0 0 0 0 113.01377958850935 -26.557806941961758 0 -26.557806941961758 -35.760540853317138 0 0 0 0 71.537793233568664 -43.771979943385077 0 -43.771979943385077 -25.238892537935953 0 0 0 0 102.91698097405606 -9.8318558813424488 0 -9.8318558813424488 -19.778203249125738 0 0 0 0 132.32748690257722 -76.823257758733916 0 -76.823257758733916 -7.3296688189450379 0 0 0 0 76.279441000617226 -72.763772843223592 0 -72.763772843223592 -0.69181032977303403 0 0 0 0 0.29884691988991108 14.144498521066907 0 14.144498521066907 28.406928247226745 0 0 0 0 4.50590275929207 -1.0005665597099949 0 -1.0005665597099949 -1.8366650321824665 0 0 0 0 61.342575780057814 -75.373834200048236 0 -75.373834200048236 29.885681106313768 0 0 0 0 45.057429035528912 -55.36839922862282 0 -55.36839922862282 130.31407405285734 0 0 0 0 40.392174848413561 -26.746615391911519 0 -26.746615391911519 -6.3843881160491947 0 0 0 0 48.815542643213121 -14.305620501115072 0 -14.305620501115072 -20.81794429034818 0 0 0 0 10.100391950693762 -2.8013068778879102 0 -2.8013068778879102 -12.568191525630567 0 0 0 0 22.301296130390256 -32.535326260308125 0 -32.535326260308125 -0.94672024883971062 0 0 0 0 16.46564615044889 -5.6270248068560988 0 -5.6270248068560988 -15.469004255565636 0 0 0 0 11.10094254089563 -71.581914483807509 0 -71.581914483807509 -7.6979145766088095 0 0 0 0 20.352986989247668 -15.51264781035988 0 -15.51264781035988 -9.75558436559702 0 0 0 0 41.620144885397167 -29.471095531902236 0 -29.471095531902236 -7.3778391811869994 0 0 0 0 141.90823057128 -30.040677537520423 0 -30.040677537520423 20.976638322164945 0 0 0 0 26.755211359399908 8.2672139436662277 0 8.2672139436662277 1.9164730991226238 0 0 0 0 37.392978168434638 -70.951924248638534 0 -70.951924248638534 -210.75481349125221 0 0 0 0 85.15771668904199 -170.10328893879296 0 -170.10328893879296 -77.209307973386103 0 0 0 0 96.376443252607714 -377.6669860146007 0 -377.6669860146007 -125.63916964476721 0 0 0 0 307.20152707947273 43.828220648338373 0 43.828220648338373 9.0788078787425093 0 0 0 0 20.643010115144563 2.5209473901877431 0 2.5209473901877431 -6.7577361010473389 0 0 0 0 -251.60811025295698 -64.968744039062358 0 -64.968744039062358 -1.151277375109828 0 0 0 0 69.834088283845631 10.622050519191873 0 10.622050519191873 -18.746050021296469 0 0 0 0 87.366300395136932 34.840605762778978 0 34.840605762778978 -19.556573354899911 0 0 0 0 40.048539105075179 8.379093319570643 0 8.379093319570643 144.49714823278828 0 0 0 0 38.199775656918064 -2.855493749832192 0 -2.855493749832192 77.667069983746842 0 0 0 0 117.93793986403034 -81.602183148191216 0 -81.602183148191216 -13.681028430330599 0 0 0 0 56.959894323816116 -47.94391175253827 0 -47.94391175253827 60.153305495749919 0 0 0 0 59.807608755127148 -48.215893916155039 0 -48.215893916155039 15.985633914755454 0 0 0 0 92.954859396486427 818.95223737018955 0 818.95223737018955 466.44147948401178 0 0 0 0 354.50064454150561 -313.85088767542561 0 -313.85088767542561 -409.21391220889268 0 0 0 0 12.939299535018819 14.125482296479561 0 14.125482296479561 2.777728881580976 0 0 0 0 6.0075919841911798 3.7202891230936999 0 3.7202891230936999 2.2484471099472412 0 0 0 0 261.47448992260615 597.15836787428395 0 597.15836787428395 70.864487091359479 0 0 0 0 211.03434580178509 -323.82792705662985 0 -323.82792705662985 207.96160104375303 0 0 0 0 152.53094328274892 -2.130409107561718 0 -2.130409107561718 -399.41418036420055 0 0 0 0 88.790296835511981 -396.00712881881907 0 -396.00712881881907 15.069256815282984 0 0 0 0 432.75274021855512 217.11338770142294 0 217.11338770142294 -332.99216350401002 0 0 0 0 8.5101325632578835 -2.0639750601602245 0 -2.0639750601602245 0.20505851929114005 0 0 0 0 -55.70173188681656 54.664730411333835 0 54.664730411333835 498.9438699675394 0 0 0 0 -53.924239506999584 -194.00914285775042 0 -194.00914285775042 462.68377442977408 0 0 0 0 533.80157008560491 1.59266094124348 0 1.59266094124348 -25.649039587456855 0 0 0 0 148.21356488343736 28.46921518664243 0 28.46921518664243 371.67099561891644 0 0 0 0 5.7886847659337946 206.58753303923532 0 206.58753303923532 -88.396193723094484 0 0 0 0 73.031234106572811 -99.936262896349945 0 -99.936262896349945 142.65185317736541 0 0 0 0 130.76915867946082 -171.51274392747882 0 -171.51274392747882 230.72086965477592 0 0 0 0 370.62755819300946 -332.99107812356419 0 -332.99107812356419 275.82518239743183 0 0 0 0 281.02156555964029 -29.024540557812543 0 -29.024540557812543 -14.484559986032764 0 0 0 0 342.51062611021189 -168.16164299345655 0 -168.16164299345655 33.424152103723827 0 0 0 0 708.11537872732151 -117.59814978981785 0 -117.59814978981785 22.202191826349008 0 0 0 0 344.53996586985886 -106.39430080423881 0 -106.39430080423881 61.809696409193293 0 0 0 0 636.07187370443717 409.06471428496752 0 409.06471428496752 -314.96202304830911 0 0 0 0 8.3112686552582034 4.7372120292709639 0 4.7372120292709639 2.5665741367128563 0 0 0 0 294.96142462470743 341.40840256553338 0 341.40840256553338 -214.19417279239178 0 0 0 0 -80.977493206763029 -348.47175596242027 0 -348.47175596242027 -41.250599972463078 0 0 0 0 -496.82064156420529 -141.25610349665294 0 -141.25610349665294 1062.0409841817282 0 0 0 0 39.335660296841525 -37.394530802918553 0 -37.394530802918553 36.70219131398926 0 0 0 0 578.84638403925055 255.20010815033356 0 255.20010815033356 182.9719245771048 0 0 0 0 120.55627642662148 70.578727695337875 0 70.578727695337875 133.0858447236742 0 0 0 0 435.20694184732565 70.648379186241982 0 70.648379186241982 -17.82515531156605 0 0 0 0 107.88460396478877 5.433286509076197 0 5.433286509076197 -16.554606128454907 0 0 0 0 98.374945080766338 59.619888848746541 0 59.619888848746541 4.6439532515569226 0 0 0 0 101.50755413794832 30.372511824592038 0 30.372511824592038 6.5630354288005037 0 0 0 0 -209.8848948873856 120.66676475042595 0 120.66676475042595 43.499174056572883 0 0 0 0 -115.96687899861718 40.401355929533565 0 40.401355929533565 56.156875092956398 0 0 0 0 3.4033176342926907 -3.2334214715508267 0 -3.2334214715508267 1.5036245008848805 0 0 0 0 13.703253833606368 -7.6509779571192809 0 -7.6509779571192809 2.7152295282134702 0 0 0 0 1.6853147402458575 -5.5430277607300553 0 -5.5430277607300553 -4.6674895427953293 0 0 0 0 -63.149035716473009 91.853083460262496 0 91.853083460262496 -41.987049136296264 0 0 0 0 21.002271294921229 -36.860814359955953 0 -36.860814359955953 58.163359794324151 0 0 0 0 22.643251055469591 -38.41773941187148 0 -38.41773941187148 55.387685408749348 0 0 0 0 50.353836650072481 -69.246886128411347 0 -69.246886128411347 52.81605582162365 0 0 0 0 17.689544673128694 -23.046391580124578 0 -23.046391580124578 132.06665188867646 0 0 0 0 31.91186496897717 4.0794044145980024 0 4.0794044145980024 57.962227170663709 0 0 0 0 36.708410336694214 30.011510438660025 0 30.011510438660025 190.64406471780239 0 0 0 0 -21.19787088263547 -93.432999525304695 0 -93.432999525304695 282.8918220237033 0 0 0 0 -21.926201433860115 -113.85101845849931 0 -113.85101845849931 127.1992962030177 0 0 0 0 -11.957836016332521 -76.471759743545746 0 -76.471759743545746 81.959958656152594 0 0 0 0 -9.4286335281431093 -15.69106249322499 0 -15.69106249322499 -48.538817838410978 0 0 0 0 -8.7783537536379299 -215.72393036363951 0 -215.72393036363951 30.172193609663736 0 0 0 0 35.745003392796207 -97.836129630616597 0 -97.836129630616597 51.783413351479794 0 0 0 0 1715.7005034600443 -894.37142949859685 0 -894.37142949859685 597.73486700869353 0 0 0 0 1749.4948543940845 -1173.1235462669486 0 -1173.1235462669486 1075.1261222165735 0 0 0 0 1729.2547117587383 -702.95145595524286 0 -702.95145595524286 1117.5751208895715 0 0 0 0 1376.2472896171093 -888.24506795923253 0 -888.24506795923253 1371.2173770442737 0 0 0 0 1718.0940144034394 -1969.6600402707279 0 -1969.6600402707279 2553.7861500803492 0 0 0 0 1231.0052539084281 -1104.7475377163737 0 -1104.7475377163737 1123.6081142946637 0 0 0 0 1141.4871949508233 -248.62224714148408 0 -248.62224714148408 -60.092838369621177 0 0 0 0 -316.70650877029402 390.8926921341797 0 390.8926921341797 149.30640422725975 0 0 0 0 1.9264213923530917 1.1932682252014928 0 1.1932682252014928 -2.2389949271458525 0 0 0 0 3192.0749261890305 -1461.6141664162203 0 -1461.6141664162203 251.84247835028691 0 0 0 0 946.81570733332774 -1401.8538158549063 0 -1401.8538158549063 1970.9496382177144 0 0 0 0 2521.980963404465 -575.70043996568825 0 -575.70043996568825 273.59951938178438 0 0 0 0 12.01093016500073 -5.2452351902538936 0 -5.2452351902538936 2.9339545720781759 0 0 0 0 1744.3571035139391 -680.32908777706359 0 -680.32908777706359 207.66567479297237 0 0 0 0 1681.4260493436886 -730.61294794349465 0 -730.61294794349465 171.81704592811434 0 0 0 0 1618.3256832220882 -754.45089387188659 0 -754.45089387188659 223.60700734661759 0 0 0 0 1619.3717544630053 -690.09703078935877 0 -690.09703078935877 367.36775990588831 0 0 0 0 1151.1365077914379 -196.86418791357119 0 -196.86418791357119 145.14265787268801 0 0 0 0 892.01066053999966 -350.04640961648897 0 -350.04640961648897 232.52202568739233 0 0 0 0 558.14960710782907 140.19295512353676 0 140.19295512353676 85.023479564026047 0 0 0 0 1369.2164039142663 -317.82460777357346 0 -317.82460777357346 247.49886033236209 0 0 0 0 1738.9083233207639 -515.34237445689314 0 -515.34237445689314 458.62336782554928 0 0 0 0 1739.2965649662854 -490.0227337922293 0 -490.0227337922293 84.228722568832723 0 0 0 0 1586.7815467225446 -734.36021341793958 0 -734.36021341793958 355.72055620368769 0 0 0 0 1645.5860580260342 -586.56447879488974 0 -586.56447879488974 577.02359049510483 0 0 0 0 1922.091605002468 -847.73460525187954 0 -847.73460525187954 498.02127674669373 0 0 0 0 2212.7538293752004 -852.88587549184274 0 -852.88587549184274 323.76456092151381 0 0 0 0 3244.972998697398 -382.65131799194091 0 -382.65131799194091 243.78658595751284 0 0 0 0 2418.8383442134073 -422.54837535606651 0 -422.54837535606651 399.26033870576981 0 0 0 0 2403.381418682533 -454.59566764360227 0 -454.59566764360227 695.93322321666653 0 0 0 0 3469.7260076634484 -639.0512508891826 0 -639.0512508891826 -55.906221040465596 0 0 0 0 4499.2111851782902 -212.01051968127493 0 -212.01051968127493 -205.45623341719141 0 0 0 0 3491.5621276095762 178.62276413577393 0 178.62276413577393 146.58577429801224 0 0 0 0 1584.3127699304896 -455.7717636393038 0 -455.7717636393038 827.12792707953804 0 0 0 0 3507.2235113246579 -2.1839881289084397 0 -2.1839881289084397 416.04493956956662 0 0 0 0 2021.8018819217687 406.71235740713877 0 406.71235740713877 630.22660678356931 0 0 0 0 2132.0705794792593 -69.740686140953017 0 -69.740686140953017 978.00468935981883 0 0 0 0 1348.1116119610306 1804.4428993446509 0 1804.4428993446509 70.31726658602895 0 0 0 0 1232.6224115436926 199.69249885204488 0 199.69249885204488 1155.7602356344394 0 0 0 0 -488.85668394083041 45.26331514726553 0 45.26331514726553 1292.6897483258053 0 0 0 0 4500.3351022316274 -45.471220197473748 0 -45.471220197473748 2278.8077082971927 0 0 0 0 4870.4495239826938 -373.59123062289888 0 -373.59123062289888 264.64051735067187 0 0 0 0 3974.1010954934027 883.78935801059811 0 883.78935801059811 161.34749298800079 0 0 0 0 3321.153748321085 -183.91848736360413 0 -183.91848736360413 223.92475777397229 0 0 0 0 5612.1225950845619 -654.99112743504668 0 -654.99112743504668 318.0594315883846 0 0 0 0 2295.8161489415688 -1842.6240990723372 0 -1842.6240990723372 1316.6357448917431 0 0 0 0 24.516835975196614 4.0833037403131129 0 4.0833037403131129 0.2906820203300855 0 0 0 0 3803.9120656068699 -2173.182912290928 0 -2173.182912290928 1388.9832013450932 0 0 0 0 878.42448754450015 411.65212270546851 0 411.65212270546851 -1030.0085196057851 0 0 0 0 50.81181421374896 7.1874845516333608 0 7.1874845516333608 -4.1052161355093988 0 0 0 0 346.05681653738066 -1227.448041031249 0 -1227.448041031249 193.06262643143509 0 0 0 0 1487.9838878003939 -418.70701603885652 0 -418.70701603885652 749.88479867039905 0 0 0 0 317.74499322244083 -701.79673127929323 0 -701.79673127929323 1700.9675058591445 0 0 0 0 1925.7996070050576 -2064.2751216889446 0 -2064.2751216889446 1141.3583352845246 0 0 0 0 1965.6781151606119 -2177.0017139607971 0 -2177.0017139607971 1112.3578774250614 0 0 0 0 3141.42547455561 -511.41773974339912 0 -511.41773974339912 1529.6963083256567 0 0 0 0 745.08774735697079 -1302.05296159608 0 -1302.05296159608 1429.846651067003 0 0 0 0 1908.0393894746521 -2115.9173353213992 0 -2115.9173353213992 1066.9291984700199 0 0 0 0 38.07368258970746 -812.97918077682084 0 -812.97918077682084 1511.7706757814276 0 0 0 0 2062.9646574905491 -1554.9332129231452 0 -1554.9332129231452 606.35620480534396 0 0 0 0 561.34213977897889 -1727.4063246427754 0 -1727.4063246427754 1637.6787593026629 0 0 0 0 1074.0735674170719 -1465.0312877747533 0 -1465.0312877747533 1142.8367549654918 0 0 0 0 1281.1388564680747 -458.44292516159925 0 -458.44292516159925 234.49659553168203 0 0 0 0 546.39579205466725 -68.932497958163708 0 -68.932497958163708 25.978411193196735 0 0 0 0 73.969017156719929 -762.88878813285646 0 -762.88878813285646 738.98382433561346 0 0 0 0 31.272409930534195 -84.504796893954335 0 -84.504796893954335 207.54610869118642 0 0 0 0 668.21113925083773 -685.24365457818112 0 -685.24365457818112 569.04897057832477 0 0 0 0 440.5436323111735 -320.80467723623229 0 -320.80467723623229 -197.27819697539599 0 0 0 0 78.137065251590684 -157.53346892056834 0 -157.53346892056834 -264.63184225806981 0 0 0 0 114.21022799657658 -434.05093864538139 0 -434.05093864538139 -508.5013511961306 0 0 0 0 72.877733022585744 -79.365822769213537 0 -79.365822769213537 -275.84903090569424 0 0 0 0 -0.15968957140302109 -2.8242410495063552 0 -2.8242410495063552 13.936766313378088 0 0 0 0 2500.6896157916926 -1224.5155325364767 0 -1224.5155325364767 579.6843121505417 0 0 0 0 -926.22442222277459 -590.11014785741281 0 -590.11014785741281 1182.843377682862 0 0 0 0 -1109.3653885487583 449.84545523616271 0 449.84545523616271 -70.013970739393699 0 0 0 0 25.876945237076143 645.07570613451571 0 645.07570613451571 -770.48061347318435 0 0 0 0 209.92347865866031 -166.66063482374648 0 -166.66063482374648 -960.15353035648513 0 0 0 0 130.93717274238588 -46.465547125182638 0 -46.465547125182638 26.561786594671048 0 0 0 0 627.38324890716467 14.540859243112664 0 14.540859243112664 -12.210393440212556 0 0 0 0 -6.7680914161610417 217.16066654713359 0 217.16066654713359 -146.86831700305447 0 0 0 0 606.61831405948033 83.336088975113398 0 83.336088975113398 -480.81195100207515 0 0 0 0 824.04422916597105 -113.42793839794558 0 -113.42793839794558 -153.8945114501239 0 0 0 0 493.1714848686679 -24.933803023719747 0 -24.933803023719747 65.021339071377497 0 0 0 0 1051.7805631681695 -453.36134861723497 0 -453.36134861723497 0.1612239864325602 0 0 0 0 689.54797925794264 -391.73290248342801 0 -391.73290248342801 346.4358243721158 0 0 0 0 564.48106918943813 -127.01269889698597 0 -127.01269889698597 -67.810273189305917 0 0 0 0 423.11576712921806 72.993114360980485 0 72.993114360980485 -232.99140896296376 0 0 0 0 332.15547843772219 144.13215295698683 0 144.13215295698683 -108.59300940600258 0 0 0 0 386.32247418569023 223.38910789274314 0 223.38910789274314 -305.9487291461046 0 0 0 0 -247.2368323772389 473.71661761369614 0 473.71661761369614 -131.50172690229556 0 0 0 0 -67.318163384275977 166.42644907694648 0 166.42644907694648 -131.09833604279902 0 0 0 0 12.745922304036156 27.790288772530261 0 27.790288772530261 -3.6666647789407349 0 0 0 0 188.73875252940343 111.64913041375803 0 111.64913041375803 -127.48285486968325 0 0 0 0 77.861142021065461 5.8058385436665958 0 5.8058385436665958 -30.865628441129957 0 0 0 0 74.780448971985606 50.556662714871891 0 50.556662714871891 -159.99214663021121 0 0 0 0 81.916125606599962 -133.85954178461179 0 -133.85954178461179 -296.29271959910693 0 0 0 0 110.517146261569 -16.304237387003013 0 -16.304237387003013 -183.51125018499442 0 0 0 0 225.68639284669916 5.6599868040066212 0 5.6599868040066212 -269.74043521868953 0 0 0 0 202.41230733884731 -6.6308948029491148 0 -6.6308948029491148 -257.57260214401595 0 0 0 0 48.998203387251124 -22.772046357488762 0 -22.772046357488762 10.648342131753452 0 0 0 0 55.906187994842185 -24.257309484054531 0 -24.257309484054531 1.7814826214253117 0 0 0 0 109.73864739736018 3.1507248870102558 0 3.1507248870102558 -144.5771338225004 0 0 0 0 61.785255018931935 -30.879938846463403 0 -30.879938846463403 7.7495739627914872 0 0 0 0 57.59109391727543 8.2885726150298069 0 8.2885726150298069 -24.588878115885109 0 0 0 0 23.969071135493351 15.133208289075412 0 15.133208289075412 -30.835336237785839 0 0 0 0 79.321748117770767 -2.1347088330389852 0 -2.1347088330389852 -30.762485744922742 0 0 0 0 61.622680266416864 -4.4167635193512069 0 -4.4167635193512069 -17.960444808006287 0 0 0 0 24.30742315846436 -17.871700227294305 0 -17.871700227294305 15.855233638392349 0 0 0 0 249.23661396230455 -231.03229680950062 0 -231.03229680950062 -79.759983020780851 0 0 0 0 31.45709122743574 310.31954926687013 0 310.31954926687013 123.33837256731772 0 0 0 0 -130.40248629511916 121.75830432264911 0 121.75830432264911 -95.725945307654911 0 0 0 0 14.18911111078279 -13.287289872918848 0 -13.287289872918848 23.643873206551568 0 0 0 0 -351.62963762428262 -524.22295759603912 0 -524.22295759603912 -291.14684295373991 0 0 0 0 79.931529370354838 -143.96652796535363 0 -143.96652796535363 -253.58354856021469 0 0 0 0 263.40349481301382 -34.442717375544817 0 -34.442717375544817 -248.52363649612744 0 0 0 0 198.24227988530765 -262.1133679597242 0 -262.1133679597242 -360.81190813962348 0 0 0 0 -148.12650045432383 -195.86197310122952 0 -195.86197310122952 -252.30395587842213 0 0 0 0 26.681305475077551 -21.049197462977617 0 -21.049197462977617 20.525244045667343 0 0 0 0 27.934214079898084 -24.466857733786128 0 -24.466857733786128 15.886975295030425 0 0 0 0 33.214187684003832 -25.916671939356988 0 -25.916671939356988 21.286761166150846 0 0 0 0 -96.128690587051096 24.282328360247504 0 24.282328360247504 136.53094956404448 0 0 0 0 -176.8519833683531 -181.12585958096395 0 -181.12585958096395 -13.375213643049932 0 0 0 0 -5.4843050549593784 0.94001047906783697 0 0.94001047906783697 4.9158566874777154 0 0 0 0 413.0158125818125 385.25619830104841 0 385.25619830104841 -182.11672069149654 0 0 0 0 -312.51545544133114 9.8326672375435464 0 9.8326672375435464 268.18315643948415 0 0 0 0 67.895971641992219 178.11013913608645 0 178.11013913608645 163.48103398902555 0 0 0 0 -19.7261792733334 155.62727833919359 0 155.62727833919359 74.65077686020868 0 0 0 0 24.014351649897435 44.756141728618388 0 44.756141728618388 134.35279045432412 0 0 0 0 -114.49630475783488 19.016714595422627 0 19.016714595422627 125.85443805585737 0 0 0 0 -73.962182374089025 15.797183612105869 0 15.797183612105869 44.06847791638117 0 0 0 0 13.201977498876701 3.642491100557038 0 3.642491100557038 8.9541710224785795 0 0 0 0 -25.786935871277819 112.86977298006809 0 112.86977298006809 -60.339329160245939 0 0 0 0 -50.126629534672247 29.744933808228012 0 29.744933808228012 15.339548248912024 0 0 0 0 46.294449572102167 8.9572019570800876 0 8.9572019570800876 -22.157738131465749 0 0 0 0 49.10702056020466 0.73328116647861918 0 0.73328116647861918 -1.752725957292331 0 0 0 0 45.514470468448565 10.244190452260938 0 10.244190452260938 2.6340288690640374 0 0 0 0 45.261681856238283 -76.131216123595777 0 -76.131216123595777 -242.66871037409061 0 0 0 0 42.942443381296471 3.8780249478427322 0 3.8780249478427322 -27.220287806121632 0 0 0 0 -23.960369275184348 -78.424960200487703 0 -78.424960200487703 -165.77177000825168 0 0 0 0 36.010654280107701 -61.5710549759674 0 -61.5710549759674 -153.44366451316364 0 0 0 0 30.092446207694593 -155.74051808671766 0 -155.74051808671766 -141.26060081691003 0 0 0 0 69.878541876387317 -132.4379202081916 0 -132.4379202081916 -212.94051290879122 0 0 0 0 314.44508941264212 52.67110840388591 0 52.67110840388591 -599.54525029930664 0 0 0 0 47.957298687725086 10.505947418852742 0 10.505947418852742 -0.21721530064666483 0 0 0 0 -27.97047067436506 70.194418247431145 0 70.194418247431145 -182.64745619356745 0 0 0 0 44.301337667711778 29.757894378956507 0 29.757894378956507 -48.701878452259848 0 0 0 0 53.700645386498479 -0.92891255846099341 0 -0.92891255846099341 -1.882021506980283 0 0 0 0 68.327655546570895 -7.5430384748424331 0 -7.5430384748424331 -15.034886896553644 0 0 0 0 46.691206872913654 -5.7940226967620987 0 -5.7940226967620987 -2.9297137195182295 0 0 0 0 41.964847032897978 3.0247478127723326 0 3.0247478127723326 -9.4729116076798441 0 0 0 0 70.226123291795375 -15.298079900317134 0 -15.298079900317134 -13.360312227561053 0 0 0 0 65.69191031101218 -14.466271933351891 0 -14.466271933351891 -2.5776122098613996 0 0 0 0 45.804296574642649 -6.2985005875925708 0 -6.2985005875925708 -12.362002886499795 0 0 0 0 50.302585378627484 -14.128027431129937 0 -14.128027431129937 -1.8132189596340638 0 0 0 0 58.817083531321259 -6.281138349723733 0 -6.281138349723733 -6.7331295446888362 0 0 0 0 67.993756401381688 -7.3585038136625371 0 -7.3585038136625371 -8.5369437661966003 0 0 0 0 54.12805376612944 -11.137496628865847 0 -11.137496628865847 -5.246131813068299 0 0 0 0 47.230749182549715 0.61265796442143028 0 0.61265796442143028 -4.0786513663147081 0 0 0 0 31.984938253700875 -11.658136177775063 0 -11.658136177775063 8.8342589711446138 0 0 0 0 28.778921585195349 -2.718341260817283 0 -2.718341260817283 7.2389690718837301 0 0 0 0 53.209265795449028 -19.08523595303177 0 -19.08523595303177 9.5835945045319022 0 0 0 0 56.42276874682284 -5.3314365801338681 0 -5.3314365801338681 -1.0277424005012108 0 0 0 0 54.419403233376613 -8.5800291181293602 0 -8.5800291181293602 -1.8047993703817613 0 0 0 0 54.125495342042996 -4.3390608344116117 0 -4.3390608344116117 0.45084962767668912 0 0 0 0 56.890003965934739 -6.6333698098845844 0 -6.6333698098845844 0.2516218973469222 0 0 0 0 42.445197974653126 -0.19819848469136048 0 -0.19819848469136048 -3.4258065091394823 0 0 0 0 37.974880670586117 -2.6710705652431059 0 -2.6710705652431059 -1.062386488941371 0 0 0 0 33.176911822112743 -2.247118935803428 0 -2.247118935803428 -12.253327718412038 0 0 0 0 52.772440460772486 -18.030104563055829 0 -18.030104563055829 9.1459791669476544 0 0 0 0 63.009713254286908 -19.843021966585184 0 -19.843021966585184 2.5646242280120077 0 0 0 0 33.442046562354165 -5.6925753483116139 0 -5.6925753483116139 6.8528614220128548 0 0 0 0 55.241931935364846 -7.7383500805435688 0 -7.7383500805435688 1.4441815303907788 0 0 0 0 -37.116808379832946 -122.53978728623781 0 -122.53978728623781 -149.13403976846803 0 0 0 0 14.171408703757891 3.4722191050735063 0 3.4722191050735063 -1.9323408583627431 0 0 0 0 70.643088755314238 57.775964816772102 0 57.775964816772102 -45.858097436571825 0 0 0 0 52.421620443463326 -7.9496815621710084 0 -7.9496815621710084 1.6859446417008712 0 0 0 0 50.870722001244147 3.145092965461771 0 3.145092965461771 0.92129813863676713 0 0 0 0 17.035658376107762 -2.0408126018120356 0 -2.0408126018120356 -0.13357780896000682 0 0 0 0 54.013945462842344 -2.802557240659084 0 -2.802557240659084 -0.9873320607088969 0 0 0 0 92.57127683138242 5.4731912872448447 0 5.4731912872448447 14.565765855503059 0 0 0 0 54.461411713040434 -6.6485839064598622 0 -6.6485839064598622 2.3467953641847998 0 0 0 0 55.027389158552978 -5.4509602500957044 0 -5.4509602500957044 1.2137975106875274 0 0 0 0 39.044453861313855 0.1207578337537889 0 0.1207578337537889 -1.2582959270597627 0 0 0 0 76.742762484180275 17.408019606036646 0 17.408019606036646 -49.162848951570432 0 0 0 0 35.749965485811117 0.94912177845753831 0 0.94912177845753831 -13.733834090827941 0 0 0 0 43.198655250751472 46.157625468735496 0 46.157625468735496 -72.693354726021198 0 0 0 0 132.07319814575021 36.792505484044796 0 36.792505484044796 -75.166847381038195 0 0 0 0 116.33346320496639 -21.612473998641974 0 -21.612473998641974 -75.149459443879095 0 0 0 0 145.99236142664449 -42.824253433438344 0 -42.824253433438344 -63.548858824749573 0 0 0 0 65.284908820689452 -28.79636339772658 0 -28.79636339772658 -62.604965081671935 0 0 0 0 14.720968814659386 8.1812282891415222 0 8.1812282891415222 -9.1187963253429523 0 0 0 0 163.30514870886691 -68.440918560985665 0 -68.440918560985665 -61.315445950245703 0 0 0 0 157.02087588814175 -57.345615707470188 0 -57.345615707470188 -79.770984043256249 0 0 0 0 116.43040663153806 9.9247832707335419 0 9.9247832707335419 -121.20919395408964 0 0 0 0 227.71372985243215 -51.752268116342293 0 -51.752268116342293 -105.70814892960982 0 0 0 0 298.82581873255549 -147.10721269645273 0 -147.10721269645273 -66.17940654797323 0 0 0 0 -20.049800035994849 -92.965847924453101 0 -92.965847924453101 -51.688846757150714 0 0 0 0 89.435186061105924 87.669130834114526 0 87.669130834114526 -135.66941247606201 0 0 0 0 200.24361444674287 33.342445871045982 0 33.342445871045982 -215.93123440341697 0 0 0 0 32.427153065087623 -76.098452585565155 0 -76.098452585565155 -221.19049362356213 0 0 0 0 -5.9282499267574167 114.61991624219309 0 114.61991624219309 -15.499678995449131 0 0 0 0 39.843951040165848 -2.4964444757640649 0 -2.4964444757640649 107.85826203976467 0 0 0 0 46.909278307350178 -99.366208398703293 0 -99.366208398703293 280.58451680426037 0 0 0 0 -34.934575712111837 16.617880432795346 0 16.617880432795346 155.9409177630132 0 0 0 0 297.02525063444773 -48.384527082373779 0 -48.384527082373779 8.6578164584743718 0 0 0 0 143.74119216755207 -159.16922604764522 0 -159.16922604764522 107.5191700437399 0 0 0 0 256.26524624362355 117.16819019240074 0 117.16819019240074 107.64400104054994 0 0 0 0 25.290700363904762 -111.69832548464865 0 -111.69832548464865 350.86613000514785 0 0 0 0 405.68542084334621 193.52801071366872 0 193.52801071366872 -76.278218544923675 0 0 0 0 408.27695513905053 -170.59309165070189 0 -170.59309165070189 -120.40411307147588 0 0 0 0 7.0595303149457322 -104.95536383548438 0 -104.95536383548438 -39.472072433518861 0 0 0 0 36.649608836421976 -54.874966880126294 0 -54.874966880126294 -39.76858933068614 0 0 0 0 33.858984594076901 -28.837170647471115 0 -28.837170647471115 -94.388752057342572 0 0 0 0 15.671682071813848 -109.42711540559867 0 -109.42711540559867 -144.68184519342913 0 0 0 0 -2.1081337930154405 -64.157420189379764 0 -64.157420189379764 61.643526392992044 0 0 0 0 62.401413677362143 69.86448572161521 0 69.86448572161521 77.12584195179852 0 0 0 0 -6.2975737525412114 83.198543091243891 0 83.198543091243891 143.22096836537935 0 0 0 0 364.42253437094769 -9.4497873277701387 0 -9.4497873277701387 6.5197114554935069 0 0 0 0 189.4110455425398 227.47897335330595 0 227.47897335330595 271.87526880341517 0 0 0 0 5.9151453670386047 1.6587378551703402 0 1.6587378551703402 1.622815060561142 0 0 0 0 78.59180867899704 36.197257971234194 0 36.197257971234194 -0.69349771049712672 0 0 0 0 69.11488298970653 -91.299538995123385 0 -91.299538995123385 70.694981431126962 0 0 0 0 133.63172945217229 -94.722353457550525 0 -94.722353457550525 65.323999858831257 0 0 0 0 18.942842123920329 4.7750156597288935 0 4.7750156597288935 -2.8753039399600659 0 0 0 0 79.001547929791769 16.82828788745628 0 16.82828788745628 -0.67903693226528894 0 0 0 0 -41.866011228852585 486.37027460033255 0 486.37027460033255 116.75545644382453 0 0 0 0 -4.0274564455576183 18.027742161640845 0 18.027742161640845 -2.420449575913608 0 0 0 0 3.2027510215276322 1.6910368532443414 0 1.6910368532443414 3.4622348095053033 0 0 0 0 47.065935096456087 189.67730308956948 0 189.67730308956948 318.62498589028235 0 0 0 0 168.89772481477121 146.76227648938118 0 146.76227648938118 179.26204760369092 0 0 0 0 11.032605219108518 -158.06082797227941 0 -158.06082797227941 -267.60592746019347 0 0 0 0 -191.35609208612004 85.836032097750149 0 85.836032097750149 195.14799599287471 0 0 0 0 298.96313087630551 -0.14194698453201227 0 -0.14194698453201227 -292.99762842783548 0 0 0 0 215.70368206762942 -207.28131104334008 0 -207.28131104334008 48.533044845581685 0 0 0 0 201.6448869293381 211.28310590924059 0 211.28310590924059 -194.6557515048606 0 0 0 0 467.02594290100387 -71.894095287176242 0 -71.894095287176242 -1358.0180007566169 0 0 0 0 91.391753665655017 18.035444325160636 0 18.035444325160636 -0.94322702078897747 0 0 0 0 103.4597354682337 -24.521451840155578 0 -24.521451840155578 -107.37846096827207 0 0 0 0 146.74903638332034 -115.3595917061657 0 -115.3595917061657 -37.300020632412156 0 0 0 0 -78.570668485306669 -32.927749025451334 0 -32.927749025451334 109.33186378544946 0 0 0 0 25.386471092191641 -167.13431027977362 0 -167.13431027977362 255.40046133945839 0 0 0 0 0.78685677113162455 -2.2787324710862435 0 -2.2787324710862435 1.7188669698764991 0 0 0 0 1240.7552689954609 -692.93112615456789 0 -692.93112615456789 340.50999740011036 0 0 0 0 714.77551989076892 -481.73301761738509 0 -481.73301761738509 445.29501518127745 0 0 0 0 332.02768939239468 -28.858127540178572 0 -28.858127540178572 90.035706717191715 0 0 0 0 3671.2593678733683 -882.56813398423185 0 -882.56813398423185 12.924755244381751 0 0 0 0 3091.6336772654176 -662.5626582990169 0 -662.5626582990169 -56.887533611561011 0 0 0 0 3249.5692340549867 -1113.857509064301 0 -1113.857509064301 361.15765061044112 0 0 0 0 2737.5181970049525 -1138.8582044260895 0 -1138.8582044260895 384.28831959143685 0 0 0 0 2122.9759969727165 -1071.0250339418583 0 -1071.0250339418583 547.29300222814391 0 0 0 0 3249.0950117915345 -1392.713645693018 0 -1392.713645693018 385.52727093895936 0 0 0 0 12.006611504816675 -6.8860852600983264 0 -6.8860852600983264 3.0139580665492769 0 0 0 0 4500.1556233765732 -1515.3957175491851 0 -1515.3957175491851 -12.094677544008849 0 0 0 0 4493.691326628039 -2087.8438597663912 0 -2087.8438597663912 527.61297093815529 0 0 0 0 3362.2042944004352 -1396.117288167861 0 -1396.117288167861 127.83875530765957 0 0 0 0 33.684539875749337 16.728872901072336 0 16.728872901072336 -4.2459208633443728 0 0 0 0 427.51644366057008 224.04536923283695 0 224.04536923283695 115.01862288166956 0 0 0 0 3333.457959277468 -1950.5328532166905 0 -1950.5328532166905 1010.2275887608081 0 0 0 0 2.5233831241645248 1.1178525709587248 0 1.1178525709587248 2.9188197464254753 0 0 0 0 -13.47525213228073 23.802956158331995 0 23.802956158331995 -4.9470659840687858 0 0 0 0 10.785309010219549 15.236590843721274 0 15.236590843721274 4.3327360629269887 0 0 0 0 34.126487755725975 25.278349446015682 0 25.278349446015682 -5.3720902856568955 0 0 0 0 25.068069117023697 28.552947299112816 0 28.552947299112816 5.2398614125509084 0 0 0 0 22.733007967282035 14.212806328097585 0 14.212806328097585 4.8039256558353536 0 0 0 0 2471.1246714506779 -2488.8878109495317 0 -2488.8878109495317 2093.7902291600039 0 0 0 0 4219.2959668786471 241.82852774804869 0 241.82852774804869 -375.90974623842823 0 0 0 0 3.037015245994553 23.750820462594277 0 23.750820462594277 80.47664621169244 0 0 0 0 17.849159036027061 1.9475022802222171 0 1.9475022802222171 -0.42365390367328148 0 0 0 0 10.135615216048734 10.917084678913255 0 10.917084678913255 13.878791035764555 0 0 0 0 4492.205438402525 715.20416682807468 0 715.20416682807468 -504.82728304165198 0 0 0 0 1256.2734525158594 995.17464891111672 0 995.17464891111672 731.57151643150087 0 0 0 0 7.4330987471879837 6.0839767232657564 0 6.0839767232657564 3.8497107023454533 0 0 0 0 2878.2719259579244 1445.2231660062812 0 1445.2231660062812 616.98176637945028 0 0 0 0 -10.422108711842156 40.561167014397711 0 40.561167014397711 9.8726881340081718 0 0 0 0 36.199469328736683 30.625437636940106 0 30.625437636940106 18.053584214807888 0 0 0 0 17.040757728795199 22.913574000211646 0 22.913574000211646 8.4583453355489944 0 0 0 0 -12.540249433310237 2.4935607364914176 0 2.4935607364914176 2.1581147067272468 0 0 0 0 54.15813192718997 74.833008244504072 0 74.833008244504072 -12.803224709827191 0 0 0 0 3151.1899089383078 -845.74723311584194 0 -845.74723311584194 61.497606514851327 0 0 0 0 4497.4105408684409 -1116.000847349829 0 -1116.000847349829 -467.86196993486317 0 0 0 0 -152.00587127621839 131.63284826129836 0 131.63284826129836 -65.313993838021844 0 0 0 0 3781.4157106624698 -821.78965300714663 0 -821.78965300714663 -699.24757720919217 0 0 0 0 3906.7824669904403 -402.3273911862949 0 -402.3273911862949 -754.3825954307697 0 0 0 0 3473.6690162594896 -324.75029683938561 0 -324.75029683938561 -676.37348224676907 0 0 0 0 2870.5894690358546 -471.49204270869689 0 -471.49204270869689 -711.19190835082293 0 0 0 0 2745.1880006930114 -891.07220698510059 0 -891.07220698510059 -656.06541069521268 0 0 0 0 3286.6096364092373 -961.3206562266846 0 -961.3206562266846 -738.59399992964336 0 0 0 0 77.651817248651895 10.360458942870466 0 10.360458942870466 -2.8352044669513585 0 0 0 0 82.672866507396975 72.786447889561714 0 72.786447889561714 -106.42858511131431 0 0 0 0 50.088321743070992 -36.610081437243934 0 -36.610081437243934 -48.486509724049938 0 0 0 0 35.319518866024737 83.263257283727398 0 83.263257283727398 -11.984111290772205 0 0 0 0 102.5260559692905 46.514832819958755 0 46.514832819958755 -159.00243914305065 0 0 0 0 104.6520801473016 132.16609765892304 0 132.16609765892304 -25.454258208084866 0 0 0 0 42.675002918433165 211.24922652339376 0 211.24922652339376 309.90903946307026 0 0 0 0 2.6992250944167608 110.52692434353287 0 110.52692434353287 68.71553797062451 0 0 0 0 -4.1694383775065944 95.106618979646441 0 95.106618979646441 148.14625822603102 0 0 0 0 38.380084072065074 98.787795258972437 0 98.787795258972437 66.585556851909132 0 0 0 0 906.13408433234144 351.98903846887129 0 351.98903846887129 3.9804897124312077 0 0 0 0 -28.266293933387686 6.9561277425725052 0 6.9561277425725052 -1.4640432499564637 0 0 0 0 -16.692012322222581 -20.520768039274692 0 -20.520768039274692 230.60667659848119 0 0 0 0 268.91705416581499 -85.771910735107042 0 -85.771910735107042 -147.65310113324324 0 0 0 0 -32.109081737371739 14.134120065316083 0 14.134120065316083 -0.21828974224574105 0 0 0 0 -432.67533447616734 262.80914452999082 0 262.80914452999082 857.36860532037917 0 0 0 0 4.2082203763855048 4.3948837196103341 0 4.3948837196103341 5.8547628728937431 0 0 0 0 25.419299626091373 26.153097905124262 0 26.153097905124262 16.756484220415114 0 0 0 0 -27.75641499065182 11.599961025887373 0 11.599961025887373 3.1583114347758774 0 0 0 0 331.28381859825458 -3290.7246341546479 0 -3290.7246341546479 1261.9602076041456 0 0 0 0 16.229288804234244 15.45707403322761 0 15.45707403322761 3.382774755956961 0 0 0 0 3332.8758897688385 -2159.3893182115175 0 -2159.3893182115175 1270.6961308938837 0 0 0 0 -15.900233708514861 68.073658422777555 0 68.073658422777555 44.417299826612634 0 0 0 0 -3.8470943259126216 48.573760505776931 0 48.573760505776931 52.196338117076721 0 0 0 0 1106.1214647769593 1674.7266289285913 0 1674.7266289285913 1359.472249476285 0 0 0 0 4493.1663755825648 4439.1095056738286 0 4439.1095056738286 2886.3191531607758 0 0 0 0 3419.219560156751 1846.4513483240073 0 1846.4513483240073 510.66597593301236 0 0 0 0 2386.9344986444921 2432.3523709932233 0 2432.3523709932233 1786.4205519801619 0 0 0 0 2822.1204080310781 1432.8757225328438 0 1432.8757225328438 -174.64221389570386 0 0 0 0 2629.4406223914557 1160.0708672267779 0 1160.0708672267779 -70.582517417537389 0 0 0 0 4500.5821280642986 658.03823683551479 0 658.03823683551479 -873.43513724733236 0 0 0 0 2031.0599921410412 323.62835510212619 0 323.62835510212619 -345.36151627091181 0 0 0 0 237.26838203434454 271.81854438087555 0 271.81854438087555 294.61028755804949 0 0 0 0 -215.03294786575862 -99.755055569061767 0 -99.755055569061767 154.76620773213148 0 0 0 0 293.40223129066362 193.98483449554789 0 193.98483449554789 -18.461283000910726 0 0 0 0 489.3839362248109 -64.613895796532063 0 -64.613895796532063 113.3014282085685 0 0 0 0 1485.2609265415012 693.2588233783473 0 693.2588233783473 121.64452856684343 0 0 0 0 481.98409170279774 323.27506919020163 0 323.27506919020163 153.72289351402395 0 0 0 0 1531.3120763050611 -252.97448538871964 0 -252.97448538871964 13.783721877035532 0 0 0 0 357.22098920265853 16.195673979185102 0 16.195673979185102 -86.177714416071922 0 0 0 0 551.61923012102488 117.64742936819871 0 117.64742936819871 -119.42997184381348 0 0 0 0 542.60166957462206 85.539286877749532 0 85.539286877749532 27.963324668324535 0 0 0 0 2426.6265359803074 -271.22249826140956 0 -271.22249826140956 -837.05289138280773 0 0 0 0 4497.4349635587178 -196.30680749870621 0 -196.30680749870621 -985.73233275301789 0 0 0 0 2677.7002966134969 425.94917549244474 0 425.94917549244474 -896.1999687414675 0 0 0 0 2622.7539882040328 443.63507080038676 0 443.63507080038676 -412.15001434997987 0 0 0 0 770.06443270653108 360.77747430429406 0 360.77747430429406 -8.6881964119587991 0 0 0 0 635.9721134817155 10.557994642029495 0 10.557994642029495 158.95956866513552 0 0 0 0 636.37187844941263 207.79356313444629 0 207.79356313444629 -182.843388549341 0 0 0 0 865.90012562734591 145.21839345180197 0 145.21839345180197 -169.64578546044734 0 0 0 0 627.31480153335713 116.68665344593221 0 116.68665344593221 -125.14193010352813 0 0 0 0 597.48626146553579 128.87407023465306 0 128.87407023465306 -117.91670089738503 0 0 0 0 898.84216750049018 169.79919445874665 0 169.79919445874665 -210.62346090709619 0 0 0 0 494.8423627960583 64.075630634070265 0 64.075630634070265 -220.65592710980096 0 0 0 0 599.88693199465433 -210.04292159396107 0 -210.04292159396107 -47.987336251610657 0 0 0 0 -11.397334058681736 80.1454028559465 0 80.1454028559465 -54.447027345395838 0 0 0 0 204.14368767852284 -14.774688155058511 0 -14.774688155058511 -158.12551876452102 0 0 0 0 22.166154097965773 118.03827437452119 0 118.03827437452119 -144.49180172306248 0 0 0 0 6.7715567034189368 34.286524034422868 0 34.286524034422868 -0.87977197378785021 0 0 0 0 -143.59268409935612 128.24447853540011 0 128.24447853540011 119.95588692790909 0 0 0 0 -43.892659627486864 -8.0490039338761221 0 -8.0490039338761221 -27.199923783007762 0 0 0 0 10.966074471648659 3.5969895443915298 0 3.5969895443915298 0.18227846082157206 0 0 0 0 -133.06562066727929 201.44990351390879 0 201.44990351390879 -177.76528051123611 0 0 0 0 1.7863144458057505 9.9910689807767774 0 9.9910689807767774 5.2735763341038515 0 0 0 0 91.550514312355517 -59.784579871795358 0 -59.784579871795358 -16.969962394441666 0 0 0 0 7.2704018485674169 157.77831086336252 0 157.77831086336252 209.07005753334198 0 0 0 0 4.3956049664161796 1.5710694719172515 0 1.5710694719172515 0.50483199371536447 0 0 0 0 120.26341111034253 -11.336640372452123 0 -11.336640372452123 42.051887842545284 0 0 0 0 526.70837461768679 320.55200129816319 0 320.55200129816319 63.422739694792455 0 0 0 0 -375.70877654763171 39.461451774082548 0 39.461451774082548 183.88165112693065 0 0 0 0 -5.0264233257468049 33.493484105934073 0 33.493484105934073 2.9138904362635949 0 0 0 0 -122.75586674251463 85.592125170653844 0 85.592125170653844 109.72475411597071 0 0 0 0 -6.3896949238900254 31.579380295608317 0 31.579380295608317 1.4286199869453413 0 0 0 0 21.340568127172446 62.787122473750514 0 62.787122473750514 -66.513183042623837 0 0 0 0 6.728123115469117 0.18832716350335588 0 0.18832716350335588 0.13833321826500594 0 0 0 0 81.93514282189426 131.44858866534457 0 131.44858866534457 10.523247438596997 0 0 0 0 418.79722492799192 -263.68117442525494 0 -263.68117442525494 -130.06920168382192 0 0 0 0 1010.749596392161 160.88981515970403 0 160.88981515970403 -171.75297406723644 0 0 0 0 537.91023760956341 292.72728427879417 0 292.72728427879417 568.68153028225333 0 0 0 0 835.10766208084078 77.345970758438796 0 77.345970758438796 -154.71262447284559 0 0 0 0 200.84216862084941 29.29151974600353 0 29.29151974600353 104.90261366044317 0 0 0 0 547.01470514224275 174.17682587373952 0 174.17682587373952 -55.750672490903213 0 0 0 0 459.1811386921122 -22.000895797103396 0 -22.000895797103396 7.9668812560886408 0 0 0 0 228.41011696661008 103.92303828657145 0 103.92303828657145 121.71375346899185 0 0 0 0 390.1468307394648 -170.94832185254609 0 -170.94832185254609 -104.44179009757227 0 0 0 0 27.584468611388729 -198.06522944133326 0 -198.06522944133326 269.76734640052962 0 0 0 0 1092.5224506736376 -123.47208498238706 0 -123.47208498238706 110.21076810128193 0 0 0 0 293.51243900226109 20.016489027238094 0 20.016489027238094 188.74422478406132 0 0 0 0 387.94513654457569 -171.45987126863719 0 -171.45987126863719 -37.248576316593244 0 0 0 0 522.14035341154158 294.98761304983844 0 294.98761304983844 -32.139410333978958 0 0 0 0 203.29551141378761 18.719806134312876 0 18.719806134312876 -215.28983999392995 0 0 0 0 35.397255686644712 -87.728924705312011 0 -87.728924705312011 -330.53927854617382 0 0 0 0 175.66803858811363 -290.85007468436515 0 -290.85007468436515 -100.51570058280095 0 0 0 0 195.00717591158173 347.69494097399024 0 347.69494097399024 463.65257079898976 0 0 0 0 22.111496379606898 5.6845842750956486 0 5.6845842750956486 -3.5592339722808868 0 0 0 0 296.807556841311 367.32985840315234 0 367.32985840315234 438.797293165886 0 0 0 0 -2.5446034345675823 0.99139337641064174 0 0.99139337641064174 1.1823056845719417 0 0 0 0 596.98544905753806 763.91970160198116 0 763.91970160198116 976.17671561738803 0 0 0 0 218.61900795171096 307.36376822533566 0 307.36376822533566 349.55672736800284 0 0 0 0 282.08989340661719 292.4608077756086 0 292.4608077756086 352.35815042020658 0 0 0 0 262.24725801385648 247.57470381180701 0 247.57470381180701 368.09285419112484 0 0 0 0 217.31644674923155 257.96142852471803 0 257.96142852471803 367.13392916043983 0 0 0 0 232.71263239359178 -10.428305070507122 0 -10.428305070507122 -199.30332305785396 0 0 0 0 203.65820834303668 239.46927634014537 0 239.46927634014537 52.00668049162141 0 0 0 0 223.2915034197722 177.76085310714552 0 177.76085310714552 68.399292270716614 0 0 0 0 164.63290514794789 239.48392790162052 0 239.48392790162052 28.253920822661712 0 0 0 0 241.60036130103981 155.97070103010833 0 155.97070103010833 65.047027390181938 0 0 0 0 140.37170707633049 230.87972487897378 0 230.87972487897378 462.61130568227986 0 0 0 0 263.18204243331638 106.62913907209463 0 106.62913907209463 -240.34408091381647 0 0 0 0 222.00263214147526 59.74215885773765 0 59.74215885773765 -378.47363971537015 0 0 0 0 229.0534119665972 -136.39424582579409 0 -136.39424582579409 -599.758066265651 0 0 0 0 86.625538810756552 51.902779342444774 0 51.902779342444774 -232.15408079419763 0 0 0 0 59.626418424119038 37.690084507292227 0 37.690084507292227 40.289606168973478 0 0 0 0 71.52792903885711 58.371198623634427 0 58.371198623634427 74.579892597375988 0 0 0 0 192.37192627735203 -10.642610535663835 0 -10.642610535663835 -150.78828001754619 0 0 0 0 103.87409537086728 0.24349597824798863 0 0.24349597824798863 -4.5199971044241503 0 0 0 0 258.38556554560819 -219.31407011303304 0 -219.31407011303304 -524.36810906864866 0 0 0 0 72.28616166690594 15.16307282161303 0 15.16307282161303 -6.5667346904149841 0 0 0 0 61.104673534253379 -35.577291859814636 0 -35.577291859814636 -56.532171738125157 0 0 0 0 187.38484946917379 -242.74722773356916 0 -242.74722773356916 -437.39175019182358 0 0 0 0 129.02930092341103 -3.051957952231664 0 -3.051957952231664 -7.4784213923285643 0 0 0 0 124.70030501381552 -208.21012461578357 0 -208.21012461578357 -506.51216257318265 0 0 0 0 90.496480396497645 62.603012693987694 0 62.603012693987694 -807.80827962182593 0 0 0 0 139.32364906301154 139.54417534989716 0 139.54417534989716 -348.47183266085176 0 0 0 0 22.725661964054154 -27.793945130977221 0 -27.793945130977221 -18.207403007604146 0 0 0 0 132.10917963011889 -39.501726165100081 0 -39.501726165100081 -58.071540510776686 0 0 0 0 211.48807487096929 59.597822232264434 0 59.597822232264434 -54.232813176834497 0 0 0 0 75.230382456153166 4.0597318184077267 0 4.0597318184077267 -36.48069126072096 0 0 0 0 201.00947646837812 64.547961461327759 0 64.547961461327759 1.7609484692939077 0 0 0 0 77.978135469143893 -2.2564637176489306 0 -2.2564637176489306 -9.7259780396229569 0 0 0 0 104.71371818996522 20.514210710330076 0 20.514210710330076 -5.7968548435096636 0 0 0 0 -40.986355997389182 -7.9063753564469152 0 -7.9063753564469152 -7.0223681237649771 0 0 0 0 46.867989162993013 -9.0275133500921356 0 -9.0275133500921356 -11.273619860932419 0 0 0 0 25.034120279873605 1.9492993460839898 0 1.9492993460839898 -26.437718252568629 0 0 0 0 57.983053747457632 9.0788509500691106 0 9.0788509500691106 -11.878467135739019 0 0 0 0 35.167336756874647 0.71159588398808182 0 0.71159588398808182 -21.396456084831474 0 0 0 0 190.55942884501201 -37.309022467685338 0 -37.309022467685338 -49.274500417424633 0 0 0 0 164.60345409406 -127.13810784195425 0 -127.13810784195425 31.187427853061763 0 0 0 0 23.632156901278194 -1.936890720853448 0 -1.936890720853448 -6.3634399492656897 0 0 0 0 76.364772531821757 2.1623152380310486 0 2.1623152380310486 -7.0053445077390926 0 0 0 0 135.90368118009064 36.46840315194342 0 36.46840315194342 -76.234296905833162 0 0 0 0 64.640558764502202 -28.16759418342312 0 -28.16759418342312 -40.047597180443972 0 0 0 0 22.57201701426866 4.2337861293408636 0 4.2337861293408636 -0.00023108710367925056 0 0 0 0 74.783489864727017 53.86281703698296 0 53.86281703698296 -52.879328412672521 0 0 0 0 45.104739336144121 59.649814779851312 0 59.649814779851312 -76.967302523776652 0 0 0 0 15.10561247367653 -18.018778641770414 0 -18.018778641770414 -12.134532757264379 0 0 0 0 73.46178790313428 -7.0362591732114552 0 -7.0362591732114552 -11.600159162856286 0 0 0 0 -21.885504243517062 -73.420948224078529 0 -73.420948224078529 -22.977786525113515 0 0 0 0 5.6481624014631961 -36.209028983211965 0 -36.209028983211965 -165.02191397691877 0 0 0 0 219.65502043958986 -168.24399652795 0 -168.24399652795 48.445398316333012 0 0 0 0 240.30082696161844 -59.947931036411774 0 -59.947931036411774 12.870738851840542 0 0 0 0 7.4976567139808736 -1.9970056131078877 0 -1.9970056131078877 3.0836846454460982 0 0 0 0 113.36061584639538 -85.483573480143377 0 -85.483573480143377 72.305492837790553 0 0 0 0 298.57003916978283 -490.68450149829596 0 -490.68450149829596 116.59189889825029 0 0 0 0 -625.93206931963505 182.4755452336808 0 182.4755452336808 309.98821035679975 0 0 0 0 122.09969157409796 -197.08531981290253 0 -197.08531981290253 131.66437556658457 0 0 0 0 25.88681183984394 -3.3764020193060844 0 -3.3764020193060844 -0.44104071089079255 0 0 0 0 68.671735841737245 -61.647421246492968 0 -61.647421246492968 -89.881569252749614 0 0 0 0 123.63093022728572 -35.61154873394662 0 -35.61154873394662 -121.56451427812362 0 0 0 0 73.240649356142967 -24.666685395261538 0 -24.666685395261538 -39.842146793916982 0 0 0 0 71.149408695047015 -14.331152195557429 0 -14.331152195557429 -6.3678719250491156 0 0 0 0 74.746345683882822 -4.031055568074466 0 -4.031055568074466 -5.9351202451038043 0 0 0 0 132.22259627090534 -33.551166823653375 0 -33.551166823653375 -127.55253163501993 0 0 0 0 115.02015453451168 2.8109766186503578 0 2.8109766186503578 -24.62859655521585 0 0 0 0 63.710376165778385 -25.2064678729358 0 -25.2064678729358 0.66416071180537872 0 0 0 0 127.877359320697 -24.711464010556938 0 -24.711464010556938 -37.840102474375271 0 0 0 0 21.314257973644999 -64.585751062564555 0 -64.585751062564555 -74.619351251939179 0 0 0 0 11.865869713567601 -1.0756903565913518 0 -1.0756903565913518 -21.71181108530579 0 0 0 0 134.97671635986626 -1.2929980170911222 0 -1.2929980170911222 -0.064571425341455324 0 0 0 0 134.2868360293603 -29.787895966110483 0 -29.787895966110483 -34.883739464524297 0 0 0 0 80.218761785952665 -0.04954832052719027 0 -0.04954832052719027 -0.24544026154359244 0 0 0 0 179.88565241886135 14.397047161744865 0 14.397047161744865 -41.338851113520832 0 0 0 0 -499.65892864327088 -206.74176260769673 0 -206.74176260769673 62.260526590876452 0 0 0 0 -149.44680013248944 -118.41955515279244 0 -118.41955515279244 -92.018859503623617 0 0 0 0 -0.63585460967307661 -2.6840179254812497 0 -2.6840179254812497 -7.7791652604494219 0 0 0 0 25.773827869576053 -250.77387695200355 0 -250.77387695200355 -36.050392510703205 0 0 0 0 53.757449642313077 -195.9670116300158 0 -195.9670116300158 -239.61234061537044 0 0 0 0 20.027927433028026 1.1310161043266476 0 1.1310161043266476 -14.237593159410169 0 0 0 0 -132.70220556699996 -196.02296941603049 0 -196.02296941603049 -60.199497159819657 0 0 0 0 3.6408061130045155 1.8275339946891371 0 1.8275339946891371 0.077749705077038822 0 0 0 0 110.08693726648926 1.3564488088318285 0 1.3564488088318285 -223.76272643570792 0 0 0 0 16.936689735775872 67.133256852927843 0 67.133256852927843 -175.45083001947933 0 0 0 0 -40.210885888438497 80.347320115592083 0 80.347320115592083 -46.141780529631887 0 0 0 0 -14.573505586049578 13.724710148016243 0 13.724710148016243 -7.6002976191412017 0 0 0 0 -32.995230848480787 57.368045373708924 0 57.368045373708924 -30.319106393768379 0 0 0 0 48.52240007941873 -72.198657561712253 0 -72.198657561712253 -81.644788844509094 0 0 0 0 200.02714907114569 5.8788886562524567 0 5.8788886562524567 -64.823910112999329 0 0 0 0 277.57914726773743 -42.342817274030494 0 -42.342817274030494 -50.935992418877504 0 0 0 0 207.12515786009317 -57.979383367910486 0 -57.979383367910486 -150.04090406175396 0 0 0 0 72.990141906688223 96.986032154787608 0 96.986032154787608 -146.68531390751355 0 0 0 0 1.8851977212808606 1.5150381563121407 0 1.5150381563121407 0.15333497522762274 0 0 0 0 262.28297687324812 -16.81343252232864 0 -16.81343252232864 -125.81073658060632 0 0 0 0 267.51345412451155 13.128773891523792 0 13.128773891523792 -95.030546882804629 0 0 0 0 246.13480641782735 -70.480854516996942 0 -70.480854516996942 -117.22421812149514 0 0 0 0 204.4031792544265 -66.526656951918085 0 -66.526656951918085 -18.24268248780163 0 0 0 0 212.65668404696044 -70.691125722129073 0 -70.691125722129073 -21.637881065063084 0 0 0 0 208.2985503413438 -75.899766640383859 0 -75.899766640383859 -14.364744678685383 0 0 0 0 124.99496198038105 -8.5425836730501032 0 -8.5425836730501032 -56.331191276765821 0 0 0 0 67.624001668853452 -66.118912776606521 0 -66.118912776606521 68.007478356662432 0 0 0 0 218.97565894203581 -80.439942819975158 0 -80.439942819975158 -17.152600172673374 0 0 0 0 -46.504182616190519 -84.903318161380412 0 -84.903318161380412 120.64740829762468 0 0 0 0 36.909675920003792 -15.241329366423088 0 -15.241329366423088 -46.370611101051168 0 0 0 0 108.5256053848716 12.392785558266041 0 12.392785558266041 -44.284152065443777 0 0 0 0 96.818136748741381 -161.38804755376532 0 -161.38804755376532 -357.24956179263495 0 0 0 0 -13.425665711140027 -118.81201115887143 0 -118.81201115887143 -31.628053547260379 0 0 0 0 149.10232250094123 67.295035908854516 0 67.295035908854516 -75.048399325271021 0 0 0 0 74.889427779504331 114.61752705601248 0 114.61752705601248 -334.5686170620711 0 0 0 0 84.295542041399614 -4.0007425193004238 0 -4.0007425193004238 -12.083544644444277 0 0 0 0 94.487707978994877 -45.600760957137027 0 -45.600760957137027 -34.87363677353278 0 0 0 0 132.63921215546725 -37.88982705338276 0 -37.88982705338276 -35.09093436619878 0 0 0 0 93.683918227994582 -22.271184849240854 0 -22.271184849240854 -31.475765078213385 0 0 0 0 93.688316941868834 -24.370093664183969 0 -24.370093664183969 -56.623787727559602 0 0 0 0 46.73882442134709 -32.054933837909687 0 -32.054933837909687 -33.153868594143205 0 0 0 0 95.564951491968714 -44.25064483975973 0 -44.25064483975973 -60.675826764267185 0 0 0 0 253.87672216420469 42.259779067745058 0 42.259779067745058 -167.1599793349169 0 0 0 0 67.836440093287933 -12.604587035404853 0 -12.604587035404853 -2.7427523663515698 0 0 0 0 67.593376585843117 -10.499990806922293 0 -10.499990806922293 -1.1225175404168439 0 0 0 0 37.187004164341488 -40.630437965040073 0 -40.630437965040073 -19.98146153488824 0 0 0 0 50.540158664098271 -42.051054211301107 0 -42.051054211301107 -75.893490903122711 0 0 0 0 50.848742047604347 -14.801884351462165 0 -14.801884351462165 0.035555346797160325 0 0 0 0 82.822719026520645 -7.4412944035948385 0 -7.4412944035948385 -29.213380489268275 0 0 0 0 47.68282247532261 -9.4468310583151833 0 -9.4468310583151833 13.71325780202551 0 0 0 0 27.935056256101234 66.239453011772639 0 66.239453011772639 63.953868459780779 0 0 0 0 -68.111243273506261 -37.777490421078255 0 -37.777490421078255 -12.777785024987679 0 0 0 0 15.282867651852882 10.138606576187428 0 10.138606576187428 -8.3626627766611517 0 0 0 0 66.672182311405336 -1.4284927840861128 0 -1.4284927840861128 -1.9657514579462712 0 0 0 0 76.601712563191541 4.4470387749461224 0 4.4470387749461224 78.383453089238174 0 0 0 0 75.998196933775034 7.7371401675368361 0 7.7371401675368361 -67.62166703775415 0 0 0 0 55.694018607389808 -20.150681848399927 0 -20.150681848399927 -58.402091980726254 0 0 0 0 45.29749035985742 -59.781887837488156 0 -59.781887837488156 -128.65468276198317 0 0 0 0 43.091387953534877 -28.808234152290666 0 -28.808234152290666 -61.340695506873999 0 0 0 0 63.531291815423174 16.361358687851407 0 16.361358687851407 -50.93180801090341 0 0 0 0 59.611784002608147 -9.6860928369085286 0 -9.6860928369085286 -44.997119203721013 0 0 0 0 62.387583032916154 -15.59741340554865 0 -15.59741340554865 -83.413440250305939 0 0 0 0 74.65748179671391 -2.1407478398250532 0 -2.1407478398250532 -47.441645448840063 0 0 0 0 89.537298768254914 -27.754376643962814 0 -27.754376643962814 -20.187836812435307 0 0 0 0 118.11984552165086 0.26627362756926232 0 0.26627362756926232 -18.617307894558735 0 0 0 0 145.81554659831454 -37.37707592905258 0 -37.37707592905258 2.057862886289513 0 0 0 0 104.44323571655877 -5.6679906061551719 0 -5.6679906061551719 8.747141530031513 0 0 0 0 95.714281148333612 29.487565276884197 0 29.487565276884197 -39.520265680307489 0 0 0 0 142.29862214961395 8.7475746589479968 0 8.7475746589479968 -28.03604894874411 0 0 0 0 160.89081864568652 27.937952050810736 0 27.937952050810736 -104.18428146164797 0 0 0 0 158.3988590710378 36.334738766729515 0 36.334738766729515 -101.42457548336097 0 0 0 0 87.679421509579697 -47.40007575628681 0 -47.40007575628681 -187.96783593008928 0 0 0 0 105.13738073721288 28.091085515629757 0 28.091085515629757 -255.65941054905261 0 0 0 0 44.030629013412181 50.624565317151479 0 50.624565317151479 -93.411801139614681 0 0 0 0 0.73016032874161141 -1.5936344151187853 0 -1.5936344151187853 -0.80421661598017602 0 0 0 0 81.214311268282472 1.9519075407183664 0 1.9519075407183664 -86.034549647806898 0 0 0 0 62.537804182569744 11.611242659085178 0 11.611242659085178 -65.724714089443296 0 0 0 0 93.143669098804821 2.4261320623795655 0 2.4261320623795655 -78.756622130491223 0 0 0 0 126.66687576890217 -48.43123747619245 0 -48.43123747619245 -52.02060946558413 0 0 0 0 81.54588285693535 -45.750718544799724 0 -45.750718544799724 4.707877592278237 0 0 0 0 120.66376184771798 -81.336295196104743 0 -81.336295196104743 -4.2159417471821143 0 0 0 0 108.33800151817195 -40.144642977439617 0 -40.144642977439617 -21.903189789556109 0 0 0 0 86.933900224539457 -39.047813263599053 0 -39.047813263599053 -18.219799807181971 0 0 0 0 71.626788703128113 -6.6575101983712557 0 -6.6575101983712557 -52.404613750104545 0 0 0 0 -342.79225888401015 7.47873153342303 0 7.47873153342303 -42.201589053832606 0 0 0 0 -78.844589056694531 45.104228251382324 0 45.104228251382324 -33.220183022286392 0 0 0 0 -53.661463303171331 -152.78822472215154 0 -152.78822472215154 -122.05202006778106 0 0 0 0 181.31092718564105 77.751774297617345 0 77.751774297617345 -14.378284038209301 0 0 0 0 112.41584061244794 -122.44488308533039 0 -122.44488308533039 -40.198400486486292 0 0 0 0 -180.06394507712753 -50.692037637728774 0 -50.692037637728774 104.75581719615548 0 0 0 0 -203.03408270013779 -198.59496251055228 0 -198.59496251055228 -117.91407629881985 0 0 0 0 95.238780763476825 28.058278939064962 0 28.058278939064962 29.492947087201117 0 0 0 0 194.13596561494342 13.145628437861888 0 13.145628437861888 -27.31461738074222 0 0 0 0 -1.2543864192680374 -0.48313075017243534 0 -0.48313075017243534 -13.812569241305676 0 0 0 0 238.11351988478418 -24.133824532285644 0 -24.133824532285644 -35.151870414701079 0 0 0 0 158.70655561118474 -37.239141169871573 0 -37.239141169871573 65.585788751574455 0 0 0 0 0.36298406402599426 -1.1502082733895413 0 -1.1502082733895413 -2.2611132014678774 0 0 0 0 -734.3827869971492 -285.85494122858393 0 -285.85494122858393 -4.2214085588084913 0 0 0 0 233.71802500154627 5.4971923461015422 0 5.4971923461015422 -58.751836627042849 0 0 0 0 -254.0267933517689 -195.58897059086965 0 -195.58897059086965 -168.67623828122862 0 0 0 0 -266.6357941506285 -182.1443437676171 0 -182.1443437676171 -119.71985351330977 0 0 0 0 0.23512208877572549 0.076457493511870922 0 0.076457493511870922 -4.9682145282370076 0 0 0 0 250.88007110102626 47.362669257752941 0 47.362669257752941 -133.26782507735072 0 0 0 0 -315.92714752859092 -246.40062546236842 0 -246.40062546236842 -147.86961866168258 0 0 0 0 168.00466330335985 58.034041209448105 0 58.034041209448105 19.515283724547658 0 0 0 0 200.88517603402761 -33.485713490674726 0 -33.485713490674726 -262.36478361453646 0 0 0 0 -11.224183294842078 236.3980779626886 0 236.3980779626886 -160.5426110987942 0 0 0 0 -51.765497305106692 -341.99945857655371 0 -341.99945857655371 -355.8341362428136 0 0 0 0 -107.07327584370114 -12.359754008603332 0 -12.359754008603332 -3.6844794419191658 0 0 0 0 -155.7088493823976 -206.55702588227717 0 -206.55702588227717 -405.89872935122423 0 0 0 0 160.34033602049749 -12.45794456693335 0 -12.45794456693335 -56.899517427021436 0 0 0 0 -65.123618238980271 -87.822271112287467 0 -87.822271112287467 -26.042098939624182 0 0 0 0 -124.07739137808949 -14.929733063975092 0 -14.929733063975092 -109.17804645878346 0 0 0 0 -184.53616872517523 -255.51520641957072 0 -255.51520641957072 -247.37351821747711 0 0 0 0 219.48311163995095 38.915448389251878 0 38.915448389251878 14.267315755852792 0 0 0 0 235.37471572144204 -1.5204726268058266 0 -1.5204726268058266 -113.71245311081105 0 0 0 0 108.56450170122116 101.85181683261774 0 101.85181683261774 -48.044898202550485 0 0 0 0 375.03952932123138 187.23519694076003 0 187.23519694076003 12.017314465126088 0 0 0 0 278.46118042611488 3.871773173240797 0 3.871773173240797 -66.072643321662554 0 0 0 0 204.92855249154309 89.833450831563596 0 89.833450831563596 -3.7892260227563384 0 0 0 0 406.97086230774948 -24.536734600445811 0 -24.536734600445811 -40.180831884837573 0 0 0 0 294.42195928278488 -62.624387044616817 0 -62.624387044616817 20.930781912629534 0 0 0 0 0.72746967666737561 -0.39879827928586842 0 -0.39879827928586842 -0.17251153387131365 0 0 0 0 567.70571303604083 86.116019810158107 0 86.116019810158107 -10.396658691476695 0 0 0 0 534.39544598201974 42.851891909363943 0 42.851891909363943 49.518214038473744 0 0 0 0 172.73788887176079 199.48863501131962 0 199.48863501131962 49.331721588959212 0 0 0 0 33.530956149534177 -96.929658675695578 0 -96.929658675695578 30.98329607305169 0 0 0 0 -27.156373722304124 35.577976572741733 0 35.577976572741733 65.946756369367236 0 0 0 0 -40.857724277997477 -5.3186638941631799 0 -5.3186638941631799 -42.491851415210803 0 0 0 0 -165.80874624688477 65.090510858941244 0 65.090510858941244 208.48019042483486 0 0 0 0 55.680566579736478 1.4249750717410024 0 1.4249750717410024 -112.35437162666442 0 0 0 0 0.019691834387074891 -1.2637208761844452 0 -1.2637208761844452 -0.48099436699123788 0 0 0 0 33.241240228257993 -48.227263736677571 0 -48.227263736677571 -23.332394779987567 0 0 0 0 -11.077989940044972 -61.090954638931663 0 -61.090954638931663 135.30319012258747 0 0 0 0 28.628010638971318 -52.054859942936332 0 -52.054859942936332 39.086587999274329 0 0 0 0 -32.248387966619703 2.5222575304094832 0 2.5222575304094832 52.083679819568204 0 0 0 0 166.64607627318765 -5.9141377048444497 0 -5.9141377048444497 137.294657785482 0 0 0 0 -9.0180707295453431 -23.205827606506347 0 -23.205827606506347 147.83414775640631 0 0 0 0 -8.4415169643198169 -26.328860523865046 0 -26.328860523865046 120.77997840042281 0 0 0 0 5.6512611312764207 0.87024306075573143 0 0.87024306075573143 0.028560725021423927 0 0 0 0 -11.826109423678645 -36.407715477827651 0 -36.407715477827651 199.94864968655111 0 0 0 0 440.64408403820016 92.272639093886255 0 92.272639093886255 141.1225208083942 0 0 0 0 215.13745541534081 -39.474154471835732 0 -39.474154471835732 100.59165871182866 0 0 0 0 447.94685331881828 57.070690133745188 0 57.070690133745188 185.74005461253182 0 0 0 0 376.10021033964495 159.23468615607291 0 159.23468615607291 60.477099787451266 0 0 0 0 106.42815458678001 -148.77552570199012 0 -148.77552570199012 124.20939078321177 0 0 0 0 106.85314900833419 -145.6885884074286 0 -145.6885884074286 58.303794038001058 0 0 0 0 148.23354616186953 -131.18913164801961 0 -131.18913164801961 59.695808830587822 0 0 0 0 43.191620401126784 -63.95841628961665 0 -63.95841628961665 72.979859108121673 0 0 0 0 152.93518385862808 -115.43101876060953 0 -115.43101876060953 69.26461620924465 0 0 0 0 54.294288206056081 -150.90378393932167 0 -150.90378393932167 -52.185526424751401 0 0 0 0 -0.039833544575252233 -2.3256001085877207 0 -2.3256001085877207 -0.98835061655325385 0 0 0 0 59.168261344069833 -7.7967676131770531 0 -7.7967676131770531 30.64078456203373 0 0 0 0 19.27460425010031 -49.492285387138736 0 -49.492285387138736 139.6985317536421 0 0 0 0 254.37187965962039 -205.70567067356478 0 -205.70567067356478 106.64029850629436 0 0 0 0 3.0855305224932792 -0.33305766480896004 0 -0.33305766480896004 -0.3945498239127061 0 0 0 0 26.516043493415737 -21.725514521388973 0 -21.725514521388973 173.86151285647907 0 0 0 0 259.65617643768928 -26.526553365614745 0 -26.526553365614745 74.584670389895564 0 0 0 0 163.79164109785779 -103.44412743196392 0 -103.44412743196392 11.084337621879058 0 0 0 0 209.35197302874394 -191.32575216657827 0 -191.32575216657827 180.57795557293093 0 0 0 0 200.39837398573945 -44.233458879249156 0 -44.233458879249156 230.54679816499942 0 0 0 0 296.87218311755714 -141.45201221979687 0 -141.45201221979687 192.18137069085333 0 0 0 0 150.2969309008804 -164.23911516144381 0 -164.23911516144381 266.97308555884274 0 0 0 0 78.123428210722523 -107.74826191507879 0 -107.74826191507879 235.70374965013389 0 0 0 0 -6.2169877801115945 -157.67196805353439 0 -157.67196805353439 229.40180283412383 0 0 0 0 56.192223578695121 -196.01356186018097 0 -196.01356186018097 59.381846946770111 0 0 0 0 220.78694003102282 -227.82530198000904 0 -227.82530198000904 267.82632075502488 0 0 0 0 112.13560887421954 -180.53779624707704 0 -180.53779624707704 263.88140518959563 0 0 0 0 225.55732546678291 -219.64218673418799 0 -219.64218673418799 277.35823520535723 0 0 0 0 216.91676374843655 -196.0876746120062 0 -196.0876746120062 260.52391368943609 0 0 0 0 201.89025762838901 -123.50562720828378 0 -123.50562720828378 282.15399542358364 0 0 0 0 253.31566808342177 -199.29604509008004 0 -199.29604509008004 176.42339230319021 0 0 0 0 77.244006673975491 -191.42789353030071 0 -191.42789353030071 248.47229145786514 0 0 0 0 327.44464125189006 -129.86858357167512 0 -129.86858357167512 279.58377231485269 0 0 0 0 286.45062115101609 78.208656810470984 0 78.208656810470984 354.88617634252932 0 0 0 0 422.02133124503962 -28.083758918643071 0 -28.083758918643071 317.14834550550415 0 0 0 0 241.3064136751218 -147.91463141877648 0 -147.91463141877648 345.82768106627736 0 0 0 0 299.65106966531857 -181.49683965058512 0 -181.49683965058512 260.87421941366364 0 0 0 0 334.30180096330605 -142.44863058432043 0 -142.44863058432043 177.22955129389084 0 0 0 0 250.46020111031248 -253.05649491704071 0 -253.05649491704071 214.51118186991971 0 0 0 0 347.52792698723897 -171.09888062981281 0 -171.09888062981281 239.29125896832898 0 0 0 0 251.76629098283865 -230.98225466689519 0 -230.98225466689519 234.40191198800221 0 0 0 0 260.31981056132827 220.16378674155953 0 220.16378674155953 438.86440662224686 0 0 0 0 231.13135787727424 4.4886398564443653 0 4.4886398564443653 410.45579529080851 0 0 0 0 366.6246321774579 180.58127221324975 0 180.58127221324975 400.79125098183886 0 0 0 0 259.82687412098767 -101.87135589772731 0 -101.87135589772731 75.471612844670744 0 0 0 0 3.2526273813046345 0.41221941649859239 0 0.41221941649859239 0.099794181639383694 0 0 0 0 155.37586370591271 281.3030649852742 0 281.3030649852742 403.29034867215796 0 0 0 0 178.99547170879714 6.7084836699701214 0 6.7084836699701214 -3.4977435670907653 0 0 0 0 -8.3130899211155338 -102.48185079162408 0 -102.48185079162408 349.36701241861465 0 0 0 0 284.95415532429115 323.1555106862113 0 323.1555106862113 637.68619593701897 0 0 0 0 197.47933783610824 -101.99555176438366 0 -101.99555176438366 598.98058214308003 0 0 0 0 459.60132101251656 47.614406144545683 0 47.614406144545683 392.10279916335492 0 0 0 0 608.90629110386908 497.4013469739798 0 497.4013469739798 434.23762484107374 0 0 0 0 -0.23978960667742655 0.51827830302697819 0 0.51827830302697819 7.221173650712629 0 0 0 0 355.29037846906567 249.25992237005323 0 249.25992237005323 777.20126560471545 0 0 0 0 -34.042638201448426 3.2035857466580637 0 3.2035857466580637 863.38611891140818 0 0 0 0 109.43615456196949 -76.626785422294461 0 -76.626785422294461 392.22247611939201 0 0 0 0 312.05803112525496 81.134858704880514 0 81.134858704880514 457.363377256901 0 0 0 0 260.90664121510054 -128.82431069708537 0 -128.82431069708537 367.56661089380987 0 0 0 0 95.321102791575868 -61.049008977953122 0 -61.049008977953122 490.10971523613671 0 0 0 0 288.0145276541507 -15.003533877885502 0 -15.003533877885502 324.249964618381 0 0 0 0 -48.092342027714949 -22.469934313713566 0 -22.469934313713566 463.64593260118136 0 0 0 0 136.47447938464484 -62.417228925828681 0 -62.417228925828681 413.24502115991299 0 0 0 0 120.78869720745206 -14.333995095427667 0 -14.333995095427667 422.36047120182252 0 0 0 0 239.71247446505458 -12.009502051783784 0 -12.009502051783784 385.93826616781416 0 0 0 0 197.18203302226902 -48.542732877948424 0 -48.542732877948424 354.7747647898542 0 0 0 0 172.51776659359439 -191.93628303158295 0 -191.93628303158295 280.39878030146519 0 0 0 0 172.05533893966822 -193.01720983676847 0 -193.01720983676847 325.45525396677596 0 0 0 0 207.97546782279915 -118.86257337783115 0 -118.86257337783115 395.84787588477104 0 0 0 0 59.948709329346457 -117.55599539566151 0 -117.55599539566151 403.09456628742032 0 0 0 0 24.562001165422771 -232.83740365851759 0 -232.83740365851759 547.85131493129825 0 0 0 0 64.03456545723202 -141.38861841847745 0 -141.38861841847745 467.36503272380878 0 0 0 0 -27.708548012754363 -135.14532860094687 0 -135.14532860094687 367.549049013689 0 0 0 0 -52.09876380687092 -108.82522945170422 0 -108.82522945170422 474.99885786991871 0 0 0 0 -5.3705096046796825 -181.04006154369353 0 -181.04006154369353 422.86226545402315 0 0 0 0 53.155045429411075 -273.13600585807836 0 -273.13600585807836 585.37253591773708 0 0 0 0 -16.7970261033106 -155.69796041059851 0 -155.69796041059851 501.02680876955083 0 0 0 0 39.848014232548849 -233.01086145490297 0 -233.01086145490297 815.48005931583657 0 0 0 0 382.58065192698996 -517.06357246049345 0 -517.06357246049345 532.40427560629826 0 0 0 0 4491.2436359173635 -1452.4855307287039 0 -1452.4855307287039 722.0166333186213 0 0 0 0 1907.8962639783495 -237.31662960027575 0 -237.31662960027575 612.27352093207492 0 0 0 0 3158.3437717492779 -2739.5553421687623 0 -2739.5553421687623 2021.9197360368676 0 0 0 0 259.5272725085706 -481.74610551364873 0 -481.74610551364873 1051.6300166871983 0 0 0 0 986.15549361876674 -67.698557204262443 0 -67.698557204262443 867.02457212924924 0 0 0 0 3713.149836558091 -1275.3327826440971 0 -1275.3327826440971 226.35848731339982 0 0 0 0 11.522606833343971 3.1642092895621525 0 3.1642092895621525 1.3108061297489373 0 0 0 0 369.44531366699721 -296.82708625923982 0 -296.82708625923982 845.53387069818723 0 0 0 0 3907.4562958966967 -761.09848108008578 0 -761.09848108008578 -38.372130000993252 0 0 0 0 4504.0229674451948 -687.45586997794157 0 -687.45586997794157 -604.90596144189828 0 0 0 0 1450.0498248054218 -1004.9769273152776 0 -1004.9769273152776 235.81062143687134 0 0 0 0 2895.259953000872 420.29497627858723 0 420.29497627858723 -731.88119637138459 0 0 0 0 203.27027466582058 -276.98932121264056 0 -276.98932121264056 408.27136140848813 0 0 0 0 204.31788809997579 -333.77289870968406 0 -333.77289870968406 393.44452120071446 0 0 0 0 17.876894734331774 9.112625191272981 0 9.112625191272981 3.5301949454460844 0 0 0 0 1046.1301799733792 210.80529457373001 0 210.80529457373001 -34.517653496252649 0 0 0 0 22.898880509247988 -107.0071105097684 0 -107.0071105097684 370.40697036628677 0 0 0 0 590.04298020293209 -262.25800199280553 0 -262.25800199280553 -317.96971432883004 0 0 0 0 14.591808499447239 8.1718402226751632 0 8.1718402226751632 3.3636594989350748 0 0 0 0 23.289909538047766 -108.26720663862375 0 -108.26720663862375 76.102378508667286 0 0 0 0 601.38200059532937 1618.3137541218944 0 1618.3137541218944 210.66452937430591 0 0 0 0 4486.9691955539947 725.60048188727626 0 725.60048188727626 -776.87331717334564 0 0 0 0 25.860067880865941 6.0566519828862688 0 6.0566519828862688 1.0539145138138095 0 0 0 0 4492.1385258328446 -2598.1262731114098 0 -2598.1262731114098 1083.9951725421943 0 0 0 0 2012.2710651545094 -1296.5560249797313 0 -1296.5560249797313 426.90079977672963 0 0 0 0 2082.4522953342585 -828.27168799132141 0 -828.27168799132141 29.63289362525029 0 0 0 0 1505.7310083881621 -284.00996595348624 0 -284.00996595348624 -121.05448354170571 0 0 0 0 4501.4606968691169 -1399.9403302192759 0 -1399.9403302192759 -423.00832716260288 0 0 0 0 144.47877260160976 -11.858320261706382 0 -11.858320261706382 -328.43465246503058 0 0 0 0 49.919971372033615 -28.418144938911951 0 -28.418144938911951 -157.46375524805944 0 0 0 0 57.652494966361104 18.125472252516097 0 18.125472252516097 0.056586867075282932 0 0 0 0 47.453314422231415 325.67414230260835 0 325.67414230260835 -675.11091028324199 0 0 0 0 77.729264344012336 144.24686667187754 0 144.24686667187754 -433.21105079961427 0 0 0 0 -13.8028578302401 189.38035786911504 0 189.38035786911504 -377.91420996001358 0 0 0 0 62.914780455134505 26.67437010690524 0 26.67437010690524 0.01506668084844065 0 0 0 0 -35.942332289625483 62.178771828991252 0 62.178771828991252 -218.03379654736244 0 0 0 0 49.614380684986827 24.677373055730513 0 24.677373055730513 -261.01178061143469 0 0 0 0 87.710559653610289 15.846689180873462 0 15.846689180873462 -279.9913185231942 0 0 0 0 63.39634461227979 -17.526264265448972 0 -17.526264265448972 -203.58509256246577 0 0 0 0 31.656197355439872 6.5897814442302547 0 6.5897814442302547 -150.29990657710917 0 0 0 0 90.445348768073018 105.17323300967074 0 105.17323300967074 -182.64373227829086 0 0 0 0 122.2485951584822 5.5528455507847045 0 5.5528455507847045 -223.43096178379784 0 0 0 0 54.654572547382486 47.441431504978539 0 47.441431504978539 -160.10727069121555 0 0 0 0 445.06590736051112 285.08920480083873 0 285.08920480083873 -265.3953467518312 0 0 0 0 794.05405057184362 274.13729307326344 0 274.13729307326344 -330.49604220250956 0 0 0 0 378.31086183542357 174.77546962432703 0 174.77546962432703 -173.46639977789863 0 0 0 0 729.67209829800231 -4.8443130678926138 0 -4.8443130678926138 -15.444884471339719 0 0 0 0 565.27104828829761 98.132998302591844 0 98.132998302591844 147.41470833115739 0 0 0 0 548.63347551409015 -32.035087482999714 0 -32.035087482999714 110.85931805367193 0 0 0 0 904.19461490034882 142.01192960722884 0 142.01192960722884 -1.3251798958775964 0 0 0 0 9.3956072803931079 284.01393883369423 0 284.01393883369423 -247.8999219497843 0 0 0 0 4.8121483781723953 1.8812255561543552 0 1.8812255561543552 -0.086440729088688106 0 0 0 0 865.79680129325425 -355.09372891922516 0 -355.09372891922516 195.55086088085153 0 0 0 0 334.9847660511532 -215.10079945971336 0 -215.10079945971336 161.82345674373721 0 0 0 0 454.84261159649395 41.299101929856306 0 41.299101929856306 96.231272314898121 0 0 0 0 365.95254426943757 78.33586691003643 0 78.33586691003643 180.24192567695331 0 0 0 0 366.42456144844249 -20.667579211044423 0 -20.667579211044423 211.37167570779002 0 0 0 0 513.38258548425119 -42.706187561548518 0 -42.706187561548518 172.5695034101966 0 0 0 0 112.61147540140519 10.498137065147517 0 10.498137065147517 -136.2482445698609 0 0 0 0 289.27286239300884 -122.36735339485112 0 -122.36735339485112 221.88510793525359 0 0 0 0 85.803877339945757 -80.01232364472294 0 -80.01232364472294 -121.68963115931854 0 0 0 0 10.803024766057035 5.2648306684438673 0 5.2648306684438673 1.089831511905091 0 0 0 0 -82.449742911532667 -90.819828925921456 0 -90.819828925921456 160.05813496955443 0 0 0 0 1.0840081538044615 -160.07849603234035 0 -160.07849603234035 190.24889856311938 0 0 0 0 158.71811454256749 -140.35384568003883 0 -140.35384568003883 84.078262292883664 0 0 0 0 4.4332672187701974 -45.514135929308509 0 -45.514135929308509 33.425187498174637 0 0 0 0 -33.15680599190091 -191.40305113884506 0 -191.40305113884506 -68.445356469006583 0 0 0 0 -71.587622343657131 -64.296008691724637 0 -64.296008691724637 -123.59879040336818 0 0 0 0 25.474504800971772 -175.54457839273982 0 -175.54457839273982 -66.428168072789958 0 0 0 0 3.7122761465386134 -6.0954812724911065 0 -6.0954812724911065 6.2913608025147099 0 0 0 0 -95.209683198285347 -177.88974189993905 0 -177.88974189993905 -75.658531373623973 0 0 0 0 293.76755706581389 -25.287894944233813 0 -25.287894944233813 -12.112868214916489 0 0 0 0 -18.165924278332341 31.594575155242524 0 31.594575155242524 52.503087505676376 0 0 0 0 -173.82765210722209 -85.860478565920289 0 -85.860478565920289 310.83075385010079 0 0 0 0 0.95954180542756262 -2.0318413638643236 0 -2.0318413638643236 3.6610770460996047 0 0 0 0 -35.340207546323654 -95.868735108469536 0 -95.868735108469536 -77.095757187471193 0 0 0 0 -91.115597120706298 -118.38998260298592 0 -118.38998260298592 321.88010483634662 0 0 0 0 -28.345459092694909 -239.41321784469216 0 -239.41321784469216 323.90867134218161 0 0 0 0 17.458273511126279 -3.3394304567075235 0 -3.3394304567075235 -0.95247320557990323 0 0 0 0 13.420041357304939 -2.2230037593332943 0 -2.2230037593332943 -0.31706775503833518 0 0 0 0 94.308364019409055 140.89025479396605 0 140.89025479396605 -121.55330033124659 0 0 0 0 -32.263881650171243 -168.32790362196374 0 -168.32790362196374 362.51865683251259 0 0 0 0 -44.130285205106702 -123.32934690622403 0 -123.32934690622403 317.2247247413261 0 0 0 0 68.691164589217806 -69.740328929145335 0 -69.740328929145335 303.34126577540837 0 0 0 0 4.8857302115015955 -1.1719301181403146 0 -1.1719301181403146 0.33040731081587649 0 0 0 0 74.268608640917591 -177.05286874851629 0 -177.05286874851629 603.01616090162815 0 0 0 0 280.3888167103687 -50.236121270961348 0 -50.236121270961348 562.80834939736974 0 0 0 0 354.97989097239042 -93.485244882858751 0 -93.485244882858751 243.00341555357272 0 0 0 0 723.8336429176743 -458.29857101619496 0 -458.29857101619496 498.62515108590765 0 0 0 0 369.43812651648841 -94.265484374417156 0 -94.265484374417156 158.83435885295421 0 0 0 0 926.80089416934788 65.413038550445037 0 65.413038550445037 67.157914010243076 0 0 0 0 530.91751724760979 64.539467395706026 0 64.539467395706026 26.703785486826746 0 0 0 0 400.14328092518917 -126.231176121202 0 -126.231176121202 156.15213274023517 0 0 0 0 557.74620171076094 -89.729547773647027 0 -89.729547773647027 -2.690671056249812 0 0 0 0 374.07216708170745 -103.61012692383019 0 -103.61012692383019 8.6427661538668872 0 0 0 0 319.36011964625504 -190.65305940717599 0 -190.65305940717599 -34.360222917082183 0 0 0 0 404.7223754541119 -66.791403950690665 0 -66.791403950690665 -66.834097758809094 0 0 0 0 81.145641492497816 -30.619162416111976 0 -30.619162416111976 228.89339402688711 0 0 0 0 154.85258175417766 -181.20309692830506 0 -181.20309692830506 218.19875595381836 0 0 0 0 205.43434963258187 53.049763781910315 0 53.049763781910315 -435.6209143614833 0 0 0 0 0.97268639077574903 -1.6758440126956717 0 -1.6758440126956717 -0.28320972852776416 0 0 0 0 456.78718621554435 -221.002356894375 0 -221.002356894375 -93.535701714556126 0 0 0 0 460.10274859950368 -203.81997016001515 0 -203.81997016001515 -4.8999589998093143 0 0 0 0 398.22994758956611 -11.730668528943966 0 -11.730668528943966 33.399003757616811 0 0 0 0 273.88962550423457 -74.362365077134655 0 -74.362365077134655 2.638965985816867 0 0 0 0 414.09695574205034 -109.10236157971963 0 -109.10236157971963 -54.369345920425985 0 0 0 0 354.35599574646039 -146.5383038651612 0 -146.5383038651612 -41.243357148240193 0 0 0 0 276.12074770925392 -66.589410783230505 0 -66.589410783230505 -8.8871983779999937 0 0 0 0 309.29494563504522 -177.61025312890717 0 -177.61025312890717 -49.856217007868509 0 0 0 0 261.83452524982567 -100.11017796538272 0 -100.11017796538272 -74.267748133703208 0 0 0 0 226.4343975030406 -86.194102142751717 0 -86.194102142751717 -182.44934381363055 0 0 0 0 165.87830322911032 -96.318598444454892 0 -96.318598444454892 -73.633510553090673 0 0 0 0 199.68481514554878 -148.5851698426668 0 -148.5851698426668 -67.036670295126896 0 0 0 0 270.04158128983545 -128.18931486587553 0 -128.18931486587553 -92.724961792795511 0 0 0 0 224.77301660111698 -130.62815110088377 0 -130.62815110088377 -54.189135831645785 0 0 0 0 316.87581146416051 -251.25014375448472 0 -251.25014375448472 -55.805805581490858 0 0 0 0 248.59749714686041 -157.71660105091496 0 -157.71660105091496 -125.67589609701827 0 0 0 0 187.01892890292584 -140.67289386237871 0 -140.67289386237871 -46.448946329817772 0 0 0 0 48.542552102808258 -32.848054386102376 0 -32.848054386102376 -147.35450101702452 0 0 0 0 199.65309356836951 -142.59687081801076 0 -142.59687081801076 -137.75028178536252 0 0 0 0 110.9325856280193 -81.635340360158807 0 -81.635340360158807 -96.510453985543791 0 0 0 0 115.8420372947985 -32.70331523877303 0 -32.70331523877303 -160.02550310123297 0 0 0 0 168.7396333634897 -53.364777076917107 0 -53.364777076917107 -240.28423001591545 0 0 0 0 199.15475960031472 -37.726987681623086 0 -37.726987681623086 -92.721053462815689 0 0 0 0 384.20494879816397 -190.64116035361621 0 -190.64116035361621 -65.248567641348927 0 0 0 0 293.25031125829992 -139.90872132250115 0 -139.90872132250115 -142.65281982862507 0 0 0 0 628.1767669374567 -323.84140017432583 0 -323.84140017432583 -128.72473721838924 0 0 0 0 323.41866165036481 -312.71761119690564 0 -312.71761119690564 80.107962344699445 0 0 0 0 1.8953839520897873 -2.0597407772680683 0 -2.0597407772680683 2.0906251981029556 0 0 0 0 -146.95857504681044 -367.64661740845031 0 -367.64661740845031 -93.630723461425021 0 0 0 0 808.09217474771685 54.486553051421424 0 54.486553051421424 -85.460835895168202 0 0 0 0 -12.011302470054943 -63.706184509636842 0 -63.706184509636842 9.7813225767749827 0 0 0 0 -130.23118762924423 0.69553203103941996 0 0.69553203103941996 -24.4274913893546 0 0 0 0 44.774556988653785 -22.669845280604022 0 -22.669845280604022 -33.694889024399345 0 0 0 0 49.481169803111698 -45.723379222441508 0 -45.723379222441508 72.823652118324389 0 0 0 0 -29.662154788034968 -46.164309238868555 0 -46.164309238868555 -11.111970048565126 0 0 0 0 -77.946931727785795 -80.510972391889652 0 -80.510972391889652 -86.693588592897868 0 0 0 0 59.910441132306005 -74.142135052613412 0 -74.142135052613412 -133.05938089440679 0 0 0 0 -92.829511290823575 -197.32571159381905 0 -197.32571159381905 -178.50497456428764 0 0 0 0 -8.3193843534372718 -61.549044341695662 0 -61.549044341695662 -204.55180410242974 0 0 0 0 5.3679544001798831 -4.8388678004618555 0 -4.8388678004618555 3.4894955292143877 0 0 0 0 121.93886660990211 -110.72934696723792 0 -110.72934696723792 26.069273460621844 0 0 0 0 -2.8917814298838493 11.368897812483738 0 11.368897812483738 29.830626897635213 0 0 0 0 6.6033709630543598 -5.6382429539239283 0 -5.6382429539239283 3.091714159989472 0 0 0 0 -16.770821851081564 -75.381965969906105 0 -75.381965969906105 -114.23783832255685 0 0 0 0 29.014195029194525 -62.869383109213231 0 -62.869383109213231 -124.19143469064738 0 0 0 0 -0.021876615695390456 -4.6460475399771166 0 -4.6460475399771166 1.1259997626283669 0 0 0 0 -18.407361040626711 -7.2588413798146121 0 -7.2588413798146121 7.4932435912332949 0 0 0 0 64.17355044465512 -137.32969009010549 0 -137.32969009010549 -332.29548572194381 0 0 0 0 103.26691520945315 40.539338957644759 0 40.539338957644759 -90.143339433229812 0 0 0 0 0.0016741152028458828 -0.41280119668632231 0 -0.41280119668632231 0.023469881260890446 0 0 0 0 163.13129548520374 -11.5764168132132 0 -11.5764168132132 -18.562961430555447 0 0 0 0 -14.647074005555169 -19.067700169967736 0 -19.067700169967736 8.9778697723595542 0 0 0 0 -0.44024194497217195 -3.4598043947024486 0 -3.4598043947024486 1.821194526111201 0 0 0 0 -10.397094043153629 -31.276421950318763 0 -31.276421950318763 -68.429907844354034 0 0 0 0 26.738173764460953 -28.037223855202228 0 -28.037223855202228 -107.49092682579794 0 0 0 0 14.535918756067986 -37.785437650774384 0 -37.785437650774384 -115.26820765946377 0 0 0 0 10.872443864607703 3.4193200400943624 0 3.4193200400943624 -62.229117840388426 0 0 0 0 99.637322624752414 -9.3723165319934196 0 -9.3723165319934196 -108.58191990519299 0 0 0 0 96.371765840798616 59.9260137027768 0 59.9260137027768 -42.772194366780241 0 0 0 0 136.98963244559855 33.989713247236523 0 33.989713247236523 -114.63672797844174 0 0 0 0 113.09204743899318 -60.484155418376304 0 -60.484155418376304 -116.43146291834682 0 0 0 0 -0.6824019152081906 1.6157396277013021 0 1.6157396277013021 -0.13684430825895078 0 0 0 0 44.964518556502298 -35.956406450201371 0 -35.956406450201371 -5.3951912433749385 0 0 0 0 159.17865511411946 13.315641655710351 0 13.315641655710351 22.363110230697202 0 0 0 0 22.872956208492162 0.34078746196992427 0 0.34078746196992427 -0.82645098932790262 0 0 0 0 167.32275046624272 19.16866398458842 0 19.16866398458842 -31.954473280498405 0 0 0 0 112.69175499203266 10.193664367721794 0 10.193664367721794 -6.2103660977104482 0 0 0 0 122.18346481298067 12.697176343626779 0 12.697176343626779 -7.6138572592053606 0 0 0 0 133.17937372573942 -1.6037838333968466 0 -1.6037838333968466 -9.8491713028724917 0 0 0 0 110.30464609986711 24.068793385807908 0 24.068793385807908 -31.862272274291172 0 0 0 0 143.77104234970466 17.545305697568892 0 17.545305697568892 -58.87751690193727 0 0 0 0 133.64267214835854 34.726394426279512 0 34.726394426279512 -70.273756335832786 0 0 0 0 149.51939189273071 7.7644551233120183 0 7.7644551233120183 -45.767985315203987 0 0 0 0 134.00352394696165 -13.328841340511417 0 -13.328841340511417 -73.544072953090108 0 0 0 0 136.26205112141906 6.5367058665178774 0 6.5367058665178774 -45.864671173769693 0 0 0 0 136.64193898106623 -9.9953355762659584 0 -9.9953355762659584 -20.292827841030885 0 0 0 0 76.866948307677376 -7.2523984841814126 0 -7.2523984841814126 -28.191322828036846 0 0 0 0 83.977298000752853 2.1052628643717526 0 2.1052628643717526 30.073490037768352 0 0 0 0 0.25706312607043103 -2.0641526247459581 0 -2.0641526247459581 2.3673767745261891 0 0 0 0 83.958730384545561 -2.5219326628157432 0 -2.5219326628157432 12.776549503591013 0 0 0 0 240.68679903720658 -38.505757808675639 0 -38.505757808675639 7.3645235325284375 0 0 0 0 -32.598370528863597 -92.068175921144075 0 -92.068175921144075 -45.122363336857234 0 0 0 0 1.4392747724952706 -2.3543455847648005 0 -2.3543455847648005 3.0276575532412089 0 0 0 0 115.28387331096019 -0.58288913519936614 0 -0.58288913519936614 -35.725750070609138 0 0 0 0 124.22687191293699 -7.5796030648268697 0 -7.5796030648268697 9.5883720964375243 0 0 0 0 160.8449915660749 -41.492940468381221 0 -41.492940468381221 -110.82850419252577 0 0 0 0 -242.24935383002048 -117.17277349123628 0 -117.17277349123628 199.7021545394814 0 0 0 0 192.37756040941531 -64.98829904504737 0 -64.98829904504737 50.391893796760087 0 0 0 0 220.4495842430315 -38.412382991259619 0 -38.412382991259619 -40.399161391155758 0 0 0 0 172.79853858479328 -18.771237045883481 0 -18.771237045883481 66.041235435307499 0 0 0 0 160.0377578594489 -36.755571933813826 0 -36.755571933813826 21.153617035450679 0 0 0 0 170.76244554250661 -13.394864488016083 0 -13.394864488016083 -77.727782733715685 0 0 0 0 185.42136008813395 15.796818622518003 0 15.796818622518003 -26.037166117305787 0 0 0 0 179.32255429024553 19.08473649686448 0 19.08473649686448 -91.182564774739149 0 0 0 0 132.96315364674956 36.611260593932457 0 36.611260593932457 -76.538298129809789 0 0 0 0 166.41126173540215 6.1904401593089915 0 6.1904401593089915 -46.515180911601419 0 0 0 0 187.94477983628167 0.96863940385583192 0 0.96863940385583192 -82.326567095373775 0 0 0 0 251.34988724009963 -254.57379619988114 0 -254.57379619988114 232.17718798755163 0 0 0 0 206.96890646781867 -178.59872706315809 0 -178.59872706315809 187.98511079746277 0 0 0 0 1.5395001727951865 -0.53002079518988054 0 -0.53002079518988054 -1.8037650100077087 0 0 0 0 247.98073483676308 -237.81102228565078 0 -237.81102228565078 154.98242328040578 0 0 0 0 209.5106861084023 -152.4449753461322 0 -152.4449753461322 99.305960879396707 0 0 0 0 1.3604217353327499 -0.27960097683280338 0 -0.27960097683280338 -1.3792975890158594 0 0 0 0 45.075689925779443 -66.040681979769033 0 -66.040681979769033 115.59633461327519 0 0 0 0 145.92679720090564 -20.71624069702284 0 -20.71624069702284 4.7632134633358874 0 0 0 0 156.98684692107054 -105.66365015060592 0 -105.66365015060592 75.888098310750138 0 0 0 0 389.13159936069133 -111.99704189380964 0 -111.99704189380964 37.286899388020174 0 0 0 0 858.09815985480236 -334.08523484190709 0 -334.08523484190709 142.39117250048753 0 0 0 0 0.33606526625106881 -0.47467718602116094 0 -0.47467718602116094 2.0935003918288508 0 0 0 0 336.33111816895871 -399.75387047339342 0 -399.75387047339342 274.09015711759639 0 0 0 0 210.40549475002081 -271.10703731853209 0 -271.10703731853209 229.34699341688975 0 0 0 0 266.9215803462539 -309.71827045971122 0 -309.71827045971122 160.19118758490643 0 0 0 0 201.76400153470968 -333.28068236803665 0 -333.28068236803665 328.09999896258296 0 0 0 0 202.49258929829739 -308.73450176524921 0 -308.73450176524921 299.99809941062654 0 0 0 0 235.75434970464266 -315.6279328857197 0 -315.6279328857197 301.25241423849911 0 0 0 0 44.970375722797598 -232.45877011476537 0 -232.45877011476537 320.63210623120904 0 0 0 0 8.3332105048248195 -126.05772727880753 0 -126.05772727880753 223.92830464960298 0 0 0 0 29.654747600903647 -204.00405339556374 0 -204.00405339556374 311.67829244205222 0 0 0 0 91.825684505835852 -288.6155851412035 0 -288.6155851412035 382.69495377568364 0 0 0 0 138.08848292195944 -214.68237383733151 0 -214.68237383733151 290.39623073598796 0 0 0 0 112.59215963551105 -231.54918642710641 0 -231.54918642710641 303.91869766373065 0 0 0 0 10.187218277322245 1.1837577961563852 0 1.1837577961563852 177.14298157197913 0 0 0 0 -95.633536223445844 -68.049641175684314 0 -68.049641175684314 689.68477229113921 0 0 0 0 375.18374140825836 -531.62567944965576 0 -531.62567944965576 582.97514926187068 0 0 0 0 384.23902277166053 -429.25530369297053 0 -429.25530369297053 367.49777687198366 0 0 0 0 77.674798223139078 -318.18885580532242 0 -318.18885580532242 476.87041710278299 0 0 0 0 657.52479146324549 -320.21824343163667 0 -320.21824343163667 359.03850546109936 0 0 0 0 572.02032390408567 -233.70001092897053 0 -233.70001092897053 402.00732627307389 0 0 0 0 369.78377273485012 -328.85312086971999 0 -328.85312086971999 398.20628254518942 0 0 0 0 -54.290729860453212 106.99437427488957 0 106.99437427488957 186.02980741169324 0 0 0 0 1.0319733688517054 1.3833091897257361 0 1.3833091897257361 4.4744447456507679 0 0 0 0 798.50085606413541 -757.13001210681989 0 -757.13001210681989 479.49700120570242 0 0 0 0 2.0439162141665577 -4.2480160116167802 0 -4.2480160116167802 0.71361473430889655 0 0 0 0 1.5684736176398175 1.5293679523276964 0 1.5293679523276964 12.473832856826913 0 0 0 0 -27.06056886089209 -40.664276321590023 0 -40.664276321590023 1.7575055172017073 0 0 0 0 36.422866759070075 -60.252644814120259 0 -60.252644814120259 55.765252362371939 0 0 0 0 138.71159443103898 -172.61227637166348 0 -172.61227637166348 576.4824324694282 0 0 0 0 45.075423658679938 -91.042491877591601 0 -91.042491877591601 80.844369927725666 0 0 0 0 41.388856866204151 -29.479341578218964 0 -29.479341578218964 60.174035429276501 0 0 0 0 1.8567053699695037 -1.453700481414387 0 -1.453700481414387 -2.8133817590175019 0 0 0 0 71.543273105522076 66.247215696677983 0 66.247215696677983 37.640670313653658 0 0 0 0 36.785634336356452 -58.73755007214163 0 -58.73755007214163 -1.1999801173323021 0 0 0 0 1.662538983105037 -0.88256297174320864 0 -0.88256297174320864 -1.5512074183025693 0 0 0 0 86.083471568981622 -159.91199982444107 0 -159.91199982444107 150.95572760599069 0 0 0 0 0.76534824514798316 -2.496593384448488 0 -2.496593384448488 -5.1036165317803919 0 0 0 0 76.16723544028082 -39.777460014515071 0 -39.777460014515071 6.4349998750659552 0 0 0 0 21.918088779959362 1.8872848284477186 0 1.8872848284477186 27.358850930206927 0 0 0 0 139.0392410352556 -144.20355054587887 0 -144.20355054587887 89.656638873211023 0 0 0 0 99.967179127097552 -110.77707387560389 0 -110.77707387560389 74.642155074464426 0 0 0 0 125.17771596459716 -86.159774455658635 0 -86.159774455658635 95.938795151012187 0 0 0 0 27.429737801809097 -98.821567365087162 0 -98.821567365087162 111.85087431574516 0 0 0 0 58.508693829324329 -9.4196895828073934 0 -9.4196895828073934 -22.065126384549473 0 0 0 0 1.0704191913158496 -0.84434351014397535 0 -0.84434351014397535 -2.3778017720236577 0 0 0 0 197.09925756132361 -193.80660784740576 0 -193.80660784740576 417.06229803062979 0 0 0 0 208.65814318735647 -143.04753307694864 0 -143.04753307694864 225.3164729763879 0 0 0 0 322.8863112922154 -199.47457916184356 0 -199.47457916184356 162.58429254657131 0 0 0 0 221.10199440112046 -30.616371512419846 0 -30.616371512419846 6.3602989353739758 0 0 0 0 221.13043437652013 -153.4162336145277 0 -153.4162336145277 220.05990173404825 0 0 0 0 101.95282511068581 -47.026850038882912 0 -47.026850038882912 260.12336655571198 0 0 0 0 318.775480955479 -377.97792818529979 0 -377.97792818529979 320.77462800269814 0 0 0 0 428.925070395082 -458.03269117281366 0 -458.03269117281366 678.78668789999324 0 0 0 0 436.34345832853796 -276.70765475210533 0 -276.70765475210533 305.47587048895298 0 0 0 0 220.10339746540194 -120.04664904394781 0 -120.04664904394781 241.27748916876044 0 0 0 0 908.49805029538038 -427.848469391599 0 -427.848469391599 231.92675696716651 0 0 0 0 569.60459249098676 -701.75641977908424 0 -701.75641977908424 581.41145750504165 0 0 0 0 428.37584371779667 -437.27243563824004 0 -437.27243563824004 226.36242681390127 0 0 0 0 651.50185086531928 -64.292752437600072 0 -64.292752437600072 421.72515483379652 0 0 0 0 9.0225163077483757 -2.7852038032124549 0 -2.7852038032124549 -0.23184610898065072 0 0 0 0 498.35550206405605 -775.01040402167303 0 -775.01040402167303 749.65836746710556 0 0 0 0 336.97506650939977 114.57945316428459 0 114.57945316428459 -278.69579467186463 0 0 0 0 -62.376924752628838 35.091777332090942 0 35.091777332090942 363.52000477021386 0 0 0 0 233.59224567137426 -229.47161588730626 0 -229.47161588730626 -73.003947617383801 0 0 0 0 365.48909950884263 61.628867258790706 0 61.628867258790706 -200.26365610543701 0 0 0 0 422.91768651722668 -24.312770839397047 0 -24.312770839397047 411.49358161398482 0 0 0 0 368.26060141571179 -84.948972498044085 0 -84.948972498044085 809.45341243418 0 0 0 0 346.08238685527067 -399.1441166576376 0 -399.1441166576376 1031.0692786604402 0 0 0 0 939.72960308006441 -763.27128199403103 0 -763.27128199403103 695.43078124301655 0 0 0 0 369.44069513121758 -504.46926992084622 0 -504.46926992084622 737.57009128281891 0 0 0 0 684.36033107478579 -812.20278509161619 0 -812.20278509161619 530.46652931156518 0 0 0 0 -0.3419084962879424 -349.10034993377684 0 -349.10034993377684 494.4178459894099 0 0 0 0 1001.1652888326571 -518.3526795212249 0 -518.3526795212249 444.88750783843193 0 0 0 0 646.01690365471222 -797.00085637249231 0 -797.00085637249231 525.93278944269571 0 0 0 0 4.8759574112009432 -17.560636765302661 0 -17.560636765302661 35.926301116302739 0 0 0 0 500.7011047655833 -288.53812453855573 0 -288.53812453855573 107.42575523048117 0 0 0 0 8.1349861564343229 -2.2617716571252764 0 -2.2617716571252764 -0.62692205204290752 0 0 0 0 26.924069818145654 -3.3713317664605711 0 -3.3713317664605711 11.164705358089066 0 0 0 0 24.709289799615362 -5.2401088637292332 0 -5.2401088637292332 40.098909854199974 0 0 0 0 5.002209037316959 -0.8999512781966601 0 -0.8999512781966601 -2.6739735135284697 0 0 0 0 5.793084047109005 -23.947515432813134 0 -23.947515432813134 174.02868086893022 0 0 0 0 14.408863371034386 27.599163517675834 0 27.599163517675834 74.556369595651176 0 0 0 0 38.328129376376637 53.978566587713914 0 53.978566587713914 28.336982383391842 0 0 0 0 32.202298883763433 26.82497003239132 0 26.82497003239132 -6.4258368140003768 0 0 0 0 39.229569469686794 48.598350427901721 0 48.598350427901721 33.271187516624195 0 0 0 0 103.4700110362387 -42.648380051045081 0 -42.648380051045081 5.3331095580251713 0 0 0 0 19.987124437524471 27.594291943622011 0 27.594291943622011 30.123837335918324 0 0 0 0 105.02466247454959 -69.333141159692786 0 -69.333141159692786 -9.5631336146616377 0 0 0 0 9.6033437430549853 -0.94108456483390057 0 -0.94108456483390057 15.856268195735362 0 0 0 0 14.344875014583522 24.555641457263391 0 24.555641457263391 31.541652967174969 0 0 0 0 52.916496636090272 20.417733719128584 0 20.417733719128584 -2.2023345483065917 0 0 0 0 119.33306326708407 -27.308053008366187 0 -27.308053008366187 16.392950669472157 0 0 0 0 7.5087718429330153 4.5154189222400021 0 4.5154189222400021 -5.9443220487991049 0 0 0 0 16.597601191449563 -0.48738996782253707 0 -0.48738996782253707 -2.1562789186689031 0 0 0 0 155.03169084816182 18.245831114344583 0 18.245831114344583 -73.217049747670899 0 0 0 0 -217.61515689931548 287.17630371694031 0 287.17630371694031 -82.847812616839292 0 0 0 0 56.75403373647714 84.414544308204313 0 84.414544308204313 -125.58542064945505 0 0 0 0 57.462589711867622 38.823064360138687 0 38.823064360138687 -109.01580052817735 0 0 0 0 32.577765994041869 18.828368041597869 0 18.828368041597869 10.714878182576717 0 0 0 0 61.232176358957076 94.978156012021145 0 94.978156012021145 -187.13299788623408 0 0 0 0 60.653225418218426 12.448692057150765 0 12.448692057150765 -72.918775541025298 0 0 0 0 21.764648655756901 -25.243526326901701 0 -25.243526326901701 4.7990653326369284 0 0 0 0 59.403629609107156 9.0652363075350877 0 9.0652363075350877 1.2994602464507352 0 0 0 0 6.9102977645090178 -6.0005524953688933 0 -6.0005524953688933 20.022775889203515 0 0 0 0 175.82890406542356 -96.374917420002859 0 -96.374917420002859 105.85957297865809 0 0 0 0 371.90586586156132 49.660316104513868 0 49.660316104513868 22.582375299677608 0 0 0 0 556.56938393557903 -209.47584143771564 0 -209.47584143771564 29.947973814795091 0 0 0 0 886.48998607942485 -67.220392886019056 0 -67.220392886019056 -56.566747001160365 0 0 0 0 693.57990993758358 -465.7779889535056 0 -465.7779889535056 306.39903694489703 0 0 0 0 507.68980825784092 -373.02374398141399 0 -373.02374398141399 374.76094245112336 0 0 0 0 -12.585952229652321 95.202958466929886 0 95.202958466929886 127.32686752785821 0 0 0 0 12.160711382606678 121.69580704192686 0 121.69580704192686 59.65922987616068 0 0 0 0 1369.1081411788728 -345.65214782531615 0 -345.65214782531615 89.940389038796638 0 0 0 0 114.58807025714486 -159.75249438658284 0 -159.75249438658284 493.97779907314725 0 0 0 0 0.9944359132313636 -2.4188407625895323 0 -2.4188407625895323 7.7272034184778331 0 0 0 0 51.565656807506457 102.46777804661087 0 102.46777804661087 -53.947533930548047 0 0 0 0 72.12642061239967 -61.637667894685364 0 -61.637667894685364 -16.226461142764947 0 0 0 0 94.765772636907059 -45.015502090816426 0 -45.015502090816426 -5.0709765968517786 0 0 0 0 126.22013786508251 -76.278499239063649 0 -76.278499239063649 27.962026752017209 0 0 0 0 79.17182546910044 -73.298465880436368 0 -73.298465880436368 37.695048054766175 0 0 0 0 85.336229520451525 -108.65796886217692 0 -108.65796886217692 109.42911287515631 0 0 0 0 114.79130219622675 -66.386656419966357 0 -66.386656419966357 52.261642079012745 0 0 0 0 77.892621182523726 -95.563072301451029 0 -95.563072301451029 31.331690950979464 0 0 0 0 110.31049598327445 -64.826582106160686 0 -64.826582106160686 -24.113741795204078 0 0 0 0 85.223913279383851 -82.917660079378038 0 -82.917660079378038 57.25943311591891 0 0 0 0 120.74910425862254 -117.92959472888862 0 -117.92959472888862 46.155470541003069 0 0 0 0 33.95832066627554 -8.672094210341811 0 -8.672094210341811 11.387069232227532 0 0 0 0 -1.8848961364720083 -3.6324163037613673 0 -3.6324163037613673 -6.637690262239925 0 0 0 0 21.155581662349249 -61.135528602003021 0 -61.135528602003021 21.281769028414146 0 0 0 0 28.325702362099946 -27.218297212290793 0 -27.218297212290793 40.964802804605824 0 0 0 0 -2.2061185851690759 -1.1948117775825082 0 -1.1948117775825082 16.802009842251728 0 0 0 0 68.108429255935334 -51.882844670523809 0 -51.882844670523809 9.1705872113458895 0 0 0 0 85.739395982076985 -4.4433110884189659 0 -4.4433110884189659 18.03298747793724 0 0 0 0 70.856620496875422 -14.341523353938534 0 -14.341523353938534 -5.3434647060406313 0 0 0 0 6.7739962692619216 -9.357009143033693 0 -9.357009143033693 -9.9723240275260956 0 0 0 0 59.7433138909837 -66.317902257510468 0 -66.317902257510468 -18.726059945633097 0 0 0 0 84.362458119820076 -58.537106969887645 0 -58.537106969887645 -16.820810158011227 0 0 0 0 143.62107637286681 -54.683369664723386 0 -54.683369664723386 -175.14958432255844 0 0 0 0 62.327457925817725 51.062175479792359 0 51.062175479792359 -141.60534528941935 0 0 0 0 122.40936676360434 -16.129300470878206 0 -16.129300470878206 -163.24685055853365 0 0 0 0 337.93524678547692 127.90891606319747 0 127.90891606319747 -243.33857790436196 0 0 0 0 143.91095435492025 -20.518383446292319 0 -20.518383446292319 -52.373888875722514 0 0 0 0 98.432533521110599 -44.245277399646511 0 -44.245277399646511 -47.275339098572204 0 0 0 0 76.016957017261362 -21.634220380255389 0 -21.634220380255389 -1.8231882788789608 0 0 0 0 87.027459307093523 -13.870459693698194 0 -13.870459693698194 -40.570535401994675 0 0 0 0 125.65836424485678 -24.690976637970152 0 -24.690976637970152 -38.005147894447873 0 0 0 0 51.913092663922725 -33.422585155423349 0 -33.422585155423349 -15.573971618370706 0 0 0 0 84.37343287020353 -38.429464145754508 0 -38.429464145754508 -4.7008393242831517 0 0 0 0 90.611411704878265 -46.752569018887243 0 -46.752569018887243 -11.960747513655861 0 0 0 0 68.113320967826439 -82.770238893719579 0 -82.770238893719579 -31.380884820227038 0 0 0 0 63.792084187014552 -81.75113912726556 0 -81.75113912726556 -131.71894969538607 0 0 0 0 147.35296741785714 -39.322076401113918 0 -39.322076401113918 -112.24091922446405 0 0 0 0 49.751546032242913 6.6361933558273449 0 6.6361933558273449 9.9995454204045018 0 0 0 0 45.820474636504244 11.427467493899769 0 11.427467493899769 2.4382303535626875 0 0 0 0 65.842563640355365 40.550587085130246 0 40.550587085130246 4.3289793975820885 0 0 0 0 137.28264201879597 74.558967957394088 0 74.558967957394088 11.699861403370051 0 0 0 0 5.5609999255140821 4.7111992619090532 0 4.7111992619090532 -0.26995116161552701 0 0 0 0 32.1982130252145 -13.164090042879252 0 -13.164090042879252 -237.01533444668166 0 0 0 0 61.590347954130266 -1.3146363092082538 0 -1.3146363092082538 -2.7852540558778855 0 0 0 0 -7.0175056920197676 -66.331549857834034 0 -66.331549857834034 -63.199193118920448 0 0 0 0 46.730130423095275 -7.533893082736336 0 -7.533893082736336 -2.1752853762104944 0 0 0 0 11.153225848019183 -2.0433283636322557 0 -2.0433283636322557 -5.498162341435247 0 0 0 0 19.414824364837841 4.5205847150100453 0 4.5205847150100453 -101.02184732887531 0 0 0 0 -20.803834145001019 -87.323736241903589 0 -87.323736241903589 -85.201079678344286 0 0 0 0 17.313592175676604 -24.926998861098127 0 -24.926998861098127 -35.796870970960299 0 0 0 0 78.734023910131327 -52.295452616429543 0 -52.295452616429543 -74.338208234842568 0 0 0 0 75.51925304546603 -21.499608775134675 0 -21.499608775134675 -89.302073865126204 0 0 0 0 -10.202604125806829 -48.821390957119092 0 -48.821390957119092 -25.110815184943021 0 0 0 0 101.57618460820231 -74.843280948353822 0 -74.843280948353822 -24.642854770339909 0 0 0 0 5.1874642085604137 -22.733404059349141 0 -22.733404059349141 85.922302476650657 0 0 0 0 49.533606414363021 25.263169311247111 0 25.263169311247111 131.98540665145265 0 0 0 0 61.068797325915511 13.008461654055282 0 13.008461654055282 9.403167952737931 0 0 0 0 33.78914134075923 -1.3674892685996127 0 -1.3674892685996127 -0.064969618394519202 0 0 0 0 27.880912638429436 0.95522465741123597 0 0.95522465741123597 -8.4251539223600957 0 0 0 0 72.763492960544681 5.2689931499962768 0 5.2689931499962768 -2.5142810491215641 0 0 0 0 30.223202287013379 -5.7029119403800044 0 -5.7029119403800044 -0.71651677433439609 0 0 0 0 17.866095692201029 -17.534412846559178 0 -17.534412846559178 -1.6867855986579805 0 0 0 0 47.496849034279876 -7.7759425802169062 0 -7.7759425802169062 -20.490269256408283 0 0 0 0 31.611892058049307 -0.9910340454006703 0 -0.9910340454006703 -2.7386416600909582 0 0 0 0 26.810444828450272 -13.581421179384051 0 -13.581421179384051 24.471795446197575 0 0 0 0 45.393275092639669 -11.197328565946918 0 -11.197328565946918 -16.873474503885518 0 0 0 0 8.7080908808998743 3.7809049016283893 0 3.7809049016283893 6.5501786419852692 0 0 0 0 57.629788412086782 -58.781335857664999 0 -58.781335857664999 -82.645842749564395 0 0 0 0 32.463199323796289 -1.417178801058526 0 -1.417178801058526 -77.13023421878006 0 0 0 0 29.658804617880378 -194.80973588950246 0 -194.80973588950246 130.01508145675325 0 0 0 0 -2.537628104299074 -108.81375665400537 0 -108.81375665400537 -60.809037395958512 0 0 0 0 -12.444252894070814 81.807291864115086 0 81.807291864115086 7.0083182478902017 0 0 0 0 247.54365320547367 -131.74590605874801 0 -131.74590605874801 -71.06881435734249 0 0 0 0 691.21371898709913 -317.97928265123392 0 -317.97928265123392 -11.833988907661023 0 0 0 0 -8.3814739349400043 -64.836857184478049 0 -64.836857184478049 591.80620756292137 0 0 0 0 619.95348357106559 61.128811123990545 0 61.128811123990545 -148.99182318932617 0 0 0 0 -9.3468794674827222 271.14573786738839 0 271.14573786738839 -81.040135540071788 0 0 0 0 959.446120415123 -33.701699453977653 0 -33.701699453977653 -203.11532485288308 0 0 0 0 2.4950378358349923 2.7085352345902436 0 2.7085352345902436 2.2246271738571437 0 0 0 0 1.5062591000460088 53.916847219742522 0 53.916847219742522 -158.7133973241107 0 0 0 0 819.3395391793747 471.09528699259681 0 471.09528699259681 -40.210617673717934 0 0 0 0 854.32091031190066 144.27212323222102 0 144.27212323222102 41.78450497734957 0 0 0 0 638.3000525392381 529.92211838082756 0 529.92211838082756 307.88557001141453 0 0 0 0 693.0516605823359 179.68824247165685 0 179.68824247165685 202.19236034302321 0 0 0 0 350.13172278326601 387.25410523846267 0 387.25410523846267 346.11916289858164 0 0 0 0 690.66590347704187 161.18337886467953 0 161.18337886467953 -25.540288492657965 0 0 0 0 532.45439011060807 213.80222393432723 0 213.80222393432723 50.764156125193949 0 0 0 0 98.671801611562842 -172.46814783534865 0 -172.46814783534865 -37.852378626163045 0 0 0 0 5.316511037722762 0.43129940581179227 0 0.43129940581179227 -1.505078516880058 0 0 0 0 -5.5291179890809872 30.974850566740088 0 30.974850566740088 -71.072957400081577 0 0 0 0 73.325967782904627 -117.39830200712913 0 -117.39830200712913 -131.22362276768933 0 0 0 0 220.48522496339865 195.97100761387719 0 195.97100761387719 252.89921221350005 0 0 0 0 19.220779145383858 -2.9019085323029685 0 -2.9019085323029685 19.124643391434802 0 0 0 0 104.90137545783364 10.432206615849282 0 10.432206615849282 -59.811455267064957 0 0 0 0 -52.102500318571401 -24.167265937747857 0 -24.167265937747857 -64.143821921519702 0 0 0 0 34.776819644284842 -59.91232721044139 0 -59.91232721044139 -68.097557848074757 0 0 0 0 1.4361683165800514 1.3491011814606715 0 1.3491011814606715 0.22833607139067347 0 0 0 0 65.450733473920081 -78.118222233447909 0 -78.118222233447909 -60.139803740363277 0 0 0 0 10.813451515532506 51.083108088410427 0 51.083108088410427 -92.722138138688933 0 0 0 0 11.094202084139397 51.333888338349425 0 51.333888338349425 -62.901111281222256 0 0 0 0 -3.5744217732790275 -10.561544452432827 0 -10.561544452432827 -83.772069658948112 0 0 0 0 -36.56393467169255 37.502662134667844 0 37.502662134667844 -60.424513901074988 0 0 0 0 42.983438246243168 11.220691627056567 0 11.220691627056567 -54.765992495533624 0 0 0 0 27.147829201545392 37.995879583536862 0 37.995879583536862 -102.80509369446918 0 0 0 0 55.650363121538248 67.415029760453763 0 67.415029760453763 144.07982262768655 0 0 0 0 10.530012104494375 6.5862254798562034 0 6.5862254798562034 11.373526428039776 0 0 0 0 285.54677419778454 -221.96616482161878 0 -221.96616482161878 114.42092510618744 0 0 0 0 773.4864177391064 -170.1660467643747 0 -170.1660467643747 37.743005911827339 0 0 0 0 528.25694299874522 -78.868084220152497 0 -78.868084220152497 46.921741255172606 0 0 0 0 228.76429867978277 30.907826997850623 0 30.907826997850623 7.6668447667263422 0 0 0 0 10.935322424717015 154.34469896037626 0 154.34469896037626 -48.07018379850706 0 0 0 0 238.43826616732986 -77.579707233642694 0 -77.579707233642694 -40.673127853360711 0 0 0 0 -1.2966881406413577 -1.786740405482206 0 -1.786740405482206 1.2993182775684353 0 0 0 0 24.215800860614721 10.368390725180404 0 10.368390725180404 6.7841037049212094 0 0 0 0 -55.601165721691359 10.61239737799383 0 10.61239737799383 83.995715116312567 0 0 0 0 164.4572707102634 46.671487314640217 0 46.671487314640217 -104.93725797860202 0 0 0 0 -656.53419277831199 128.71545842914384 0 128.71545842914384 553.50370009205744 0 0 0 0 120.27659679531644 183.44310980526643 0 183.44310980526643 -108.39750873462617 0 0 0 0 163.80834184855121 316.23824793595213 0 316.23824793595213 -248.44615695298126 0 0 0 0 -389.59416041334043 -71.011759720432565 0 -71.011759720432565 -11.730404442294002 0 0 0 0 799.38095697388599 268.1291949973396 0 268.1291949973396 -171.79779591966144 0 0 0 0 67.172704956909001 464.40442527924597 0 464.40442527924597 473.61033239969584 0 0 0 0 653.92152251915286 242.30559110102962 0 242.30559110102962 -233.57763655146118 0 0 0 0 2.174630470351957 4.4359366521032797 0 4.4359366521032797 8.415053673174274 0 0 0 0 -331.24570319458144 -3.4852662454678693 0 -3.4852662454678693 144.54323782530105 0 0 0 0 -345.43965071979619 -26.263002649539999 0 -26.263002649539999 487.39265051366993 0 0 0 0 -177.43081785420873 -265.01946047879039 0 -265.01946047879039 242.55246928876386 0 0 0 0 12.807593476311013 -70.539128110573756 0 -70.539128110573756 193.35251764320446 0 0 0 0 6.681376026733524 -0.92348233720365158 0 -0.92348233720365158 3.6048693366956908 0 0 0 0 -117.77643159721629 473.79944134272631 0 473.79944134272631 -105.81955362150691 0 0 0 0 962.62338831601414 318.84137177645817 0 318.84137177645817 -323.49811484079692 0 0 0 0 757.71501048911159 121.61624974125698 0 121.61624974125698 -403.22213558999647 0 0 0 0 -385.68014168631635 -164.00501467857703 0 -164.00501467857703 407.32550756397723 0 0 0 0 302.03672406810801 -170.39642481923329 0 -170.39642481923329 -321.11278548160226 0 0 0 0 439.35020402239752 362.0918436187967 0 362.0918436187967 422.03439871229057 0 0 0 0 242.30551770998864 125.15770381237644 0 125.15770381237644 122.36671779621793 0 0 0 0 702.90285689060897 -261.85206960240748 0 -261.85206960240748 389.55640333669726 0 0 0 0 -25.08091237325425 136.11272427146559 0 136.11272427146559 67.865706981016956 0 0 0 0 365.22508308957913 -85.164072499736903 0 -85.164072499736903 125.29142729627847 0 0 0 0 -504.32736575356921 348.25441195025746 0 348.25441195025746 183.26947105444924 0 0 0 0 4.2851176588224575 9.5580525799466329 0 9.5580525799466329 16.087012891552995 0 0 0 0 0.32071336667286232 145.30108498784375 0 145.30108498784375 -194.12723114390155 0 0 0 0 -240.68991345194536 -68.399540702994614 0 -68.399540702994614 262.38396640283179 0 0 0 0 171.71041036023234 141.85850966658228 0 141.85850966658228 -276.44401762113284 0 0 0 0 -31.304559294963838 -11.128336624332007 0 -11.128336624332007 228.30357936104534 0 0 0 0 -28.786667730639238 -46.735733316340209 0 -46.735733316340209 586.87827326466606 0 0 0 0 3.5893887076482258 3.192525186655935 0 3.192525186655935 3.3052987843598238 0 0 0 0 159.15304633750884 35.982442272969152 0 35.982442272969152 -18.049181843995399 0 0 0 0 532.59137784258928 320.71305254704151 0 320.71305254704151 146.93726812709136 0 0 0 0 731.0716482629141 -135.95717229566623 0 -135.95717229566623 26.461450050715928 0 0 0 0 356.05312733112441 25.758705179078685 0 25.758705179078685 130.23641855454838 0 0 0 0 429.45934287128694 -154.21051016187408 0 -154.21051016187408 423.19640272499839 0 0 0 0 436.05682684989006 179.09057444996955 0 179.09057444996955 446.47971375054198 0 0 0 0 81.495217918178241 -109.99917295717667 0 -109.99917295717667 60.335551869382698 0 0 0 0 226.51977799119049 33.135323487137754 0 33.135323487137754 48.755033466413494 0 0 0 0 295.05481575829799 -60.818856576845121 0 -60.818856576845121 175.57183656895745 0 0 0 0 194.28412079276313 31.565027406037785 0 31.565027406037785 277.78038827846001 0 0 0 0 255.74186731020745 100.9340036488199 0 100.9340036488199 243.16584168931735 0 0 0 0 207.68605665056384 71.856828318016596 0 71.856828318016596 140.95422544790483 0 0 0 0 188.10719376220368 136.26598861492221 0 136.26598861492221 291.70873164152221 0 0 0 0 111.39333979086405 113.08195220507406 0 113.08195220507406 625.64699366075229 0 0 0 0 227.76753526297034 38.644342709402679 0 38.644342709402679 484.0939272678936 0 0 0 0 221.44995146070869 -92.643425920677032 0 -92.643425920677032 347.54211840568826 0 0 0 0 131.8014569685547 -66.102090737051185 0 -66.102090737051185 478.06172738804446 0 0 0 0 103.17613401636117 -96.781611611474887 0 -96.781611611474887 759.12679518988784 0 0 0 0 504.87433204793342 -45.838392169063695 0 -45.838392169063695 125.88250045605861 0 0 0 0 779.75235243927034 128.87416433611395 0 128.87416433611395 156.55694884671868 0 0 0 0 332.87833609530207 35.234704892216698 0 35.234704892216698 290.6251959466548 0 0 0 0 246.17730957448384 68.511687486926974 0 68.511687486926974 313.69816170269883 0 0 0 0 392.18942207141663 -13.716354929511454 0 -13.716354929511454 359.53979543153639 0 0 0 0 435.43464910985131 -73.770759049067792 0 -73.770759049067792 180.26204625903256 0 0 0 0 573.77400164877326 -321.63951182872336 0 -321.63951182872336 133.46176082815134 0 0 0 0 486.55638037746394 -217.38108028741607 0 -217.38108028741607 143.51731929495543 0 0 0 0 454.53800996328209 -191.10791653444221 0 -191.10791653444221 224.94340015625656 0 0 0 0 366.12872513538787 -344.05341981368429 0 -344.05341981368429 379.02571756213433 0 0 0 0 486.82432626710215 -421.07032391063456 0 -421.07032391063456 426.25034705770821 0 0 0 0 194.66836857090675 -241.03797558788676 0 -241.03797558788676 434.02319834716229 0 0 0 0 321.79081648874308 -241.69378755858204 0 -241.69378755858204 303.9691360089214 0 0 0 0 272.873945226861 -157.69872200360052 0 -157.69872200360052 380.64569752348029 0 0 0 0 305.21628376962326 -222.2245460645911 0 -222.2245460645911 292.53206177301354 0 0 0 0 228.69987604911148 -196.5027850710029 0 -196.5027850710029 351.65934205521842 0 0 0 0 262.16669331468074 -326.02579583301713 0 -326.02579583301713 472.49833944481009 0 0 0 0 238.61310237466387 -125.49750862321275 0 -125.49750862321275 152.0247721055166 0 0 0 0 180.21240472576756 -21.67263880765222 0 -21.67263880765222 192.42762919847337 0 0 0 0 132.38170732968865 -76.744242426114624 0 -76.744242426114624 274.31031674264261 0 0 0 0 202.45143703798385 -55.239925045206007 0 -55.239925045206007 243.07213809269115 0 0 0 0 128.44458439145819 208.77140328376731 0 208.77140328376731 200.5555898439473 0 0 0 0 83.099649094350752 -8.7123489600929815 0 -8.7123489600929815 62.806885568413122 0 0 0 0 3.0025335716654808 31.834905187618034 0 31.834905187618034 231.20808060942136 0 0 0 0 -78.417343306871771 100.19971955561766 0 100.19971955561766 218.06587009095188 0 0 0 0 115.6190263426688 -226.93927288622547 0 -226.93927288622547 278.57499823334945 0 0 0 0 151.88167578895082 -258.93777456488965 0 -258.93777456488965 601.79734440557343 0 0 0 0 398.2809704885567 -353.15743868019547 0 -353.15743868019547 516.10176351399832 0 0 0 0 -18.253241814192734 -113.6342559710763 0 -113.6342559710763 442.15023583530206 0 0 0 0 224.51045890492605 -179.95746554207381 0 -179.95746554207381 357.4248023346538 0 0 0 0 -107.90685026363644 -255.95369141417154 0 -255.95369141417154 763.06856154208913 0 0 0 0 497.02249148757983 153.00744126360496 0 153.00744126360496 -136.46450645170458 0 0 0 0 1094.1672773613827 -595.1447282361878 0 -595.1447282361878 -207.51214900272043 0 0 0 0 3.2215384216689813 -4.5547725277887849 0 -4.5547725277887849 6.2380652257281337 0 0 0 0 249.81359114475345 -72.675248243215378 0 -72.675248243215378 20.605312090680627 0 0 0 0 -23.739777853355918 92.899144894834876 0 92.899144894834876 502.73912755964699 0 0 0 0 293.01848036550655 157.59312165861024 0 157.59312165861024 59.73277043731764 0 0 0 0 230.83751264641432 19.32906480160193 0 19.32906480160193 58.560545711141913 0 0 0 0 -113.65102152466716 -178.20867941188055 0 -178.20867941188055 36.21516055627076 0 0 0 0 5.0689228080925091 -8.5077472031577344 0 -8.5077472031577344 12.17177932147492 0 0 0 0 105.63602722282667 118.31516803860086 0 118.31516803860086 17.663366887976508 0 0 0 0 329.12245656730738 -212.68619992067181 0 -212.68619992067181 -53.605846697018876 0 0 0 0 1.7349069155857819 -3.5903735340523113 0 -3.5903735340523113 6.530105848602541 0 0 0 0 -269.90473149203535 -389.77911827039816 0 -389.77911827039816 230.30003802373813 0 0 0 0 129.03545696482615 164.48768894981163 0 164.48768894981163 291.41598372071587 0 0 0 0 485.44786780964205 -273.94178338601751 0 -273.94178338601751 502.83745842103644 0 0 0 0 -90.502082426481138 14.113946536644619 0 14.113946536644619 652.70278019480793 0 0 0 0 41.769116245994155 -136.43149714916376 0 -136.43149714916376 406.52904604345986 0 0 0 0 130.46770385991113 -38.459407421583592 0 -38.459407421583592 513.94092267833275 0 0 0 0 -263.85485519097347 -49.640717763708608 0 -49.640717763708608 942.0999051589688 0 0 0 0 -258.27263032296833 76.046017694146371 0 76.046017694146371 631.06246373176009 0 0 0 0 198.83323147846386 -329.47550184934732 0 -329.47550184934732 606.49906329712621 0 0 0 0 -110.02485375908145 -79.135541704775449 0 -79.135541704775449 418.9695059711903 0 0 0 0 -93.427526201856381 -163.99125005384147 0 -163.99125005384147 341.45083122951962 0 0 0 0 235.72625890772906 51.726116818850812 0 51.726116818850812 96.660822953021835 0 0 0 0 421.3061052599478 -113.09819075491487 0 -113.09819075491487 210.55269367340202 0 0 0 0 -435.4916900536773 39.585700408400271 0 39.585700408400271 589.69642620975378 0 0 0 0 92.677060387351958 -148.19279544550272 0 -148.19279544550272 84.735201906554607 0 0 0 0 0.24024570339258844 -1.7353494845462087 0 -1.7353494845462087 -0.31875679529419271 0 0 0 0 370.44400888581004 -178.32391337702867 0 -178.32391337702867 -150.85111480946239 0 0 0 0 28.939483181551623 -34.659665869920673 0 -34.659665869920673 28.577793742367021 0 0 0 0 -59.344677165485336 27.515190893003592 0 27.515190893003592 5.4683796709296217 0 0 0 0 -0.29528669158382037 0.68738590168038627 0 0.68738590168038627 -5.1133657612865182 0 0 0 0 -391.58654653365375 -136.32853277974618 0 -136.32853277974618 155.22280306505195 0 0 0 0 -185.00868707660993 -42.422868564260227 0 -42.422868564260227 438.52501909453775 0 0 0 0 214.0580614657265 86.180400645467387 0 86.180400645467387 -61.817658542358799 0 0 0 0 4.2650154180877848 -4.2906692333104317 0 -4.2906692333104317 0.35777831427088497 0 0 0 0 2.2989088726434659 -3.155367206993688 0 -3.155367206993688 -1.614938053992339 0 0 0 0 44.093456097340095 14.906198860905334 0 14.906198860905334 103.41112438964825 0 0 0 0 112.34260976323276 -216.28015564212433 0 -216.28015564212433 231.64267569551188 0 0 0 0 39.897102098082541 -40.309857155200234 0 -40.309857155200234 75.26826945744051 0 0 0 0 61.259336278173578 -33.945045248498829 0 -33.945045248498829 27.464023880579788 0 0 0 0 75.8701346213129 -46.319451650475003 0 -46.319451650475003 -0.47323896392572351 0 0 0 0 103.53735003689508 -80.750667067199174 0 -80.750667067199174 41.916405746758983 0 0 0 0 236.06346652447246 -67.954161413225847 0 -67.954161413225847 1.7418898775565594 0 0 0 0 44.378614720187215 -58.364357068688435 0 -58.364357068688435 182.37931914088949 0 0 0 0 111.81062598864082 131.41972595581342 0 131.41972595581342 -5.0222694261983634 0 0 0 0 30.195403308302502 15.898805767627891 0 15.898805767627891 -24.192822918625097 0 0 0 0 -8.9961682680197264 -47.851421006389828 0 -47.851421006389828 -25.260874244555708 0 0 0 0 -1.2203540629165512 -0.61028994935314529 0 -0.61028994935314529 -31.981387794654729 0 0 0 0 51.671715283395315 -45.786830439374143 0 -45.786830439374143 -48.714659014059976 0 0 0 0 41.640541721259069 46.546165916045538 0 46.546165916045538 -41.760195681187724 0 0 0 0 -14.091493580377573 20.261592260932503 0 20.261592260932503 -0.26489047424274759 0 0 0 0 23.670549747810583 -36.4171738182932 0 -36.4171738182932 -55.687098338523477 0 0 0 0 -181.35716971888854 -71.016001390171809 0 -71.016001390171809 8.7821955753736205 0 0 0 0 -0.075309536730918614 0.0014358759286068334 0 0.0014358759286068334 -17.241087477851661 0 0 0 0 -31.216126520292164 -15.547471682092691 0 -15.547471682092691 38.983193680400973 0 0 0 0 119.78980677651998 -66.431154334972348 0 -66.431154334972348 -20.781758475271545 0 0 0 0 16.168545100750634 -117.90224512119693 0 -117.90224512119693 -74.639249391779742 0 0 0 0 94.998592023534002 -4.5148381189919071 0 -4.5148381189919071 -30.592867661007375 0 0 0 0 219.26050399027736 -107.93552928234554 0 -107.93552928234554 5.6517919488402599 0 0 0 0 44.319364891864097 -102.06714278495225 0 -102.06714278495225 -22.347624796594275 0 0 0 0 536.07349848633748 59.143558864586431 0 59.143558864586431 -119.74124049896972 0 0 0 0 485.38041502209671 71.249545014484823 0 71.249545014484823 -98.809802983371839 0 0 0 0 452.29740535220481 -101.45532251498746 0 -101.45532251498746 65.387961263606513 0 0 0 0 293.99760465520376 21.944947088793764 0 21.944947088793764 -29.033767212023889 0 0 0 0 378.02805620187428 3.427878617999184 0 3.427878617999184 -67.530654282397336 0 0 0 0 380.02453694509109 111.6022506456362 0 111.6022506456362 -111.62703689317881 0 0 0 0 499.79665443561316 191.73910433976943 0 191.73910433976943 -58.192241533005962 0 0 0 0 258.74001065567609 138.60317302343017 0 138.60317302343017 47.68805243856167 0 0 0 0 272.67146752999997 35.485526162787941 0 35.485526162787941 -39.341889243605294 0 0 0 0 147.8321093106133 3.1771141012430633 0 3.1771141012430633 -15.528352301031262 0 0 0 0 81.770743153327203 14.041932040889776 0 14.041932040889776 -7.30332141742511 0 0 0 0 117.00546522719742 -27.856860099645175 0 -27.856860099645175 -88.054409639730466 0 0 0 0 377.92348892121663 78.817290300803208 0 78.817290300803208 -17.326341222419472 0 0 0 0 145.30276111177955 164.38793564775585 0 164.38793564775585 11.506619181346196 0 0 0 0 163.56740901693047 -32.322481405519497 0 -32.322481405519497 -47.151171163203287 0 0 0 0 131.68013981711556 -43.973236527222923 0 -43.973236527222923 -90.072814431052961 0 0 0 0 67.431506302767957 -73.784294371342369 0 -73.784294371342369 -48.337955038023921 0 0 0 0 53.287433964331285 -53.892688177533046 0 -53.892688177533046 -72.62048279119 0 0 0 0 81.749608480764437 -65.330460676619282 0 -65.330460676619282 -108.13545102278499 0 0 0 0 33.710507077354123 -14.720621492699706 0 -14.720621492699706 -115.21058255227999 0 0 0 0 43.498772967512195 -34.327248152330867 0 -34.327248152330867 -90.533483028976093 0 0 0 0 44.603300220448546 38.775290889687966 0 38.775290889687966 -204.22389711017513 0 0 0 0 67.90148694559764 7.3904068604506534 0 7.3904068604506534 -2.0708505894433937 0 0 0 0 146.14753961358656 22.087906157492398 0 22.087906157492398 -31.10144535143354 0 0 0 0 81.010012226535764 -4.6043026591471516 0 -4.6043026591471516 -128.20710058606915 0 0 0 0 65.868001946604636 -34.330979484601698 0 -34.330979484601698 -108.94378197249353 0 0 0 0 133.47976246673716 254.39693875041161 0 254.39693875041161 -82.046482173324875 0 0 0 0 -60.739663534826832 28.606770422043496 0 28.606770422043496 -59.193787308767696 0 0 0 0 37.013322795195563 -94.640355448755031 0 -94.640355448755031 -224.92777058038519 0 0 0 0 85.427222307698685 -54.989441012075645 0 -54.989441012075645 -161.13144269327609 0 0 0 0 60.614812308151159 6.9012933528905478 0 6.9012933528905478 -104.57467685246746 0 0 0 0 114.17747983415757 10.507015596730184 0 10.507015596730184 -340.36066833749192 0 0 0 0 148.17518612003187 7.9652416317899224 0 7.9652416317899224 -53.831633081525297 0 0 0 0 -99.642870868381578 -373.51669900551008 0 -373.51669900551008 110.27310193633875 0 0 0 0 37.9986754343916 4.3785155617949663 0 4.3785155617949663 0.26379671079558864 0 0 0 0 137.08792015735889 22.65473978217608 0 22.65473978217608 -95.39934244711776 0 0 0 0 567.2101311448987 563.94158721240638 0 563.94158721240638 121.24495633849062 0 0 0 0 108.99144871431039 16.963454515674357 0 16.963454515674357 -9.223169570506629 0 0 0 0 85.179931072376348 65.013536917261803 0 65.013536917261803 -69.795353558084003 0 0 0 0 116.73101968598058 2.2355095303315196 0 2.2355095303315196 -15.105617214120944 0 0 0 0 100.84622133662606 19.347004180474027 0 19.347004180474027 -3.2007713673258209 0 0 0 0 119.58558059825737 133.85742606864005 0 133.85742606864005 -196.0434606888989 0 0 0 0 24.488978086665156 92.694734266035539 0 92.694734266035539 64.903846421706703 0 0 0 0 23.651692702405853 102.52539704427932 0 102.52539704427932 -9.977278621530786 0 0 0 0 12.377365418404224 202.77823860093395 0 202.77823860093395 -36.670856771830358 0 0 0 0 33.07653478346856 -24.968014751006201 0 -24.968014751006201 14.736131333489539 0 0 0 0 226.82118007092504 31.768279338676621 0 31.768279338676621 -36.380230018689872 0 0 0 0 67.636715776490746 42.391647345744786 0 42.391647345744786 -78.55711105536426 0 0 0 0 94.45029288676335 7.8084077112123964 0 7.8084077112123964 -7.8707829706764336 0 0 0 0 85.406508739041584 17.584088747189973 0 17.584088747189973 -5.2800600517791434 0 0 0 0 104.95330643703346 14.484234634764562 0 14.484234634764562 18.221850638655269 0 0 0 0 52.787523103041167 -15.032188553488822 0 -15.032188553488822 -34.20171805811151 0 0 0 0 -24.828666234578122 14.065574825052181 0 14.065574825052181 -25.935476205282839 0 0 0 0 7.2964997875870949 7.3275692348732022 0 7.3275692348732022 0.56127525871824435 0 0 0 0 146.5074434741764 22.15160151355758 0 22.15160151355758 -31.354337090217086 0 0 0 0 94.334487720450852 63.288729210345991 0 63.288729210345991 -37.435735466431993 0 0 0 0 137.62299232455553 22.847508032415817 0 22.847508032415817 -28.758608494904365 0 0 0 0 71.407934707414825 107.75580174494462 0 107.75580174494462 -62.47134627899851 0 0 0 0 129.42377761148964 64.66840813944691 0 64.66840813944691 -67.976091233244915 0 0 0 0 60.190198015712667 72.836100974888268 0 72.836100974888268 -34.133397054717506 0 0 0 0 103.15128939699207 70.151438654922231 0 70.151438654922231 -33.966505794414843 0 0 0 0 69.660158440936357 25.116059160511213 0 25.116059160511213 -48.451794076808291 0 0 0 0 115.30221311599598 43.919156041804513 0 43.919156041804513 -47.853264325389318 0 0 0 0 106.99428487841215 59.844228233661397 0 59.844228233661397 2.4529893454146077 0 0 0 0 213.3748875289748 10.577231421041915 0 10.577231421041915 -146.60791965714907 0 0 0 0 56.180371475187712 33.532572395753505 0 33.532572395753505 -47.974760099597916 0 0 0 0 -21.259381452953676 -62.088075655169177 0 -62.088075655169177 -62.723622753320342 0 0 0 0 78.978852365757859 15.625953391281257 0 15.625953391281257 -3.1799265922602222 0 0 0 0 220.16250726464204 187.3855918072004 0 187.3855918072004 24.343118648073869 0 0 0 0 67.441709460370475 29.015777688988237 0 29.015777688988237 -77.427671782226753 0 0 0 0 11.426958379632298 -0.62634190556616431 0 -0.62634190556616431 1.4853201450320057 0 0 0 0 70.995100556960097 42.379865389108318 0 42.379865389108318 -9.5808760509788726 0 0 0 0 60.962429482088737 -2.9380734458622886 0 -2.9380734458622886 -2.0464187417103594 0 0 0 0 36.812740519031649 8.8996847794569476 0 8.8996847794569476 -3.2156253054972694 0 0 0 0 60.605688527342863 4.6570787423970614 0 4.6570787423970614 -70.155660606148103 0 0 0 0 61.728764569677878 -18.878603822919558 0 -18.878603822919558 -50.556352722106666 0 0 0 0 51.163828139382531 26.094664955351618 0 26.094664955351618 -21.228906423763874 0 0 0 0 41.175821717290745 -11.582046209660056 0 -11.582046209660056 -12.406878040097403 0 0 0 0 45.811102044109518 -9.5722277070289472 0 -9.5722277070289472 -27.409818372167592 0 0 0 0 69.604693661255467 -21.399170018738062 0 -21.399170018738062 -8.2051119281159117 0 0 0 0 161.65415324595233 17.766290749535528 0 17.766290749535528 11.004712037911304 0 0 0 0 133.11456374894988 -29.412900484637476 0 -29.412900484637476 8.7912389604716736 0 0 0 0 236.48055297968637 64.365242331088069 0 64.365242331088069 23.622716841618967 0 0 0 0 112.00712576557365 -2.7481704364317281 0 -2.7481704364317281 -12.377270654931868 0 0 0 0 -0.31336426228256187 -11.852775033498574 0 -11.852775033498574 1.7879001368634977 0 0 0 0 -13.853179773407646 -46.517111131518888 0 -46.517111131518888 44.285631036684208 0 0 0 0 185.57207171720802 72.047459777702898 0 72.047459777702898 41.653732329818013 0 0 0 0 207.17495306953788 39.741523773770496 0 39.741523773770496 33.792721066707429 0 0 0 0 120.93062619150442 -36.637760254551722 0 -36.637760254551722 -78.124775233955916 0 0 0 0 222.52334704437817 81.400458275696565 0 81.400458275696565 36.328350526178838 0 0 0 0 -247.23848577390891 91.403754780765667 0 91.403754780765667 284.14593620856613 0 0 0 0 101.25021805886354 -16.918166795899651 0 -16.918166795899651 4.6911653457127613 0 0 0 0 90.158631532278378 -28.41216523199455 0 -28.41216523199455 0.069048726515120507 0 0 0 0 55.665020997505053 -75.400180787705267 0 -75.400180787705267 -27.364467586830415 0 0 0 0 96.381827708508354 -29.765573628112179 0 -29.765573628112179 2.1613487947406611 0 0 0 0 99.969554519284429 -28.769976659170879 0 -28.769976659170879 -70.102614767160048 0 0 0 0 198.32195692163805 74.020349423673451 0 74.020349423673451 -276.5509847379999 0 0 0 0 104.97994012310573 -2.9814050084760595 0 -2.9814050084760595 -6.7287733140808133 0 0 0 0 47.263475299139827 24.634390816630912 0 24.634390816630912 10.67828753286085 0 0 0 0 146.00272364769125 36.508672725252609 0 36.508672725252609 -12.216259485763658 0 0 0 0 135.8832225855399 163.74907918401007 0 163.74907918401007 127.06399120935748 0 0 0 0 52.080569055302476 -23.771746074080966 0 -23.771746074080966 -240.93948455517148 0 0 0 0 10.332371174114655 -4.9590103128636045 0 -4.9590103128636045 3.12839573107739 0 0 0 0 54.779913262911577 8.175245272102984 0 8.175245272102984 -108.76868171016213 0 0 0 0 77.613116020460438 -14.916510913326249 0 -14.916510913326249 -78.553175040160511 0 0 0 0 81.995676676084258 -16.802517236288253 0 -16.802517236288253 -81.143351519223074 0 0 0 0 10.080205929628043 1.2299780186815639 0 1.2299780186815639 -47.314589606944921 0 0 0 0 84.614676843671987 12.29952591677467 0 12.29952591677467 -49.739955739813922 0 0 0 0 50.792095925018657 -12.045743072388177 0 -12.045743072388177 -34.090709129274728 0 0 0 0 56.688815117622184 3.051211002216057 0 3.051211002216057 -24.404776270338118 0 0 0 0 74.059424642814562 6.9088452531693747 0 6.9088452531693747 -33.271354651823899 0 0 0 0 43.310684003910865 48.302532970710672 0 48.302532970710672 20.344043120130664 0 0 0 0 95.93575676321052 91.967882988673409 0 91.967882988673409 -93.333746437673653 0 0 0 0 19.479568577352097 -6.152117710632087 0 -6.152117710632087 -6.1008350580661315 0 0 0 0 133.22552750759496 26.334403438074105 0 26.334403438074105 25.752287889578838 0 0 0 0 -1.4849551527391611 -2.9529695994313272 0 -2.9529695994313272 -2.2237920202709276 0 0 0 0 164.83761337599572 -158.72160463807541 0 -158.72160463807541 56.787973535212586 0 0 0 0 265.01269029063405 -42.367656831990644 0 -42.367656831990644 -37.293229967850493 0 0 0 0 490.05672864309599 84.993311952864815 0 84.993311952864815 -24.571619370430653 0 0 0 0 242.6139923264127 26.62664944200435 0 26.62664944200435 -13.145241193952856 0 0 0 0 136.41360986771178 -20.163735129805673 0 -20.163735129805673 -14.900753217362904 0 0 0 0 244.57621098502568 26.883173049205027 0 26.883173049205027 -25.406765427289997 0 0 0 0 40.632043314772091 18.632752933720184 0 18.632752933720184 22.240943623342218 0 0 0 0 58.411992855049903 -22.462140681257551 0 -22.462140681257551 -6.5778594492928733 0 0 0 0 14.80128309673654 -4.137299320786525 0 -4.137299320786525 -1.4312756942149543 0 0 0 0 -32.889976748920162 -6.3136592541209211 0 -6.3136592541209211 38.765480083138755 0 0 0 0 17.401295818939616 -12.07337071733474 0 -12.07337071733474 35.83544376855707 0 0 0 0 169.19542875571642 119.86614248428486 0 119.86614248428486 43.460788092618714 0 0 0 0 11.32472190205533 -1.2788166274516897 0 -1.2788166274516897 -1.5721416414608687 0 0 0 0 161.71978212916292 73.68153413982327 0 73.68153413982327 42.731116776398267 0 0 0 0 68.650991558737587 85.017086401304027 0 85.017086401304027 51.390028103045438 0 0 0 0 243.21292606745556 93.193704034296815 0 93.193704034296815 -9.897256786040316 0 0 0 0 203.88021771067724 71.574340786316327 0 71.574340786316327 -15.490312706155123 0 0 0 0 337.27389582692558 115.72367009567301 0 115.72367009567301 -37.25563121830006 0 0 0 0 303.03617602642407 126.54240715980757 0 126.54240715980757 -38.270238256442553 0 0 0 0 291.77706271900388 139.52970923293719 0 139.52970923293719 -1.6729366940821819 0 0 0 0 185.94721517007565 108.83217281823272 0 108.83217281823272 25.975348390360068 0 0 0 0 387.10815337668464 181.96915583386385 0 181.96915583386385 -1.9851146833582334 0 0 0 0 290.51203624808113 167.67979767929762 0 167.67979767929762 25.944731333219352 0 0 0 0 133.67064118926646 97.492911439234149 0 97.492911439234149 145.27290712512786 0 0 0 0 282.7030367659936 179.29996651441365 0 179.29996651441365 77.072509233096753 0 0 0 0 347.48368718150596 77.566508955959307 0 77.566508955959307 -4.1497388241322142 0 0 0 0 423.46949569966819 285.01568739768163 0 285.01568739768163 128.70134210415472 0 0 0 0 504.53632837167243 161.15765132834213 0 161.15765132834213 -33.300440018173504 0 0 0 0 364.63930901538697 102.6790581784262 0 102.6790581784262 -38.953363202535627 0 0 0 0 336.61125496424938 124.63901060328158 0 124.63901060328158 -53.527534409182408 0 0 0 0 271.980139379928 116.72645289531053 0 116.72645289531053 -16.64099067117678 0 0 0 0 326.40937755426421 89.654612077465856 0 89.654612077465856 -67.626653243720511 0 0 0 0 223.64869760322472 89.363795877304113 0 89.363795877304113 -7.4458373833030009 0 0 0 0 349.73708345811565 177.29319274670317 0 177.29319274670317 33.227043769964894 0 0 0 0 346.39903385247453 80.528971355762451 0 80.528971355762451 30.676007163471013 0 0 0 0 358.05585840110143 129.08399490510544 0 129.08399490510544 5.5549307358044189 0 0 0 0 295.41683090817241 71.523026311277249 0 71.523026311277249 -17.226933042155224 0 0 0 0 337.71567015969777 126.61437914854616 0 126.61437914854616 -28.813063076457979 0 0 0 0 305.94971552389234 145.79250126652894 0 145.79250126652894 126.12346208801773 0 0 0 0 280.03031837785966 162.00095426902317 0 162.00095426902317 117.01509860875512 0 0 0 0 308.54381404610467 133.50440974579715 0 133.50440974579715 26.562766979167009 0 0 0 0 397.6436810517589 218.91308187467314 0 218.91308187467314 96.894757066638704 0 0 0 0 334.61121097788418 114.22478684474231 0 114.22478684474231 76.193991354175751 0 0 0 0 5.3280974242058221 -5.8422607165539375 0 -5.8422607165539375 4.6107425350312576 0 0 0 0 115.82232260979072 148.70451489508605 0 148.70451489508605 177.30786494539257 0 0 0 0 130.2591455080601 -4.7256524633739048 0 -4.7256524633739048 -51.362563044235912 0 0 0 0 59.773370370094199 -26.920582715006049 0 -26.920582715006049 -25.819378879667966 0 0 0 0 27.321221739608291 -6.600986383570465 0 -6.600986383570465 -6.7903791299788487 0 0 0 0 32.243454187890165 -12.628785197266552 0 -12.628785197266552 -6.6905775346131122 0 0 0 0 29.429243377682781 -11.361629327490768 0 -11.361629327490768 -1.9255409818033815 0 0 0 0 35.865059020757862 3.4965118301641667 0 3.4965118301641667 -13.644551895622698 0 0 0 0 -301.17479783653107 219.68457636844869 0 219.68457636844869 -143.89983354221317 0 0 0 0 14.32646993958042 73.996539001313863 0 73.996539001313863 -91.395551564323739 0 0 0 0 -250.00185932523891 -74.890396266425 0 -74.890396266425 74.876817481616484 0 0 0 0 -138.65578821814415 152.40821048114429 0 152.40821048114429 -18.593339464036021 0 0 0 0 -83.141902371455217 76.22501609768257 0 76.22501609768257 24.189392473158378 0 0 0 0 0.051951952481687158 8.2626293328752212 0 8.2626293328752212 -6.6232050122067676 0 0 0 0 -1.661097686585407 1.982110674298589 0 1.982110674298589 -2.1904030444767097 0 0 0 0 2.5950592813578623 82.394906118469578 0 82.394906118469578 -268.66120834209255 0 0 0 0 -8.9408207430242328 21.069625242517304 0 21.069625242517304 23.793186494135853 0 0 0 0 189.33390419317584 96.164069120167284 0 96.164069120167284 76.746873050065659 0 0 0 0 6.3974525571102276 8.5858274278870965 0 8.5858274278870965 5.0215246889547416 0 0 0 0 3.1779510261377339 -1.4471620746993921 0 -1.4471620746993921 0.6548016249020745 0 0 0 0 140.35721973296677 29.239386811832446 0 29.239386811832446 -25.798195768353708 0 0 0 0 68.259706312896014 144.93028069736204 0 144.93028069736204 -81.319019635045152 0 0 0 0 323.44161058494137 113.50104857457541 0 113.50104857457541 -54.158880598533415 0 0 0 0 294.60657106584767 33.475587639044591 0 33.475587639044591 -84.748117014603849 0 0 0 0 19.676349135464989 -54.122967042635537 0 -54.122967042635537 -3.2125469232541946 0 0 0 0 -263.55124089938909 54.799881942335901 0 54.799881942335901 47.291222402859603 0 0 0 0 18.678614856878994 -13.157260937428873 0 -13.157260937428873 -144.18023516645189 0 0 0 0 -31.989534415231901 78.311644617365118 0 78.311644617365118 28.78526924059372 0 0 0 0 -247.52103528287989 290.07734402866498 0 290.07734402866498 -142.68111670013661 0 0 0 0 -520.97926414915128 184.47250517406871 0 184.47250517406871 192.7656022141573 0 0 0 0 -263.20703906135452 68.586822773299872 0 68.586822773299872 125.85350164879401 0 0 0 0 -118.26843379934144 330.3871589243812 0 330.3871589243812 -100.18286334860528 0 0 0 0 -44.087837959446915 60.652592555890593 0 60.652592555890593 -44.026184937288292 0 0 0 0 3.2709270226370109 6.8974238610254446 0 6.8974238610254446 11.601661668901503 0 0 0 0 479.70525106636705 44.829865081741808 0 44.829865081741808 -220.49982909492988 0 0 0 0 272.86719527211972 236.72119678241287 0 236.72119678241287 -92.398663430886728 0 0 0 0 246.89690755401534 3.9768207963825191 0 3.9768207963825191 -141.69739401946646 0 0 0 0 579.40256795798268 26.167899652393004 0 26.167899652393004 -142.02427699967686 0 0 0 0 1.3648628890435219 2.0165575933737756 0 2.0165575933737756 3.5509674372878037 0 0 0 0 -291.74395914241904 157.93847613295017 0 157.93847613295017 57.273218701004851 0 0 0 0 59.510447499014845 -30.864673501145937 0 -30.864673501145937 -367.32518226602843 0 0 0 0 -350.2865408056241 -156.65511484888509 0 -156.65511484888509 25.777610421318087 0 0 0 0 -700.61374573907233 -139.28612126452776 0 -139.28612126452776 57.010635312459954 0 0 0 0 98.141345450501831 219.50964483192695 0 219.50964483192695 45.957800944177123 0 0 0 0 -153.80340537204756 -103.22349999384994 0 -103.22349999384994 46.117663321879263 0 0 0 0 668.17449257897533 294.85739503509194 0 294.85739503509194 -116.39056907921531 0 0 0 0 684.07278264190245 118.97516238768623 0 118.97516238768623 -392.86554687620753 0 0 0 0 503.63288872312114 456.35153702016981 0 456.35153702016981 -0.42083855768265721 0 0 0 0 11.750597165534998 0.95869630565898767 0 0.95869630565898767 -0.0633789239795437 0 0 0 0 1032.354305064051 277.96868751758177 0 277.96868751758177 -321.06708307308145 0 0 0 0 464.54313076697144 -603.63565432078281 0 -603.63565432078281 -518.1425544699523 0 0 0 0 2685.7980954918312 924.78520192199107 0 924.78520192199107 205.33953031549277 0 0 0 0 107.24845911219708 13.816851636037214 0 13.816851636037214 -10.20300049525372 0 0 0 0 143.45590954531508 -11.284645635494485 0 -11.284645635494485 -26.321688043320592 0 0 0 0 111.08293568046065 28.54289985901687 0 28.54289985901687 -49.524052163506667 0 0 0 0 -1491.4248610569339 -649.6732913119381 0 -649.6732913119381 152.23340283814673 0 0 0 0 698.01505383464973 212.94602361774082 0 212.94602361774082 -593.75236701043423 0 0 0 0 95.442658412262972 29.234739992567938 0 29.234739992567938 -7.7067941232528483 0 0 0 0 128.89972143431567 5.7101338863342352 0 5.7101338863342352 0.10909100034667275 0 0 0 0 367.10236082400661 -2.4735376969980507 0 -2.4735376969980507 3.2204361980345197 0 0 0 0 -317.59063395488192 -477.23152906073778 0 -477.23152906073778 710.08126443761421 0 0 0 0 110.70817606734636 73.492475764623805 0 73.492475764623805 -187.17045941288126 0 0 0 0 3.3949076687300135 1.8142090158410227 0 1.8142090158410227 0.9484114818052447 0 0 0 0 306.17898809662438 -237.98158360956847 0 -237.98158360956847 -317.95515398516977 0 0 0 0 147.80418008143226 -1.0088760764219966 0 -1.0088760764219966 -5.4281623390675442 0 0 0 0 -6.1579369527171366 -17.303355293623099 0 -17.303355293623099 -0.66670825044184312 0 0 0 0 121.45906966923212 -8.0115110806459597 0 -8.0115110806459597 4.3840102988803125 0 0 0 0 149.65294355497673 -22.985934497803896 0 -22.985934497803896 -22.606845503200482 0 0 0 0 -35.709119298611768 -69.519746102891986 0 -69.519746102891986 -51.730984645384069 0 0 0 0 16.452137195508499 -5.6480248673104043 0 -5.6480248673104043 -2.1664721201974171 0 0 0 0 111.56661595459445 -118.93332456941255 0 -118.93332456941255 -89.139434784499031 0 0 0 0 38.31982840935234 -59.911857767243418 0 -59.911857767243418 -128.18390881941082 0 0 0 0 16.407602832961629 -3.9484574363295337 0 -3.9484574363295337 -11.055431619155511 0 0 0 0 5.3168173173471587 -131.12609519777186 0 -131.12609519777186 35.397570092429078 0 0 0 0 28.897348004102241 77.385056784767983 0 77.385056784767983 -72.975558633086962 0 0 0 0 88.61662936056382 77.561478320321498 0 77.561478320321498 -122.1843713447239 0 0 0 0 113.71178152926561 3.2429669856925987 0 3.2429669856925987 -1.1089528288430461 0 0 0 0 96.470834310272267 -3.9587635144210864 0 -3.9587635144210864 -7.1884770107510789 0 0 0 0 65.412845441439458 3.6103137323256362 0 3.6103137323256362 -38.723851376628772 0 0 0 0 162.38720149678556 -65.563981586071804 0 -65.563981586071804 -76.48743702401498 0 0 0 0 210.59827604460588 -52.327407715913694 0 -52.327407715913694 -90.3405459469177 0 0 0 0 125.97329636616632 -78.314617187244494 0 -78.314617187244494 9.4645971144745999 0 0 0 0 29.440772746526768 -12.963208335169242 0 -12.963208335169242 -11.84092868746229 0 0 0 0 122.00712480589573 -15.838156473107347 0 -15.838156473107347 -7.2559341057758502 0 0 0 0 157.38586986311384 -15.6346432951662 0 -15.6346432951662 -13.608590354175703 0 0 0 0 131.77065675686026 -7.0278531657891108 0 -7.0278531657891108 -20.441741693114182 0 0 0 0 90.769635514933896 10.444255789740509 0 10.444255789740509 -14.579733856355771 0 0 0 0 88.744116469928485 -64.204833785842766 0 -64.204833785842766 49.916089818163528 0 0 0 0 8.4056147798976539 -15.199775523825238 0 -15.199775523825238 -5.8811827453050576 0 0 0 0 34.509180319444567 -7.5536826105490036 0 -7.5536826105490036 -8.7305808966648328 0 0 0 0 24.730003397319138 -16.895023690662001 0 -16.895023690662001 10.620378506490264 0 0 0 0 64.868776332834386 -204.16772057760363 0 -204.16772057760363 109.62061076316175 0 0 0 0 44.491859285422834 -48.262091190654132 0 -48.262091190654132 106.10836549749001 0 0 0 0 291.96063712328032 191.01427217337869 0 191.01427217337869 137.87906720960018 0 0 0 0 8.0954580525044264 -4.775383946502501 0 -4.775383946502501 4.5089474276490726 0 0 0 0 116.06812390770938 106.69326410433587 0 106.69326410433587 172.91459269205188 0 0 0 0 -599.27859249107132 494.99843343667726 0 494.99843343667726 600.34005100010654 0 0 0 0 -865.59710344788618 -576.58910493348685 0 -576.58910493348685 66.152390969455155 0 0 0 0 119.21336547121246 -125.20779244210235 0 -125.20779244210235 -108.77507778679774 0 0 0 0 140.54600938539079 -44.031503386791428 0 -44.031503386791428 -94.935479346665488 0 0 0 0 129.55242367871688 118.82709156424477 0 118.82709156424477 -127.99403538512877 0 0 0 0 460.41240324702812 140.36442291078276 0 140.36442291078276 -138.3348407481208 0 0 0 0 224.20834578022914 158.34942816286537 0 158.34942816286537 -420.74815523232223 0 0 0 0 68.896629340539221 185.58991520059158 0 185.58991520059158 -99.173026956001195 0 0 0 0 95.53413387445724 -2.6979448211700507 0 -2.6979448211700507 -1.9604734306154694 0 0 0 0 106.32317168637383 -279.22841741686125 0 -279.22841741686125 -752.04221489157953 0 0 0 0 136.4978631894337 -70.277478570890707 0 -70.277478570890707 -83.322773403057909 0 0 0 0 125.35440092267891 10.382427639631057 0 10.382427639631057 1.6294636320905869 0 0 0 0 58.161825708086269 10.063972153587454 0 10.063972153587454 0.98859027398852772 0 0 0 0 149.67343557297352 -9.839597821283661 0 -9.839597821283661 -0.78088273093813165 0 0 0 0 -8.8303277318482287 -240.6493137749685 0 -240.6493137749685 176.82059274244352 0 0 0 0 2693.3308543277089 1094.4823535230316 0 1094.4823535230316 -389.39670639118413 0 0 0 0 480.33969949081074 -142.52042561870871 0 -142.52042561870871 -626.72609052974735 0 0 0 0 188.06823676131899 -183.91169653743191 0 -183.91169653743191 -249.71606224979337 0 0 0 0 77.263226275914349 256.65182105402118 0 256.65182105402118 43.386570191532996 0 0 0 0 347.16562347709259 -575.11172110801579 0 -575.11172110801579 413.31856241918058 0 0 0 0 102.97161214813241 -221.10444674820133 0 -221.10444674820133 -134.30382916176518 0 0 0 0 710.98835430812323 -235.05735697306784 0 -235.05735697306784 -172.63058305416195 0 0 0 0 2.0261324299668786 2.2361863072805193 0 2.2361863072805193 -0.085192269454920755 0 0 0 0 -131.87395792055759 -90.090639395504923 0 -90.090639395504923 -226.76656801052604 0 0 0 0 21.867229275288992 177.60665223520209 0 177.60665223520209 133.35030398148547 0 0 0 0 89.346616387061658 -411.53098216615399 0 -411.53098216615399 -69.624628043662142 0 0 0 0 -69.48645616050635 464.11239255407736 0 464.11239255407736 292.41752818738314 0 0 0 0 -860.8323787406116 -289.84261105278711 0 -289.84261105278711 -258.58335112531131 0 0 0 0 725.43453615275212 330.12628094563843 0 330.12628094563843 365.53597395840552 0 0 0 0 5.6100265094818553 4.3748095307893422 0 4.3748095307893422 2.9060364017318712 0 0 0 0 442.44245843339741 -342.91021099960926 0 -342.91021099960926 -80.510562689830977 0 0 0 0 835.34275418621837 459.73199513767395 0 459.73199513767395 255.64091416462998 0 0 0 0 1614.166088411017 947.3317558864685 0 947.3317558864685 729.98613177663901 0 0 0 0 -1328.3779069180382 691.63671999432097 0 691.63671999432097 543.12556781448257 0 0 0 0 2142.2293547208537 -113.0267507870376 0 -113.0267507870376 600.24422251005308 0 0 0 0 825.93260059863678 -176.77438702085237 0 -176.77438702085237 557.84310793541795 0 0 0 0 576.84308932727072 164.06535086210954 0 164.06535086210954 177.84680437212819 0 0 0 0 705.27051884723551 51.935185856081489 0 51.935185856081489 -74.943217810900478 0 0 0 0 425.35658520329162 353.49939916553467 0 353.49939916553467 290.32718801388046 0 0 0 0 -0.1147378474930747 -1.6981514715536576 0 -1.6981514715536576 -0.28151650241102288 0 0 0 0 52.802986137103289 -280.35143784636983 0 -280.35143784636983 168.2315433027718 0 0 0 0 570.90502373733034 -39.971616285672404 0 -39.971616285672404 -31.185516066935772 0 0 0 0 233.61511646091822 27.937030833658881 0 27.937030833658881 68.123244153715007 0 0 0 0 786.14406813666574 -207.59188889828297 0 -207.59188889828297 -25.489894219116671 0 0 0 0 357.76716191560263 139.3417898844699 0 139.3417898844699 -50.43797757139879 0 0 0 0 282.16446743446431 -215.65335649756605 0 -215.65335649756605 44.457653616750676 0 0 0 0 264.67946543602739 -58.420553960660385 0 -58.420553960660385 58.214489735550117 0 0 0 0 110.95128118991852 -93.889173845222729 0 -93.889173845222729 107.67031332684232 0 0 0 0 266.68890010257019 -48.888147792192541 0 -48.888147792192541 103.2292015061071 0 0 0 0 487.84180646424647 -168.51255664860139 0 -168.51255664860139 42.821362297420592 0 0 0 0 491.56949932087446 -140.23705110302663 0 -140.23705110302663 100.84232872919745 0 0 0 0 474.95802688151889 -207.85807422371894 0 -207.85807422371894 177.15484303252919 0 0 0 0 353.56073070115053 -84.448228831185062 0 -84.448228831185062 121.04672506673649 0 0 0 0 127.78047297260491 -65.0351547406392 0 -65.0351547406392 155.81059048483684 0 0 0 0 272.67466208302358 -7.9364635228184 0 -7.9364635228184 -39.012920558015594 0 0 0 0 -90.314041853185245 425.98001205192435 0 425.98001205192435 -421.19607030009718 0 0 0 0 72.448866165213985 -121.81401543954826 0 -121.81401543954826 45.592093884344877 0 0 0 0 48.270600756799467 164.8840201343736 0 164.8840201343736 -46.862236694207581 0 0 0 0 385.12916455802042 -37.808161437087819 0 -37.808161437087819 -106.03893205855576 0 0 0 0 334.99505141956615 83.731895940518427 0 83.731895940518427 -366.74010705817619 0 0 0 0 315.96196187421447 -27.663834461744131 0 -27.663834461744131 -106.69167083111421 0 0 0 0 243.5063436399796 -22.102619039634305 0 -22.102619039634305 84.572166248026832 0 0 0 0 322.9052333796426 -40.110179293713628 0 -40.110179293713628 -85.178018250478118 0 0 0 0 211.18365314820403 104.02498913190345 0 104.02498913190345 -133.61967123050533 0 0 0 0 248.28036350765615 -0.74395316137380973 0 -0.74395316137380973 104.76107905157963 0 0 0 0 194.47901784291025 90.154797748513886 0 90.154797748513886 -136.83959310788876 0 0 0 0 329.61992605944397 -38.941397200569426 0 -38.941397200569426 -91.014077965019766 0 0 0 0 256.34753430605633 171.81069523009907 0 171.81069523009907 -130.59728094248482 0 0 0 0 338.98153118752452 224.00180345576453 0 224.00180345576453 206.7016528546954 0 0 0 0 533.35752840763598 -116.93208844947823 0 -116.93208844947823 -74.879792977406709 0 0 0 0 343.78338716583676 -84.121391753298354 0 -84.121391753298354 77.626593225198562 0 0 0 0 3.1368389983633733 0.32307614684622621 0 0.32307614684622621 -0.34032612342881352 0 0 0 0 234.8013591786148 -272.88958231631807 0 -272.88958231631807 -326.44104486971537 0 0 0 0 -40.403907019775943 206.21250830141864 0 206.21250830141864 -38.1085634381933 0 0 0 0 164.59176021411258 128.9924064947773 0 128.9924064947773 -282.14520444349199 0 0 0 0 6.9849253752753953 1.467732527183081 0 1.467732527183081 -1.0218718391342982 0 0 0 0 -95.969477479935449 227.08980076314313 0 227.08980076314313 -83.131197106124361 0 0 0 0 20.914107486110879 -25.45093586470491 0 -25.45093586470491 11.121975136657571 0 0 0 0 72.005716605417547 101.83974934946291 0 101.83974934946291 -78.244011404968873 0 0 0 0 38.430117908970715 156.63811334365377 0 156.63811334365377 -384.40194241185867 0 0 0 0 46.984371094353264 67.483489208399703 0 67.483489208399703 -139.2890738202297 0 0 0 0 -45.633845421820297 95.495529501200195 0 95.495529501200195 -58.999275693553045 0 0 0 0 83.641664093709551 207.63052469229132 0 207.63052469229132 -170.80270046423388 0 0 0 0 -287.77259398825117 252.16999612949058 0 252.16999612949058 -132.10285207449792 0 0 0 0 -0.64817332458167698 -0.52578579326007002 0 -0.52578579326007002 -3.7581421899926371 0 0 0 0 -206.42153091683031 -36.930097577244737 0 -36.930097577244737 68.356383672092079 0 0 0 0 -224.3702203374487 370.58456398713628 0 370.58456398713628 -66.943783981215205 0 0 0 0 65.215105042734649 -81.00483526556593 0 -81.00483526556593 -216.01083191790707 0 0 0 0 -362.53046652011108 11.067390806757572 0 11.067390806757572 -89.408177675758651 0 0 0 0 960.07629420649027 278.20302888790189 0 278.20302888790189 -90.860348949420427 0 0 0 0 671.46712102541642 -207.28090563275998 0 -207.28090563275998 -81.577476196397612 0 0 0 0 80.81876914845634 15.854082059177966 0 15.854082059177966 383.20857620449118 0 0 0 0 703.70754362394928 199.83434954345327 0 199.83434954345327 -29.249310009900228 0 0 0 0 191.44586701373919 246.28155873999299 0 246.28155873999299 191.60275847655583 0 0 0 0 -29.740518922393676 121.02036260549728 0 121.02036260549728 148.98041590754707 0 0 0 0 3.7737923743880515 3.3517468192118827 0 3.3517468192118827 3.8878277481305137 0 0 0 0 950.30633413878058 -459.34929375192297 0 -459.34929375192297 -168.30365735619242 0 0 0 0 3.7378136103190513 0.8584083824403379 0 0.8584083824403379 -0.61180654148243907 0 0 0 0 200.43977372924564 -40.407530488491034 0 -40.407530488491034 -152.0750426623965 0 0 0 0 645.26272651417821 -191.79397363053607 0 -191.79397363053607 -518.42185145287897 0 0 0 0 51.736696409730939 278.02988122197962 0 278.02988122197962 -87.002081068687389 0 0 0 0 -13.377972134388983 -1.5912897834016704 0 -1.5912897834016704 -130.56160374406704 0 0 0 0 64.219897088289144 83.310678574736571 0 83.310678574736571 -52.4032476396535 0 0 0 0 341.01427026661986 367.76019224449198 0 367.76019224449198 232.32224342633572 0 0 0 0 84.63368644498405 190.11105918472265 0 190.11105918472265 116.11376895241347 0 0 0 0 222.24498563617817 170.38319165985581 0 170.38319165985581 85.83802955088008 0 0 0 0 126.91188561200397 177.52926827384553 0 177.52926827384553 145.61712705367546 0 0 0 0 107.47724169968205 159.80659737661742 0 159.80659737661742 247.25710068668701 0 0 0 0 75.503416150459088 197.58949058741581 0 197.58949058741581 288.85803499621454 0 0 0 0 2.1855332588020246 -0.073903017708005336 0 -0.073903017708005336 10.721855736265212 0 0 0 0 9.8510328344690379 -4.9147287344056139 0 -4.9147287344056139 1.8179556170154358 0 0 0 0 117.53532046659166 187.60491967857115 0 187.60491967857115 101.92379035957416 0 0 0 0 5.9992812394084467 0.17623727159238634 0 0.17623727159238634 -0.03821733594488811 0 0 0 0 7.1624452368851053 5.7789834119608336 0 5.7789834119608336 -11.868163460869273 0 0 0 0 6.97268443350913 -6.4783978628943402 0 -6.4783978628943402 7.163418843814739 0 0 0 0 5.7497844100435032 -4.0522418446952972 0 -4.0522418446952972 -10.430078686053614 0 0 0 0 7.460347390442621 -0.59405448251781423 0 -0.59405448251781423 -3.768148928439488 0 0 0 0 6.8064191568410024 2.4580647084541813 0 2.4580647084541813 0.019842991019571651 0 0 0 0 5.8500801973887633 -1.350360107474998 0 -1.350360107474998 1.1877661708691456 0 0 0 0 8.1703491219668649 -2.9713308097297406 0 -2.9713308097297406 -1.6758353501461976 0 0 0 0 9.6804298954357364 6.5300210547978148 0 6.5300210547978148 0.13748327821306816 0 0 0 0 9.1740758305461441 -0.49770885295231793 0 -0.49770885295231793 0.15217014016236735 0 0 0 0 78.452647718921071 160.61772235275365 0 160.61772235275365 304.75959002005823 0 0 0 0 121.8741921519977 238.8915307832084 0 238.8915307832084 379.15626480165866 0 0 0 0 77.453199371346273 148.3890756522768 0 148.3890756522768 352.84286323679567 0 0 0 0 107.16500055033248 192.63945951942367 0 192.63945951942367 325.95975112828125 0 0 0 0 63.057090889546089 153.02785169046115 0 153.02785169046115 354.96294837904361 0 0 0 0 -34.757918914401671 147.76404378612887 0 147.76404378612887 408.11719671124843 0 0 0 0 52.783466299828433 198.74709024015314 0 198.74709024015314 426.02954779316337 0 0 0 0 62.496842842083424 94.939523158368331 0 94.939523158368331 260.67248815023208 0 0 0 0 0.066014205534656867 -2.4623990741688893 0 -2.4623990741688893 0.044121624543606595 0 0 0 0 11.5143844721606 -7.3541472292493459 0 -7.3541472292493459 -7.9882235267736021 0 0 0 0 19.135392713622423 0.376533457261365 0 0.376533457261365 -27.041343550043532 0 0 0 0 9.8560251832459471 17.44721151618046 0 17.44721151618046 -32.406063832111329 0 0 0 0 4.7360025664966088 8.4522450703348451 0 8.4522450703348451 -13.950165516661674 0 0 0 0 -59.887646527466131 53.312954085763621 0 53.312954085763621 -20.594347677870708 0 0 0 0 -24.945689188083634 24.460932356488328 0 24.460932356488328 -0.22479600165510072 0 0 0 0 11.49125937660358 -2.2711073289312225 0 -2.2711073289312225 0.027650792875323654 0 0 0 0 13.055264152179006 11.961908173433223 0 11.961908173433223 -49.015733996162481 0 0 0 0 150.85414988276534 435.61338891319974 0 435.61338891319974 406.5003961112306 0 0 0 0 253.19809733360307 -71.297246746713654 0 -71.297246746713654 306.36048983992805 0 0 0 0 105.35923181695398 292.91966936550955 0 292.91966936550955 319.80644288774386 0 0 0 0 94.152326229057508 101.04121188722014 0 101.04121188722014 136.51347239333654 0 0 0 0 88.519368286419194 255.58113192077036 0 255.58113192077036 451.07363395161667 0 0 0 0 350.29255194932921 183.11068047044569 0 183.11068047044569 355.03703276207546 0 0 0 0 350.39518810928632 228.90963192492535 0 228.90963192492535 493.00769740016733 0 0 0 0 533.52494815715545 26.642694725658615 0 26.642694725658615 96.440851447190994 0 0 0 0 397.30938599350338 345.26606168564564 0 345.26606168564564 312.12982019039237 0 0 0 0 84.791049343679333 180.54567166295203 0 180.54567166295203 319.60323754794382 0 0 0 0 114.13263462609029 237.42135488493204 0 237.42135488493204 266.62319632910919 0 0 0 0 158.20245687339047 162.0406807750075 0 162.0406807750075 176.12055149609512 0 0 0 0 135.26691538572777 84.295290778178753 0 84.295290778178753 27.420819222049545 0 0 0 0 60.940683517896105 242.49148198415659 0 242.49148198415659 109.64277097883152 0 0 0 0 223.91894419001983 -18.791180763980229 0 -18.791180763980229 91.186965728877567 0 0 0 0 270.42050011077663 201.77293762061544 0 201.77293762061544 116.97810880415039 0 0 0 0 685.52496024794527 -29.366112791879402 0 -29.366112791879402 -195.04609683828596 0 0 0 0 569.96329414093634 -204.77162641053607 0 -204.77162641053607 29.935380430041619 0 0 0 0 286.09572333798496 -201.45344036656766 0 -201.45344036656766 82.397387132695485 0 0 0 0 1184.0808111554361 423.51206320945886 0 423.51206320945886 212.57131835776443 0 0 0 0 1012.8392656840879 -577.53813307137273 0 -577.53813307137273 276.61292163995455 0 0 0 0 1458.647944077813 153.27566344498754 0 153.27566344498754 -199.37410270620461 0 0 0 0 1440.2972385073372 100.81521135129069 0 100.81521135129069 331.0666156055571 0 0 0 0 1518.7611330149812 720.30310847109945 0 720.30310847109945 462.17765991490529 0 0 0 0 1744.7458139916707 370.02565816038816 0 370.02565816038816 0.13587980337114677 0 0 0 0 1827.5714167401311 436.88284135625963 0 436.88284135625963 -136.13726414904747 0 0 0 0 5.2689261882220535 -0.62381908174066325 0 -0.62381908174066325 -0.23842801373242478 0 0 0 0 324.13843078655191 -166.85100184532897 0 -166.85100184532897 -202.67486468071766 0 0 0 0 693.18004075353383 -101.31148104320344 0 -101.31148104320344 141.22713126568144 0 0 0 0 349.63211994440644 153.5659834330005 0 153.5659834330005 88.797340310453023 0 0 0 0 -30.969368785044935 -126.67039538220678 0 -126.67039538220678 87.39146078467428 0 0 0 0 6.912452136982381 1.6919655111848897 0 1.6919655111848897 0.46195907335975295 0 0 0 0 570.7363610053435 511.39763445612084 0 511.39763445612084 -264.04363027697485 0 0 0 0 73.565682869098964 -170.2394693819451 0 -170.2394693819451 -89.352459670946303 0 0 0 0 15.525943860448024 -174.63929037476655 0 -174.63929037476655 0.22299283651504864 0 0 0 0 -0.16609772350184926 -0.79451925401710355 0 -0.79451925401710355 -0.68526100932232514 0 0 0 0 -309.93210091740184 -98.084713857643862 0 -98.084713857643862 63.936115038752973 0 0 0 0 5.3345075216513465 0.16340829385597999 0 0.16340829385597999 -2.9589545515695956 0 0 0 0 0.79486768999777269 -62.232751152777531 0 -62.232751152777531 60.291361330735086 0 0 0 0 16.820921100631267 4.3613353334917093 0 4.3613353334917093 -0.88960679441535584 0 0 0 0 -6.7898315675120102 -67.642024578789346 0 -67.642024578789346 -166.74445617116714 0 0 0 0 299.01437606408854 -53.822591142064162 0 -53.822591142064162 9.2953671970628875 0 0 0 0 279.60360253795807 -129.23932799997297 0 -129.23932799997297 79.600835479755915 0 0 0 0 15.652664479572593 5.1344684395936042 0 5.1344684395936042 -0.12662004565626983 0 0 0 0 4.5308343297557769 0.71370857712335578 0 0.71370857712335578 -3.0838633744155892 0 0 0 0 -174.28272521820327 -102.25644736655403 0 -102.25644736655403 47.450619288243047 0 0 0 0 116.01453672151547 95.942451484742548 0 95.942451484742548 -274.0541193512542 0 0 0 0 109.04236251742986 29.168812048683975 0 29.168812048683975 23.198660449590022 0 0 0 0 71.796563428986701 48.981935969840521 0 48.981935969840521 36.531473709847873 0 0 0 0 180.16914264726802 2.2395184466868159 0 2.2395184466868159 13.660466959521273 0 0 0 0 2.5585598480572571 -0.17810524314205622 0 -0.17810524314205622 -1.6444806670845935 0 0 0 0 165.91442138906314 93.469078865731333 0 93.469078865731333 55.330349143593594 0 0 0 0 99.740726707299473 -7.9689015825033493 0 -7.9689015825033493 28.303577625756489 0 0 0 0 65.339159048016882 3.0188297086990588 0 3.0188297086990588 16.198227589076851 0 0 0 0 83.818595476186601 14.792445415313352 0 14.792445415313352 1.8661284919239733 0 0 0 0 65.147889055551786 24.551600888642184 0 24.551600888642184 20.960423554984573 0 0 0 0 109.00021725046099 -5.1405008120761977 0 -5.1405008120761977 63.367156890057231 0 0 0 0 66.15922009802307 29.995686857963392 0 29.995686857963392 40.873650489798706 0 0 0 0 71.898144980819779 43.404486136483911 0 43.404486136483911 41.269031721077454 0 0 0 0 177.11431456066202 -78.501822084732339 0 -78.501822084732339 -42.363410108408857 0 0 0 0 -148.96145286160754 59.680704768100668 0 59.680704768100668 41.974927199098602 0 0 0 0 75.515103416400962 14.940833881778815 0 14.940833881778815 -17.268807942105923 0 0 0 0 16.79086860530191 -14.995738056673844 0 -14.995738056673844 -2.4350874422260214 0 0 0 0 27.208667914288526 -47.329825352862059 0 -47.329825352862059 -34.427361899609082 0 0 0 0 79.682467950449791 -9.4181591176285337 0 -9.4181591176285337 -34.508922336100852 0 0 0 0 32.700418971915497 -14.223928003367973 0 -14.223928003367973 26.218289154970648 0 0 0 0 -35.076114783500088 -75.704786226991587 0 -75.704786226991587 -30.54578488265588 0 0 0 0 27.330293369354706 -11.204856156101016 0 -11.204856156101016 -8.3001466731947158 0 0 0 0 66.825385375937913 36.277139683023918 0 36.277139683023918 24.404931323320454 0 0 0 0 -2.1100004638519749 -5.0883544584958145 0 -5.0883544584958145 -0.78699304155590433 0 0 0 0 60.778185986928293 33.585912129536155 0 33.585912129536155 -11.10379600026215 0 0 0 0 59.669337316328892 32.772711220270224 0 32.772711220270224 3.0727794967529576 0 0 0 0 58.601700809536851 17.317016655086974 0 17.317016655086974 -3.7345022895279953 0 0 0 0 56.33190787374042 18.492848811420529 0 18.492848811420529 10.091866591505749 0 0 0 0 30.73206856416607 -13.900085503324192 0 -13.900085503324192 -0.1613136115510958 0 0 0 0 19.058832483628066 -17.445940498797199 0 -17.445940498797199 -18.526426928518958 0 0 0 0 22.142028671918183 -10.9144080946717 0 -10.9144080946717 -5.6119723876714733 0 0 0 0 66.022400644927984 7.9498059297134205 0 7.9498059297134205 -15.994082981685096 0 0 0 0 19.817843691068333 -1.1163482338919266 0 -1.1163482338919266 -3.0361292941385885 0 0 0 0 53.134419985668501 20.666777449226288 0 20.666777449226288 6.3283380304596903 0 0 0 0 2.3050550554791585 3.4866881712503925 0 3.4866881712503925 -1.6296807577147037 0 0 0 0 1.1875264148693532 11.542688450785136 0 11.542688450785136 -1.271129694094725 0 0 0 0 30.163707138772907 14.783131084755411 0 14.783131084755411 -12.644439135900857 0 0 0 0 36.754319225787185 -20.071166759776133 0 -20.071166759776133 -19.031762498091211 0 0 0 0 26.610639683106058 -0.62200574773949313 0 -0.62200574773949313 -9.6338973736359126 0 0 0 0 16.879576792067382 -7.5211234645357763 0 -7.5211234645357763 -28.72557300356857 0 0 0 0 69.162843395547895 -14.304755735000398 0 -14.304755735000398 -6.3118369709602753 0 0 0 0 56.41580370918382 21.576904518903689 0 21.576904518903689 -29.750142806817735 0 0 0 0 94.400119490659563 -42.370219471033579 0 -42.370219471033579 33.966935288261084 0 0 0 0 71.219750535178491 2.9179522572259344 0 2.9179522572259344 -4.8401501862868148 0 0 0 0 115.93147390417289 -22.0793741021198 0 -22.0793741021198 39.268523678818383 0 0 0 0 114.85407339240192 -25.970160907103491 0 -25.970160907103491 70.613786933125084 0 0 0 0 123.18525304016657 -26.221124639445407 0 -26.221124639445407 63.910081076988718 0 0 0 0 90.899353572924156 -46.220321272369802 0 -46.220321272369802 25.865804416472201 0 0 0 0 86.048205635299382 -35.450139976958553 0 -35.450139976958553 31.769611615569374 0 0 0 0 93.213065906777047 26.008072722233237 0 26.008072722233237 -39.366522838034825 0 0 0 0 80.524356449095649 11.716301119881663 0 11.716301119881663 -27.739343712334389 0 0 0 0 74.937643545172023 11.33824389504899 0 11.33824389504899 -6.4703192058582371 0 0 0 0 94.364148781693075 30.861202103719165 0 30.861202103719165 -19.081729486044878 0 0 0 0 84.990242541200132 22.855367160179298 0 22.855367160179298 -6.4831531109082334 0 0 0 0 116.96482280053897 19.096760296877193 0 19.096760296877193 -6.2452754988403285 0 0 0 0 82.057599961895903 13.146614585845128 0 13.146614585845128 -5.0928843981462251 0 0 0 0 58.57149069312436 11.796699671267106 0 11.796699671267106 5.5508511450572939 0 0 0 0 50.950069812010042 20.906539001752179 0 20.906539001752179 -6.2706065001137858 0 0 0 0 88.595395757249207 22.921458769135597 0 22.921458769135597 -24.101996139971561 0 0 0 0 60.221072801992705 19.129222617584219 0 19.129222617584219 -16.446773327880237 0 0 0 0 52.262957069207914 23.980165917606698 0 23.980165917606698 -5.04475269184681 0 0 0 0 1.0858492948297283 -1.1147051046056049 0 -1.1147051046056049 -2.0622783631694226 0 0 0 0 30.671579963702243 -46.868984561321298 0 -46.868984561321298 -55.75785181981189 0 0 0 0 82.08077549051086 47.91251863175853 0 47.91251863175853 -7.8090183843432897 0 0 0 0 47.198088182442007 76.101854817135859 0 76.101854817135859 19.597962193207422 0 0 0 0 43.372601919581939 42.339584761877816 0 42.339584761877816 26.263422943992737 0 0 0 0 41.733780539012514 33.853332143721531 0 33.853332143721531 -9.8983714616166267 0 0 0 0 43.774391967403062 10.278902558232858 0 10.278902558232858 1.2299806547116532 0 0 0 0 39.701350878887752 16.514575848371067 0 16.514575848371067 6.2021412805820546 0 0 0 0 51.747554264678911 0.13858001641222017 0 0.13858001641222017 1.334508331062807 0 0 0 0 53.783170583032188 17.053369356179019 0 17.053369356179019 -1.5959889620474996 0 0 0 0 0.9142305178224035 -0.87568585762940643 0 -0.87568585762940643 -4.237423206901914 0 0 0 0 29.520992700687202 84.691955056442197 0 84.691955056442197 54.687673287703319 0 0 0 0 75.297913381422404 28.085046939449285 0 28.085046939449285 102.39968658214087 0 0 0 0 33.463351389320451 107.91699631167262 0 107.91699631167262 191.37761798823522 0 0 0 0 21.721781538653886 35.420180904598766 0 35.420180904598766 30.528708973919741 0 0 0 0 7.7980652417754754 44.369179247722691 0 44.369179247722691 101.48991194101113 0 0 0 0 21.105083780275891 6.4795198865549217 0 6.4795198865549217 26.392665269402016 0 0 0 0 16.089505644456949 -5.4577683433826678 0 -5.4577683433826678 9.0598682901656957 0 0 0 0 24.964013524164329 11.76373998305175 0 11.76373998305175 18.413675706256981 0 0 0 0 -2.719543266837718 -2.4361870269672181 0 -2.4361870269672181 65.059611087987605 0 0 0 0 9.9190678810264217 42.693529281539625 0 42.693529281539625 114.54028654138267 0 0 0 0 31.071363548777299 6.17009386129007 0 6.17009386129007 -79.777579776562106 0 0 0 0 -24.880523437197553 -46.831909229044271 0 -46.831909229044271 28.321794600067221 0 0 0 0 -1.2491862463357393 61.917483970905778 0 61.917483970905778 -57.616200474863035 0 0 0 0 9.6482000461836606 10.053678979464394 0 10.053678979464394 10.144055062875108 0 0 0 0 402.73863872894435 -104.81489434329637 0 -104.81489434329637 -109.69117265041677 0 0 0 0 237.22854494000421 239.14602260494092 0 239.14602260494092 269.59279449063854 0 0 0 0 -7.9858930770642473 27.153992669167877 0 27.153992669167877 -9.7130753800338425 0 0 0 0 31.796367036848096 12.787983337104606 0 12.787983337104606 -30.09163928644648 0 0 0 0 28.94127960386686 9.310106265331342 0 9.310106265331342 2.2652310700386806 0 0 0 0 33.242728359895409 24.750468598403813 0 24.750468598403813 -7.4202019588838084 0 0 0 0 25.928544937283732 13.434357767154779 0 13.434357767154779 -13.1947881926435 0 0 0 0 -71.618483277590713 27.562750311327385 0 27.562750311327385 30.615344241945536 0 0 0 0 32.217159806023119 26.393632994968357 0 26.393632994968357 -9.1541292421245544 0 0 0 0 18.150420183584515 13.227391721656261 0 13.227391721656261 14.199251846417638 0 0 0 0 562.61121751923929 83.643510075667393 0 83.643510075667393 -122.67571705265482 0 0 0 0 33.184997126663802 -145.94039639876087 0 -145.94039639876087 -0.15331824250563386 0 0 0 0 283.72525650556781 57.318175786757195 0 57.318175786757195 20.516575723566746 0 0 0 0 27.411573037476046 6.3608639955169792 0 6.3608639955169792 -1.9341671091806347 0 0 0 0 39.329749084368814 29.026787102955495 0 29.026787102955495 13.310334307331914 0 0 0 0 45.457942902314244 19.113868561521258 0 19.113868561521258 28.69972263929094 0 0 0 0 57.888271449366584 16.162909663075766 0 16.162909663075766 -6.198392730416117 0 0 0 0 3.2987218073802751 1.6101377075917753 0 1.6101377075917753 -5.2871992861567767 0 0 0 0 42.155908154469216 16.641842465225636 0 16.641842465225636 4.4799410018786148 0 0 0 0 51.678438372880919 24.275111855700743 0 24.275111855700743 -6.9510444734573866 0 0 0 0 41.959356472245418 14.251778027677119 0 14.251778027677119 -16.157995989070969 0 0 0 0 46.477989103732398 17.372707495457689 0 17.372707495457689 -7.3483429455764053 0 0 0 0 24.878513982603977 8.7479381915265293 0 8.7479381915265293 -4.0771532449424175 0 0 0 0 31.89076149835455 24.959659940930294 0 24.959659940930294 7.6814683536613302 0 0 0 0 24.850850352697307 10.350508146595075 0 10.350508146595075 1.8569076756216418 0 0 0 0 11.164651425099464 12.004436685478822 0 12.004436685478822 3.7808419457067988 0 0 0 0 53.601380662003066 40.270138249217325 0 40.270138249217325 31.572961216411386 0 0 0 0 51.648627979571756 34.338839597584865 0 34.338839597584865 13.653414590750799 0 0 0 0 42.681300796306459 42.962697968657722 0 42.962697968657722 27.251909702361445 0 0 0 0 3.9996769062661883 3.1086310833465092 0 3.1086310833465092 -1.1943017890915497 0 0 0 0 61.10432861285517 33.023488979256399 0 33.023488979256399 0.60169846080952993 0 0 0 0 46.930782839597668 39.30429038689681 0 39.30429038689681 14.619787952065167 0 0 0 0 27.186631428237888 27.783556182821258 0 27.783556182821258 16.345848331889101 0 0 0 0 49.879222950985422 20.761838624086408 0 20.761838624086408 6.9627428280734875 0 0 0 0 46.307650028073112 34.647205011748611 0 34.647205011748611 6.0461055753503388 0 0 0 0 21.901471522339193 10.955289603335359 0 10.955289603335359 5.2921924964764528 0 0 0 0 12.014668133641806 3.3525396574868864 0 3.3525396574868864 0.91582987551944717 0 0 0 0 51.443869248090778 27.093230423900593 0 27.093230423900593 -8.7310495852566419 0 0 0 0 32.990101004780911 25.138860105171489 0 25.138860105171489 11.085902068828503 0 0 0 0 50.68016945256386 32.215921951372422 0 32.215921951372422 -7.6231524646887578 0 0 0 0 84.158678061205137 22.29848368417916 0 22.29848368417916 -9.0993239775141319 0 0 0 0 41.837199826343465 28.281888516313217 0 28.281888516313217 11.578033428974331 0 0 0 0 77.408012446874636 29.655864070608004 0 29.655864070608004 1.1535310921722157 0 0 0 0 31.902470891684061 57.785351525487755 0 57.785351525487755 10.941840285093917 0 0 0 0 92.353384072397603 -2.1774063958769077 0 -2.1774063958769077 7.4439495015999739 0 0 0 0 18.125831786722756 -4.1772836418843582 0 -4.1772836418843582 4.7378186746498105 0 0 0 0 45.340142198867397 -0.14045377649138402 0 -0.14045377649138402 -0.53811108339573366 0 0 0 0 85.146487027028343 4.5917453780690138 0 4.5917453780690138 17.607869764144958 0 0 0 0 46.387756046984578 -1.7610186183883343 0 -1.7610186183883343 1.7695375198901502 0 0 0 0 76.331610541499685 7.1752074923268765 0 7.1752074923268765 -3.6004562184816677 0 0 0 0 72.664386243588524 -1.9691549933151009 0 -1.9691549933151009 -11.636607494314887 0 0 0 0 60.372283168733702 -26.1839749458195 0 -26.1839749458195 11.203110370371803 0 0 0 0 9.2962749225698644 -9.8426492388806821 0 -9.8426492388806821 18.673532233094761 0 0 0 0 15.96339932110277 -2.1792736392681604 0 -2.1792736392681604 7.6393254194912856 0 0 0 0 -4.9771904715744313 8.8552518968845213 0 8.8552518968845213 10.974512123714023 0 0 0 0 2.2563468839107372 -19.035621397362888 0 -19.035621397362888 28.074202506709184 0 0 0 0 2.2426733932426828 -0.21363636440226763 0 -0.21363636440226763 0.012256483119092445 0 0 0 0 78.035698721389053 -47.615271004973152 0 -47.615271004973152 28.030890785012677 0 0 0 0 210.01707090635318 19.634088124629077 0 19.634088124629077 -18.163934560502895 0 0 0 0 62.792059300089022 56.806191242529067 0 56.806191242529067 33.906356671004595 0 0 0 0 1.818959628988523 -8.1725690939193658 0 -8.1725690939193658 0.044982173458100114 0 0 0 0 -4.7701625591143966 26.743972421666729 0 26.743972421666729 25.893401458985103 0 0 0 0 42.559558476799793 19.328554839090884 0 19.328554839090884 -12.941435930602935 0 0 0 0 10.323436117557321 5.780719619354926 0 5.780719619354926 0.9029766468364534 0 0 0 0 114.21661795632099 57.552039359525793 0 57.552039359525793 -15.783984939397556 0 0 0 0 128.68906092806719 -16.79657461816447 0 -16.79657461816447 -14.041976676838317 0 0 0 0 200.10122571623651 51.999595385378854 0 51.999595385378854 -15.675238688426433 0 0 0 0 185.0955093788798 -13.306515284934729 0 -13.306515284934729 -14.118029495197096 0 0 0 0 53.850055532020633 141.69936608461563 0 141.69936608461563 70.968329899281429 0 0 0 0 151.95884194240352 -83.423075639399826 0 -83.423075639399826 17.204778363488025 0 0 0 0 154.58700661981129 6.0564659592230363 0 6.0564659592230363 -0.039462617121911965 0 0 0 0 5.5624785303953104 -36.153900578063158 0 -36.153900578063158 31.879074621081905 0 0 0 0 19.254641136649298 18.172400570746952 0 18.172400570746952 -0.013656425775933661 0 0 0 0 5.6492438425187004 29.436205112165073 0 29.436205112165073 -8.7272647654749171 0 0 0 0 29.634517697850242 31.700859108326519 0 31.700859108326519 -16.065574089468011 0 0 0 0 21.615443627350032 -0.18931699695138487 0 -0.18931699695138487 -15.121053667785921 0 0 0 0 -50.932000798085937 -48.669793000965427 0 -48.669793000965427 -43.839484559346161 0 0 0 0 17.386789379961556 -7.5041549070211104 0 -7.5041549070211104 -57.103081319136322 0 0 0 0 5.4711345143690835 1.2609907835046386 0 1.2609907835046386 -0.38781724268458534 0 0 0 0 5.6505112741453445 -1.6028680758973621 0 -1.6028680758973621 -2.2872620359607208 0 0 0 0 31.116214100766229 22.153296976709097 0 22.153296976709097 0.16240507332912557 0 0 0 0 35.803140536772844 20.077117649853133 0 20.077117649853133 -13.052861628807651 0 0 0 0 -93.883275722873805 -31.300521521775693 0 -31.300521521775693 -0.03412194359436458 0 0 0 0 -106.18816684986814 -31.650685393378836 0 -31.650685393378836 -6.965491545256441 0 0 0 0 -56.946617307388806 -58.400038903831089 0 -58.400038903831089 -12.542707429213152 0 0 0 0 17.546455370310298 -10.031156946149764 0 -10.031156946149764 -6.943663395145327 0 0 0 0 -81.641389202326536 -59.368065941966897 0 -59.368065941966897 -12.29138949710881 0 0 0 0 -60.294693920382997 -36.016523281544551 0 -36.016523281544551 -8.7241216612452916 0 0 0 0 43.182787781552179 14.566808633646133 0 14.566808633646133 3.152170325389875 0 0 0 0 23.977449663811171 11.546250458369315 0 11.546250458369315 4.0541379761416829 0 0 0 0 41.477618339587934 6.2897792980962555 0 6.2897792980962555 -0.24000837083571724 0 0 0 0 29.255830891312996 -5.7391045001138252 0 -5.7391045001138252 -10.700316258580296 0 0 0 0 29.722802910197061 1.9879957504107324 0 1.9879957504107324 11.282780988750517 0 0 0 0 26.507645015517483 -7.7672037905438174 0 -7.7672037905438174 21.326703682491939 0 0 0 0 22.956877358822538 -12.087773734759196 0 -12.087773734759196 -10.363259715239117 0 0 0 0 64.013165069743991 17.013837261664946 0 17.013837261664946 -3.9044146880902986 0 0 0 0 74.735024504756439 42.137592006489058 0 42.137592006489058 6.0874923063597635 0 0 0 0 -23.227745607713587 -50.70521670317649 0 -50.70521670317649 -31.128628767468228 0 0 0 0 -32.526312637433875 -66.869108658018774 0 -66.869108658018774 -22.422402420604783 0 0 0 0 17.09057686518949 -13.192242161898406 0 -13.192242161898406 -5.5499227780857989 0 0 0 0 -38.214330546848942 -48.212639465907273 0 -48.212639465907273 -29.889112501383927 0 0 0 0 13.336678817518987 -61.680313535865849 0 -61.680313535865849 -34.897928586218427 0 0 0 0 -26.771513951534871 -68.861325700025944 0 -68.861325700025944 -8.4372517752129141 0 0 0 0 -32.499956008032314 -47.859693927942899 0 -47.859693927942899 -19.803480870729917 0 0 0 0 -39.714431331318337 -62.414589421498796 0 -62.414589421498796 -29.208730765481448 0 0 0 0 -3.1849957477679709 -77.116664822924875 0 -77.116664822924875 -0.025358297017365382 0 0 0 0 52.240587504100404 -85.428034674292164 0 -85.428034674292164 0.0013551731164774677 0 0 0 0 15.970038481827942 -56.897651675765083 0 -56.897651675765083 -13.844483464292239 0 0 0 0 51.153810070987674 -79.979846686123011 0 -79.979846686123011 -24.609457639402763 0 0 0 0 110.0522668397607 -101.31020410493124 0 -101.31020410493124 -0.057509120773569761 0 0 0 0 74.072930259506393 -71.496186855571437 0 -71.496186855571437 -21.928551964404164 0 0 0 0 119.44610499862756 -86.932639109004313 0 -86.932639109004313 -25.98393497862326 0 0 0 0 123.0590199388389 -84.258235476683467 0 -84.258235476683467 -59.806658150633325 0 0 0 0 229.04046425606066 -77.892984418924868 0 -77.892984418924868 -66.125209839687415 0 0 0 0 77.635235009307507 -75.376660668611891 0 -75.376660668611891 -38.385988355413701 0 0 0 0 101.40247879271919 -27.839248490865344 0 -27.839248490865344 -55.528761244100451 0 0 0 0 203.18289244486368 -14.240860136421361 0 -14.240860136421361 -76.972953651321518 0 0 0 0 213.57581293120893 18.799620517030689 0 18.799620517030689 -26.937805062130337 0 0 0 0 13.430871328168905 -63.555927365556229 0 -63.555927365556229 -28.239948219544374 0 0 0 0 56.289622686512303 -56.462003735349711 0 -56.462003735349711 -30.388800379076486 0 0 0 0 52.168586407238763 -55.473354359461084 0 -55.473354359461084 -53.400502830290975 0 0 0 0 42.191243022927665 -71.947274383894694 0 -71.947274383894694 -37.927592370523911 0 0 0 0 21.794691638257063 -59.001984670312893 0 -59.001984670312893 -45.47946522207485 0 0 0 0 55.305575393605977 -30.34337198470655 0 -30.34337198470655 -23.635217621904872 0 0 0 0 21.518615277222125 -9.8259159331896626 0 -9.8259159331896626 -39.623190471561315 0 0 0 0 46.041328467770654 -54.496856714172395 0 -54.496856714172395 -84.752810928028453 0 0 0 0 14.674238686537137 -65.152734135420189 0 -65.152734135420189 -55.847556362798571 0 0 0 0 27.611399362343946 -76.785625607729457 0 -76.785625607729457 -115.48805900674472 0 0 0 0 246.88968591202865 189.88895002942189 0 189.88895002942189 -357.23907278828665 0 0 0 0 -19.758951039795647 10.578516372036006 0 10.578516372036006 -74.953280767184594 0 0 0 0 3.8869410866466296 -0.19035045432460151 0 -0.19035045432460151 -0.65192719935737209 0 0 0 0 372.91653038586082 -369.77641009193894 0 -369.77641009193894 410.38663158950635 0 0 0 0 36.10659063005005 -7.1463563710253197 0 -7.1463563710253197 -175.24178836442536 0 0 0 0 7.903456427290223 2.2450195158821629 0 2.2450195158821629 -0.34393864549728237 0 0 0 0 150.88151430971629 -95.866783223513266 0 -95.866783223513266 41.141576441964162 0 0 0 0 29.158438528960687 -176.92477732009297 0 -176.92477732009297 266.50219546406447 0 0 0 0 126.21479644280043 -82.250794564523744 0 -82.250794564523744 190.24296336522252 0 0 0 0 258.91765435619163 -102.60089191112087 0 -102.60089191112087 -20.226955938499714 0 0 0 0 114.37207317120919 -88.732226540145291 0 -88.732226540145291 -241.22319744197875 0 0 0 0 123.38854785186413 18.129072243796458 0 18.129072243796458 -118.54349733595427 0 0 0 0 125.99954776605591 -143.70552144828238 0 -143.70552144828238 -234.92226016799827 0 0 0 0 24.964188375481172 -117.85606164197728 0 -117.85606164197728 38.25484287940273 0 0 0 0 125.69816452954547 -80.446287900512289 0 -80.446287900512289 -116.80515628378953 0 0 0 0 72.650107057963851 -19.910537639323501 0 -19.910537639323501 5.2769473686161383 0 0 0 0 -32.156716182478704 -57.966388384013044 0 -57.966388384013044 46.05505574253948 0 0 0 0 -52.658516108742333 -94.95906819148172 0 -94.95906819148172 30.672597005269154 0 0 0 0 100.12777691053634 -10.925540151042924 0 -10.925540151042924 -86.776018542460406 0 0 0 0 107.31102346949046 -159.97026496397507 0 -159.97026496397507 -34.038150074432906 0 0 0 0 306.64007196947932 172.03198930875806 0 172.03198930875806 -124.35709286943347 0 0 0 0 136.3825840169593 -9.4783877888148709 0 -9.4783877888148709 35.036695468596008 0 0 0 0 111.86182529377402 81.125410084351643 0 81.125410084351643 47.533664566301013 0 0 0 0 242.46776282506471 173.79996973798279 0 173.79996973798279 80.065380033313886 0 0 0 0 56.459634521643579 -12.329081701246224 0 -12.329081701246224 -1.9637604521502734 0 0 0 0 65.419514049680515 -29.085975635516746 0 -29.085975635516746 8.2484432831587817 0 0 0 0 22.862439402272173 3.1696074529008769 0 3.1696074529008769 1.9053873423943237 0 0 0 0 101.66366624212606 8.1975259569281889 0 8.1975259569281889 47.700961552323861 0 0 0 0 115.42113172497193 -23.182151356161285 0 -23.182151356161285 71.362644199536589 0 0 0 0 76.624345093838429 -55.948536299423154 0 -55.948536299423154 20.529621030777367 0 0 0 0 117.73359553994669 -20.383186044827198 0 -20.383186044827198 74.607041081057105 0 0 0 0 23.000216887742852 -6.5613606083055487 0 -6.5613606083055487 -0.81750155226353538 0 0 0 0 27.808313072833698 -163.35974657862516 0 -163.35974657862516 66.502029891285019 0 0 0 0 32.622226347768446 -2.5010022044303923 0 -2.5010022044303923 55.851157972339024 0 0 0 0 60.908539205527632 -34.457684316236794 0 -34.457684316236794 -24.82756794224747 0 0 0 0 81.432386563440275 -14.011523547694809 0 -14.011523547694809 -22.779941054552207 0 0 0 0 56.75278267392423 -22.309382424497016 0 -22.309382424497016 -74.390874757996244 0 0 0 0 44.527810910561357 -46.801834118680205 0 -46.801834118680205 -0.62459486738850645 0 0 0 0 161.86888873381344 -1.5563489705388918 0 -1.5563489705388918 -22.301276062886892 0 0 0 0 141.11688068695366 -51.528250160037715 0 -51.528250160037715 9.5176739968865149 0 0 0 0 165.75374822373851 -61.882980217508134 0 -61.882980217508134 34.516840488632511 0 0 0 0 -5.4267463803989813 -35.240674767123664 0 -35.240674767123664 -29.327248618277679 0 0 0 0 -17.931329579907469 -8.8316045928191897 0 -8.8316045928191897 -9.4589801170378678 0 0 0 0 3.069212724109093 0.44022701696115973 0 0.44022701696115973 -2.0590518854028028 0 0 0 0 6.708963520854013 -11.83376716254179 0 -11.83376716254179 -95.948190245453134 0 0 0 0 4.9020397186686751 1.4045331067773077 0 1.4045331067773077 -53.54683505509729 0 0 0 0 6.8050476186326705 46.235579736791315 0 46.235579736791315 -61.328921772762897 0 0 0 0 7.1884945262385997 7.8697601871028553 0 7.8697601871028553 5.5556527341532824 0 0 0 0 1.8736196483752394 0.47831271000941911 0 0.47831271000941911 -1.2923598975298933 0 0 0 0 -421.78619614173658 217.39714382980901 0 217.39714382980901 -208.91554916774857 0 0 0 0 2.9456245410547126 -4.6705866997558587 0 -4.6705866997558587 -4.7626142958797573 0 0 0 0 8.8048090777569428 -0.012502377065601422 0 -0.012502377065601422 -4.446282406815067 0 0 0 0 9.9405100471631158 -4.2237249798849916 0 -4.2237249798849916 -3.5357662464693931 0 0 0 0 0.86622643040163894 -0.36694160274498699 0 -0.36694160274498699 0.76407861832281121 0 0 0 0 -586.2805287084775 163.64142785696458 0 163.64142785696458 86.092997720488711 0 0 0 0 -932.2114230429288 -240.93397874372749 0 -240.93397874372749 -354.54079665172412 0 0 0 0 9.0868754857510794 -2.3722724643321271 0 -2.3722724643321271 14.740722260283292 0 0 0 0 2.7444482702579762 1.3158947866450035 0 1.3158947866450035 -1.8466039413777056 0 0 0 0 -569.56508461872727 -94.436032452136033 0 -94.436032452136033 343.89210072790502 0 0 0 0 -461.47882616533025 164.19149406501572 0 164.19149406501572 217.73371170409246 0 0 0 0 -43.62097643976449 -2.2945163839945053 0 -2.2945163839945053 177.25742023533803 0 0 0 0 -64.31114693073323 -61.097457452378876 0 -61.097457452378876 102.53277551384599 0 0 0 0 -127.07575946522411 -6.12591711828793 0 -6.12591711828793 2.1976719559899038 0 0 0 0 11.794637852777669 -20.427819191034644 0 -20.427819191034644 119.0041044565487 0 0 0 0 -1.8958664429707994 -0.72334015370154248 0 -0.72334015370154248 -1.4362317841755585 0 0 0 0 179.7729180342576 -32.074161753065255 0 -32.074161753065255 -43.105645595210262 0 0 0 0 -109.50452728232267 -147.46531281508635 0 -147.46531281508635 -55.076894969119621 0 0 0 0 267.3276831835974 -216.30621011203948 0 -216.30621011203948 -145.65140051962317 0 0 0 0 354.11232984912931 70.363111107103578 0 70.363111107103578 -139.5000125872366 0 0 0 0 191.15719680547772 114.6165148101361 0 114.6165148101361 -102.17746581589086 0 0 0 0 148.47536876774393 32.03748468373692 0 32.03748468373692 -136.79572294779592 0 0 0 0 74.606256450817455 61.497492978869445 0 61.497492978869445 -78.381593804694006 0 0 0 0 214.41421078835265 54.415830111958826 0 54.415830111958826 -80.383448329363034 0 0 0 0 200.12479549427007 79.544770976839914 0 79.544770976839914 -26.849075289984057 0 0 0 0 234.43151156700333 -22.868637051605219 0 -22.868637051605219 63.690480807037147 0 0 0 0 63.306349484031671 50.189241032634527 0 50.189241032634527 -8.7755942553446857 0 0 0 0 202.16558631049702 89.687448294907171 0 89.687448294907171 -77.845880462490413 0 0 0 0 -0.62220972326758783 -112.99933214715224 0 -112.99933214715224 -226.0735309642198 0 0 0 0 168.99830256356654 95.659512567005748 0 95.659512567005748 9.8692430400139983 0 0 0 0 -32.616370941264904 -18.868294905269408 0 -18.868294905269408 54.595376408687571 0 0 0 0 3.4160534753273168 -1.4049657267520104 0 -1.4049657267520104 -0.99573857313575065 0 0 0 0 673.89784643086023 -39.392196284711417 0 -39.392196284711417 -60.085180975386038 0 0 0 0 377.47364171246591 268.92940978549706 0 268.92940978549706 5.5530826121423615 0 0 0 0 632.58830732578645 -28.741368630635634 0 -28.741368630635634 52.51832737039291 0 0 0 0 2.1839267292161253 -0.96979572437683714 0 -0.96979572437683714 -0.43338456861762031 0 0 0 0 -110.75430615169898 -337.40193841927146 0 -337.40193841927146 -189.14854921979395 0 0 0 0 646.36670129289269 -42.318804379747121 0 -42.318804379747121 -225.67401380641013 0 0 0 0 -55.227210415992886 -56.357130031212137 0 -56.357130031212137 -173.4420286608231 0 0 0 0 -155.82080890874931 -126.89475807621707 0 -126.89475807621707 -128.07380083944372 0 0 0 0 63.756676132383291 -62.46977463605333 0 -62.46977463605333 -183.09974105176912 0 0 0 0 133.41469360416522 -21.924347870486486 0 -21.924347870486486 -200.40546204001038 0 0 0 0 76.778242638712982 -36.251618692596253 0 -36.251618692596253 -203.83005850733002 0 0 0 0 3.7464396987779764 -48.403285928049741 0 -48.403285928049741 -143.50262185770202 0 0 0 0 34.884419689100469 -9.8667490914590417 0 -9.8667490914590417 -95.823414549737663 0 0 0 0 43.897905933910806 6.7270867784934865 0 6.7270867784934865 -98.535931462730332 0 0 0 0 47.345225743716583 23.948112364114195 0 23.948112364114195 -111.82093312442066 0 0 0 0 38.502019342988206 -7.0646423371163678 0 -7.0646423371163678 -166.10131790073592 0 0 0 0 79.661798597371671 59.464943885006278 0 59.464943885006278 -224.20194226159879 0 0 0 0 115.45911958842771 2.5689940695186806 0 2.5689940695186806 -176.2915928002202 0 0 0 0 145.03873948475666 -59.126338572327455 0 -59.126338572327455 -134.01489235177519 0 0 0 0 176.77438669461117 8.6551882622345033 0 8.6551882622345033 -220.35256151331487 0 0 0 0 151.53558576392243 -19.149830147861849 0 -19.149830147861849 -107.27059465631629 0 0 0 0 65.54058643974713 -78.56603756768078 0 -78.56603756768078 -126.27545151888353 0 0 0 0 174.65261616400676 -87.811470250200628 0 -87.811470250200628 -125.8284814862443 0 0 0 0 301.45087181187409 -84.270618372133114 0 -84.270618372133114 -85.300503480469189 0 0 0 0 268.7878317040213 100.66283774717729 0 100.66283774717729 -45.394084403370471 0 0 0 0 435.31034321690095 -98.689060935128055 0 -98.689060935128055 -129.44152597045627 0 0 0 0 169.09048700120184 -290.39673158213418 0 -290.39673158213418 -195.40200165570113 0 0 0 0 123.44891466590343 -169.42492953838212 0 -169.42492953838212 -81.375401842481949 0 0 0 0 18.8582892568229 -138.88664887052676 0 -138.88664887052676 -90.287669124167905 0 0 0 0 14.050455538323149 -170.32335153692043 0 -170.32335153692043 -134.91690080102887 0 0 0 0 84.792691743990872 -109.13509505811652 0 -109.13509505811652 -38.054001227408207 0 0 0 0 171.26379974198062 -95.972039298579659 0 -95.972039298579659 -37.338964074635896 0 0 0 0 145.26555043412372 -141.79711609844603 0 -141.79711609844603 -43.431834300120272 0 0 0 0 177.48251534695737 -143.7729575916386 0 -143.7729575916386 -134.33580193447395 0 0 0 0 163.30089406260231 -135.42031351008646 0 -135.42031351008646 -52.725461792994736 0 0 0 0 152.66360764295678 -105.36728286208614 0 -105.36728286208614 -12.932701016577624 0 0 0 0 148.77967926426209 -115.00207463092974 0 -115.00207463092974 -25.259081887744458 0 0 0 0 191.55936944045789 -109.78244638613377 0 -109.78244638613377 -19.537862775118157 0 0 0 0 132.38439718520385 -90.578878845347333 0 -90.578878845347333 -18.454280378847297 0 0 0 0 153.49149147789285 -113.16559287539017 0 -113.16559287539017 0.11548212307152426 0 0 0 0 199.87713900091603 -53.617716939601706 0 -53.617716939601706 22.73531147543099 0 0 0 0 170.57301474799169 -115.76932054272575 0 -115.76932054272575 20.928209608722284 0 0 0 0 337.84100906699314 -112.72051577571845 0 -112.72051577571845 -0.28623583175586831 0 0 0 0 401.27462675452989 49.008052135622322 0 49.008052135622322 41.713801012712281 0 0 0 0 722.22009374562185 -85.644544088736211 0 -85.644544088736211 1.2646909674249938 0 0 0 0 562.51729975135822 -20.378891465577112 0 -20.378891465577112 -71.042866545813411 0 0 0 0 523.27695559395943 273.74398344005652 0 273.74398344005652 -101.22596204445153 0 0 0 0 1235.082860795228 95.565889151197936 0 95.565889151197936 -164.37042383009549 0 0 0 0 -65.499635216081515 -42.395857408221815 0 -42.395857408221815 -0.12196747441534181 0 0 0 0 5.7431642776299441 -0.86865111132601669 0 -0.86865111132601669 -0.10188374863210387 0 0 0 0 1078.82731591845 648.6548080108098 0 648.6548080108098 8.9283860407485065 0 0 0 0 -36.804867820392246 -1.6987606745171338 0 -1.6987606745171338 -41.184939093773067 0 0 0 0 9.6552396771022018 -3.6754690071588527 0 -3.6754690071588527 0.35423705686322621 0 0 0 0 391.58141757468547 -281.89468578714479 0 -281.89468578714479 -398.04428174585007 0 0 0 0 140.95641169107694 -114.87213458459489 0 -114.87213458459489 -76.004853275566347 0 0 0 0 259.96434846046031 44.078143598003862 0 44.078143598003862 -52.119900779057389 0 0 0 0 544.57421544857789 367.47657520763789 0 367.47657520763789 -138.98684659206242 0 0 0 0 906.3393308151426 17.381827361386115 0 17.381827361386115 -156.55233302441775 0 0 0 0 1105.5570031462557 356.8472666631277 0 356.8472666631277 -253.70853705834071 0 0 0 0 654.0062969463761 -258.62365531528837 0 -258.62365531528837 148.52282467236228 0 0 0 0 1709.3636500727152 62.479686566309994 0 62.479686566309994 47.212276896465724 0 0 0 0 569.61145228494024 199.31755955286951 0 199.31755955286951 364.01582299300208 0 0 0 0 5.2083625479993714 4.2910957203377222 0 4.2910957203377222 2.6509222712359732 0 0 0 0 -180.63614010978199 549.30373893161629 0 549.30373893161629 -37.992877332554883 0 0 0 0 132.42159409244778 7.5913792730926843 0 7.5913792730926843 -97.430675958103052 0 0 0 0 181.97245724081586 50.688892751295214 0 50.688892751295214 -233.07034273367549 0 0 0 0 969.96315255454101 541.23998321285046 0 541.23998321285046 -106.99451200337717 0 0 0 0 222.21812940665404 -118.32022225794313 0 -118.32022225794313 46.332697766711135 0 0 0 0 211.13738255728094 -94.215743033841818 0 -94.215743033841818 -0.062028333491094816 0 0 0 0 251.96281319084574 36.35056298928157 0 36.35056298928157 -54.284161427638253 0 0 0 0 605.20684434245049 -72.714263094119787 0 -72.714263094119787 -20.613345444104226 0 0 0 0 264.96775020551286 -141.44534924965163 0 -141.44534924965163 29.76159076444111 0 0 0 0 268.69727039600548 123.46194976389421 0 123.46194976389421 0.86148413283760306 0 0 0 0 75.835457303546718 -86.381243721977526 0 -86.381243721977526 -0.0035821157300289369 0 0 0 0 1.0848733288436847 -0.59687981368145415 0 -0.59687981368145415 -0.010354090808876171 0 0 0 0 452.18413390098431 42.105214521182155 0 42.105214521182155 -68.670428170059495 0 0 0 0 66.389918354339898 -71.018280317195604 0 -71.018280317195604 0.17505728421487651 0 0 0 0 12.334002641553525 55.20140596965814 0 55.20140596965814 -14.837103370857307 0 0 0 0 -35.875992639616015 137.47300537481186 0 137.47300537481186 -8.5239377873822662 0 0 0 0 -33.785855245326047 -492.58827288090811 0 -492.58827288090811 209.06206358174882 0 0 0 0 169.64410500958911 -243.74122760538222 0 -243.74122760538222 122.55048749656839 0 0 0 0 75.614524367818376 -389.64340415125082 0 -389.64340415125082 305.91541056098447 0 0 0 0 169.6509995618253 -245.91376900210875 0 -245.91376900210875 316.26273553677282 0 0 0 0 568.83683472147095 -279.08322851441687 0 -279.08322851441687 116.82082537173119 0 0 0 0 300.25502990021778 -470.87077864532472 0 -470.87077864532472 74.453515481217664 0 0 0 0 4.4026942389794499 -2.2989919876714282 0 -2.2989919876714282 0.8218369463039642 0 0 0 0 116.58048143629276 -566.74721186680108 0 -566.74721186680108 53.931326402046125 0 0 0 0 520.67701411497546 -556.46826051952985 0 -556.46826051952985 289.50521437064231 0 0 0 0 1.0392371127518913 -0.61506189155619495 0 -0.61506189155619495 -0.01829212178854589 0 0 0 0 468.63335769485275 -351.53041433272529 0 -351.53041433272529 209.25046095876894 0 0 0 0 8.4691503574867966 -132.93083401563055 0 -132.93083401563055 473.47878604976529 0 0 0 0 487.45229744675453 7.8081288135321643 0 7.8081288135321643 265.05626895766136 0 0 0 0 31.597760604868881 12.297907859977045 0 12.297907859977045 3.5269332072770565 0 0 0 0 332.49477465303789 -111.8208486565911 0 -111.8208486565911 56.996491559281409 0 0 0 0 313.5820272253186 -198.81066348155869 0 -198.81066348155869 87.650291733559271 0 0 0 0 494.88371619056852 479.73414664379447 0 479.73414664379447 -262.43915480036048 0 0 0 0 35.023675794419773 13.123509628296517 0 13.123509628296517 2.6796340582209757 0 0 0 0 153.1945731020387 -175.46545732598685 0 -175.46545732598685 167.46903713438556 0 0 0 0 87.755617128594167 25.205587642003771 0 25.205587642003771 101.11333256186788 0 0 0 0 -22.393608967067848 -216.32733731789148 0 -216.32733731789148 385.63150514629478 0 0 0 0 -325.0880468062096 -83.961683787983816 0 -83.961683787983816 514.53091054504694 0 0 0 0 -156.35634030408619 145.82860885991164 0 145.82860885991164 120.51344965286489 0 0 0 0 -153.03930117603886 -120.18341815568215 0 -120.18341815568215 461.00519897327445 0 0 0 0 30.816932470313986 -126.16001212877244 0 -126.16001212877244 97.325425945137795 0 0 0 0 29.061405291053234 -130.3359185849697 0 -130.3359185849697 216.83174436855143 0 0 0 0 23.557794250321251 8.011433530589855 0 8.011433530589855 2.2404074474501594 0 0 0 0 285.8125785561424 -321.31409068261075 0 -321.31409068261075 355.57172302792213 0 0 0 0 124.5172719694674 -340.944852462911 0 -340.944852462911 187.55807058127942 0 0 0 0 122.95095392964868 -389.96713385950761 0 -389.96713385950761 361.92195146507146 0 0 0 0 111.85377244576375 -217.13582834454758 0 -217.13582834454758 493.66912041649692 0 0 0 0 33.137672579061473 -243.00039503002438 0 -243.00039503002438 538.86513772992691 0 0 0 0 -27.48472605230927 -152.45598990481079 0 -152.45598990481079 427.7362624957305 0 0 0 0 -69.511463181173895 -320.51167433728841 0 -320.51167433728841 326.8489071627468 0 0 0 0 68.642108547519456 -339.79416608270316 0 -339.79416608270316 314.78800578195415 0 0 0 0 15.982032735919347 -415.47660246693005 0 -415.47660246693005 265.45274203513196 0 0 0 0 -65.802866855956381 -343.95660823850926 0 -343.95660823850926 472.65299535372543 0 0 0 0 73.614070808107499 -259.2971052206708 0 -259.2971052206708 180.39962213303781 0 0 0 0 23.439410530962505 -293.87252044992306 0 -293.87252044992306 209.73992699232667 0 0 0 0 866.8953806293066 -353.25521106136574 0 -353.25521106136574 -16.636559838129941 0 0 0 0 417.40296448351 426.02605969111528 0 426.02605969111528 -46.095928134555862 0 0 0 0 27.140324824911659 39.578227095934608 0 39.578227095934608 -140.87793652948335 0 0 0 0 9.5659588103234228 9.5966553488123623 0 9.5966553488123623 6.3539500987365747 0 0 0 0 -26.118163795305009 212.92709787970213 0 212.92709787970213 -276.52436902701788 0 0 0 0 1820.1129313300698 -187.0536367459834 0 -187.0536367459834 -156.1580738838845 0 0 0 0 410.9541429462115 -49.301313186365974 0 -49.301313186365974 392.37713508000684 0 0 0 0 753.70734213698597 -341.91743644383928 0 -341.91743644383928 211.67436976723266 0 0 0 0 9.8452875520167709 2.6784845633695227 0 2.6784845633695227 1.0606099597456964 0 0 0 0 1875.2946992860961 -883.6988771416012 0 -883.6988771416012 439.98214216085876 0 0 0 0 1776.5342427335418 152.43989204728996 0 152.43989204728996 -44.804161367944403 0 0 0 0 1346.7235603203299 -490.50101365162283 0 -490.50101365162283 535.43803021412248 0 0 0 0 2115.0178383298771 -462.58461626893984 0 -462.58461626893984 -29.689200847903408 0 0 0 0 896.44689778152679 313.49100077163246 0 313.49100077163246 -272.95237689116124 0 0 0 0 395.74845320792519 -182.09491349303812 0 -182.09491349303812 434.490778086717 0 0 0 0 1023.7759705309145 -941.55074035732889 0 -941.55074035732889 1061.9415122977059 0 0 0 0 1913.5246994868794 -518.71088979261754 0 -518.71088979261754 -5.7108845638465482 0 0 0 0 1891.4175149564544 -321.8970132690115 0 -321.8970132690115 211.12079425449338 0 0 0 0 1446.296297268098 -373.92324599614267 0 -373.92324599614267 373.03179950567255 0 0 0 0 1169.7634805338457 253.43216577088697 0 253.43216577088697 220.85514518720447 0 0 0 0 1833.1579869397301 -44.57546764490688 0 -44.57546764490688 56.896067261761345 0 0 0 0 494.07075815391727 -272.33208659109982 0 -272.33208659109982 -103.20871364619076 0 0 0 0 915.85452997553512 -333.81727282796169 0 -333.81727282796169 167.21759469432868 0 0 0 0 1032.0385476078591 66.048897928043232 0 66.048897928043232 -3.4817668391581265 0 0 0 0 -392.86541325895814 438.29370696019964 0 438.29370696019964 101.17973846136601 0 0 0 0 -555.78658772468043 136.12473467849787 0 136.12473467849787 257.77228193878966 0 0 0 0 571.24506185848441 217.07648242425523 0 217.07648242425523 132.69003844977897 0 0 0 0 226.18077264475869 43.126494386861737 0 43.126494386861737 190.18761133131693 0 0 0 0 -230.51662977127125 378.62831678209022 0 378.62831678209022 -144.07010049295423 0 0 0 0 -256.23799375531962 215.14680516676594 0 215.14680516676594 228.62617081003464 0 0 0 0 -236.81104390183464 -45.595108780991268 0 -45.595108780991268 360.1959589647895 0 0 0 0 -230.81763616020908 -38.053461188563233 0 -38.053461188563233 -106.35974210312861 0 0 0 0 265.98474588169483 113.7440757074005 0 113.7440757074005 -8.5279779178977151 0 0 0 0 257.71408535313094 63.031883420645499 0 63.031883420645499 323.2056802574084 0 0 0 0 150.91715890617343 -91.048692741939249 0 -91.048692741939249 544.45075114849806 0 0 0 0 796.33249451230222 -116.28797934168256 0 -116.28797934168256 195.72936182158901 0 0 0 0 144.39931718149455 -42.27003456151715 0 -42.27003456151715 196.05438992242716 0 0 0 0 -109.21040060840642 333.48127012920713 0 333.48127012920713 434.31141308634142 0 0 0 0 -281.8203356427548 -17.153935772917521 0 -17.153935772917521 496.94848177895346 0 0 0 0 -253.91597838328926 -613.20125048602767 0 -613.20125048602767 231.65480057013338 0 0 0 0 32.105042864203483 -12.954341008855117 0 -12.954341008855117 6.1668625394741152 0 0 0 0 2805.1544713758194 71.640721541819403 0 71.640721541819403 -1076.3060343775878 0 0 0 0 2573.1721986816119 25.885875607720209 0 25.885875607720209 214.42188285772318 0 0 0 0 1545.5842651636121 -410.80313683039208 0 -410.80313683039208 1367.2699241152059 0 0 0 0 1520.6640114661714 -238.7586305490554 0 -238.7586305490554 244.32207762416419 0 0 0 0 533.64738392154686 256.02076185081432 0 256.02076185081432 553.7528728677853 0 0 0 0 -29.135850968130399 -106.34783708119085 0 -106.34783708119085 -261.53669346977767 0 0 0 0 2813.7020849315013 -1203.8462240843385 0 -1203.8462240843385 703.04590432784084 0 0 0 0 15.503739337770753 7.7166537571875331 0 7.7166537571875331 5.9368188295248103 0 0 0 0 1871.3338362788782 -1511.0464786072832 0 -1511.0464786072832 1294.7365853966958 0 0 0 0 2478.0560573085677 -14.53768833538561 0 -14.53768833538561 -617.26198593014306 0 0 0 0 3730.4375010679069 -1293.4479308492 0 -1293.4479308492 -638.94587419185609 0 0 0 0 20.235703491001033 2.4954709401485218 0 2.4954709401485218 1.9551438633400373 0 0 0 0 -197.99194655526662 11.768699176759128 0 11.768699176759128 1043.2074637259848 0 0 0 0 40.41514136679325 46.89414287199088 0 46.89414287199088 58.021048567181424 0 0 0 0 -0.88602186247842951 19.197919592639039 0 19.197919592639039 16.391325773759462 0 0 0 0 -279.22949193339582 -297.53076341470711 0 -297.53076341470711 313.0967384374344 0 0 0 0 78.094109741345164 7.5663492096707046 0 7.5663492096707046 57.467586857006381 0 0 0 0 -630.17842482845299 -692.49398292270234 0 -692.49398292270234 -515.13821112208825 0 0 0 0 13.295070339538711 14.775660134930646 0 14.775660134930646 0.29757728356299396 0 0 0 0 -738.10660650946375 114.92909555974984 0 114.92909555974984 965.16248972708854 0 0 0 0 -301.02470121718943 197.05157132545537 0 197.05157132545537 -4.6846084663075089 0 0 0 0 3729.2710970349144 -1006.2258457127282 0 -1006.2258457127282 -832.28133344850175 0 0 0 0 -791.22438102561136 -198.46670230473364 0 -198.46670230473364 290.63991255457586 0 0 0 0 2001.3686708397727 -1753.2247900705615 0 -1753.2247900705615 765.6644659950598 0 0 0 0 -498.43338899945957 58.253124886998194 0 58.253124886998194 188.53818625663189 0 0 0 0 762.06001866946463 1812.715185634549 0 1812.715185634549 2073.5002394319695 0 0 0 0 611.79867495049257 812.07543623579659 0 812.07543623579659 425.09251173421944 0 0 0 0 -4.2697033514865552 5.097315446844874 0 5.097315446844874 -6.2576784413386122 0 0 0 0 -405.16591052889999 -137.79884205589178 0 -137.79884205589178 253.48911967409549 0 0 0 0 513.07812858599391 -11.35458162931775 0 -11.35458162931775 -272.82171732083589 0 0 0 0 -232.29035067700897 -33.478865834115595 0 -33.478865834115595 29.28411829126162 0 0 0 0 442.4595415716467 624.14331294229851 0 624.14331294229851 269.6330746378062 0 0 0 0 -54.424090255692136 414.00666352057124 0 414.00666352057124 253.8470900373286 0 0 0 0 686.1167991081893 256.65500196108223 0 256.65500196108223 -231.54987583433831 0 0 0 0 1464.7863069079904 187.47451150233155 0 187.47451150233155 -659.9762250279764 0 0 0 0 1046.2597242647607 670.2375646233013 0 670.2375646233013 -86.260610753592118 0 0 0 0 672.08600579762788 415.76200924199543 0 415.76200924199543 -800.89567395094309 0 0 0 0 1225.6995501845231 -75.883491601478454 0 -75.883491601478454 -410.84361040782949 0 0 0 0 -108.73974242442637 215.9439663437488 0 215.9439663437488 56.354370251773616 0 0 0 0 -85.956617165009447 -1654.0065869749615 0 -1654.0065869749615 -503.57563110500905 0 0 0 0 18.993510168898297 -23.002804018378654 0 -23.002804018378654 20.161106907523077 0 0 0 0 281.36085549226846 -115.34972816949357 0 -115.34972816949357 305.72074850125864 0 0 0 0 -121.40870825923048 -622.43504512930713 0 -622.43504512930713 1138.7023507565573 0 0 0 0 357.69627443335776 -815.72296063072918 0 -815.72296063072918 3248.4042083130184 0 0 0 0 3502.051146626487 -237.53449791964385 0 -237.53449791964385 -424.27486273887189 0 0 0 0 265.91983623492706 12.15528521524601 0 12.15528521524601 -454.83356489505354 0 0 0 0 99.172301290757048 2.4468962505106244 0 2.4468962505106244 -0.94630845731185931 0 0 0 0 190.42217257445373 -122.60384025788341 0 -122.60384025788341 -628.99159334848207 0 0 0 0 101.04410859251811 2.1146769682157043 0 2.1146769682157043 -0.51190658722068627 0 0 0 0 217.31474127298134 110.03864872557148 0 110.03864872557148 -359.73870736594284 0 0 0 0 -2.0991281073147547 63.757819815659161 0 63.757819815659161 -32.546932663904727 0 0 0 0 118.88420553845936 13.15786785260002 0 13.15786785260002 14.440933983435002 0 0 0 0 48.130276765004965 -6.7585239586895796 0 -6.7585239586895796 26.076014608760204 0 0 0 0 -3.347703378625738 103.02099441115826 0 103.02099441115826 36.82459422599868 0 0 0 0 52.805421735523851 -182.4611050857786 0 -182.4611050857786 -11.077362778114434 0 0 0 0 96.610415499282112 6.1268724795547751 0 6.1268724795547751 1.3774202055986469 0 0 0 0 119.1877813381725 147.27436928953421 0 147.27436928953421 -102.50383307248845 0 0 0 0 323.04152487566171 62.675398170117887 0 62.675398170117887 111.43010894586314 0 0 0 0 10.82350542350747 8.2551564487807667 0 8.2551564487807667 3.582485754093248 0 0 0 0 93.422109170176554 57.067313757706643 0 57.067313757706643 41.39577672595874 0 0 0 0 107.0926486083772 227.94648066806872 0 227.94648066806872 66.285480717897784 0 0 0 0 -27.692481712312031 12.306949256210146 0 12.306949256210146 33.453703659608117 0 0 0 0 214.44526500577922 116.57246202352803 0 116.57246202352803 26.427201316600645 0 0 0 0 -1.9801466874196194 56.701613223935283 0 56.701613223935283 100.19226157918683 0 0 0 0 -130.6832005851611 319.1581012831266 0 319.1581012831266 470.40544357511135 0 0 0 0 65.1255150733341 96.914053341221916 0 96.914053341221916 43.902980233786366 0 0 0 0 413.87121505866526 488.95720916869504 0 488.95720916869504 208.054942787252 0 0 0 0 -26.365179864454007 8.4766259600332603 0 8.4766259600332603 42.472321593249866 0 0 0 0 -149.02040119227649 -90.615006920819496 0 -90.615006920819496 230.68210923894367 0 0 0 0 1.2674354202012807 19.962194486950125 0 19.962194486950125 -16.697787645952445 0 0 0 0 394.56144872389268 67.287878022620134 0 67.287878022620134 -56.602170165884672 0 0 0 0 46.786158775619697 64.028358913740476 0 64.028358913740476 105.9100898814612 0 0 0 0 52.596479935309617 111.47265180907709 0 111.47265180907709 -4.4409462625312699 0 0 0 0 1.8231936797830031 0.3022627688864219 0 0.3022627688864219 -2.0119485727712334 0 0 0 0 94.651022832113085 259.52538859599338 0 259.52538859599338 228.79952150291922 0 0 0 0 49.092789369766251 22.030185191549776 0 22.030185191549776 -18.254372535456014 0 0 0 0 105.6632708137513 109.92234706748712 0 109.92234706748712 274.38770101285263 0 0 0 0 125.69506043937872 -125.89210243823709 0 -125.89210243823709 43.446611679607713 0 0 0 0 188.49021762202028 297.64365496585481 0 297.64365496585481 323.78080610460097 0 0 0 0 34.151703783179983 110.16821415619825 0 110.16821415619825 69.283154230445234 0 0 0 0 1.374426338024989 0.61149940515630874 0 0.61149940515630874 -0.65741150393359771 0 0 0 0 332.65473074168403 56.463153698137234 0 56.463153698137234 382.11316997020299 0 0 0 0 274.16537501335551 156.75638785524529 0 156.75638785524529 -61.71627727327467 0 0 0 0 163.36025946475274 183.81330118157058 0 183.81330118157058 297.98986288298408 0 0 0 0 5.1715128717826815 -0.85920974933411287 0 -0.85920974933411287 -0.54213463719576271 0 0 0 0 428.76911006411683 -89.544297695611704 0 -89.544297695611704 -107.57764245188082 0 0 0 0 173.96434435044648 -247.20903512289419 0 -247.20903512289419 -176.29194963799068 0 0 0 0 920.98642879196268 -5.422415513201031 0 -5.422415513201031 -237.58432141979074 0 0 0 0 533.29847678247825 49.946697622299155 0 49.946697622299155 18.069783837193427 0 0 0 0 437.5719988677447 342.52674525579005 0 342.52674525579005 376.32905468948684 0 0 0 0 284.86556670768186 -5.0565991368533787 0 -5.0565991368533787 84.298093164787588 0 0 0 0 271.72049376417999 -3.9137128686492133 0 -3.9137128686492133 115.0328403645326 0 0 0 0 285.50262655598226 -22.92814893546403 0 -22.92814893546403 138.22863262535475 0 0 0 0 203.64835070745903 -130.55019021819135 0 -130.55019021819135 67.141013476916442 0 0 0 0 363.56578223484757 -27.105729632536153 0 -27.105729632536153 -12.859058219396502 0 0 0 0 374.52956977202666 112.65473774961464 0 112.65473774961464 74.155419440468904 0 0 0 0 2.3219228206871776 32.94402694243422 0 32.94402694243422 237.56483860240587 0 0 0 0 235.20956880829181 35.278778591228502 0 35.278778591228502 98.074155409970899 0 0 0 0 187.23186377924139 106.83137490487962 0 106.83137490487962 91.880483446921062 0 0 0 0 -1.4301937893367835 -5.422759391029274 0 -5.422759391029274 8.9751977717691247 0 0 0 0 11.643116708797606 -46.972777258871332 0 -46.972777258871332 31.825045076010611 0 0 0 0 27.655512971914447 -8.6054562221888204 0 -8.6054562221888204 8.6691731409971347 0 0 0 0 65.520614923800167 -54.951988018914676 0 -54.951988018914676 22.054928409140757 0 0 0 0 0.5069177183191016 -0.21150135732702324 0 -0.21150135732702324 0.22468168738629313 0 0 0 0 294.97701605744078 101.08727649096227 0 101.08727649096227 146.17463327984296 0 0 0 0 102.73557992764108 -7.9392234308623983 0 -7.9392234308623983 -1.9147472637396277 0 0 0 0 30.184914971643593 35.534243784175942 0 35.534243784175942 11.302965049727391 0 0 0 0 207.32377853478829 104.37442770002235 0 104.37442770002235 46.845949815178756 0 0 0 0 90.641547214836464 38.630927636580509 0 38.630927636580509 24.011174897527212 0 0 0 0 50.994416860798708 55.120249390557888 0 55.120249390557888 44.209279991058352 0 0 0 0 19.411859174608253 58.91671390684678 0 58.91671390684678 122.30716446996666 0 0 0 0 -13.879384437289502 12.225629638303019 0 12.225629638303019 49.061183998833961 0 0 0 0 2.3711528782150708 35.164299785317894 0 35.164299785317894 95.427287887193927 0 0 0 0 37.447128112592225 -0.2193731575117539 0 -0.2193731575117539 -31.465265003788559 0 0 0 0 173.24003666742283 211.73005239400391 0 211.73005239400391 111.81561245687772 0 0 0 0 8.43524863222774 175.98917922553926 0 175.98917922553926 208.66941460866656 0 0 0 0 83.372288033482619 32.828049287675015 0 32.828049287675015 -19.953172679339289 0 0 0 0 84.00845582887996 30.363374811178346 0 30.363374811178346 -18.251615521437998 0 0 0 0 94.432470839114103 13.760292513973482 0 13.760292513973482 -32.479663571162661 0 0 0 0 38.638330122823731 24.447589998879252 0 24.447589998879252 -13.073758424809172 0 0 0 0 99.810686703553074 1.5747489996024342 0 1.5747489996024342 -14.566426719564333 0 0 0 0 35.56040216164547 28.63673128794494 0 28.63673128794494 -30.086067519295966 0 0 0 0 109.33400332694873 -36.871308548676097 0 -36.871308548676097 -12.52637068900458 0 0 0 0 37.091847255395834 14.966619057657795 0 14.966619057657795 -23.039516770622178 0 0 0 0 71.188922576780897 5.1769200588339572 0 5.1769200588339572 -55.354949190787238 0 0 0 0 74.917728752283438 2.2909439533009675 0 2.2909439533009675 -14.078768344971479 0 0 0 0 65.877689063432626 9.2587893704655926 0 9.2587893704655926 -20.361347491185029 0 0 0 0 127.64637679031875 23.815382527317524 0 23.815382527317524 -27.781422523476294 0 0 0 0 131.25197681892314 51.2659054795445 0 51.2659054795445 20.767207488775085 0 0 0 0 79.790246582990221 28.031803423801378 0 28.031803423801378 -7.492507922756829 0 0 0 0 18.996645708855965 9.5704369406776806 0 9.5704369406776806 4.8843215083618254 0 0 0 0 102.43778249125899 19.974026309601285 0 19.974026309601285 11.758163395612428 0 0 0 0 13.178896215274534 -14.090832589123295 0 -14.090832589123295 -4.5963383687625434 0 0 0 0 51.320565619054832 -7.6203557997678217 0 -7.6203557997678217 -10.331020676080698 0 0 0 0 5.2859571483492545 0.75843272785627391 0 0.75843272785627391 -0.79931613967532122 0 0 0 0 117.09831659161136 42.379191709075485 0 42.379191709075485 10.413531339577048 0 0 0 0 133.3798424792185 36.867744509166414 0 36.867744509166414 -25.855074895581538 0 0 0 0 711.44361621356802 172.63035435081747 0 172.63035435081747 -21.802894997246767 0 0 0 0 35.017444414115744 -67.872947484139331 0 -67.872947484139331 25.055743281733157 0 0 0 0 10.408320564547878 -9.3927939025782337 0 -9.3927939025782337 -16.107901301640499 0 0 0 0 -0.87212601595555839 -2.8106839471479503 0 -2.8106839471479503 -1.1484585239316676 0 0 0 0 509.99653741141083 42.384458626195737 0 42.384458626195737 -128.84592012765825 0 0 0 0 280.38226399628911 119.89958220252356 0 119.89958220252356 -19.64559589134933 0 0 0 0 398.82335521496134 208.95009162806036 0 208.95009162806036 47.232139936327712 0 0 0 0 409.95106533348735 92.989687313925288 0 92.989687313925288 35.807637327446173 0 0 0 0 407.00897697213804 88.502449467481711 0 88.502449467481711 92.560445695962699 0 0 0 0 579.69194288170547 275.55814192222351 0 275.55814192222351 9.103743997735819 0 0 0 0 490.34620458609425 204.24706078489953 0 204.24706078489953 12.379274606133549 0 0 0 0 371.93132101136143 246.3401253109414 0 246.3401253109414 15.133859592730914 0 0 0 0 577.96913814017898 121.54340794729751 0 121.54340794729751 10.509742790765557 0 0 0 0 465.8296798679512 36.216274653648611 0 36.216274653648611 -48.773362175713373 0 0 0 0 260.84187016970827 -837.12825720353385 0 -837.12825720353385 496.48362056322912 0 0 0 0 -472.22941083547585 -744.06618615468551 0 -744.06618615468551 631.85831289685575 0 0 0 0 -106.13944944406103 -339.22165745469238 0 -339.22165745469238 518.72857995630648 0 0 0 0 -497.12572200596333 -116.63257166383119 0 -116.63257166383119 392.25586612614188 0 0 0 0 -79.475883744489693 40.129319737664446 0 40.129319737664446 40.19721973466585 0 0 0 0 -502.97906095549115 -845.446986805091 0 -845.446986805091 -430.85399234484885 0 0 0 0 1664.6742204892216 -99.301764648931112 0 -99.301764648931112 -1066.3292466649741 0 0 0 0 8.0326362209488593 -10.833118566390112 0 -10.833118566390112 10.946245018919942 0 0 0 0 1816.915474320529 -674.79056410432804 0 -674.79056410432804 -624.91508326880739 0 0 0 0 982.00490477873245 -205.84770247676352 0 -205.84770247676352 -787.16680434715727 0 0 0 0 -122.47300187463406 188.36461465183311 0 188.36461465183311 -16.234750652589355 0 0 0 0 -332.85378010464774 -338.79661926996778 0 -338.79661926996778 147.67467773574799 0 0 0 0 68.851459760840442 38.513293839110588 0 38.513293839110588 -2.9590360946615508 0 0 0 0 232.16980566841085 63.031435020020581 0 63.031435020020581 -108.64111649215829 0 0 0 0 268.99828669699491 108.06991281134833 0 108.06991281134833 -280.63410177216883 0 0 0 0 941.24064880904189 -299.78239858201664 0 -299.78239858201664 -138.23066222274792 0 0 0 0 81.012696904319455 31.98938695325262 0 31.98938695325262 -14.16691929608924 0 0 0 0 83.581488132134837 28.543971017417618 0 28.543971017417618 -15.476283798453096 0 0 0 0 52.392482726689195 72.327976198561714 0 72.327976198561714 -64.313030576180267 0 0 0 0 2275.7161639638362 335.53520302912875 0 335.53520302912875 98.351910620380295 0 0 0 0 483.04397694826184 -1310.4619657711264 0 -1310.4619657711264 431.1151975229277 0 0 0 0 213.82084627141012 -78.752643953950155 0 -78.752643953950155 -300.77466542752518 0 0 0 0 140.69580650248463 73.013747516485296 0 73.013747516485296 -278.63503791708081 0 0 0 0 74.590827555739196 41.795768254229813 0 41.795768254229813 3.930260735150914 0 0 0 0 41.78989925438691 148.0443178337776 0 148.0443178337776 -183.00171126433497 0 0 0 0 514.00902051394223 80.449638962759309 0 80.449638962759309 198.06799439713814 0 0 0 0 105.32303363928804 9.9720955740249337 0 9.9720955740249337 -77.438648361018522 0 0 0 0 84.304812243412016 26.559690681667007 0 26.559690681667007 -87.298428609616167 0 0 0 0 105.75527016355773 -22.417088527628948 0 -22.417088527628948 16.988129078898055 0 0 0 0 41.775936465346604 -42.247772094849097 0 -42.247772094849097 154.74922017187237 0 0 0 0 314.48508089760435 241.887086742875 0 241.887086742875 149.60827557737503 0 0 0 0 29.839815612209634 -0.77975344725716411 0 -0.77975344725716411 0.16212146265146377 0 0 0 0 91.223536113961018 -28.592458444587464 0 -28.592458444587464 -35.582312243375782 0 0 0 0 118.15870405075839 -43.407844548839421 0 -43.407844548839421 -76.109063127863692 0 0 0 0 -119.59256643945264 99.617149605456348 0 99.617149605456348 374.98576333137407 0 0 0 0 7.1087414566675591 -4.4265540942174368 0 -4.4265540942174368 2.5139955343583829 0 0 0 0 67.352746955526527 -165.28906400625965 0 -165.28906400625965 -89.152660366544296 0 0 0 0 101.62674266667455 -29.630020341022828 0 -29.630020341022828 -172.52017869455085 0 0 0 0 50.990074016677681 -154.82784164719487 0 -154.82784164719487 35.854475655720307 0 0 0 0 72.216022745358032 35.644868557164713 0 35.644868557164713 2.0096898252278503 0 0 0 0 1139.1305007510091 22.854620883150346 0 22.854620883150346 -934.37646408941146 0 0 0 0 451.72190353131737 580.49691380215336 0 580.49691380215336 496.66846080734103 0 0 0 0 206.42234190173622 -294.53889183716728 0 -294.53889183716728 283.06878891244077 0 0 0 0 -719.70370387792354 770.3273576286083 0 770.3273576286083 1096.5957122858131 0 0 0 0 -583.99699830578174 -292.6624630804854 0 -292.6624630804854 155.15117424131495 0 0 0 0 -71.015930728579406 -535.13979586201469 0 -535.13979586201469 448.64994137359497 0 0 0 0 253.4706971658743 -532.58713202653507 0 -532.58713202653507 254.60092457482074 0 0 0 0 156.31834679540771 -733.39522176120749 0 -733.39522176120749 446.65233475790046 0 0 0 0 609.05990418800502 -683.07412343378292 0 -683.07412343378292 254.22950504701566 0 0 0 0 42.310397479919629 -329.33237476878617 0 -329.33237476878617 514.33198828604827 0 0 0 0 110.72248204430798 -305.84936853289332 0 -305.84936853289332 414.69081460396001 0 0 0 0 218.58941510973091 -207.78738592108812 0 -207.78738592108812 499.75463005268648 0 0 0 0 120.36136854157667 -179.66555930802269 0 -179.66555930802269 487.23934312973779 0 0 0 0 101.51426025984983 -340.71754070046927 0 -340.71754070046927 946.20621341588139 0 0 0 0 481.45074607211609 -392.06024352100093 0 -392.06024352100093 501.95404358781099 0 0 0 0 487.60957593608327 -439.45869306841632 0 -439.45869306841632 825.35822234975512 0 0 0 0 474.90021176221489 -456.10241273747397 0 -456.10241273747397 494.58627582842377 0 0 0 0 660.18097364328423 -370.34582698430563 0 -370.34582698430563 74.591760650744618 0 0 0 0 355.73296387535811 -272.42570875600541 0 -272.42570875600541 288.62536671064754 0 0 0 0 112.11481940743488 -255.48489143195562 0 -255.48489143195562 663.63117956628605 0 0 0 0 218.40971644089586 -140.43044275029297 0 -140.43044275029297 147.67984109212739 0 0 0 0 289.79249148211966 -276.81764813110385 0 -276.81764813110385 293.40883862838109 0 0 0 0 678.40553276558057 -82.75764107140958 0 -82.75764107140958 -203.93646026214083 0 0 0 0 1057.0665944542925 -478.12407053328479 0 -478.12407053328479 85.063798226299696 0 0 0 0 1940.6018259423145 -125.77746433586435 0 -125.77746433586435 -206.75745120585134 0 0 0 0 -141.12521828463287 307.65370460231043 0 307.65370460231043 690.31207738255216 0 0 0 0 236.66018188810995 -144.59262601477212 0 -144.59262601477212 -192.72326005316063 0 0 0 0 204.7764895488217 -124.95350950633474 0 -124.95350950633474 41.718278243708482 0 0 0 0 173.74350636340387 -353.49116262004918 0 -353.49116262004918 150.27838860670278 0 0 0 0 887.24594286528009 -799.59657878380449 0 -799.59657878380449 123.46792530848069 0 0 0 0 612.34853309328901 -548.25993403724578 0 -548.25993403724578 157.47811593275947 0 0 0 0 480.06112504816701 -559.56643849286331 0 -559.56643849286331 218.66092774210756 0 0 0 0 665.15610837208806 -452.73892324442045 0 -452.73892324442045 -266.10954413676268 0 0 0 0 669.24692009938735 -695.26064984233108 0 -695.26064984233108 575.74516018404381 0 0 0 0 641.57741678258753 -640.59432970209104 0 -640.59432970209104 587.00206813496493 0 0 0 0 710.9198549297289 -573.89387405687137 0 -573.89387405687137 208.33431411007948 0 0 0 0 775.8059905859991 -586.01626092023855 0 -586.01626092023855 476.63059531072804 0 0 0 0 817.37482255561918 -585.28296664636264 0 -585.28296664636264 123.1231240942991 0 0 0 0 745.25573212749441 -536.35328084097137 0 -536.35328084097137 456.41940079266021 0 0 0 0 696.90812598250886 -422.14724821388506 0 -422.14724821388506 949.72633562667909 0 0 0 0 857.94174089952139 -467.11914936005633 0 -467.11914936005633 826.3511967319107 0 0 0 0 1112.4822920142324 -875.06621071751351 0 -875.06621071751351 675.7848666116596 0 0 0 0 141.39327390570543 -503.2687095375959 0 -503.2687095375959 1081.2330562804109 0 0 0 0 162.07607578438183 -931.89337919265108 0 -931.89337919265108 1440.5684003883216 0 0 0 0 1300.8890898035206 -86.739110281193405 0 -86.739110281193405 462.82670274786778 0 0 0 0 2521.3752161797602 -805.53124018554036 0 -805.53124018554036 908.49342234725668 0 0 0 0 791.30195162097516 -719.8544996297162 0 -719.8544996297162 923.21351796747581 0 0 0 0 1420.3223575042502 9.6923855860845833 0 9.6923855860845833 931.61387982998167 0 0 0 0 497.67595818836708 191.03712672106485 0 191.03712672106485 679.08507507748482 0 0 0 0 456.32222593222104 41.704730770224955 0 41.704730770224955 341.88466320064208 0 0 0 0 773.97794985687506 -213.90112843038958 0 -213.90112843038958 875.24651918729546 0 0 0 0 530.93397224945875 225.75289729375186 0 225.75289729375186 80.32496824475129 0 0 0 0 112.20437600262812 -61.76257389437842 0 -61.76257389437842 467.30157225429798 0 0 0 0 887.11851619436493 -482.34269982641672 0 -482.34269982641672 -13.544162913362925 0 0 0 0 -35.484347012134094 -20.679743622154547 0 -20.679743622154547 232.30869054248069 0 0 0 0 122.6522560317535 11.78150360198083 0 11.78150360198083 72.934687483962307 0 0 0 0 221.938004149677 204.82555796901897 0 204.82555796901897 381.92221475586229 0 0 0 0 210.15098377362301 302.72173182506413 0 302.72173182506413 158.05117064821161 0 0 0 0 216.29947334628378 253.66291330897957 0 253.66291330897957 331.36713931683829 0 0 0 0 -0.85612893946627366 2.1570598051977186 0 2.1570598051977186 4.9648904645708747 0 0 0 0 300.00070199110269 276.15950424711036 0 276.15950424711036 -46.729664755094745 0 0 0 0 587.10613357330294 -25.643844773512683 0 -25.643844773512683 85.909592161213368 0 0 0 0 510.53175124824884 200.31632234746212 0 200.31632234746212 -548.05974509906719 0 0 0 0 -83.881528537516715 -296.04020161639073 0 -296.04020161639073 85.388163107544642 0 0 0 0 3.3340938149945885 -2.3643213130320682 0 -2.3643213130320682 1.5506343321234617 0 0 0 0 312.13409088738626 -339.36038374536747 0 -339.36038374536747 -269.03393010340005 0 0 0 0 405.39969876474061 -484.23338735546076 0 -484.23338735546076 -657.70306302889276 0 0 0 0 473.48340668151025 -178.30645525149561 0 -178.30645525149561 -70.19053959613575 0 0 0 0 -490.55576016451232 416.92378369734524 0 416.92378369734524 48.69361628224442 0 0 0 0 -255.44522751194745 -23.391629945596833 0 -23.391629945596833 54.989973274759905 0 0 0 0 -2.0120258589643214 -2.927649025964584 0 -2.927649025964584 -12.381842968833759 0 0 0 0 -38.43138755124528 395.96368306030581 0 395.96368306030581 -565.2358944730496 0 0 0 0 4.7615950898161827 -64.128876430154605 0 -64.128876430154605 -4.1677069797497097 0 0 0 0 24.294740468860255 -102.22181438643292 0 -102.22181438643292 33.210177666407617 0 0 0 0 69.885892340606006 -87.774541184898226 0 -87.774541184898226 8.9335845482819423 0 0 0 0 38.5246016760575 -109.95933205349775 0 -109.95933205349775 9.7379062446439946 0 0 0 0 143.22613986133729 -122.58994552733407 0 -122.58994552733407 -89.146279383443471 0 0 0 0 41.437683621840733 -99.980392004019222 0 -99.980392004019222 -28.582080781783588 0 0 0 0 434.67563804641395 319.18321432920675 0 319.18321432920675 264.39391484348198 0 0 0 0 181.23542595876643 -358.73500254284681 0 -358.73500254284681 23.891571779179685 0 0 0 0 584.41686609874159 -94.351266617194597 0 -94.351266617194597 -84.510261075814924 0 0 0 0 140.53356003182125 -120.86846857898763 0 -120.86846857898763 -77.443724332935972 0 0 0 0 158.32357879269694 126.92111457335795 0 126.92111457335795 -59.119936708729711 0 0 0 0 204.36187697255536 -119.13201109018007 0 -119.13201109018007 -153.44842835288728 0 0 0 0 178.08675272854452 -68.661915079967002 0 -68.661915079967002 -199.20692287276506 0 0 0 0 115.87757968480219 -315.74474088063062 0 -315.74474088063062 -52.21728033898853 0 0 0 0 398.24033471933217 107.81958666867922 0 107.81958666867922 -89.194462529937482 0 0 0 0 65.871245917863234 -16.144087194154963 0 -16.144087194154963 -5.8054330716656697 0 0 0 0 107.50791830869275 44.983654775856849 0 44.983654775856849 15.5229231510707 0 0 0 0 98.63038178639394 -14.826574710134771 0 -14.826574710134771 -7.08319623489915 0 0 0 0 -75.109823362508905 88.02466567893498 0 88.02466567893498 121.40557917252227 0 0 0 0 -23.60408501458005 -41.806993864071046 0 -41.806993864071046 38.842187791786273 0 0 0 0 65.129846148278375 -42.506408921853904 0 -42.506408921853904 0.99278552098621731 0 0 0 0 106.28290565982752 -72.308835440890107 0 -72.308835440890107 -84.425735717618636 0 0 0 0 85.762849997940606 -32.643501970284461 0 -32.643501970284461 2.77684393539203 0 0 0 0 64.452184040965903 -28.851694118852823 0 -28.851694118852823 -6.2125072870756286 0 0 0 0 172.57666590408189 -11.206296163250954 0 -11.206296163250954 -100.50530777281233 0 0 0 0 -2.9471452473226236 -65.222188436066517 0 -65.222188436066517 99.584039067000049 0 0 0 0 90.611999559601827 -94.028515861188453 0 -94.028515861188453 -68.453767985279228 0 0 0 0 69.267594912773347 -54.562172971256587 0 -54.562172971256587 -37.036232885222489 0 0 0 0 71.704502910880308 -17.610761183047806 0 -17.610761183047806 1.9601929973258549 0 0 0 0 56.764596793034286 -31.541448245118278 0 -31.541448245118278 3.4374248366242188 0 0 0 0 115.82154607398843 -53.324473615067291 0 -53.324473615067291 -5.6502001621997806 0 0 0 0 110.81830602146147 -39.770940574210613 0 -39.770940574210613 1.6894777639136009 0 0 0 0 115.85172613733448 -53.80928166210424 0 -53.80928166210424 -16.612207684595887 0 0 0 0 117.30073764424014 -61.786862121530248 0 -61.786862121530248 12.429151287423338 0 0 0 0 128.04911051641102 -48.118844416431784 0 -48.118844416431784 -5.9123389829119333 0 0 0 0 -164.21649397871806 -64.43641584692341 0 -64.43641584692341 -155.04117978566751 0 0 0 0 64.772034271360553 -7.0534297453561408 0 -7.0534297453561408 -26.352453146191372 0 0 0 0 -146.86553511864622 726.72263269395626 0 726.72263269395626 -85.340190503957729 0 0 0 0 101.29600812711021 -38.862937977552257 0 -38.862937977552257 7.1966050975613483 0 0 0 0 10.300990379095708 -12.619237324253341 0 -12.619237324253341 6.2110650702468231 0 0 0 0 98.279489512264263 -260.71985012566466 0 -260.71985012566466 70.621064579386044 0 0 0 0 89.188565661082976 -154.58777322719379 0 -154.58777322719379 -51.66607118057982 0 0 0 0 169.5278464074072 382.0909810518807 0 382.0909810518807 181.2535799542205 0 0 0 0 16.889395333651919 -201.83922478910245 0 -201.83922478910245 -74.161127722825768 0 0 0 0 134.59320063981818 -53.953652728728976 0 -53.953652728728976 11.085644388556187 0 0 0 0 26.737143675707472 -24.888571646190996 0 -24.888571646190996 -3.7297525616059826 0 0 0 0 34.631642391468631 -68.105260676334638 0 -68.105260676334638 71.239594747488809 0 0 0 0 -103.02545052382629 -159.68031334404895 0 -159.68031334404895 12.091979225500836 0 0 0 0 -339.8593273923907 -138.65119350909117 0 -138.65119350909117 310.10575773474739 0 0 0 0 -310.6899514568795 -133.47298505687286 0 -133.47298505687286 121.55350715694658 0 0 0 0 -101.89170856319834 -171.86826673000996 0 -171.86826673000996 120.57733350054696 0 0 0 0 -515.17880075244466 -497.18666534747899 0 -497.18666534747899 1432.0755774155414 0 0 0 0 86.774927467955081 -39.083574270665693 0 -39.083574270665693 16.910223444907057 0 0 0 0 -113.44177105576091 -883.23583088357645 0 -883.23583088357645 1109.3874810125053 0 0 0 0 -60.977049650522531 -497.96115272409088 0 -497.96115272409088 -581.83430247038541 0 0 0 0 490.40648857566339 -454.23427586474327 0 -454.23427586474327 -491.96050029346952 0 0 0 0 1758.350565804998 -286.65468354052973 0 -286.65468354052973 -516.08322969003711 0 0 0 0 -972.30068606711575 -10.552894974983246 0 -10.552894974983246 719.02616030851732 0 0 0 0 -920.93066029793408 -850.47303919655496 0 -850.47303919655496 1113.9827813139889 0 0 0 0 7.7269745882579173 -12.552855459946514 0 -12.552855459946514 13.181562443196331 0 0 0 0 1944.1449013285642 -145.5645387547209 0 -145.5645387547209 -549.22576433419454 0 0 0 0 2001.2367964809455 -913.19446275920927 0 -913.19446275920927 -1063.4473195351875 0 0 0 0 292.35749267400024 -165.8332299403105 0 -165.8332299403105 -173.63619205788928 0 0 0 0 620.02488716507651 -1102.2639276266009 0 -1102.2639276266009 742.77843829185804 0 0 0 0 3.9001380320010526 -7.8022969279692518 0 -7.8022969279692518 9.9100884695152729 0 0 0 0 7.7556839478526172 -21.540179793186581 0 -21.540179793186581 -27.57095435361262 0 0 0 0 87.176670132212166 -137.78672309609829 0 -137.78672309609829 -57.340369131383341 0 0 0 0 69.279597283748444 48.033418824683395 0 48.033418824683395 -156.06403222237213 0 0 0 0 79.699386467706148 -43.091619849642115 0 -43.091619849642115 6.8646756044247219 0 0 0 0 49.400597610087686 4.2877217498739242 0 4.2877217498739242 -30.446119637011829 0 0 0 0 -535.65086598269409 323.44286293194273 0 323.44286293194273 197.37660277448595 0 0 0 0 285.19988607111736 649.70089930530867 0 649.70089930530867 963.28810292526759 0 0 0 0 -114.1974682645232 -652.23530933458278 0 -652.23530933458278 826.71594594063208 0 0 0 0 -132.68801113066729 -437.55052530362263 0 -437.55052530362263 -94.989058069149905 0 0 0 0 20.81950687042405 -19.068665198603398 0 -19.068665198603398 7.8732892519082327 0 0 0 0 44.60217208359245 -10.813871041237945 0 -10.813871041237945 -3.5132694766017494 0 0 0 0 826.71813391760224 76.80649829855588 0 76.80649829855588 -401.88575826605796 0 0 0 0 35.195073337898066 4.9737903523146372 0 4.9737903523146372 -6.0128883439588208 0 0 0 0 20.963844952812337 5.7981938970731317 0 5.7981938970731317 2.464399434878878 0 0 0 0 26.088155829257289 -2.785831617895326 0 -2.785831617895326 -3.2200913990879769 0 0 0 0 32.543330738102668 0.059019069224177656 0 0.059019069224177656 0.30190778342057456 0 0 0 0 32.53012047073571 8.5448716339865314 0 8.5448716339865314 -5.8865996745280427 0 0 0 0 35.769513184550192 5.8158496061244023 0 5.8158496061244023 -8.2162807537200848 0 0 0 0 23.807857445674017 0.69062089635554003 0 0.69062089635554003 -17.14166312528323 0 0 0 0 44.348351676019661 6.0403603286543257 0 6.0403603286543257 -17.029506190795281 0 0 0 0 42.5792282948847 -0.33786748538358324 0 -0.33786748538358324 -11.626580784169771 0 0 0 0 4496.1841840844281 -1636.6130337678005 0 -1636.6130337678005 29.169826450146179 0 0 0 0 3978.8574035453203 -1935.8088291418246 0 -1935.8088291418246 956.65109411987351 0 0 0 0 2125.0711720084073 -2683.1912045326631 0 -2683.1912045326631 714.85456542204349 0 0 0 0 1.2522622173090667 3.2982188783417641 0 3.2982188783417641 0.77681074687725671 0 0 0 0 3734.6541539330428 -254.11237969186453 0 -254.11237969186453 -497.92362572961105 0 0 0 0 16.500261260158084 -0.35326845224086867 0 -0.35326845224086867 2.7857362404753578 0 0 0 0 1466.1055652974464 59.226518130581553 0 59.226518130581553 132.76527604190423 0 0 0 0 20.471466059440701 -13.533060063434093 0 -13.533060063434093 8.8380310923357897 0 0 0 0 1976.5525663604203 -272.33388572590212 0 -272.33388572590212 -16.518328686743004 0 0 0 0 2150.6012687011826 244.93379349038523 0 244.93379349038523 -200.9744656800093 0 0 0 0 4496.2952372369618 1555.7184926448422 0 1555.7184926448422 -6.1003293072785514 0 0 0 0 69.295219592189824 -64.044587743880442 0 -64.044587743880442 -4.3490047562507002 0 0 0 0 25.145956304780896 2.9259785766642636 0 2.9259785766642636 -11.200827966843306 0 0 0 0 34.002059255275526 -13.694045681264242 0 -13.694045681264242 1.4843714021244523 0 0 0 0 36.08073591493303 -10.005688827403446 0 -10.005688827403446 -2.429197289306785 0 0 0 0 12.984878628503139 -0.14130265294747346 0 -0.14130265294747346 -8.2276356406661115 0 0 0 0 42.368831985630095 -37.865986075104956 0 -37.865986075104956 5.8434455003352923 0 0 0 0 23.423239131487207 -36.75690743926225 0 -36.75690743926225 11.187539611928059 0 0 0 0 43.115987134107854 -10.228006923100111 0 -10.228006923100111 5.9336732557512732 0 0 0 0 16.122557696784497 -9.9190352274972611 0 -9.9190352274972611 10.819843652715463 0 0 0 0 10.481609204580309 -19.321030842455002 0 -19.321030842455002 14.585284954008785 0 0 0 0 6.2641020211340788 -1.3694485694602747 0 -1.3694485694602747 -0.1163915165735343 0 0 0 0 -1.1973215203609868 1.2097616850767849 0 1.2097616850767849 1.8645004224016333 0 0 0 0 26.761846561857965 -37.427406752225579 0 -37.427406752225579 -46.415094874511851 0 0 0 0 -35.531153326825006 -23.552033556771221 0 -23.552033556771221 10.229396690662867 0 0 0 0 -10.310924929333851 -45.65525270299986 0 -45.65525270299986 -47.506325627618878 0 0 0 0 -4.6716467589430977 -15.160653717212881 0 -15.160653717212881 -64.697679813457398 0 0 0 0 -93.313686737237731 71.084887600833099 0 71.084887600833099 -140.08301455253513 0 0 0 0 37.053304997301893 -35.299265359099536 0 -35.299265359099536 -71.934053577520899 0 0 0 0 45.538463382133955 -2.5001415617163403 0 -2.5001415617163403 -3.2521439674443915 0 0 0 0 16.873532592342741 0.33297867950707882 0 0.33297867950707882 -14.409305672945337 0 0 0 0 54.554534765396966 -36.734770910679345 0 -36.734770910679345 -31.202921593670908 0 0 0 0 57.294136058539152 -9.3591138123397286 0 -9.3591138123397286 -14.196956124909775 0 0 0 0 22.229491626261733 -40.309113086017078 0 -40.309113086017078 -36.400817000244388 0 0 0 0 62.060791674244683 -6.3162221063575998 0 -6.3162221063575998 -55.858471482696586 0 0 0 0 -11.250425517035183 -150.45858533755063 0 -150.45858533755063 -224.79683031851164 0 0 0 0 31.806606121824217 -0.87103933356274865 0 -0.87103933356274865 -25.439551025217671 0 0 0 0 53.768801300582709 -1.3154663571781384 0 -1.3154663571781384 -33.578727594533746 0 0 0 0 56.113235033393721 2.903946110997822 0 2.903946110997822 -27.755328510130312 0 0 0 0 27.865842231705187 -3.4699406686439431 0 -3.4699406686439431 -24.529646391287251 0 0 0 0 67.841190118619124 25.25434633252803 0 25.25434633252803 -32.218146680721475 0 0 0 0 -136.33686949939147 15.459059610355979 0 15.459059610355979 -20.994598018960005 0 0 0 0 -103.63167930823693 168.06277376988132 0 168.06277376988132 583.6847338473533 0 0 0 0 468.56061508625862 -371.22494947504993 0 -371.22494947504993 -123.38662901560747 0 0 0 0 650.8912423080219 234.30989505895536 0 234.30989505895536 -441.38088980057182 0 0 0 0 29.259511411917629 612.21050324516227 0 612.21050324516227 295.28407486536344 0 0 0 0 -7.4673042510585219 296.10200633838758 0 296.10200633838758 -345.04120657340718 0 0 0 0 21.648839853185166 15.125877539358299 0 15.125877539358299 16.036678254812802 0 0 0 0 72.79391806689091 -5.9053677957463151 0 -5.9053677957463151 -125.67692470828081 0 0 0 0 -431.1640869595285 5.1181247020199194 0 5.1181247020199194 355.2821790148958 0 0 0 0 3521.4768871045962 2047.5587319747772 0 2047.5587319747772 992.23718543225186 0 0 0 0 10.932347095804971 2.0232946080506622 0 2.0232946080506622 4.246672809443508 0 0 0 0 -23.095751195727189 -959.18920476893993 0 -959.18920476893993 -225.95439040217002 0 0 0 0 3255.871989862906 2596.7220892789255 0 2596.7220892789255 1317.2507470615542 0 0 0 0 -473.91061567990982 744.21819563453437 0 744.21819563453437 1411.4261647826488 0 0 0 0 4494.9101473632618 1528.0490236987509 0 1528.0490236987509 550.61118994614833 0 0 0 0 5070.1718772232998 2623.626831257709 0 2623.626831257709 2467.9138761305626 0 0 0 0 4.4700710582642387 5.7137127490886996 0 5.7137127490886996 10.544644218546063 0 0 0 0 5072.2153161375027 1027.4554188453292 0 1027.4554188453292 548.11699481120172 0 0 0 0 4686.2813326519536 1568.0112137885542 0 1568.0112137885542 705.63501064818115 0 0 0 0 4499.681307136736 1597.1556473163062 0 1597.1556473163062 14.113260058453495 0 0 0 0 3676.5200685628224 1895.1007220499289 0 1895.1007220499289 618.26282085987748 0 0 0 0 3579.5057984594168 1623.9081223385142 0 1623.9081223385142 603.00116894760686 0 0 0 0 4.5181335912465102 5.3104972172705729 0 5.3104972172705729 2.720198856332245 0 0 0 0 1606.4430050386036 43.473069533071438 0 43.473069533071438 -510.31590709319096 0 0 0 0 1851.9167522290081 1988.9204236284688 0 1988.9204236284688 1327.2088764151026 0 0 0 0 3151.4382081615695 1292.332351771596 0 1292.332351771596 181.68235860886307 0 0 0 0 1584.5860962120059 891.05780640848343 0 891.05780640848343 223.36398498555218 0 0 0 0 3180.3313741088205 1393.6884987811488 0 1393.6884987811488 509.52361643638608 0 0 0 0 3838.5835601381696 1018.7748316973264 0 1018.7748316973264 -405.19027534985969 0 0 0 0 3698.2553753310931 808.28439738745419 0 808.28439738745419 -380.17299180883901 0 0 0 0 3059.9058243067702 660.40290798747492 0 660.40290798747492 160.68699884176544 0 0 0 0 4496.5846907156229 1149.9264695494376 0 1149.9264695494376 -1.5601303666688113 0 0 0 0 9.0644097418038427 0.53028241915046692 0 0.53028241915046692 -1.6742460391521792 0 0 0 0 2956.192759865884 923.84535157542371 0 923.84535157542371 36.573765904739616 0 0 0 0 2907.5204922883349 425.40065446304084 0 425.40065446304084 0.47390792695335948 0 0 0 0 3799.740899903758 1.2042032545365313 0 1.2042032545365313 1.2818447947120688 0 0 0 0 8.1784739571685634 1.1398827567720957 0 1.1398827567720957 -1.2175818994417957 0 0 0 0 4105.3762221268262 1201.2478447125368 0 1201.2478447125368 37.690747480356144 0 0 0 0 631.75478505628416 138.06894674234584 0 138.06894674234584 0.47623523136933116 0 0 0 0 1598.6725067362786 682.6067935448998 0 682.6067935448998 74.896864002628206 0 0 0 0 1590.0656348109624 750.15956793061741 0 750.15956793061741 466.0383137273397 0 0 0 0 422.72272210405208 207.8408287657096 0 207.8408287657096 425.43711615573272 0 0 0 0 391.30602994513174 334.23939253698478 0 334.23939253698478 15.797505347032029 0 0 0 0 -18.968709639593726 60.367474068005322 0 60.367474068005322 470.52452406788336 0 0 0 0 1537.5581483259448 934.75951181167488 0 934.75951181167488 462.54550819276091 0 0 0 0 939.09628219943261 1524.5870364433317 0 1524.5870364433317 1383.4923419501665 0 0 0 0 11.96799874059559 5.2578165562880628 0 5.2578165562880628 -3.3849654412849026 0 0 0 0 -8.50925713178367 -267.92717493707136 0 -267.92717493707136 82.382806557592403 0 0 0 0 2.3376968053999576 10.551376532980015 0 10.551376532980015 -10.335199981280065 0 0 0 0 260.70197770437517 169.68567986694507 0 169.68567986694507 -284.67382550930051 0 0 0 0 23.944211542751873 29.404588345690513 0 29.404588345690513 -3.8828208287666257 0 0 0 0 15.031622384616639 69.047365228277158 0 69.047365228277158 -29.799188991479241 0 0 0 0 29.380985036084894 17.664666798207236 0 17.664666798207236 -73.631910314735705 0 0 0 0 -25.143169325281633 26.064250926604245 0 26.064250926604245 14.841842411811228 0 0 0 0 -22.872491156744672 89.56155267878259 0 89.56155267878259 133.60102537704552 0 0 0 0 -3.6456729387978157 2.9066274720924525 0 2.9066274720924525 -3.6762276126341287 0 0 0 0 -83.139420963445446 -83.453792055178752 0 -83.453792055178752 151.66911257059471 0 0 0 0 -92.928266500966856 -65.145488878611559 0 -65.145488878611559 -23.532443960336423 0 0 0 0 -1.0190305297020359 0.90485983080563415 0 0.90485983080563415 -0.48461211501569379 0 0 0 0 27.536560021486366 55.229356449074501 0 55.229356449074501 0.20047651588021187 0 0 0 0 397.12623332542717 355.06534444530246 0 355.06534444530246 136.311894779385 0 0 0 0 291.30081355600851 182.77768416232573 0 182.77768416232573 -0.38360253328602195 0 0 0 0 215.78093417768105 256.89108125658203 0 256.89108125658203 86.890281680570155 0 0 0 0 -61.570685675684217 132.51804508986692 0 132.51804508986692 267.01459435375881 0 0 0 0 392.10126920134644 182.24883698403744 0 182.24883698403744 -29.526771678194223 0 0 0 0 3.0907020881145968 1.5911539245552149 0 1.5911539245552149 0.22212829593242844 0 0 0 0 358.1749510991267 -99.821286181177371 0 -99.821286181177371 -78.67863676353295 0 0 0 0 120.84060662353295 62.846146179692141 0 62.846146179692141 -27.428735010591936 0 0 0 0 118.94031935794919 52.43261069106984 0 52.43261069106984 -69.871738013091772 0 0 0 0 53.415890546631999 57.719956315997933 0 57.719956315997933 -26.8945482887124 0 0 0 0 111.38960791055433 -10.97382125323611 0 -10.97382125323611 -46.901273452181613 0 0 0 0 223.25904736312805 -15.598710291519751 0 -15.598710291519751 -150.95891226530466 0 0 0 0 202.2298156946199 25.726592041896538 0 25.726592041896538 -62.699640673444037 0 0 0 0 419.9654136642348 -307.03251644448574 0 -307.03251644448574 132.44225801583889 0 0 0 0 104.87799085854203 -124.8681551672671 0 -124.8681551672671 49.766213362660437 0 0 0 0 367.02563455520431 -83.486886506250357 0 -83.486886506250357 -136.85953392382089 0 0 0 0 -1251.6400757220981 443.25258463846853 0 443.25258463846853 -14.94537159551146 0 0 0 0 -337.89693791566242 -201.18450010551646 0 -201.18450010551646 -130.55379517536494 0 0 0 0 8.9434734250057772 2.3513256565252547 0 2.3513256565252547 0.70185123571243668 0 0 0 0 94.592629384966472 -3.6334153866186547 0 -3.6334153866186547 -0.89635322213377211 0 0 0 0 451.21039779501734 -139.29004580435321 0 -139.29004580435321 -470.35192059834401 0 0 0 0 204.92791701351234 126.99906746335972 0 126.99906746335972 -288.15134473527769 0 0 0 0 26.964247244981721 8.2581909068271528 0 8.2581909068271528 3.0505130613431382 0 0 0 0 72.139139991573757 68.249941687278692 0 68.249941687278692 -126.24415458944395 0 0 0 0 0.48832978532300331 41.366656066209543 0 41.366656066209543 -49.346216704619067 0 0 0 0 32.666864361497574 22.349602803069729 0 22.349602803069729 -51.41053738584219 0 0 0 0 32.804027094709454 23.714085961331875 0 23.714085961331875 -43.216353882762064 0 0 0 0 51.344372929568635 11.103956387322341 0 11.103956387322341 -35.548387564654149 0 0 0 0 46.091204195773116 13.953586652955181 0 13.953586652955181 -1.1038366636751267 0 0 0 0 210.37411564751528 -52.658046841064788 0 -52.658046841064788 -182.08445365755733 0 0 0 0 57.179881039468455 9.1947233817040228 0 9.1947233817040228 -72.280904751399021 0 0 0 0 72.134097809931291 -1.953551262935413 0 -1.953551262935413 -0.062453919100662003 0 0 0 0 13.475381008388695 -9.1791732957313599 0 -9.1791732957313599 4.875377780395918 0 0 0 0 -218.21231478419941 -76.636810053094791 0 -76.636810053094791 45.054312767131478 0 0 0 0 -32.591545453736671 4.1936706980764384 0 4.1936706980764384 57.089292446573836 0 0 0 0 82.15048083270085 -123.94627009334317 0 -123.94627009334317 -154.53048294552514 0 0 0 0 72.826705609128112 -17.765292769713596 0 -17.765292769713596 0.83050061568701494 0 0 0 0 145.44356150410022 -58.386358182895492 0 -58.386358182895492 -106.26172625049276 0 0 0 0 -24.871169453224866 -88.308294978776757 0 -88.308294978776757 -22.254401277928991 0 0 0 0 209.21437371899083 23.874208461178341 0 23.874208461178341 -71.782084453899188 0 0 0 0 19.797436613250909 -14.032037020558917 0 -14.032037020558917 9.2489347521690419 0 0 0 0 45.511815604426374 -31.875654634328157 0 -31.875654634328157 -3.9766840371703438 0 0 0 0 -116.81225966358033 -101.69853568643191 0 -101.69853568643191 -33.896695216862781 0 0 0 0 -154.46139865476289 -61.164275808882735 0 -61.164275808882735 -32.614541675348391 0 0 0 0 -69.709558758462663 -435.97569109498312 0 -435.97569109498312 -360.41893370511042 0 0 0 0 -217.73827748848998 -392.31664896961206 0 -392.31664896961206 195.37296217869368 0 0 0 0 189.12013015418052 75.06015713715405 0 75.06015713715405 -243.21790270365358 0 0 0 0 840.94702595233684 -503.30175776082228 0 -503.30175776082228 222.35186600809288 0 0 0 0 5.8095543726465166 -2.4235960518825266 0 -2.4235960518825266 0.56921281695246462 0 0 0 0 743.71572002748144 -199.34774660402741 0 -199.34774660402741 -611.11504194064401 0 0 0 0 -50.567100338434102 379.31941041647417 0 379.31941041647417 136.75594019655443 0 0 0 0 402.95919674316247 170.41126459003317 0 170.41126459003317 -97.199329006956134 0 0 0 0 5.9176958357857075 269.99170233267523 0 269.99170233267523 -39.607274721708109 0 0 0 0 641.29805616664817 -60.709932592591713 0 -60.709932592591713 -342.58507812572316 0 0 0 0 464.16096152857062 -78.297171633849771 0 -78.297171633849771 -198.74814838613003 0 0 0 0 572.13600197686173 -156.86985102678091 0 -156.86985102678091 -397.95652789784708 0 0 0 0 327.36354028867208 -169.70136249743973 0 -169.70136249743973 -247.15144231179534 0 0 0 0 295.5642542490823 542.9295418073599 0 542.9295418073599 862.68097414199838 0 0 0 0 1243.7808650162624 184.49091109465849 0 184.49091109465849 -208.75120831090655 0 0 0 0 71.844217607504106 160.94794496316399 0 160.94794496316399 230.08953983245613 0 0 0 0 35.912350284143031 277.45980277957125 0 277.45980277957125 66.806513072415783 0 0 0 0 31.744762744405307 281.58639835836175 0 281.58639835836175 62.849226037943936 0 0 0 0 20.396329514449462 250.41268489907611 0 250.41268489907611 49.909857432118088 0 0 0 0 82.416080108319875 319.12610114062483 0 319.12610114062483 87.146785515340525 0 0 0 0 57.444929496999976 268.72563047199969 0 268.72563047199969 39.158846336163236 0 0 0 0 66.341074682732142 308.72364706824237 0 308.72364706824237 79.413909281335918 0 0 0 0 -12.90794645002461 360.23690458672809 0 360.23690458672809 50.482222254027874 0 0 0 0 108.45925923848699 161.29481222482718 0 161.29481222482718 -120.71625086159474 0 0 0 0 88.621243498687079 -1.6381700022789616 0 -1.6381700022789616 -1.2590685529593399 0 0 0 0 -67.353378255153075 -66.362615526632453 0 -66.362615526632453 -630.68139291944226 0 0 0 0 75.264336170366732 303.85513301942001 0 303.85513301942001 -320.53556721545783 0 0 0 0 103.10965907388072 93.613397093767091 0 93.613397093767091 275.83707708738302 0 0 0 0 3.4869198006458078 0.30058141051191001 0 0.30058141051191001 -1.769795085143393 0 0 0 0 -192.86916388140526 -93.496391561136306 0 -93.496391561136306 -396.67297476557349 0 0 0 0 529.83330753145856 -309.47404706811346 0 -309.47404706811346 -4.1842902920366214 0 0 0 0 -21.575552950554993 173.47631138981774 0 173.47631138981774 -412.12459172970262 0 0 0 0 -208.67800180998165 119.28021245818968 0 119.28021245818968 -34.570362088930779 0 0 0 0 -280.83031950582517 163.58392891164021 0 163.58392891164021 -25.426411985447203 0 0 0 0 48.117121463408694 309.69643733152043 0 309.69643733152043 -107.70656219475859 0 0 0 0 -165.01454091384949 135.95102049996854 0 135.95102049996854 -191.57146261220532 0 0 0 0 -481.47853045695229 -167.6053710579813 0 -167.6053710579813 -241.56599930703226 0 0 0 0 -739.69522656151094 254.60886563388294 0 254.60886563388294 133.37815928181271 0 0 0 0 -427.78799443229218 -10.738559408062883 0 -10.738559408062883 -129.98174511165996 0 0 0 0 -229.24317288231396 409.09846437154692 0 409.09846437154692 -113.52185559297095 0 0 0 0 180.34709440416191 -368.34495359888547 0 -368.34495359888547 -511.85821106061576 0 0 0 0 1837.111741284898 -374.23279808949428 0 -374.23279808949428 -629.59684925579131 0 0 0 0 1295.9461517268792 -14.253873002213368 0 -14.253873002213368 -299.5103602098261 0 0 0 0 104.01485292965543 -2.7758677369314952 0 -2.7758677369314952 -1.2836013232071704 0 0 0 0 -31.073703170986846 765.4885649244743 0 765.4885649244743 -54.57368528691859 0 0 0 0 927.53205868491204 -148.88576170676379 0 -148.88576170676379 -210.92705014485364 0 0 0 0 68.835963054705644 245.30651058613296 0 245.30651058613296 -140.06288878400392 0 0 0 0 1011.1235739027907 460.29006925000431 0 460.29006925000431 -355.22293838254791 0 0 0 0 443.92270715421182 184.45432940865658 0 184.45432940865658 -189.31436686590541 0 0 0 0 308.49793190459604 -12.821083144501699 0 -12.821083144501699 -147.85905663362837 0 0 0 0 22.074871661985526 98.241168490241876 0 98.241168490241876 -107.26268764937026 0 0 0 0 96.765443020340172 117.51874216275792 0 117.51874216275792 -138.98061177656837 0 0 0 0 -79.660365098781767 199.90766533432293 0 199.90766533432293 -46.771286441056589 0 0 0 0 21.018697452760534 294.00580347824894 0 294.00580347824894 -191.91525433564217 0 0 0 0 111.21287975322775 -154.72317368745462 0 -154.72317368745462 -24.269874134866768 0 0 0 0 6.3800738054816861 3.4744270444472534 0 3.4744270444472534 0.45115132988387563 0 0 0 0 147.12435333179019 -38.715428904540715 0 -38.715428904540715 -81.523255347959775 0 0 0 0 -157.79720991561771 290.26898400791146 0 290.26898400791146 85.275693644108628 0 0 0 0 -92.556039241204417 -63.823330846868814 0 -63.823330846868814 84.223189589258027 0 0 0 0 245.06297168914534 -157.86435291488115 0 -157.86435291488115 326.19485355577331 0 0 0 0 299.57330276668654 1.8865240777986072 0 1.8865240777986072 26.224439401266938 0 0 0 0 82.137142824147304 133.99316872986597 0 133.99316872986597 -0.18840730738350334 0 0 0 0 1570.2015517207765 -696.42571551914011 0 -696.42571551914011 162.47038462141921 0 0 0 0 8.2223311081284578 -0.50462520592230931 0 -0.50462520592230931 -0.62354614741415881 0 0 0 0 1119.4429025127538 -1315.2027839669765 0 -1315.2027839669765 1106.8907464125361 0 0 0 0 941.41268453266821 -45.958583946017228 0 -45.958583946017228 2.7937810444965838 0 0 0 0 797.17629041243345 -175.64420019131765 0 -175.64420019131765 7.5161658292864786 0 0 0 0 993.29754645230423 -463.46974670935907 0 -463.46974670935907 94.601981783904534 0 0 0 0 636.58723069830739 -290.47519912737829 0 -290.47519912737829 386.35646266147216 0 0 0 0 547.97148424431361 -340.25537662354321 0 -340.25537662354321 159.18875207373424 0 0 0 0 651.79835009631643 -213.22985227938454 0 -213.22985227938454 -131.79735760806216 0 0 0 0 297.21992963616503 16.836424586316753 0 16.836424586316753 82.791748080043646 0 0 0 0 264.96455510360829 116.35942031087075 0 116.35942031087075 -260.11615512694107 0 0 0 0 -132.96708892210154 82.251803703187079 0 82.251803703187079 -27.613780691679835 0 0 0 0 191.69151192211939 -64.895366362846573 0 -64.895366362846573 16.073511632590908 0 0 0 0 6.036562652762882 2.3328903389003699 0 2.3328903389003699 -0.88026826041239392 0 0 0 0 424.53436136938399 -240.02355882912332 0 -240.02355882912332 -14.983024028452718 0 0 0 0 426.07589850886143 -223.77384064428554 0 -223.77384064428554 60.629327940913299 0 0 0 0 337.90662326500751 -473.23329281890483 0 -473.23329281890483 247.06563858693505 0 0 0 0 323.72765374733717 -125.67624051259145 0 -125.67624051259145 -32.4855483584588 0 0 0 0 547.46471794735407 -556.15068980444994 0 -556.15068980444994 200.27094224504441 0 0 0 0 527.05938466828957 -534.78210606608855 0 -534.78210606608855 299.5838217058452 0 0 0 0 479.28711250799824 -531.83815779253348 0 -531.83815779253348 314.03214433585538 0 0 0 0 651.87192737107398 -363.7401365282999 0 -363.7401365282999 20.478685656200213 0 0 0 0 608.87424930575071 -583.49172731067779 0 -583.49172731067779 750.93018146771499 0 0 0 0 616.69658452758449 -496.31988170427678 0 -496.31988170427678 322.72406002849868 0 0 0 0 20.597061279228228 3.4485137243193975 0 3.4485137243193975 -1.8835554974033371 0 0 0 0 561.05597713063617 -587.54107353393215 0 -587.54107353393215 344.94894639213106 0 0 0 0 59.632986837299541 -42.867865146243794 0 -42.867865146243794 35.619065033042432 0 0 0 0 66.271027178270742 -23.546298903417512 0 -23.546298903417512 0.040077673759226044 0 0 0 0 74.11790084594395 -34.603439166908458 0 -34.603439166908458 11.761132155874819 0 0 0 0 33.40885466162581 -20.532154395939351 0 -20.532154395939351 22.611149634277513 0 0 0 0 30.799524798436323 -7.1268529181782796 0 -7.1268529181782796 0.019205395853824154 0 0 0 0 124.71972719405312 -63.671474672611041 0 -63.671474672611041 0.058965592195468687 0 0 0 0 175.31262167324167 -129.41492058121423 0 -129.41492058121423 67.654465675553382 0 0 0 0 79.477017812962004 -62.801799948712016 0 -62.801799948712016 70.616786037235585 0 0 0 0 82.183219248123351 -57.484643531576417 0 -57.484643531576417 64.172105776196943 0 0 0 0 68.798606563970679 -84.763926619707092 0 -84.763926619707092 90.17706950638842 0 0 0 0 30.632792687718052 8.9197626901239886 0 8.9197626901239886 -0.032845385876611066 0 0 0 0 460.79067571404994 -148.74417477864944 0 -148.74417477864944 -130.18184674790109 0 0 0 0 164.04595438756223 -265.81321490125924 0 -265.81321490125924 87.172673772150802 0 0 0 0 -107.4656723625958 -26.990561943058992 0 -26.990561943058992 1357.8908650127005 0 0 0 0 535.41633407301561 -786.35916228479118 0 -786.35916228479118 681.74024399888754 0 0 0 0 1641.3783816474897 -30.842616711218852 0 -30.842616711218852 96.200055786369603 0 0 0 0 -33.413797599787358 -276.92052650424512 0 -276.92052650424512 145.00925974892425 0 0 0 0 411.78915084765322 -813.68684962207612 0 -813.68684962207612 683.95636472567412 0 0 0 0 551.29372873824104 -227.15677659473499 0 -227.15677659473499 -95.034733849078293 0 0 0 0 391.73260599291825 -14.741017420906473 0 -14.741017420906473 -376.38433959404756 0 0 0 0 676.66441843885696 -219.63315083722409 0 -219.63315083722409 -402.85249763119191 0 0 0 0 206.23940572389984 273.36639454174792 0 273.36639454174792 285.57151053301686 0 0 0 0 17.456475365965161 234.48660317773692 0 234.48660317773692 513.57019357392278 0 0 0 0 57.514430607037809 -1.2467928208064762 0 -1.2467928208064762 -0.0341834776569927 0 0 0 0 20.600627765538036 -0.85902837513578589 0 -0.85902837513578589 1.1424553185845525 0 0 0 0 442.12600152408413 562.23025982711943 0 562.23025982711943 919.41062196742348 0 0 0 0 236.2607290398264 155.65953009756274 0 155.65953009756274 178.44833461024803 0 0 0 0 166.42373632781528 113.24308229355833 0 113.24308229355833 155.73632337014476 0 0 0 0 14.890565919267829 190.30784841142463 0 190.30784841142463 253.63666591388164 0 0 0 0 178.54265779117122 208.54488044796585 0 208.54488044796585 -530.35692020071019 0 0 0 0 65.763668544081156 366.53088502362198 0 366.53088502362198 66.271045622551469 0 0 0 0 93.267355852527544 7.10415779849302 0 7.10415779849302 -26.009913268508484 0 0 0 0 408.28029643806076 -12.020311248878897 0 -12.020311248878897 -809.03998851913661 0 0 0 0 286.4081823505694 -504.19944772629822 0 -504.19944772629822 -79.262585913727207 0 0 0 0 1274.822105285697 -115.04641754697451 0 -115.04641754697451 -32.739215394610824 0 0 0 0 36.735708760665148 -27.096957634230989 0 -27.096957634230989 -98.673228258881821 0 0 0 0 161.19174145591023 -70.057377185741302 0 -70.057377185741302 -326.95367024601842 0 0 0 0 88.516566701166937 3.379238996836337 0 3.379238996836337 -0.9977937167873141 0 0 0 0 42.83178522622984 -46.47525387851158 0 -46.47525387851158 -149.15642792253789 0 0 0 0 68.451060734855048 4.701093584477726 0 4.701093584477726 -0.50997128608309095 0 0 0 0 45.226615399282309 -70.000434129439782 0 -70.000434129439782 -72.828162313366192 0 0 0 0 40.448672745827935 -48.571708505349022 0 -48.571708505349022 -72.145111156039675 0 0 0 0 20.758839891728712 -61.281644655465897 0 -61.281644655465897 -67.120587593488381 0 0 0 0 15.200359236429563 1.0467578935083548 0 1.0467578935083548 -0.16494125758631051 0 0 0 0 44.993755534982483 199.48205887897433 0 199.48205887897433 -149.597219943109 0 0 0 0 97.721794222554308 254.13179071360457 0 254.13179071360457 412.13338192714576 0 0 0 0 5.3565552786961916 0.66096179798541055 0 0.66096179798541055 0.37950104894759568 0 0 0 0 98.20787435937018 -155.14562238295571 0 -155.14562238295571 123.46583102509112 0 0 0 0 409.40452972307685 12.117043665718256 0 12.117043665718256 -104.33835177102402 0 0 0 0 345.74020502086205 -133.48664413723066 0 -133.48664413723066 292.2106713878627 0 0 0 0 485.04053474725879 166.26552306515273 0 166.26552306515273 163.50046680056471 0 0 0 0 93.011260434170254 78.158589481458421 0 78.158589481458421 144.27103522361904 0 0 0 0 282.0894858269894 38.630402808259532 0 38.630402808259532 39.515504659768339 0 0 0 0 146.99735117727687 158.96813675758693 0 158.96813675758693 93.055795016797219 0 0 0 0 53.093599835185159 124.926979872679 0 124.926979872679 -74.981425647754804 0 0 0 0 9.8698588689148892 90.42915179887018 0 90.42915179887018 95.08217104256255 0 0 0 0 -79.981727714592125 -15.232124594422885 0 -15.232124594422885 34.996374842111038 0 0 0 0 -69.157819386367919 -10.640121656506608 0 -10.640121656506608 49.339028950616921 0 0 0 0 88.406049715500558 233.50008892380674 0 233.50008892380674 85.953325140560082 0 0 0 0 44.500016791076632 -41.000973497958739 0 -41.000973497958739 -175.90129526318776 0 0 0 0 177.35757006950735 -110.08605573155478 0 -110.08605573155478 -397.24951090817285 0 0 0 0 9.5414808272177538 -2.7431710466301524 0 -2.7431710466301524 -0.28465307247554072 0 0 0 0 204.09041548272944 206.699127248678 0 206.699127248678 -158.67695163435383 0 0 0 0 94.261955950674746 145.60333789594961 0 145.60333789594961 333.92802353782372 0 0 0 0 126.70894635809236 188.51870682373919 0 188.51870682373919 56.978295003016228 0 0 0 0 193.97192077695217 126.827667107872 0 126.827667107872 -40.860898579916466 0 0 0 0 290.93278293692856 159.90241706509096 0 159.90241706509096 32.498329028055196 0 0 0 0 171.80721255534445 153.65751955469932 0 153.65751955469932 72.046396774756886 0 0 0 0 287.03116212972964 203.03975196313195 0 203.03975196313195 27.19015818963544 0 0 0 0 483.07492483162423 -168.00175704831281 0 -168.00175704831281 -39.024793244968805 0 0 0 0 -158.47082464591949 -199.01535516506419 0 -199.01535516506419 249.02319788914065 0 0 0 0 109.03397902505822 -432.77041230288978 0 -432.77041230288978 -8.098223420316117 0 0 0 0 4.7685443902146289 -1.5542364815692551 0 -1.5542364815692551 0.052076191485263656 0 0 0 0 341.47404718355392 76.628966863584765 0 76.628966863584765 -19.186400065917724 0 0 0 0 27.325960597372614 82.532727660998034 0 82.532727660998034 52.913754620414238 0 0 0 0 -25.931117704931239 1.2270605928018767 0 1.2270605928018767 36.444912272230795 0 0 0 0 103.88422471657395 85.48141529428176 0 85.48141529428176 27.653306815222095 0 0 0 0 211.38149288780551 -146.91168917153186 0 -146.91168917153186 -30.166824543205166 0 0 0 0 175.80336248071399 -88.070601412254064 0 -88.070601412254064 251.66744050899524 0 0 0 0 -39.174162824143423 65.915762187859059 0 65.915762187859059 183.66083902719998 0 0 0 0 -8.383382346786675 141.57893652971723 0 141.57893652971723 166.68695914739942 0 0 0 0 59.985278534441022 110.1647721945526 0 110.1647721945526 -8.7033998998238644 0 0 0 0 43.019503377741785 94.366374243220093 0 94.366374243220093 183.68142038775068 0 0 0 0 -39.530193545222573 102.18128539675632 0 102.18128539675632 247.45589015682049 0 0 0 0 19.093537712280522 193.5832746931037 0 193.5832746931037 227.36298607359595 0 0 0 0 17.379555039566185 -38.015373016041963 0 -38.015373016041963 373.80004706828106 0 0 0 0 -87.591318249251344 316.23919602399371 0 316.23919602399371 328.6928173709972 0 0 0 0 390.20514768226712 832.67235663837062 0 832.67235663837062 745.64377163523056 0 0 0 0 206.91464670411369 -545.70814146761472 0 -545.70814146761472 844.73976218106247 0 0 0 0 285.4143789555892 -126.60748254444769 0 -126.60748254444769 124.80448620978723 0 0 0 0 1319.4760786927291 -279.55657923499797 0 -279.55657923499797 130.98602752419015 0 0 0 0 -51.248982513905503 -112.38500528278797 0 -112.38500528278797 309.04978510950332 0 0 0 0 407.68665482518554 -198.63942452091703 0 -198.63942452091703 -1.6463007276188364 0 0 0 0 300.11125636041106 -312.55281882800409 0 -312.55281882800409 277.58923383594663 0 0 0 0 421.00149530736962 -131.23697423564101 0 -131.23697423564101 -24.338397578021784 0 0 0 0 182.37722013916027 60.683953533118185 0 60.683953533118185 -132.71155980795947 0 0 0 0 203.59433363858261 -211.85363879851889 0 -211.85363879851889 32.726413542686259 0 0 0 0 188.8046439785976 155.19869021484737 0 155.19869021484737 -477.07284983046134 0 0 0 0 20.717646108620102 32.379456154560557 0 32.379456154560557 -151.99356176049241 0 0 0 0 211.55111748076888 -266.47929596199481 0 -266.47929596199481 83.139866710143451 0 0 0 0 -12.906608144237751 0.19300354305981671 0 0.19300354305981671 41.510151746056891 0 0 0 0 61.388771254590807 -13.725633152608779 0 -13.725633152608779 -14.088208937500719 0 0 0 0 11.075613627632265 -104.59172674098318 0 -104.59172674098318 93.387752428657222 0 0 0 0 23.448316409543622 312.67266278859006 0 312.67266278859006 -300.32435292171431 0 0 0 0 120.44876100122929 -71.880036316022597 0 -71.880036316022597 -278.58152218804958 0 0 0 0 354.45226868413374 397.30361939144996 0 397.30361939144996 157.93246533830325 0 0 0 0 -219.5127062498068 147.55028976814691 0 147.55028976814691 251.55210698783912 0 0 0 0 144.21359941415722 118.47803488998431 0 118.47803488998431 -211.67841438879509 0 0 0 0 30.393806685096934 202.13929203831427 0 202.13929203831427 135.37968602001203 0 0 0 0 -20.15965306070575 251.32490704296617 0 251.32490704296617 259.84846702317441 0 0 0 0 -98.917158821430348 337.5793621411018 0 337.5793621411018 176.16071441674688 0 0 0 0 8.6054684325354174 313.47216724748068 0 313.47216724748068 376.92403407754534 0 0 0 0 60.059645671484759 133.81045709901605 0 133.81045709901605 287.09953186850873 0 0 0 0 390.46803414025635 -1163.2522978970023 0 -1163.2522978970023 555.60837699537467 0 0 0 0 14.483742004001556 1.0526000817066841 0 1.0526000817066841 0.78706206914649013 0 0 0 0 419.81400322337868 540.42798325039689 0 540.42798325039689 732.97410646339245 0 0 0 0 39.39137919363958 3.9634899406500175 0 3.9634899406500175 0.050671462219229024 0 0 0 0 348.27266555951792 -303.23326587885157 0 -303.23326587885157 -678.98131652939003 0 0 0 0 50.503313985231216 288.6912393319115 0 288.6912393319115 15.580079062681158 0 0 0 0 1128.8228158967904 203.11941811296794 0 203.11941811296794 -362.53584443983846 0 0 0 0 509.89765441077907 -533.07831610485493 0 -533.07831610485493 425.23292655846694 0 0 0 0 936.72600926971791 -211.3877274031538 0 -211.3877274031538 -184.62681240656116 0 0 0 0 433.08870512324211 191.34727648845069 0 191.34727648845069 -248.78435050182577 0 0 0 0 11.265472035952769 -1.7938532992263871 0 -1.7938532992263871 -0.35323886854230552 0 0 0 0 338.14501117504915 -809.2053719702717 0 -809.2053719702717 -27.257896465969907 0 0 0 0 257.61250075960561 49.220207748216239 0 49.220207748216239 -640.60744229547959 0 0 0 0 21.054027609458615 -0.08660205854266767 0 -0.08660205854266767 -0.75385248993706477 0 0 0 0 5.2603341751600965 -45.22327415136283 0 -45.22327415136283 -65.906291424499614 0 0 0 0 35.773624768247828 -69.388201777798486 0 -69.388201777798486 -203.97504045406794 0 0 0 0 -2.2773367982081254 -89.147750038387585 0 -89.147750038387585 21.652737020943277 0 0 0 0 103.17489442921215 77.149985768498198 0 77.149985768498198 10.905160021948404 0 0 0 0 42.51780042082828 -18.393091971252261 0 -18.393091971252261 -65.843037970570862 0 0 0 0 32.92693304364002 -4.7047706162166492 0 -4.7047706162166492 -81.323082596262793 0 0 0 0 43.491811302825511 4.714480253543476 0 4.714480253543476 0.22292558274290758 0 0 0 0 346.12241003941745 -336.74380844609175 0 -336.74380844609175 138.5381110841443 0 0 0 0 15.220206408296065 2.5771562001518529 0 2.5771562001518529 0.81358396418496093 0 0 0 0 963.64766878198861 -115.91560201601351 0 -115.91560201601351 -229.55284412596575 0 0 0 0 -34.777997085882816 220.06286247873538 0 220.06286247873538 217.34472848856552 0 0 0 0 -32.884417015629879 -50.594030210431583 0 -50.594030210431583 253.14179721072446 0 0 0 0 942.26655677006056 225.10699459561908 0 225.10699459561908 85.58012829010022 0 0 0 0 197.82517643204483 180.49782114111349 0 180.49782114111349 966.19370875351603 0 0 0 0 -72.187782334120129 71.033909731947688 0 71.033909731947688 359.86429367123645 0 0 0 0 207.0522399164438 54.802613924639658 0 54.802613924639658 164.15010463532917 0 0 0 0 -169.65170023831888 -151.36761596049794 0 -151.36761596049794 119.55163774428092 0 0 0 0 -170.39848482562229 26.266414997358538 0 26.266414997358538 251.33392930634921 0 0 0 0 -172.82658928785531 -23.226447027299173 0 -23.226447027299173 62.59803207613345 0 0 0 0 -182.4956966318241 -78.396859267314795 0 -78.396859267314795 95.429575223015263 0 0 0 0 -114.20662889516825 11.428705242057532 0 11.428705242057532 76.651160187598634 0 0 0 0 -106.9005973451749 67.190820737584289 0 67.190820737584289 -95.084805717536483 0 0 0 0 -167.40764552050678 177.87477754204599 0 177.87477754204599 9.4526008488915636 0 0 0 0 30.06478283792967 7.4465519987011248 0 7.4465519987011248 -2.0038257118308138 0 0 0 0 16.501760340678544 10.734090524070879 0 10.734090524070879 3.0657762811201019 0 0 0 0 29.07986254413845 0.34503402600017807 0 0.34503402600017807 7.4629395472763917 0 0 0 0 126.19975605776563 102.02784707510179 0 102.02784707510179 -445.35859244743284 0 0 0 0 34.922943275345119 4.2890979555910427 0 4.2890979555910427 -0.40653062973336052 0 0 0 0 33.20836547750514 0.0044885768378435387 0 0.0044885768378435387 -1.0495325283584549 0 0 0 0 -153.17439901454782 63.065195639629465 0 63.065195639629465 -149.59341571603358 0 0 0 0 -149.31020673335297 297.63635496687311 0 297.63635496687311 -106.68315173607448 0 0 0 0 30.827348781825492 11.390346120515979 0 11.390346120515979 1.8761281038439197 0 0 0 0 15.544884910370456 19.947913340526611 0 19.947913340526611 3.0611444280220894 0 0 0 0 22.25760584079967 9.7185785443265331 0 9.7185785443265331 1.6660867734820115 0 0 0 0 119.11730637645815 243.30128179050268 0 243.30128179050268 -129.91904155619108 0 0 0 0 -115.0050623411953 41.241248948855969 0 41.241248948855969 -191.65869824568699 0 0 0 0 158.41057198296767 306.44723809765378 0 306.44723809765378 -502.6649050356724 0 0 0 0 22.709842355834553 175.51602350839039 0 175.51602350839039 -61.011946807001095 0 0 0 0 289.19531467617344 59.30772179493249 0 59.30772179493249 -68.46681947632328 0 0 0 0 354.53131675897748 6.8220178636956916 0 6.8220178636956916 -54.624441545715172 0 0 0 0 254.01302541684709 -41.327932086139413 0 -41.327932086139413 80.876091738573223 0 0 0 0 192.53426641472106 -7.672166206420286 0 -7.672166206420286 149.3794208748277 0 0 0 0 214.38008932299272 53.117741270359716 0 53.117741270359716 -196.05325734182497 0 0 0 0 90.795918917516246 429.66784796607919 0 429.66784796607919 -66.15735385026241 0 0 0 0 76.040095135045704 367.25611433112488 0 367.25611433112488 156.11897394066096 0 0 0 0 -113.91845895317965 612.40248294596063 0 612.40248294596063 -158.18700386185674 0 0 0 0 407.24413834564621 565.61558446889558 0 565.61558446889558 -308.74322348025942 0 0 0 0 230.40891637658933 97.37041712916016 0 97.37041712916016 -688.24147970753393 0 0 0 0 -22.246981449716259 154.14137329994 0 154.14137329994 -46.617437441887688 0 0 0 0 136.29623185703531 38.586073942061603 0 38.586073942061603 -608.76794124126718 0 0 0 0 267.25091325584799 183.46136224402221 0 183.46136224402221 -607.74849292252884 0 0 0 0 153.91625062935054 93.147516734032251 0 93.147516734032251 -442.95871090792366 0 0 0 0 225.04889832210029 254.34611400325653 0 254.34611400325653 -343.84939253092301 0 0 0 0 -45.533220545767108 28.416098367197989 0 28.416098367197989 -275.59543579283462 0 0 0 0 -52.875950333836954 4.8898325013674366 0 4.8898325013674366 -320.66275284674839 0 0 0 0 233.07879357831553 201.43895118531964 0 201.43895118531964 -701.51778130121147 0 0 0 0 -2.6570601462076979 7.195002191631275 0 7.195002191631275 0.77729102237003311 0 0 0 0 53.622745063118145 9.170846981193975 0 9.170846981193975 -1.0570369931272325 0 0 0 0 -61.062009241606575 -166.60507959588358 0 -166.60507959588358 -559.40601519092979 0 0 0 0 -198.97100827109534 -104.81524909021095 0 -104.81524909021095 -448.7502085822166 0 0 0 0 -374.16191986016929 -50.91165921850552 0 -50.91165921850552 -451.55734713208767 0 0 0 0 57.447342411905993 15.926068223227887 0 15.926068223227887 1.7102079712386786 0 0 0 0 -202.43836920236936 174.17125441321457 0 174.17125441321457 -432.18269639185064 0 0 0 0 -119.27127955085598 307.38259486287188 0 307.38259486287188 -586.37409698872034 0 0 0 0 -510.7102279929677 241.62989019794577 0 241.62989019794577 -514.6967851908903 0 0 0 0 -38.521639636717737 190.53374740415165 0 190.53374740415165 -520.824034073711 0 0 0 0 98.603197697899304 278.54926432012508 0 278.54926432012508 -652.52691477096778 0 0 0 0 -116.68096383483498 313.18718825931774 0 313.18718825931774 -584.13960128798954 0 0 0 0 230.05678040924249 243.20572118506311 0 243.20572118506311 -657.91641137849081 0 0 0 0 276.44200761907268 202.41440641817408 0 202.41440641817408 -489.70823742907942 0 0 0 0 246.25849831689266 167.97191422735239 0 167.97191422735239 -506.42919921746807 0 0 0 0 219.78150884647039 111.65674576444957 0 111.65674576444957 -387.75379736157851 0 0 0 0 124.46737260980808 181.70478336962523 0 181.70478336962523 -194.21789180010398 0 0 0 0 122.66793280956335 212.45260378843489 0 212.45260378843489 -542.96825974422086 0 0 0 0 106.21094539400656 228.94600694776955 0 228.94600694776955 -472.38158521667719 0 0 0 0 -9.6365392983425409 133.54224001019691 0 133.54224001019691 -331.7722290805263 0 0 0 0 -39.440919769433094 76.360133174435873 0 76.360133174435873 -374.01536090913851 0 0 0 0 146.20757187256822 13.899130950637954 0 13.899130950637954 -248.81646312272798 0 0 0 0 81.089217430606368 -65.047934398963008 0 -65.047934398963008 -391.45115579929575 0 0 0 0 -109.37213590962347 -35.056545635531734 0 -35.056545635531734 -396.17096004097471 0 0 0 0 203.26158239232609 -43.266286896240331 0 -43.266286896240331 57.663342940167354 0 0 0 0 190.75189370226144 -121.78444474994626 0 -121.78444474994626 -172.60723859750189 0 0 0 0 140.74985270740581 107.04918214741184 0 107.04918214741184 -128.55991061665114 0 0 0 0 312.08680492523126 102.59128077442722 0 102.59128077442722 -175.70532653565141 0 0 0 0 189.04879543917195 172.91196398574237 0 172.91196398574237 224.49319742796206 0 0 0 0 251.45430326051428 83.985741176322676 0 83.985741176322676 172.92314628833878 0 0 0 0 357.63585380215955 352.57566793768694 0 352.57566793768694 20.69068255126831 0 0 0 0 -14.007279142453626 475.51718501169006 0 475.51718501169006 392.13602389869106 0 0 0 0 335.77616296314227 355.20620137149547 0 355.20620137149547 500.66664178681413 0 0 0 0 9.270301744328151 -0.16797485543037993 0 -0.16797485543037993 9.2332914865608195 0 0 0 0 -235.11965543729366 283.32408440016906 0 283.32408440016906 376.31658427917068 0 0 0 0 6.6992711970290202 -4.9320675461931529 0 -4.9320675461931529 6.7332577741571766 0 0 0 0 524.40870758098026 379.11039737953342 0 379.11039737953342 347.93585051056812 0 0 0 0 756.76566082009231 -170.32998057733084 0 -170.32998057733084 297.50538965766168 0 0 0 0 259.61996154778171 -314.38186950812747 0 -314.38186950812747 825.2724973959821 0 0 0 0 326.63305158272851 -18.607140386396964 0 -18.607140386396964 224.3434163041571 0 0 0 0 831.65114946843823 53.948032080459257 0 53.948032080459257 228.87720236756093 0 0 0 0 484.48015139595373 -313.87568520813079 0 -313.87568520813079 313.57113755492514 0 0 0 0 202.30477278984472 -248.26234868995743 0 -248.26234868995743 302.8715095756138 0 0 0 0 221.18902264958888 -21.329584513617874 0 -21.329584513617874 71.172263523724723 0 0 0 0 204.42564917025447 9.843902328522347 0 9.843902328522347 324.42411844986157 0 0 0 0 58.953806208039168 -227.9769497476799 0 -227.9769497476799 272.88986177322039 0 0 0 0 239.87590056056797 23.220387232358235 0 23.220387232358235 329.34740209101142 0 0 0 0 43.923184384286287 -72.20391449098372 0 -72.20391449098372 579.93583824830478 0 0 0 0 249.61168351475499 180.19752320972543 0 180.19752320972543 841.95649471742922 0 0 0 0 130.59541300576529 -95.701635852088174 0 -95.701635852088174 480.0573165719901 0 0 0 0 74.760737235250417 -247.51039112079474 0 -247.51039112079474 487.16966810907513 0 0 0 0 85.825285611688741 -132.86495609530675 0 -132.86495609530675 382.75735062870672 0 0 0 0 17.638450639577059 -206.50947127472148 0 -206.50947127472148 383.52647410733175 0 0 0 0 77.237901684748067 -157.43936174271147 0 -157.43936174271147 320.85416595659126 0 0 0 0 28.774951334722573 -176.84204210159456 0 -176.84204210159456 455.44250210926845 0 0 0 0 34.010172820198932 -169.45527933766408 0 -169.45527933766408 263.56123801870984 0 0 0 0 0.92574306392634753 -215.37524964072813 0 -215.37524964072813 436.78906403248766 0 0 0 0 9.1459581669187173 -134.8828710003902 0 -134.8828710003902 273.31644826177336 0 0 0 0 328.20967349604871 -269.16591772278531 0 -269.16591772278531 225.59789219102822 0 0 0 0 45.631476772068709 -141.62872498829108 0 -141.62872498829108 279.39044851133747 0 0 0 0 11.25052106565272 -198.81282975593561 0 -198.81282975593561 241.37824826622165 0 0 0 0 136.69450044361292 -122.43089562437515 0 -122.43089562437515 -127.919121979282 0 0 0 0 55.555169789673528 -63.134701359866376 0 -63.134701359866376 98.231289948124754 0 0 0 0 -1.9252671258097962 8.8657656543290866 0 8.8657656543290866 1.9771440816159054 0 0 0 0 186.50648081905092 40.35943353021753 0 40.35943353021753 -746.51679069997863 0 0 0 0 -57.910550045635318 -1.3676275233457886 0 -1.3676275233457886 -17.520587352042639 0 0 0 0 33.315056495455792 -81.945090173046253 0 -81.945090173046253 -100.00076695294098 0 0 0 0 84.107820579767576 -147.69058822325013 0 -147.69058822325013 -564.01043740400655 0 0 0 0 107.40092489177187 -28.188126906915613 0 -28.188126906915613 -467.46594974506775 0 0 0 0 -14.174102854187367 -31.644346018766335 0 -31.644346018766335 -194.88066293234721 0 0 0 0 14.516982975304927 182.65234907822287 0 182.65234907822287 -444.33893009028645 0 0 0 0 47.587272877441137 -50.93783017814205 0 -50.93783017814205 61.22531183502872 0 0 0 0 -7.2338523083017208 25.409076833915844 0 25.409076833915844 -43.755193509123984 0 0 0 0 46.951710785840987 -83.908505596313063 0 -83.908505596313063 -76.422530596743414 0 0 0 0 48.933579392018146 44.83493652933609 0 44.83493652933609 -150.65209544334337 0 0 0 0 -46.766629354766337 35.669927779455541 0 35.669927779455541 83.087956666517783 0 0 0 0 58.282766156189609 -75.237855413847612 0 -75.237855413847612 -10.70591879398642 0 0 0 0 106.84880062759339 -137.41866945359519 0 -137.41866945359519 388.68390278982901 0 0 0 0 27.637871661223471 -124.88958404852302 0 -124.88958404852302 330.92287393130192 0 0 0 0 120.93179737422452 36.020310284182919 0 36.020310284182919 92.353060226499991 0 0 0 0 338.50561181793455 -538.14667239990683 0 -538.14667239990683 341.00156956800379 0 0 0 0 266.06957110013172 75.721955775061332 0 75.721955775061332 55.796622800592218 0 0 0 0 1418.7868784536549 -79.299670802404307 0 -79.299670802404307 210.60350766380168 0 0 0 0 644.34909546715608 -132.13033308307365 0 -132.13033308307365 229.44112640733465 0 0 0 0 593.51826275870553 -263.97840820651601 0 -263.97840820651601 303.20307493290539 0 0 0 0 165.87882888806053 -164.92654806083459 0 -164.92654806083459 283.06034415742414 0 0 0 0 192.97459110835916 -73.975098877129142 0 -73.975098877129142 459.55339557687961 0 0 0 0 120.18396202311851 -196.20223818167389 0 -196.20223818167389 484.55343049091664 0 0 0 0 30.476421557732465 -181.94118805955779 0 -181.94118805955779 440.04350939941662 0 0 0 0 10.020872117078397 -207.70556318408492 0 -207.70556318408492 460.95661373190626 0 0 0 0 115.05694188171765 -177.43191327711494 0 -177.43191327711494 417.09224576100661 0 0 0 0 24.325829789362615 -66.158924449854993 0 -66.158924449854993 447.70877711590748 0 0 0 0 57.395600090239896 -245.71611311669642 0 -245.71611311669642 335.0906432490516 0 0 0 0 390.09281731222291 -127.16074447464524 0 -127.16074447464524 378.80712385252252 0 0 0 0 359.08337878057864 152.4739311593253 0 152.4739311593253 543.5287810814657 0 0 0 0 465.13608425033453 -67.677727945520076 0 -67.677727945520076 355.40921258240229 0 0 0 0 79.657153659994947 -163.32727166075298 0 -163.32727166075298 312.19156953504842 0 0 0 0 276.95012440615392 152.78698512291606 0 152.78698512291606 161.54488721821679 0 0 0 0 -79.49174060873338 186.98742241057448 0 186.98742241057448 170.18398945059607 0 0 0 0 -215.42713137992541 -293.85495364776034 0 -293.85495364776034 -276.19097619433137 0 0 0 0 -95.684201285883319 -371.84759774240757 0 -371.84759774240757 8.2654369320356409 0 0 0 0 34.562221381813288 65.383795400988106 0 65.383795400988106 -307.93998710051267 0 0 0 0 43.689783456738951 -169.81598095398166 0 -169.81598095398166 257.91955849109945 0 0 0 0 -343.37196688243421 -102.96218356721425 0 -102.96218356721425 316.82908839107483 0 0 0 0 4490.3435237372396 1587.5873549714677 0 1587.5873549714677 -270.91503777798039 0 0 0 0 1154.9832709882612 752.72121062970746 0 752.72121062970746 515.03270391462252 0 0 0 0 166.96836781015736 -84.529616933016769 0 -84.529616933016769 293.25728783744268 0 0 0 0 2326.5435870003712 379.76696235590765 0 379.76696235590765 -6.9641766352631294 0 0 0 0 1749.6412483706808 466.16359207140687 0 466.16359207140687 41.738884028593588 0 0 0 0 2565.2793535101628 999.81158072199923 0 999.81158072199923 -444.51383700062809 0 0 0 0 4501.5344368347796 598.37420391295871 0 598.37420391295871 -772.62365489008971 0 0 0 0 2939.1587632238952 -67.829882279502016 0 -67.829882279502016 -481.48050809972534 0 0 0 0 2261.1143661790702 -198.68318256516724 0 -198.68318256516724 -495.26853133127906 0 0 0 0 2174.2477816340252 -666.91487834787949 0 -666.91487834787949 130.58102388166463 0 0 0 0 2119.3384199538268 -981.51496670935614 0 -981.51496670935614 -111.68508850813612 0 0 0 0 4498.3195777404326 -962.0869909118918 0 -962.0869909118918 -452.60423139758103 0 0 0 0 4494.1151438174857 -1889.9271738167965 0 -1889.9271738167965 235.3011274539484 0 0 0 0 1073.6199208333855 1190.4227935605077 0 1190.4227935605077 232.50052879934111 0 0 0 0 18.234974968465508 -0.93367327985860982 0 -0.93367327985860982 1.3184924564058602 0 0 0 0 1782.563890435471 -2670.5262341138655 0 -2670.5262341138655 2334.4188532065741 0 0 0 0 41.261396286688296 -0.82563238867204802 0 -0.82563238867204802 -1.3659100756536908 0 0 0 0 59.274637129186885 -146.45215218976779 0 -146.45215218976779 -349.61216061194898 0 0 0 0 276.53706225580754 -550.88838593972332 0 -550.88838593972332 323.46600339894889 0 0 0 0 9.8873188435470212 0.21208042937105631 0 0.21208042937105631 0.31725419299143198 0 0 0 0 1141.6976954838683 -141.31913256449548 0 -141.31913256449548 -16.271149022178861 0 0 0 0 2113.8273246625649 -833.28945057881606 0 -833.28945057881606 444.71444066857271 0 0 0 0 187.99530877394864 47.84612677575501 0 47.84612677575501 -376.75655451411421 0 0 0 0 -146.07852220733184 -205.31930352821416 0 -205.31930352821416 126.01912809625219 0 0 0 0 33.709649968710778 1.4348691754146756 0 1.4348691754146756 -0.16564451912975464 0 0 0 0 -11.950861645105761 178.13099825961211 0 178.13099825961211 -134.18521656315107 0 0 0 0 34.699309386371169 -98.851671237670928 0 -98.851671237670928 -54.791479003108577 0 0 0 0 33.178641447986593 -0.43466593592847858 0 -0.43466593592847858 6.0883046600642956 0 0 0 0 29.001157879916718 5.06024074466184 0 5.06024074466184 3.3921917911992523 0 0 0 0 -76.279247579361254 -212.04140404649303 0 -212.04140404649303 119.35926781270705 0 0 0 0 18.930375186515704 -9.0985028210193377 0 -9.0985028210193377 2.0286091016516736 0 0 0 0 35.792570756239002 0.17034075897510093 0 0.17034075897510093 0.96667645762536836 0 0 0 0 -98.854051752321539 78.610379655729446 0 78.610379655729446 94.228733380837127 0 0 0 0 -102.90140812657046 49.376293937577138 0 49.376293937577138 -25.754348784244236 0 0 0 0 11.417601342488297 -9.7179611422363905 0 -9.7179611422363905 3.8265616692445619 0 0 0 0 18.204361717025165 7.8910324332719028 0 7.8910324332719028 2.4407205954689659 0 0 0 0 -19.028026776679326 25.833422850536863 0 25.833422850536863 -9.3785092606567559 0 0 0 0 37.588514987015515 0.38598301314971195 0 0.38598301314971195 6.0353338467938116 0 0 0 0 14.587239633547142 -17.228479074286042 0 -17.228479074286042 20.237902991673863 0 0 0 0 -101.56290894485937 -23.772516898312617 0 -23.772516898312617 20.374610132540965 0 0 0 0 23.166887287203963 -1.9759389461507055 0 -1.9759389461507055 2.068960050277171 0 0 0 0 14.673742082239599 -9.0449229962252105 0 -9.0449229962252105 6.7421888944836335 0 0 0 0 11.684888126343139 -5.0812617297322049 0 -5.0812617297322049 -1.9561217508235131 0 0 0 0 14.587239633401623 -17.228479074286952 0 -17.228479074286952 20.237902991669216 0 0 0 0 16.400331429398392 -6.1917920769085413 0 -6.1917920769085413 -0.36035435593572129 0 0 0 0 17.109631894167023 -9.3639788659215952 0 -9.3639788659215952 3.0761347460617738 0 0 0 0 14.587239633430727 -17.228479074271945 0 -17.228479074271945 20.237902991675583 0 0 0 0 -32.320489335092134 59.025020615532206 0 59.025020615532206 -96.382982971670032 0 0 0 0 -2.1475291137724071 3.1447040884438877 0 3.1447040884438877 -1.4394265821582968 0 0 0 0 18.739624895053566 -2.6383210608932757 0 -2.6383210608932757 -2.8947003134452416 0 0 0 0 10.74655634269584 -16.178909393242343 0 -16.178909393242343 9.4081801830481453 0 0 0 0 9.0013821442034043 -2.0971466470980147 0 -2.0971466470980147 1.7996242753072971 0 0 0 0 21.560403238420008 -1.1221719082101487 0 -1.1221719082101487 -6.237261432244682 0 0 0 0 20.630508784670383 -3.0501894331653148 0 -3.0501894331653148 -3.4765971957058355 0 0 0 0 89.964253032703709 18.989643367923204 0 18.989643367923204 -10.117838659064596 0 0 0 0 -40.802169888629578 -43.312013475898944 0 -43.312013475898944 182.59619384970125 0 0 0 0 9.6515798288901919 -4.1844796658182304 0 -4.1844796658182304 4.1881927532741763 0 0 0 0 1720.6104355967545 -890.99168043688974 0 -890.99168043688974 82.642775932173947 0 0 0 0 4480.4940558355011 363.47101892068844 0 363.47101892068844 -783.74329290326955 0 0 0 0 -122.32182476654998 165.61019221416143 0 165.61019221416143 641.7085679951133 0 0 0 0 -113.58943068856024 134.1794153882617 0 134.1794153882617 -29.434512215438062 0 0 0 0 13.133216998631958 -2.4341991016403739 0 -2.4341991016403739 0.30165775157325947 0 0 0 0 668.61243497091709 -242.7500555891724 0 -242.7500555891724 -138.81426360723259 0 0 0 0 361.86041930350621 230.33957934607116 0 230.33957934607116 393.65321998013025 0 0 0 0 4493.5516208668269 761.41834486160008 0 761.41834486160008 -671.67848881532984 0 0 0 0 358.0235105552274 -828.64892796824847 0 -828.64892796824847 961.36526695796829 0 0 0 0 15.694653213934217 -0.37676094577249764 0 -0.37676094577249764 1.5961415320910064 0 0 0 0 1666.2443631031492 1886.9072332340215 0 1886.9072332340215 1111.3963547978126 0 0 0 0 33.87301593710491 -7.8064255800540447 0 -7.8064255800540447 2.9983890632315844 0 0 0 0 428.80255197820588 -47.794266591626837 0 -47.794266591626837 36.909713837658281 0 0 0 0 26.397422173147788 -3.6198399701183916 0 -3.6198399701183916 36.038610209437394 0 0 0 0 34.560944603288007 -28.518741881863068 0 -28.518741881863068 22.903063525421626 0 0 0 0 46.752749844967184 -59.333605641145368 0 -59.333605641145368 27.778845344102592 0 0 0 0 23.942327819282582 -205.85281422638036 0 -205.85281422638036 -181.14737684263309 0 0 0 0 -60.241436304539093 -300.90372767211215 0 -300.90372767211215 -536.85312735368825 0 0 0 0 21.695428044097014 -8.6292863094548053 0 -8.6292863094548053 1.4986944817580792 0 0 0 0 57.329629867767466 -24.963989864496341 0 -24.963989864496341 10.457713561973732 0 0 0 0 28.436723502076347 -17.563651315808556 0 -17.563651315808556 -11.635797841776366 0 0 0 0 68.707459705157305 -33.744809707727285 0 -33.744809707727285 13.227741865220747 0 0 0 0 105.23516443070366 -58.551047586053301 0 -58.551047586053301 -168.51609251657828 0 0 0 0 169.90698601031181 -19.629399696817018 0 -19.629399696817018 -150.61400326968396 0 0 0 0 165.23549272410855 -79.806193567686023 0 -79.806193567686023 -417.26757965150136 0 0 0 0 77.319711017705245 -30.530149955792162 0 -30.530149955792162 12.957116586346988 0 0 0 0 15.338902369731798 -4.7262812280341961 0 -4.7262812280341961 5.6420903569069321 0 0 0 0 58.507598014735777 -74.25980457408059 0 -74.25980457408059 -28.857919994826261 0 0 0 0 154.99557578480017 68.067180850556667 0 68.067180850556667 -63.821214124155631 0 0 0 0 68.788689037783115 -94.520834354787439 0 -94.520834354787439 -85.522048261509099 0 0 0 0 51.610423996629834 -23.884883822373752 0 -23.884883822373752 -14.584922527526942 0 0 0 0 9.1267133899818873 1.0325252184710791 0 1.0325252184710791 12.187338703773847 0 0 0 0 39.961951018775125 -22.686640986854254 0 -22.686640986854254 3.7007242463136691 0 0 0 0 81.087323070421917 10.620655294849485 0 10.620655294849485 4.8447667684642965 0 0 0 0 65.58561693997035 -9.7511014152603366 0 -9.7511014152603366 4.8462708753713741 0 0 0 0 160.45178591708827 -45.329770763314173 0 -45.329770763314173 -149.19039662988644 0 0 0 0 178.34701900630898 36.768507844090891 0 36.768507844090891 -126.77284116109718 0 0 0 0 97.816960055250092 75.596439169244604 0 75.596439169244604 102.28453122987048 0 0 0 0 23.420681078298912 -45.673598285706134 0 -45.673598285706134 70.077058782049789 0 0 0 0 23.213020472296634 -0.41370507893445563 0 -0.41370507893445563 1.7778997817035673 0 0 0 0 151.57590981499379 -41.495604623954478 0 -41.495604623954478 11.93337617184261 0 0 0 0 -113.2931338310409 13.021261541481181 0 13.021261541481181 150.21697970596051 0 0 0 0 67.114233192240135 1.178339404081953 0 1.178339404081953 31.413907584943445 0 0 0 0 44.243027976968733 -22.830818309523238 0 -22.830818309523238 36.637189182835073 0 0 0 0 96.588865842604719 -51.709839425810515 0 -51.709839425810515 92.170076694579393 0 0 0 0 40.572874224406405 -14.018802987229719 0 -14.018802987229719 20.495862298497741 0 0 0 0 10.508325837293981 5.9513528206659316 0 5.9513528206659316 10.364995771820446 0 0 0 0 2685.4203583982016 217.63854769079029 0 217.63854769079029 -692.70169926440769 0 0 0 0 2145.1978495667026 -755.1363899308277 0 -755.1363899308277 -508.57106760062044 0 0 0 0 1230.3981944648476 -182.65703605423516 0 -182.65703605423516 400.37472686563876 0 0 0 0 4495.1609377225723 -1190.8361268069282 0 -1190.8361268069282 -770.55242129656665 0 0 0 0 8.1119414824897262 0.58973416648570165 0 0.58973416648570165 8.2678447622122988 0 0 0 0 1972.7026668771068 -2459.990818255088 0 -2459.990818255088 1536.180213413943 0 0 0 0 4487.3133411674498 4.0741914075021715 0 4.0741914075021715 13.887759041093533 0 0 0 0 12.834541352787596 3.9225808478001341 0 3.9225808478001341 6.4101295307005959 0 0 0 0 -212.80420419716756 511.01066689647752 0 511.01066689647752 262.11195374580723 0 0 0 0 45.818898530512854 -10.41394578011297 0 -10.41394578011297 6.2289359139834177 0 0 0 0 -88.844170016658609 -87.118906645467462 0 -87.118906645467462 56.645512006034267 0 0 0 0 365.54375559707114 -240.68579097629379 0 -240.68579097629379 -498.85213485691145 0 0 0 0 509.96368260940653 -80.473793205499078 0 -80.473793205499078 29.858719009855122 0 0 0 0 420.74172870439361 -113.36198049621113 0 -113.36198049621113 412.533573758123 0 0 0 0 4493.2955599892739 840.46553022092553 0 840.46553022092553 -506.65488964563815 0 0 0 0 1440.1269324349414 1212.9107032027787 0 1212.9107032027787 538.3161070523654 0 0 0 0 4489.5275120096485 -424.13420030613656 0 -424.13420030613656 -595.86661628282957 0 0 0 0 1968.295025571555 -168.98922373181404 0 -168.98922373181404 -572.17607792346496 0 0 0 0 484.52872683218447 -272.59469293586687 0 -272.59469293586687 369.27082829787315 0 0 0 0 1429.2206406833575 412.13863436258708 0 412.13863436258708 391.01566324439574 0 0 0 0 -260.61386898875571 387.20638481427432 0 387.20638481427432 298.25964248960736 0 0 0 0 1796.8193073503789 2096.6960472621486 0 2096.6960472621486 1668.2949626265324 0 0 0 0 22.145190851946126 2.2861869776064419 0 2.2861869776064419 1.4541801025251198 0 0 0 0 1587.2575628872764 -1166.8357357385553 0 -1166.8357357385553 150.4464393297844 0 0 0 0 164.45510464919789 132.51924726264934 0 132.51924726264934 88.125309416756465 0 0 0 0 1.335652850453755 4.6537777496196648 0 4.6537777496196648 1.4025320101587448 0 0 0 0 122.79994878043362 -121.14145216812585 0 -121.14145216812585 -23.760251238815499 0 0 0 0 8.5733413931575271 2.2400599748845735 0 2.2400599748845735 -1.7907675995609096 0 0 0 0 70.488366855686763 229.17771015654978 0 229.17771015654978 -455.23771600909384 0 0 0 0 48.151784047818154 5.5960012211998293 0 5.5960012211998293 -2.1259753586081214 0 0 0 0 466.69421522806806 15.718160797363907 0 15.718160797363907 -369.53142707949746 0 0 0 0 -157.46683442552603 34.355775327832703 0 34.355775327832703 525.57043661335433 0 0 0 0 -211.02065636972111 137.86500035462399 0 137.86500035462399 136.66383605621067 0 0 0 0 -155.36665669731883 25.526707540783946 0 25.526707540783946 -59.846885636643947 0 0 0 0 67.922642768895457 59.980119579309502 0 59.980119579309502 35.143136742749562 0 0 0 0 6.4903829930368389 24.300235347447313 0 24.300235347447313 2.4166252149401046 0 0 0 0 183.31346835751174 65.408722328249638 0 65.408722328249638 -5.1351368250407745 0 0 0 0 25.041833991139754 18.599268886710306 0 18.599268886710306 0.072402272915435439 0 0 0 0 166.50690488293912 26.946318765261339 0 26.946318765261339 -55.362695238563106 0 0 0 0 -214.50678984280967 -66.909618913660893 0 -66.909618913660893 179.7260361126738 0 0 0 0 21.579940062616515 -189.69386029037014 0 -189.69386029037014 -208.98490126901629 0 0 0 0 64.247948835471135 -14.325341466822461 0 -14.325341466822461 4.7836031601110447 0 0 0 0 127.57371755064378 -10.557698120406258 0 -10.557698120406258 -14.063020170514392 0 0 0 0 12.046809653744276 -121.00813333046517 0 -121.00813333046517 -88.438260610361795 0 0 0 0 247.47066583279229 -56.436085150320224 0 -56.436085150320224 -8.3972248281580733 0 0 0 0 125.85894207695985 -23.984915155230642 0 -23.984915155230642 5.2937056217944871 0 0 0 0 10.465371445134224 -172.66150810288013 0 -172.66150810288013 144.97712391390542 0 0 0 0 389.90079096989211 248.16596568787463 0 248.16596568787463 340.26704291978058 0 0 0 0 46.026242300553562 4.4905888427330609 0 4.4905888427330609 -7.9492326495637666 0 0 0 0 123.4636076556053 -49.856300837608444 0 -49.856300837608444 25.92330768765963 0 0 0 0 110.60297823078108 -34.108998976145372 0 -34.108998976145372 11.88923030573527 0 0 0 0 230.86144424560189 -35.69675931469471 0 -35.69675931469471 -214.42123391035136 0 0 0 0 63.03117316357384 62.421928009599782 0 62.421928009599782 -120.70395028294666 0 0 0 0 30.367704825883806 -14.435924605475265 0 -14.435924605475265 2.2965244533653286 0 0 0 0 197.79368748305569 96.254640278545338 0 96.254640278545338 -9.5126271382999903 0 0 0 0 213.36268477418344 27.458979194796711 0 27.458979194796711 -112.74077665256604 0 0 0 0 270.41959973429402 -77.700002108283485 0 -77.700002108283485 -89.951075094151008 0 0 0 0 295.44173700680039 103.1179013499374 0 103.1179013499374 178.45404985203629 0 0 0 0 354.59846871887385 -72.137598604633524 0 -72.137598604633524 94.025286072714039 0 0 0 0 260.04180448951956 -6.328244101414839 0 -6.328244101414839 57.773939824603303 0 0 0 0 198.48337706601887 -147.72777610301864 0 -147.72777610301864 92.162040361486007 0 0 0 0 447.84233957763354 -121.00072744422735 0 -121.00072744422735 90.898916368865912 0 0 0 0 300.69702046727616 29.015329943911951 0 29.015329943911951 27.136981630561593 0 0 0 0 215.32961386587704 -81.971559356497892 0 -81.971559356497892 -135.84343433352564 0 0 0 0 276.31696711966288 -164.35512445403708 0 -164.35512445403708 -256.9285219436801 0 0 0 0 -7.8390049996778544 -99.17109307114697 0 -99.17109307114697 -14.543356482952731 0 0 0 0 162.89209438791974 -50.435143836433873 0 -50.435143836433873 13.093070132234955 0 0 0 0 61.984802204940934 -14.920250808685239 0 -14.920250808685239 -106.74061756638983 0 0 0 0 130.01167215220084 -55.160694680335922 0 -55.160694680335922 5.2639496585209145 0 0 0 0 -30.922307854842984 -57.232671523661907 0 -57.232671523661907 8.6463743648162108 0 0 0 0 90.237683355891932 -97.942967521214086 0 -97.942967521214086 -31.773338595403629 0 0 0 0 54.851431452892001 -77.884037492909783 0 -77.884037492909783 7.9560286840262506 0 0 0 0 15.992581507315208 -87.822065752788092 0 -87.822065752788092 29.732597828297912 0 0 0 0 41.80073443617831 -44.813384849376291 0 -44.813384849376291 15.772623953302158 0 0 0 0 66.28640307533351 -53.571477191067061 0 -53.571477191067061 35.706002819426431 0 0 0 0 22.171849695543955 -13.645466046062673 0 -13.645466046062673 -27.949571265124185 0 0 0 0 107.77221088836268 -106.10490055974407 0 -106.10490055974407 22.340984864048778 0 0 0 0 -12.104720808725688 -75.875906536282855 0 -75.875906536282855 -15.434984253730363 0 0 0 0 20.72869126668229 -98.374446606588322 0 -98.374446606588322 -37.811093356799006 0 0 0 0 53.829518474231008 -98.669393095859249 0 -98.669393095859249 32.067326455047578 0 0 0 0 489.51995984149835 -259.24198946002389 0 -259.24198946002389 -292.67533508907354 0 0 0 0 -1.9462412151109447 -2.1818138641848961 0 -2.1818138641848961 6.3376530447098007 0 0 0 0 -90.278275327458687 -73.959376813818835 0 -73.959376813818835 124.53080659287116 0 0 0 0 522.42556199851606 259.60321563664093 0 259.60321563664093 11.939526204620506 0 0 0 0 94.194846701480856 13.43126289836664 0 13.43126289836664 111.73067939964449 0 0 0 0 -18.160487305529387 -109.82360594278521 0 -109.82360594278521 13.90266081475329 0 0 0 0 210.02634173230399 11.069164952324059 0 11.069164952324059 -118.07094449341457 0 0 0 0 46.036018557868374 -136.64586102101907 0 -136.64586102101907 -7.1036664390203441 0 0 0 0 85.288745608567069 7.0626929518929273 0 7.0626929518929273 -31.364192958126296 0 0 0 0 70.864137545264384 -107.07076914355298 0 -107.07076914355298 -5.9976545455305086 0 0 0 0 80.48530111287937 -26.204427551141478 0 -26.204427551141478 7.6651233531592915 0 0 0 0 198.24630194338533 -104.7541279882555 0 -104.7541279882555 -208.27127845006407 0 0 0 0 103.33628106804099 -50.011106550799923 0 -50.011106550799923 -115.04225977589658 0 0 0 0 126.43207698046081 13.868702805408702 0 13.868702805408702 -35.986124516576638 0 0 0 0 124.13204827213394 33.68256286232554 0 33.68256286232554 -22.40619685846832 0 0 0 0 116.01124267433352 -7.473642511133221 0 -7.473642511133221 -25.076037474046643 0 0 0 0 7.6623265167377195 -10.540230818264744 0 -10.540230818264744 13.207390865794018 0 0 0 0 18.297448880349407 -40.453945247600132 0 -40.453945247600132 -5.7464470983444471 0 0 0 0 3.306539754579763 -9.344803632708512 0 -9.344803632708512 -9.9817188446457266 0 0 0 0 19.085280635518302 -35.853615649299627 0 -35.853615649299627 4.9952266587097256 0 0 0 0 27.521232986351606 -53.718527241186166 0 -53.718527241186166 12.591443673942194 0 0 0 0 32.698443334063292 -26.510391095954393 0 -26.510391095954393 8.1965955159348916 0 0 0 0 49.19056146260111 -26.391219272406925 0 -26.391219272406925 0.11082388082929029 0 0 0 0 29.929174451262952 -35.486701610630917 0 -35.486701610630917 -1.3236609719747321 0 0 0 0 79.521100147249768 -26.133191908052975 0 -26.133191908052975 -0.38607196858834669 0 0 0 0 110.66492466198906 -15.309049326874629 0 -15.309049326874629 -72.846319405972736 0 0 0 0 68.303067314244799 -10.894957739849815 0 -10.894957739849815 16.073805502695905 0 0 0 0 250.58758376211699 -64.084388974919875 0 -64.084388974919875 5.6024489443175298 0 0 0 0 -14.986463384888339 36.593039653609594 0 36.593039653609594 77.04134032163347 0 0 0 0 -15.519317001279887 -91.401879129863119 0 -91.401879129863119 75.455190736866371 0 0 0 0 21.093160095339499 -15.073891102750167 0 -15.073891102750167 31.263221832001364 0 0 0 0 19.638117986135967 -31.955787228876034 0 -31.955787228876034 21.359553482899628 0 0 0 0 72.095856265381826 -52.695023446115101 0 -52.695023446115101 29.081459257608003 0 0 0 0 264.47186314871669 -42.80429900163881 0 -42.80429900163881 -22.660579203484076 0 0 0 0 411.5939780089584 -179.16894571678222 0 -179.16894571678222 -6.0785956452264145 0 0 0 0 680.91676170267419 -342.39861402609654 0 -342.39861402609654 16.697851025581258 0 0 0 0 371.09184695903878 -75.309714043383792 0 -75.309714043383792 -13.870815773242157 0 0 0 0 772.95399281744812 -24.187833578030222 0 -24.187833578030222 -127.63606465978319 0 0 0 0 343.00751234548625 64.430503868343294 0 64.430503868343294 28.170673950815399 0 0 0 0 8.2495482510503102 -2.2042936065354368 0 -2.2042936065354368 -0.18587229848436415 0 0 0 0 421.70865591328538 184.44388187575532 0 184.44388187575532 -1.6056978731776326 0 0 0 0 621.02860075658202 98.015782863171239 0 98.015782863171239 29.136970791238127 0 0 0 0 724.92813931788169 -428.05881181121549 0 -428.05881181121549 125.09865482823625 0 0 0 0 366.30223310607028 -425.87617103024604 0 -425.87617103024604 471.24834339424706 0 0 0 0 115.55346059578858 78.13652672987655 0 78.13652672987655 -13.60564461076865 0 0 0 0 22.102204764491944 -74.244239456460946 0 -74.244239456460946 -34.175844889067776 0 0 0 0 18.320648311060317 -11.567650458080799 0 -11.567650458080799 11.864755836265244 0 0 0 0 -35.595204941982956 -27.104936201561941 0 -27.104936201561941 83.282734458966388 0 0 0 0 19.174463145204122 -28.431254696177611 0 -28.431254696177611 46.304240244860438 0 0 0 0 -39.497789182005363 -33.521722332649006 0 -33.521722332649006 -27.026402901028632 0 0 0 0 -64.773752155000693 -74.314477816461476 0 -74.314477816461476 3.1367016661242815 0 0 0 0 -64.961520955459747 -77.623370110905512 0 -77.623370110905512 -39.933305384163759 0 0 0 0 815.85943710292963 -252.803051015866 0 -252.803051015866 129.02455466259198 0 0 0 0 0.78852315086064673 -7.4985639500486183 0 -7.4985639500486183 21.354835501185576 0 0 0 0 214.14434563615652 -58.645539935345397 0 -58.645539935345397 12.368742308686201 0 0 0 0 1048.3763957636013 -1091.5834071123536 0 -1091.5834071123536 -369.11592115669737 0 0 0 0 -800.51605193239629 1939.5201259336463 0 1939.5201259336463 -2852.3370708741786 0 0 0 0 -42.575925862311124 -51.053712336793978 0 -51.053712336793978 -73.249936173382594 0 0 0 0 149.86507742438698 -158.60909623762959 0 -158.60909623762959 130.32382655025958 0 0 0 0 232.23233819322922 -202.25600324256408 0 -202.25600324256408 -37.992423061169909 0 0 0 0 10.25330248412827 -26.055242966901019 0 -26.055242966901019 20.699245236992873 0 0 0 0 20.443338524681167 75.306904308250068 0 75.306904308250068 106.00743577737489 0 0 0 0 19.78325381459581 -117.25358987171421 0 -117.25358987171421 111.32732454690813 0 0 0 0 59.33270805842767 70.767479155203546 0 70.767479155203546 95.425564376490797 0 0 0 0 180.21881704873886 -185.62005980053922 0 -185.62005980053922 131.96690011301757 0 0 0 0 125.3996996763945 5.5961117751894704 0 5.5961117751894704 -9.6729877391146992 0 0 0 0 5.4510744833631577 11.464415806944857 0 11.464415806944857 -2.7424344716848381 0 0 0 0 272.67782444770273 235.6872061768122 0 235.6872061768122 -295.04563287210158 0 0 0 0 242.32553573629593 -224.67748813349999 0 -224.67748813349999 194.03743876277986 0 0 0 0 -743.50793156102736 306.17795462317872 0 306.17795462317872 281.70914108247234 0 0 0 0 416.95942269769148 41.375615090204519 0 41.375615090204519 -134.41768209007387 0 0 0 0 95.65266532450417 2.1771748097811283 0 2.1771748097811283 -16.746544812524728 0 0 0 0 57.130432392790681 72.360658951443838 0 72.360658951443838 211.17140222734452 0 0 0 0 236.41540803150565 170.2217568760243 0 170.2217568760243 251.95298443740467 0 0 0 0 245.92695538827684 13.938789758261919 0 13.938789758261919 31.163022595852453 0 0 0 0 557.6172723872769 72.558896691745304 0 72.558896691745304 -20.10780048016386 0 0 0 0 1920.6773334961035 -898.51474745160522 0 -898.51474745160522 233.3587176306828 0 0 0 0 491.22330931344186 152.49778676014103 0 152.49778676014103 101.41863904999627 0 0 0 0 169.31070247140806 -54.402981891230304 0 -54.402981891230304 14.886458661601125 0 0 0 0 455.04192204940773 31.356382664642297 0 31.356382664642297 -25.299805944834588 0 0 0 0 132.15137526223407 -101.24735633176374 0 -101.24735633176374 -62.264566121136909 0 0 0 0 374.75633850836311 -101.10230547373123 0 -101.10230547373123 -188.36360717033608 0 0 0 0 -63.49290737962292 -40.517107173106524 0 -40.517107173106524 126.91099500569908 0 0 0 0 127.02887914808349 -106.29785918843254 0 -106.29785918843254 -201.11134946096172 0 0 0 0 311.56767508196708 107.50591969930065 0 107.50591969930065 -961.33459895609667 0 0 0 0 148.80673689195828 -300.27764825199847 0 -300.27764825199847 -653.23765294076657 0 0 0 0 51.830436271044178 -12.43706016638782 0 -12.43706016638782 -9.2294682556564993 0 0 0 0 -1197.044614172255 316.46015668253767 0 316.46015668253767 1022.3821537875228 0 0 0 0 126.35079928729829 -241.70272253161147 0 -241.70272253161147 106.64603212571092 0 0 0 0 714.83547152873189 -703.41934363683185 0 -703.41934363683185 390.11097466778301 0 0 0 0 211.71735430352874 69.585307699355326 0 69.585307699355326 27.165033711718934 0 0 0 0 502.56918442056849 -24.133623819378045 0 -24.133623819378045 -192.40067940064546 0 0 0 0 259.56567762835584 39.904650116002358 0 39.904650116002358 -167.34366613546081 0 0 0 0 120.89609941375602 116.40496956788957 0 116.40496956788957 -61.46097200886652 0 0 0 0 67.893108544370079 55.892466296089879 0 55.892466296089879 -130.27146411441117 0 0 0 0 194.6989754309169 130.4919057408988 0 130.4919057408988 -211.11969266348024 0 0 0 0 181.62390888752998 7.3736807668001347 0 7.3736807668001347 -343.91246111529472 0 0 0 0 147.83888897122952 -33.041160951827621 0 -33.041160951827621 2.4539706203102476 0 0 0 0 179.13567743476597 -68.643981974428243 0 -68.643981974428243 -69.526339766361161 0 0 0 0 68.457443128933434 -29.599114978098527 0 -29.599114978098527 -5.7181667015136508 0 0 0 0 173.92012162872925 23.114416746167308 0 23.114416746167308 -158.24019902360669 0 0 0 0 135.11915400209654 4.7767328749196487 0 4.7767328749196487 -12.596687912341983 0 0 0 0 735.22645696534892 122.82125517718896 0 122.82125517718896 -226.04252769882169 0 0 0 0 79.706716578337364 38.064434149946464 0 38.064434149946464 -184.89954743663429 0 0 0 0 115.54551391599517 -26.894226304875609 0 -26.894226304875609 -46.995899883215884 0 0 0 0 -241.6771022692119 -139.91395697872758 0 -139.91395697872758 194.59852817049796 0 0 0 0 125.48927649861071 -6.4071833867010355 0 -6.4071833867010355 -127.88681126732808 0 0 0 0 71.129374904190087 64.372288811531064 0 64.372288811531064 -28.000099253580842 0 0 0 0 366.53941643034341 79.770208720432947 0 79.770208720432947 191.62671120617142 0 0 0 0 7.409025806068712 -24.485494733318092 0 -24.485494733318092 -0.34666980529492442 0 0 0 0 272.64478644660267 140.71084847289785 0 140.71084847289785 153.39103741184863 0 0 0 0 232.61915142530052 63.256436094130549 0 63.256436094130549 301.8610139752036 0 0 0 0 399.21211371119807 -323.83865241794342 0 -323.83865241794342 -44.982687520890977 0 0 0 0 253.28050752333365 -344.9400043143869 0 -344.9400043143869 23.22371159816521 0 0 0 0 211.45180818498193 -375.05391038375865 0 -375.05391038375865 9.3759690601127659 0 0 0 0 297.67021301844215 -398.10959966209293 0 -398.10959966209293 -97.176508070097952 0 0 0 0 244.37355111363286 49.178256748874901 0 49.178256748874901 9.2280883197909134 0 0 0 0 153.26314274654214 14.021037483014982 0 14.021037483014982 -9.1052501834870405 0 0 0 0 230.35311612000805 13.49077228070837 0 13.49077228070837 115.1285390948085 0 0 0 0 195.92691563623521 131.18911473759113 0 131.18911473759113 25.568413247203353 0 0 0 0 175.12581371870328 118.05214578172445 0 118.05214578172445 146.62663023180266 0 0 0 0 136.87105750603951 125.29967552324024 0 125.29967552324024 262.88516120683198 0 0 0 0 34.159634717068663 -0.20915233947351908 0 -0.20915233947351908 1.8192337311117388 0 0 0 0 257.03083111348678 -113.25834367935522 0 -113.25834367935522 196.98897811335996 0 0 0 0 219.05542059153959 -14.355977787710344 0 -14.355977787710344 52.747691762517206 0 0 0 0 78.929920785166814 -10.747642110544632 0 -10.747642110544632 -62.448732344014388 0 0 0 0 133.2210943237688 -9.117771642499461 0 -9.117771642499461 -15.89459655197434 0 0 0 0 264.47015421826296 -6.7808216683145304 0 -6.7808216683145304 -83.473757615392969 0 0 0 0 159.17707533253446 2.5956752971195343 0 2.5956752971195343 -8.1677989190112577 0 0 0 0 221.97757353703491 -138.22537458889929 0 -138.22537458889929 -132.31025770859742 0 0 0 0 252.83043891139747 -24.657602141343759 0 -24.657602141343759 -24.475827479907707 0 0 0 0 262.13983304905395 -18.216392885341484 0 -18.216392885341484 -51.31248418228742 0 0 0 0 98.731638647757279 -72.55901103380917 0 -72.55901103380917 -44.841620325273333 0 0 0 0 147.38610994508323 -48.201522658331612 0 -48.201522658331612 -20.77314551050619 0 0 0 0 66.200680122507038 -54.482905975737594 0 -54.482905975737594 -74.961580738075781 0 0 0 0 88.06758864960284 -19.948100415218505 0 -19.948100415218505 -115.84644163765734 0 0 0 0 107.26965732788841 -53.351440740013047 0 -53.351440740013047 -48.841813810058277 0 0 0 0 11.89385305815432 -10.286409818474382 0 -10.286409818474382 -24.508568473530016 0 0 0 0 -31.479716065747937 -52.321354911892399 0 -52.321354911892399 -42.934030570981122 0 0 0 0 -143.70347093264445 -269.49507830379025 0 -269.49507830379025 185.93576205117461 0 0 0 0 284.96499157411972 89.266659184519085 0 89.266659184519085 -26.859432676870711 0 0 0 0 151.6201232172624 4.5771960065588004 0 4.5771960065588004 -9.2407376893074051 0 0 0 0 1456.2617161347707 14.856731905914785 0 14.856731905914785 -689.38631496790367 0 0 0 0 28.717471144514104 -10.697427519099111 0 -10.697427519099111 -10.466075353814123 0 0 0 0 1322.6405911089528 13.222643878636518 0 13.222643878636518 -382.72880410126345 0 0 0 0 861.96395819897225 284.14862981061015 0 284.14862981061015 -146.12492911078516 0 0 0 0 456.47169726835091 199.57426064400534 0 199.57426064400534 -116.27665104815151 0 0 0 0 763.42267404120912 -130.21011065986659 0 -130.21011065986659 -380.63278977041409 0 0 0 0 191.49173239319316 39.275258467634785 0 39.275258467634785 -77.209580824203613 0 0 0 0 15.01552227637327 -5.1736090509365162 0 -5.1736090509365162 -87.357657885354115 0 0 0 0 284.0808127581613 -38.175397469681684 0 -38.175397469681684 -105.657954537146 0 0 0 0 383.07050705050278 -37.137406090892455 0 -37.137406090892455 -127.71919973999275 0 0 0 0 414.52915396204139 -109.78552456099635 0 -109.78552456099635 -83.492673862472657 0 0 0 0 460.45126547290738 -201.62025349404303 0 -201.62025349404303 -249.37463316181493 0 0 0 0 422.67838538908336 -95.941904135481309 0 -95.941904135481309 -103.16223964080382 0 0 0 0 253.20836019374565 -94.306692758886072 0 -94.306692758886072 51.806783148923728 0 0 0 0 437.77066244337493 41.99940246892524 0 41.99940246892524 -59.948550696242478 0 0 0 0 416.81295605416335 77.402775161254795 0 77.402775161254795 -117.54098449924095 0 0 0 0 130.27394642658692 9.8736861270343184 0 9.8736861270343184 -5.7946334436144298 0 0 0 0 -1.6671926986832033 -2.9173627705687331 0 -2.9173627705687331 -52.130196670843574 0 0 0 0 -82.119468292609042 67.107447022417148 0 67.107447022417148 90.064838936743399 0 0 0 0 152.37583353162154 -34.352377860383058 0 -34.352377860383058 -12.346861596797226 0 0 0 0 196.76126669570567 94.348404881521219 0 94.348404881521219 353.98687913553204 0 0 0 0 356.07296449769728 -333.0784019573457 0 -333.0784019573457 338.84510835622717 0 0 0 0 226.82828580613341 -124.27154614088658 0 -124.27154614088658 51.049865551794937 0 0 0 0 221.43767877120445 -151.10243859645107 0 -151.10243859645107 -76.453775912602396 0 0 0 0 81.198584796912655 -164.24488507905471 0 -164.24488507905471 78.665397436019703 0 0 0 0 229.04140115271366 -104.84575360281679 0 -104.84575360281679 -14.859832067872958 0 0 0 0 455.00011434911812 -220.75508677813468 0 -220.75508677813468 -48.435776439771871 0 0 0 0 393.44807926988688 -280.96701596926323 0 -280.96701596926323 62.706719107749848 0 0 0 0 397.45369983829278 -200.36462908986869 0 -200.36462908986869 -35.984110279453034 0 0 0 0 408.81236137529004 -228.13052885003435 0 -228.13052885003435 23.388291552864757 0 0 0 0 480.14557680992039 -138.26408157300284 0 -138.26408157300284 -19.980331871068756 0 0 0 0 879.44067331380847 524.24337862702146 0 524.24337862702146 -617.93938397315105 0 0 0 0 841.88175524439612 114.82565744860585 0 114.82565744860585 293.93322720209653 0 0 0 0 905.02005240229664 585.90031543824853 0 585.90031543824853 69.531466127745261 0 0 0 0 614.90577188168663 248.37389603917515 0 248.37389603917515 -73.305052699336102 0 0 0 0 -4.4489757827268477 -62.639773351931581 0 -62.639773351931581 -73.31610154118971 0 0 0 0 0.65723277499011834 -5.128971968030541 0 -5.128971968030541 -21.721808109240278 0 0 0 0 600.67134932927729 -190.73964854469341 0 -190.73964854469341 -456.27029184069761 0 0 0 0 1313.3468773183049 -607.59070871906624 0 -607.59070871906624 46.275043714345884 0 0 0 0 2278.239462572601 -414.44882840123955 0 -414.44882840123955 -545.01843871509118 0 0 0 0 2533.1900649420968 102.15670447772391 0 102.15670447772391 -275.92759746877641 0 0 0 0 1.5048449711372029 -3.9290700907187741 0 -3.9290700907187741 4.7735915347738427 0 0 0 0 2284.7187261395702 427.52865467485481 0 427.52865467485481 46.517263560417632 0 0 0 0 -467.78263297022204 -158.49749872010216 0 -158.49749872010216 167.73392637415236 0 0 0 0 5.7671105835348371 1.2571581329822941 0 1.2571581329822941 0.89766672815781945 0 0 0 0 2129.2617698707636 -280.26808469351818 0 -280.26808469351818 172.84959518648247 0 0 0 0 1699.4678117478961 199.79852704161203 0 199.79852704161203 763.47560435920605 0 0 0 0 2427.7351286744488 35.412406579638628 0 35.412406579638628 -288.18455297340643 0 0 0 0 1447.6922770114379 -267.53864631494616 0 -267.53864631494616 506.01860540386315 0 0 0 0 277.09590004352413 377.03651688493937 0 377.03651688493937 546.55849660503645 0 0 0 0 1411.8627651843108 413.25647592239318 0 413.25647592239318 -13.475628506848807 0 0 0 0 1244.8845754714739 -20.32127746228889 0 -20.32127746228889 250.57933438449618 0 0 0 0 11.757447493852851 -339.37906552050254 0 -339.37906552050254 -537.55873819052977 0 0 0 0 1.0284434364961341 -3.0187159931741938 0 -3.0187159931741938 9.5238591874783118 0 0 0 0 819.55043593287428 -365.07198612062939 0 -365.07198612062939 608.53334757357152 0 0 0 0 -849.86873194253167 18.582195164742643 0 18.582195164742643 1426.0561317122092 0 0 0 0 -0.076057050008985438 -1.7670686641999325 0 -1.7670686641999325 -3.8639427898591876 0 0 0 0 466.14322519827329 -256.59596389321905 0 -256.59596389321905 51.741777505690152 0 0 0 0 640.68707054669483 -204.232583797681 0 -204.232583797681 -40.165494286167814 0 0 0 0 424.9013032044295 -178.77245159297036 0 -178.77245159297036 17.810499741004662 0 0 0 0 380.71301757365927 -202.46950678569374 0 -202.46950678569374 36.40966248974928 0 0 0 0 396.57340607100195 -193.48833927456099 0 -193.48833927456099 91.356408094250583 0 0 0 0 382.59819293811825 -162.96304198280791 0 -162.96304198280791 30.195882716609958 0 0 0 0 361.89449373620846 -231.98486266766122 0 -231.98486266766122 48.6325384982797 0 0 0 0 67.585792934206438 -82.139497174537155 0 -82.139497174537155 202.40333316891338 0 0 0 0 453.42445823612798 11.368654312680974 0 11.368654312680974 195.80077417960223 0 0 0 0 472.34758632384205 -181.93698369851833 0 -181.93698369851833 66.412584556282127 0 0 0 0 353.82373022134834 -186.84884305675837 0 -186.84884305675837 111.09870865005905 0 0 0 0 695.79296029785655 -329.36430247883459 0 -329.36430247883459 133.58575112250492 0 0 0 0 657.70181763129949 28.00387789543629 0 28.00387789543629 -2.1245195823880749 0 0 0 0 1023.3235885440226 -160.09876640927087 0 -160.09876640927087 -110.60061643850713 0 0 0 0 1.292961480747695 -2.5134838606162475 0 -2.5134838606162475 20.065836417612278 0 0 0 0 320.1221808189166 153.58970808309618 0 153.58970808309618 453.74116721549217 0 0 0 0 552.14626040644089 18.472661291320719 0 18.472661291320719 59.725111428619584 0 0 0 0 851.04801514038263 653.25851376456194 0 653.25851376456194 394.87676089208617 0 0 0 0 1530.6335833281291 -583.73984957200582 0 -583.73984957200582 228.55360412344089 0 0 0 0 9.4696818974423227 -11.881616747678358 0 -11.881616747678358 20.237916874348372 0 0 0 0 2058.7334870342893 56.544361310257045 0 56.544361310257045 -122.4752555804298 0 0 0 0 -282.47869690290645 -100.82411761608159 0 -100.82411761608159 198.24193005871712 0 0 0 0 0.98893102770251318 -0.4033115592099108 0 -0.4033115592099108 8.2785825638034893 0 0 0 0 2534.2361115264193 117.08897329161891 0 117.08897329161891 -546.7303919453916 0 0 0 0 1.0758380186615986 0.73003365210891147 0 0.73003365210891147 10.573962268745966 0 0 0 0 482.15937356722952 166.10159570490555 0 166.10159570490555 853.68994274102511 0 0 0 0 865.86686622226625 106.92849623964594 0 106.92849623964594 740.29456376964526 0 0 0 0 1048.8943795379614 -468.50167712690836 0 -468.50167712690836 271.66960695042508 0 0 0 0 414.51576257048146 -365.19316534861355 0 -365.19316534861355 411.16604268383526 0 0 0 0 801.11605677929674 -312.048299424292 0 -312.048299424292 80.624202539101134 0 0 0 0 427.67850620580066 -523.61224465880605 0 -523.61224465880605 342.23926477780287 0 0 0 0 1169.4280153000818 334.86015511802725 0 334.86015511802725 366.83054209714282 0 0 0 0 651.91757963519922 -430.56205666550682 0 -430.56205666550682 557.00991262588889 0 0 0 0 612.41204250471856 -259.01317163225156 0 -259.01317163225156 -446.12895308518546 0 0 0 0 297.17279230956774 -329.51361096503774 0 -329.51361096503774 85.491510846585584 0 0 0 0 520.98619136580055 -395.57107445708107 0 -395.57107445708107 -105.0203097879571 0 0 0 0 652.41487302806308 197.21335918064472 0 197.21335918064472 -704.63751556070861 0 0 0 0 67.082967963235205 143.40836195040976 0 143.40836195040976 54.47000001312108 0 0 0 0 488.53831554932185 520.83759223933657 0 520.83759223933657 -307.28150353147203 0 0 0 0 489.97692974835536 465.92322354185626 0 465.92322354185626 314.45320377064013 0 0 0 0 712.71307750331107 -33.88678588187372 0 -33.88678588187372 73.101424170134578 0 0 0 0 411.64904355558065 220.50344406714009 0 220.50344406714009 16.206687779026879 0 0 0 0 392.58969387128786 168.21942657107371 0 168.21942657107371 -41.466546166399269 0 0 0 0 125.66175971529265 94.434298459279205 0 94.434298459279205 463.02308525258468 0 0 0 0 793.32061558895293 -390.35691288784255 0 -390.35691288784255 842.60285661881812 0 0 0 0 489.6151668829516 17.519821026845875 0 17.519821026845875 349.97517556906291 0 0 0 0 422.75002547320037 96.394851155000197 0 96.394851155000197 1144.538803780998 0 0 0 0 1164.2673158923315 -265.53211296675943 0 -265.53211296675943 167.92497985410319 0 0 0 0 3.0495767966229756 0.27082288892530748 0 0.27082288892530748 -1.7795416699528541 0 0 0 0 775.95717590556524 -246.09238762397354 0 -246.09238762397354 166.41269942133022 0 0 0 0 84.283344577946082 -72.123570507214396 0 -72.123570507214396 196.38857841569143 0 0 0 0 115.51270941339226 -76.068317835739322 0 -76.068317835739322 100.83986084403318 0 0 0 0 10.491358757547005 -102.4973332698471 0 -102.4973332698471 204.48411696080183 0 0 0 0 192.71475792699039 76.87900967650647 0 76.87900967650647 275.29131978397663 0 0 0 0 151.42498418708681 -90.023509941080377 0 -90.023509941080377 131.14789588627445 0 0 0 0 -28.151769014057209 -40.529079113547624 0 -40.529079113547624 170.25753521656128 0 0 0 0 323.09590520586517 -216.18711484908249 0 -216.18711484908249 186.3395025959851 0 0 0 0 1.174683162058539 -2.8201863182861864 0 -2.8201863182861864 -0.78276895226307641 0 0 0 0 712.85509108122096 -34.106845129807652 0 -34.106845129807652 -98.30583060831384 0 0 0 0 0.50510507884903522 -2.4687604538865093 0 -2.4687604538865093 -0.57507347792398456 0 0 0 0 42.095148151059163 -67.492899969512848 0 -67.492899969512848 -218.89427907143897 0 0 0 0 17.280862150190842 -36.170187910086725 0 -36.170187910086725 21.288349317872232 0 0 0 0 1.1940868518920595 -3.5189808372081917 0 -3.5189808372081917 -0.94127088392574765 0 0 0 0 -33.387176804530554 -100.40245501095546 0 -100.40245501095546 123.05261809644921 0 0 0 0 -42.724288512938983 -46.652488918163215 0 -46.652488918163215 112.61984617589138 0 0 0 0 -72.955164412095201 -81.987092724383956 0 -81.987092724383956 205.55723317565548 0 0 0 0 -40.254159877075608 -46.576586862302634 0 -46.576586862302634 178.26317853506748 0 0 0 0 -5.1890752511849314 -69.11685473404259 0 -69.11685473404259 155.32203147431619 0 0 0 0 -18.074089785745855 -65.639280973039604 0 -65.639280973039604 155.28409533552804 0 0 0 0 -12.249535570232638 -24.332191878981803 0 -24.332191878981803 126.99001209633946 0 0 0 0 -24.2459175787763 -50.083822993509614 0 -50.083822993509614 164.44480827387406 0 0 0 0 30.937765423983137 -36.177759662513722 0 -36.177759662513722 49.092132942012995 0 0 0 0 12.568027268622473 -42.24192021771546 0 -42.24192021771546 119.63448765536305 0 0 0 0 23.014269301233981 -28.353599532368207 0 -28.353599532368207 49.843839911074554 0 0 0 0 39.95789796254212 -49.493297398043524 0 -49.493297398043524 91.800650165610932 0 0 0 0 53.090880007964188 -75.684894699233837 0 -75.684894699233837 96.408836458993392 0 0 0 0 3.9519480371394131 0.18444764235499456 0 0.18444764235499456 -3.61424869553775 0 0 0 0 348.48895963747327 -172.71920806956018 0 -172.71920806956018 92.838054397053384 0 0 0 0 271.10875555324856 -185.72213871576014 0 -185.72213871576014 99.323144569252236 0 0 0 0 3.1281788870974552 -1.2274906727490329 0 -1.2274906727490329 -6.1259473130446338 0 0 0 0 197.17804839483551 -85.357481642346102 0 -85.357481642346102 39.758863680855029 0 0 0 0 309.7656563295991 -131.01711812505073 0 -131.01711812505073 -11.776784146306454 0 0 0 0 270.6447902611003 -134.8986055126843 0 -134.8986055126843 34.075914603793535 0 0 0 0 65.450940755437841 -28.19490482780293 0 -28.19490482780293 31.531134059290935 0 0 0 0 30.00459876383195 -24.998952633432509 0 -24.998952633432509 11.427975149066697 0 0 0 0 34.9218613637197 -20.627954186480565 0 -20.627954186480565 12.233544690609051 0 0 0 0 0.53145965223795955 -2.8689000470474131 0 -2.8689000470474131 -9.1978374439467991 0 0 0 0 -24.849735974011764 -41.679481307741753 0 -41.679481307741753 7.5225098882492603 0 0 0 0 24.199044895948177 -19.002099841148265 0 -19.002099841148265 0.42905401361099393 0 0 0 0 25.295105062366474 -20.01010786160623 0 -20.01010786160623 6.279375212364755 0 0 0 0 24.510853083801294 -25.090182240848662 0 -25.090182240848662 -8.1179509519558906 0 0 0 0 4.9640365415125505 -9.0792632312667401 0 -9.0792632312667401 16.856486538974881 0 0 0 0 138.07047661091065 91.193983571674607 0 91.193983571674607 48.019524343912281 0 0 0 0 126.57115221616004 34.738490077161032 0 34.738490077161032 -67.432495837698298 0 0 0 0 108.09573361221283 110.47539792770428 0 110.47539792770428 94.688534759479808 0 0 0 0 107.29714816457636 120.76038041398135 0 120.76038041398135 -32.939431805261847 0 0 0 0 14.582951605148992 96.736703342021769 0 96.736703342021769 99.620144866030302 0 0 0 0 5.0895627589851244 -9.5716820067811348 0 -9.5716820067811348 17.558055372681444 0 0 0 0 -42.530056409602359 -41.102211209034522 0 -41.102211209034522 35.888810245720833 0 0 0 0 20.580923835371301 9.7933111383263167 0 9.7933111383263167 35.926659537628439 0 0 0 0 -48.759490163405871 -30.693774389318889 0 -30.693774389318889 142.03804536298776 0 0 0 0 4.7243334460064954 -8.9296543447293555 0 -8.9296543447293555 16.637912152888717 0 0 0 0 -25.112553746983849 47.794442487468473 0 47.794442487468473 135.70943031796651 0 0 0 0 1.1349952618740389 -27.637619697664604 0 -27.637619697664604 136.37915603109059 0 0 0 0 11.154418474209812 -19.005696942946543 0 -19.005696942946543 58.6988436377992 0 0 0 0 16.018697685296502 -22.98982665864196 0 -22.98982665864196 59.518625571519237 0 0 0 0 0.82746602288341364 7.4593413101231363 0 7.4593413101231363 116.77008576185608 0 0 0 0 -12.468568073106313 -26.671360665130734 0 -26.671360665130734 153.39670883343661 0 0 0 0 -2.4071953643961308 -1.5536763664597402 0 -1.5536763664597402 174.26865414144504 0 0 0 0 -10.749871798684325 -46.664299708998868 0 -46.664299708998868 256.11940271334788 0 0 0 0 -7.0262261667474775 -66.680417623139917 0 -66.680417623139917 375.75997217582568 0 0 0 0 -42.623815427598402 -37.649358215239545 0 -37.649358215239545 217.25971209349325 0 0 0 0 -2.0047770822908433 -31.149438301818691 0 -31.149438301818691 208.38812562490716 0 0 0 0 -22.699674486040522 -74.545394287082814 0 -74.545394287082814 62.742315701771503 0 0 0 0 6.2226790414891866 -157.88171278595053 0 -157.88171278595053 279.08575415093492 0 0 0 0 12.675924761678516 -343.96609725140513 0 -343.96609725140513 125.29959613451612 0 0 0 0 2.2611019609984817 -1.528029047669438 0 -1.528029047669438 -0.39499640481807136 0 0 0 0 -66.971297963161078 -159.84137016758208 0 -159.84137016758208 114.63361875495605 0 0 0 0 -29.609410744494539 -156.67337966996766 0 -156.67337966996766 430.46763121835306 0 0 0 0 -66.295141554201336 -106.57102030128908 0 -106.57102030128908 64.527957919523374 0 0 0 0 -67.433788620279017 -143.31476716138695 0 -143.31476716138695 63.886508361157723 0 0 0 0 -69.264726921422152 -202.10050802823753 0 -202.10050802823753 294.93065289643181 0 0 0 0 20.267001580984925 -72.599758186254832 0 -72.599758186254832 103.17316909870858 0 0 0 0 -47.240294323041326 -226.50215902773334 0 -226.50215902773334 157.39779651899698 0 0 0 0 -119.06494204674345 105.42842068405866 0 105.42842068405866 272.38321310950141 0 0 0 0 -3.843492904059076 -194.85847398213679 0 -194.85847398213679 400.00853183443678 0 0 0 0 6.7723975870604711 -1.3640882224634421 0 -1.3640882224634421 -0.31364656320240486 0 0 0 0 -189.3897975957143 -104.28632958618437 0 -104.28632958618437 385.08645496663667 0 0 0 0 -23.451143419251366 -166.73316303670526 0 -166.73316303670526 374.7712526532793 0 0 0 0 43.617434957847536 -37.399102997526256 0 -37.399102997526256 257.66777080355473 0 0 0 0 -21.608031994472185 20.794214171819931 0 20.794214171819931 182.30150785409865 0 0 0 0 -0.21677969160009525 -2.8809434639349547 0 -2.8809434639349547 158.92524753811142 0 0 0 0 -44.478741566194458 17.317059677266911 0 17.317059677266911 395.85302171118019 0 0 0 0 8.1895858005736955 79.072586582118674 0 79.072586582118674 111.72343316729166 0 0 0 0 1966.3707749560654 -661.53761156451253 0 -661.53761156451253 186.14743515536941 0 0 0 0 210.79604971604294 382.74252418729952 0 382.74252418729952 545.75103269880367 0 0 0 0 2.9725309099664692 -3.6854954808207374 0 -3.6854954808207374 7.6918437241087974 0 0 0 0 2043.9137002672778 -460.34943180468645 0 -460.34943180468645 -105.5315381654604 0 0 0 0 1956.6394227032661 -546.84972817833989 0 -546.84972817833989 392.19606665783647 0 0 0 0 2539.6672261390086 -333.08504069836948 0 -333.08504069836948 757.5593884697663 0 0 0 0 2041.6569526321928 -733.29725077133605 0 -733.29725077133605 436.0031876512852 0 0 0 0 2013.757893361153 -507.07076566000097 0 -507.07076566000097 602.08314240234836 0 0 0 0 2558.7315528591271 87.924562127866523 0 87.924562127866523 471.91892457369488 0 0 0 0 2435.6433477219252 3.6815555364032946 0 3.6815555364032946 362.56555066580552 0 0 0 0 1462.9866395923982 -724.5849688484177 0 -724.5849688484177 618.22732496609478 0 0 0 0 5.3619258083816348 -1.4952714432145349 0 -1.4952714432145349 0.045784279069744638 0 0 0 0 -230.97935632008534 127.00614825250345 0 127.00614825250345 873.11319173643574 0 0 0 0 196.11145055449674 -510.57162528051475 0 -510.57162528051475 603.51212113935242 0 0 0 0 1544.9298554506731 -373.66989909835024 0 -373.66989909835024 147.4012438268594 0 0 0 0 2718.4634674275731 -203.51924443933996 0 -203.51924443933996 193.86224573979689 0 0 0 0 2592.3821887510476 69.451984762177005 0 69.451984762177005 20.287061710306943 0 0 0 0 1519.2441405833943 -353.93140610426281 0 -353.93140610426281 183.41022916857412 0 0 0 0 1407.2353360191678 115.02111591305379 0 115.02111591305379 19.226654591361353 0 0 0 0 1466.9333631201125 -435.15802040250367 0 -435.15802040250367 144.33556503503146 0 0 0 0 573.66041195314233 -2.2139135268266159 0 -2.2139135268266159 109.92045875691326 0 0 0 0 4498.4948330259003 963.76537271158872 0 963.76537271158872 -906.43697442219059 0 0 0 0 2981.0002546369496 407.254483636668 0 407.254483636668 -573.23030691061717 0 0 0 0 2836.3894070845931 593.66104415793188 0 593.66104415793188 -319.95985973914355 0 0 0 0 2730.0392780055372 -19.167963069136391 0 -19.167963069136391 59.554857239698549 0 0 0 0 2745.700547880273 -105.65327805355827 0 -105.65327805355827 208.88361511979065 0 0 0 0 3530.0499215617028 200.35772566026105 0 200.35772566026105 -538.63711613443354 0 0 0 0 4498.1197875926937 -351.91080214373443 0 -351.91080214373443 -555.43552121087544 0 0 0 0 3385.6949636497939 -594.90182249884765 0 -594.90182249884765 -550.23953760396216 0 0 0 0 3289.223561814023 -718.98777514772701 0 -718.98777514772701 5.4817993751958056 0 0 0 0 2541.7260078158924 -368.91986546133148 0 -368.91986546133148 205.0825476026078 0 0 0 0 2513.3645015364264 -988.11832440932483 0 -988.11832440932483 71.042542014797931 0 0 0 0 2796.796712328709 -772.7856519169394 0 -772.7856519169394 8.9846690189670539 0 0 0 0 4502.8150164099216 -1017.616379609711 0 -1017.616379609711 -539.01493781828401 0 0 0 0 3539.7984276568723 -1562.7154111605394 0 -1562.7154111605394 -184.33099595591901 0 0 0 0 2644.9146595513412 -1506.573822947154 0 -1506.573822947154 -81.833774517592516 0 0 0 0 4487.0218299646604 -2275.4281943658657 0 -2275.4281943658657 224.55929003960864 0 0 0 0 1135.7316761777602 -2032.27238450148 0 -2032.27238450148 1691.8876779244194 0 0 0 0 2119.3171868390509 -810.00618504555587 0 -810.00618504555587 71.808464196659102 0 0 0 0 1944.4477129335428 -822.99748465972425 0 -822.99748465972425 402.46473118161725 0 0 0 0 594.7266064759151 117.66356399153403 0 117.66356399153403 -11.637674372566238 0 0 0 0 -51.816998062488892 -199.54689720476571 0 -199.54689720476571 310.90254902144738 0 0 0 0 461.22515222265065 121.89538067295598 0 121.89538067295598 97.582360670991648 0 0 0 0 46.804785638998965 165.71281093340752 0 165.71281093340752 210.89646368356944 0 0 0 0 421.51867636112547 -224.43085930117536 0 -224.43085930117536 609.7251123533631 0 0 0 0 834.83056283599944 -165.36307303154354 0 -165.36307303154354 356.47827630527172 0 0 0 0 127.02583353407317 29.172007175948238 0 29.172007175948238 459.94960221238125 0 0 0 0 392.40029562973268 74.646232614116116 0 74.646232614116116 -98.226218430300833 0 0 0 0 185.6432432200836 259.01485634202845 0 259.01485634202845 112.36360256884745 0 0 0 0 190.62546087567353 118.71822852574041 0 118.71822852574041 -302.64255341161333 0 0 0 0 175.35093324943591 156.88193910699283 0 156.88193910699283 -133.64028927974141 0 0 0 0 342.10594330541335 -233.3750642710088 0 -233.3750642710088 -682.69582381508098 0 0 0 0 49.23094722965061 74.234613232893025 0 74.234613232893025 -94.59243882192186 0 0 0 0 4490.5420896390824 405.45067384728361 0 405.45067384728361 -446.74023508777395 0 0 0 0 15.115792180499881 -12.454414441576489 0 -12.454414441576489 12.744751764266782 0 0 0 0 -566.64633726623288 -822.03108052211769 0 -822.03108052211769 1283.7198285277084 0 0 0 0 4495.6249234639981 402.29984934891149 0 402.29984934891149 -446.1104573620982 0 0 0 0 472.21852453779502 306.09271162650498 0 306.09271162650498 -316.13199984750031 0 0 0 0 49.864704474254097 7.8444322661444161 0 7.8444322661444161 0.80067464761155627 0 0 0 0 153.40150571960839 49.436491255841247 0 49.436491255841247 -158.84334563023549 0 0 0 0 136.56715786278073 -36.603399458799686 0 -36.603399458799686 -26.262157456535419 0 0 0 0 9.9247345984185813 45.776010957697508 0 45.776010957697508 -35.897442360665082 0 0 0 0 169.63968900301552 -22.197639891048311 0 -22.197639891048311 -87.767502853879705 0 0 0 0 -83.178430471467436 60.983550153208171 0 60.983550153208171 163.92456074196161 0 0 0 0 -7.7384183454487356 140.86401441399539 0 140.86401441399539 -18.579546889712219 0 0 0 0 70.63093666153145 77.887534526686977 0 77.887534526686977 -163.39322734174584 0 0 0 0 11.578836684799171 55.761371374567716 0 55.761371374567716 1.9899246056775155 0 0 0 0 34.328108679706929 45.184095851492202 0 45.184095851492202 6.818978328717094 0 0 0 0 2.3556334309933362 6.4059734829343427 0 6.4059734829343427 1.9676584706695834 0 0 0 0 57.470034919083332 7.4067627824447522 0 7.4067627824447522 -1.0267439816793722 0 0 0 0 27.313781200849917 17.247563869290047 0 17.247563869290047 4.5469770499385049 0 0 0 0 35.573625053955766 13.918331774701073 0 13.918331774701073 -12.093277511859924 0 0 0 0 32.249229417210557 22.020126243047109 0 22.020126243047109 3.5254280358071592 0 0 0 0 -12.320118902069225 19.896731506861215 0 19.896731506861215 -30.901021467464261 0 0 0 0 11.60121075127617 3.1256200008616233 0 3.1256200008616233 -1.5080058595319095 0 0 0 0 74.372469746392198 -40.314607789037609 0 -40.314607789037609 -29.166698789673319 0 0 0 0 -14.2097683141983 33.622971030924418 0 33.622971030924418 -27.107438165773146 0 0 0 0 87.07402603441642 9.2992123717317554 0 9.2992123717317554 -124.28016970553472 0 0 0 0 12.447171152591181 -62.815995740554172 0 -62.815995740554172 42.890235191389365 0 0 0 0 87.175680715627095 -99.673343616888815 0 -99.673343616888815 30.058252926255591 0 0 0 0 0.57098700085667531 7.5500696320758891 0 7.5500696320758891 10.474840137233901 0 0 0 0 -47.06104023286025 42.785122371789839 0 42.785122371789839 20.600726739106904 0 0 0 0 110.84283211245929 -11.72641965738751 0 -11.72641965738751 35.0888315082193 0 0 0 0 5.554549164262113 3.3036157042390997 0 3.3036157042390997 0.40906481048861565 0 0 0 0 -3.2297491485780938 1.6912681965093306 0 1.6912681965093306 2.5060827745313787 0 0 0 0 -20.156672250557676 59.7094588872244 0 59.7094588872244 -42.486610080368337 0 0 0 0 76.742922929210181 124.66455233001398 0 124.66455233001398 -9.9539197410595079 0 0 0 0 47.213731547715902 26.435255537492957 0 26.435255537492957 12.812058041377126 0 0 0 0 -100.54504720006662 153.33172416381194 0 153.33172416381194 -2.4809488140555231 0 0 0 0 -10.730431297567868 4.834532622815507 0 4.834532622815507 6.9165145341208056 0 0 0 0 104.68164737479856 107.3840808339819 0 107.3840808339819 -54.99005621683682 0 0 0 0 5.9522335497022141 22.568038598862131 0 22.568038598862131 26.101902545427492 0 0 0 0 -130.0323184863737 96.731002017911123 0 96.731002017911123 124.64154755086747 0 0 0 0 0.66157392440881324 3.280967952711265 0 3.280967952711265 4.1770856963965581 0 0 0 0 -23.392095138482546 -80.64332545339812 0 -80.64332545339812 167.59785208474023 0 0 0 0 439.49610048640898 -119.37243227923364 0 -119.37243227923364 55.852580631209094 0 0 0 0 208.53133055695798 -184.47965592550463 0 -184.47965592550463 180.78282227611635 0 0 0 0 219.33893268415704 -108.87279534106437 0 -108.87279534106437 107.59213570504107 0 0 0 0 119.90195673803828 -16.072273220206625 0 -16.072273220206625 41.878370080200511 0 0 0 0 117.83419078826773 -18.34648117325105 0 -18.34648117325105 40.352368408905022 0 0 0 0 67.231420509793679 161.36559713238989 0 161.36559713238989 -0.23824585402689991 0 0 0 0 128.69370152388728 75.950133720455142 0 75.950133720455142 12.457330079646454 0 0 0 0 342.13938898929882 214.29322208682242 0 214.29322208682242 91.609352738891175 0 0 0 0 88.990894984461193 -57.682712460018365 0 -57.682712460018365 405.66723007202745 0 0 0 0 -22.961732706360635 72.709915627139708 0 72.709915627139708 231.9655708409432 0 0 0 0 -0.28407335824852886 -0.88368281222969358 0 -0.88368281222969358 -2.3855249152896612 0 0 0 0 -407.11298159391299 179.8668629297083 0 179.8668629297083 255.27904628341025 0 0 0 0 432.33537468523718 -13.717015947461505 0 -13.717015947461505 -59.274607212879346 0 0 0 0 77.41229758526606 -116.67320760389839 0 -116.67320760389839 91.363474275909766 0 0 0 0 1087.4046203347625 -600.35357589396585 0 -600.35357589396585 45.652682972270668 0 0 0 0 502.88807462566911 97.415405966142316 0 97.415405966142316 74.274295477668375 0 0 0 0 426.12096614946859 345.50316358326154 0 345.50316358326154 345.36923551919426 0 0 0 0 1619.3323321568896 -3.099240273686064 0 -3.099240273686064 -98.602632547371286 0 0 0 0 1427.4162603623881 -681.8608406595763 0 -681.8608406595763 -70.702848239155173 0 0 0 0 707.74304197987112 -390.53247568037409 0 -390.53247568037409 785.62035069605736 0 0 0 0 14.909533478373163 1.0262131986649525 0 1.0262131986649525 0.57389038821152738 0 0 0 0 672.82164580405515 -774.94295209605252 0 -774.94295209605252 393.62412444283405 0 0 0 0 1384.579947387565 -652.49167178198422 0 -652.49167178198422 27.257220251730359 0 0 0 0 1012.7191513306971 -751.51443720924885 0 -751.51443720924885 144.06536293924955 0 0 0 0 584.37229515642684 -210.05943287181503 0 -210.05943287181503 254.81527054838512 0 0 0 0 1644.902883372346 -34.469597990395869 0 -34.469597990395869 189.01907112015488 0 0 0 0 301.80181350364001 151.74788177201481 0 151.74788177201481 -402.61834140518636 0 0 0 0 37.145442488608495 5.0047720320346407 0 5.0047720320346407 0.43228851740836349 0 0 0 0 -141.23314234059944 48.987397785237135 0 48.987397785237135 59.103399365738369 0 0 0 0 -51.135617602078128 139.6082388305731 0 139.6082388305731 94.789754399454978 0 0 0 0 496.53747108675452 -249.86010958061479 0 -249.86010958061479 152.0168715789564 0 0 0 0 -6.7392280005442444 -26.964800749690312 0 -26.964800749690312 -53.818613309624652 0 0 0 0 222.57604791872654 231.04792049941534 0 231.04792049941534 223.30691728985676 0 0 0 0 721.54382907092076 164.89351850188029 0 164.89351850188029 48.931082372477249 0 0 0 0 -80.727433464766364 56.792142540210989 0 56.792142540210989 300.12659329222697 0 0 0 0 1397.2465982015856 -540.5828855128766 0 -540.5828855128766 204.09303675610454 0 0 0 0 892.86290058460872 -113.08008061581131 0 -113.08008061581131 41.231244508076998 0 0 0 0 8.3072505784571433 -3.6817940403059346 0 -3.6817940403059346 1.5276183299913217 0 0 0 0 949.03429300915013 -897.69825296624776 0 -897.69825296624776 675.77522944517523 0 0 0 0 552.62641363257717 -602.63074519145266 0 -602.63074519145266 462.53072706854744 0 0 0 0 1237.1462434041387 -497.36735201934766 0 -497.36735201934766 360.11671145046193 0 0 0 0 1236.5881904432972 -495.20809421037791 0 -495.20809421037791 411.21591498432576 0 0 0 0 1066.775466860312 -783.9186473962319 0 -783.9186473962319 1055.477980170454 0 0 0 0 938.39846870957263 -649.59001802158832 0 -649.59001802158832 1068.6594738285673 0 0 0 0 256.44215021150194 -578.8977081600741 0 -578.8977081600741 972.73455966921256 0 0 0 0 0.49354181627784044 -1.436226429703197 0 -1.436226429703197 7.7945074835458801 0 0 0 0 -69.952761598622601 69.885970948975853 0 69.885970948975853 507.95948427805041 0 0 0 0 379.31608730409789 -21.175380774347559 0 -21.175380774347559 -7.7398536210484963 0 0 0 0 1250.5109732779711 -594.75996479219509 0 -594.75996479219509 369.85706281597822 0 0 0 0 1098.3358746574158 -820.77793394183595 0 -820.77793394183595 150.66048724696429 0 0 0 0 876.06705907263677 -366.60483567052916 0 -366.60483567052916 -215.02470617975132 0 0 0 0 231.96532582116197 -110.90967072976127 0 -110.90967072976127 355.92802514483134 0 0 0 0 259.27072982452228 104.63348824565605 0 104.63348824565605 122.53382589109151 0 0 0 0 541.70091179954761 -32.974711190937114 0 -32.974711190937114 171.92291707622235 0 0 0 0 55.918812405314384 -6.6725905259160072 0 -6.6725905259160072 -177.09266995334383 0 0 0 0 35.115046543913195 -26.719176642692673 0 -26.719176642692673 340.99675691893572 0 0 0 0 -0.5193867828334362 -3.7493452347216234 0 -3.7493452347216234 3.0918319317907033 0 0 0 0 60.813162276499497 -42.065175437229534 0 -42.065175437229534 36.332987337159324 0 0 0 0 -0.73160240499527163 0.46634038607220418 0 0.46634038607220418 10.553816600991643 0 0 0 0 1316.9388846239744 -877.23970268904259 0 -877.23970268904259 423.43419932697179 0 0 0 0 841.76571966390475 -738.8130417937864 0 -738.8130417937864 383.14467778485141 0 0 0 0 1312.7093564126935 -944.33161026881839 0 -944.33161026881839 388.24054428617455 0 0 0 0 1309.1976205069077 -968.51943236716806 0 -968.51943236716806 366.40221112199015 0 0 0 0 1422.849507669649 -692.68466308821849 0 -692.68466308821849 466.52770835037518 0 0 0 0 1413.3528713686901 -936.61362276080217 0 -936.61362276080217 287.45515285758029 0 0 0 0 1278.8919578649657 -905.99526958088654 0 -905.99526958088654 364.93877642967254 0 0 0 0 960.45815877832501 -824.22634807262921 0 -824.22634807262921 442.99046288874251 0 0 0 0 1275.7034201799543 -950.20813078916399 0 -950.20813078916399 387.5646831225622 0 0 0 0 1025.5064934747606 -823.59499944875893 0 -823.59499944875893 958.48261586202716 0 0 0 0 920.23263811517972 -528.44133943804491 0 -528.44133943804491 245.21573768981852 0 0 0 0 968.3332495118666 -746.80546932860148 0 -746.80546932860148 494.88626488144064 0 0 0 0 745.01592139346758 -427.06833191626083 0 -427.06833191626083 820.65741134600455 0 0 0 0 546.91978098603818 -268.81477235484294 0 -268.81477235484294 698.58653610310648 0 0 0 0 857.35458110437321 -472.26465367877381 0 -472.26465367877381 709.31493331133015 0 0 0 0 976.50941185124975 -680.56308850312712 0 -680.56308850312712 2512.5391652000562 0 0 0 0 1411.0892269933465 147.56849811068355 0 147.56849811068355 1883.9497000631654 0 0 0 0 987.43011664328515 -813.6048475104576 0 -813.6048475104576 1581.9143219243556 0 0 0 0 1419.0943822374538 -831.79103603115368 0 -831.79103603115368 424.28625034230845 0 0 0 0 1464.1391694037156 -1088.1565801012712 0 -1088.1565801012712 487.15757236177251 0 0 0 0 2349.5072811766295 -1789.4988238947576 0 -1789.4988238947576 924.35553217565985 0 0 0 0 -514.39502248115605 -1246.1299889732418 0 -1246.1299889732418 1594.2605017468452 0 0 0 0 10.725580913767516 -10.663088289230856 0 -10.663088289230856 9.7485484828887596 0 0 0 0 1780.0395044107408 -510.65938242001346 0 -510.65938242001346 330.25494233938707 0 0 0 0 838.75862145576684 -1301.2404051803555 0 -1301.2404051803555 1591.185784041817 0 0 0 0 725.4441249629599 89.146601585781355 0 89.146601585781355 1631.2790381370551 0 0 0 0 1385.0860225899196 -295.55498244599221 0 -295.55498244599221 -1276.7999273117293 0 0 0 0 -1066.4202003896353 -140.92623212634862 0 -140.92623212634862 1834.2747031146241 0 0 0 0 947.85956735215586 629.6267402730598 0 629.6267402730598 -72.914233332901858 0 0 0 0 409.37399889528751 -1086.9579538743828 0 -1086.9579538743828 -1209.27427956879 0 0 0 0 -30.150634533209086 -193.56812918397677 0 -193.56812918397677 87.284232613631502 0 0 0 0 27.914376158955406 -21.173573869927722 0 -21.173573869927722 12.913567332693544 0 0 0 0 55.112306207229267 324.34795047615444 0 324.34795047615444 -63.151440151581028 0 0 0 0 1180.7039989115419 -423.55694377271175 0 -423.55694377271175 261.86651520448504 0 0 0 0 -1.5282851441156424 1.1157584088906844 0 1.1157584088906844 -0.37187526772196833 0 0 0 0 1048.8855612891202 -350.55317194801887 0 -350.55317194801887 221.59806605483118 0 0 0 0 -63.305899262806633 240.89038484629418 0 240.89038484629418 80.857646373796115 0 0 0 0 -0.19918686495896054 4.9865091018720733 0 4.9865091018720733 -1.9481675835670629 0 0 0 0 40.29873318731552 43.402694521115336 0 43.402694521115336 32.626997399755965 0 0 0 0 -100.02410299793337 140.55243928654272 0 140.55243928654272 -125.81399990990212 0 0 0 0 -20.669467113781138 46.822264764257397 0 46.822264764257397 46.61132185801489 0 0 0 0 -3.6621335220406763 -7.8880833302991959 0 -7.8880833302991959 22.090411997363844 0 0 0 0 19.894512904095848 -6.322270561484352 0 -6.322270561484352 2.6990613223028994 0 0 0 0 1.968543186318783 -2.2453775620174063 0 -2.2453775620174063 2.3870998176404736 0 0 0 0 19.351896633845172 -36.089983689355904 0 -36.089983689355904 -13.07812717163506 0 0 0 0 -17.860164719444583 14.887151484766036 0 14.887151484766036 157.10011188282624 0 0 0 0 19.668584078934146 2.4390666827119389 0 2.4390666827119389 5.1338850282449719 0 0 0 0 -111.56531186548818 -23.336789858726206 0 -23.336789858726206 162.00565348275722 0 0 0 0 23.735123866804742 5.4639754353641337 0 5.4639754353641337 -4.7093294836920618 0 0 0 0 24.37871641394014 5.6350129323832903 0 5.6350129323832903 -2.1545445896705697 0 0 0 0 37.572866432328738 -18.619744910489914 0 -18.619744910489914 -6.4471812223100642 0 0 0 0 32.819897030314223 25.807882974165892 0 25.807882974165892 -5.4603796834244349 0 0 0 0 24.13578612695926 6.3069433552427547 0 6.3069433552427547 -0.85152069311779321 0 0 0 0 9.6261436894274084 -12.977278758226475 0 -12.977278758226475 17.885007078200033 0 0 0 0 28.062544017959226 19.376308778128305 0 19.376308778128305 8.5193982361051894 0 0 0 0 16.148332410978981 2.2922370515031893 0 2.2922370515031893 4.3960866912694065 0 0 0 0 27.133990437199827 18.278640467711739 0 18.278640467711739 14.933999440749176 0 0 0 0 5.6054401092842454 18.452635921930778 0 18.452635921930778 41.899261895253403 0 0 0 0 12.61075042358226 4.3442513188736456 0 4.3442513188736456 1.526731428202897 0 0 0 0 5.9816029293288011 0.24043834808617248 0 0.24043834808617248 -4.0593368720110448 0 0 0 0 13.277254569206718 3.2565939914273478 0 3.2565939914273478 5.5384978232572708 0 0 0 0 94.569420772706508 -105.23429834240233 0 -105.23429834240233 -525.65683931060721 0 0 0 0 -0.46661084757943172 -26.855231510370686 0 -26.855231510370686 26.218014561890868 0 0 0 0 35.148842976424845 -15.178995310226128 0 -15.178995310226128 10.312287428415441 0 0 0 0 64.439289378538888 26.60782905779763 0 26.60782905779763 -199.51972209038831 0 0 0 0 108.36608243053706 193.57131492567794 0 193.57131492567794 -164.41540670957511 0 0 0 0 51.850199367616369 47.571513446675112 0 47.571513446675112 83.517806727924835 0 0 0 0 151.47093989946006 25.687684570670172 0 25.687684570670172 55.470811993137431 0 0 0 0 34.236870990425814 277.68852476725169 0 277.68852476725169 -302.31844246621813 0 0 0 0 -339.36589096679381 -320.96622518723098 0 -320.96622518723098 -299.4873436755006 0 0 0 0 18.354082862424889 -3.806256098877344 0 -3.806256098877344 1.032067000781379 0 0 0 0 380.8880599969707 -560.50913932673802 0 -560.50913932673802 1118.9488635589732 0 0 0 0 -19.590853419424093 359.64525485246577 0 359.64525485246577 1055.8300738192111 0 0 0 0 157.03623156400863 -166.42468708650813 0 -166.42468708650813 473.30837115464874 0 0 0 0 52.549322970962635 3.8664350879506779 0 3.8664350879506779 -0.33617424549569819 0 0 0 0 121.9299569609575 121.02941532130899 0 121.02941532130899 228.87958992078734 0 0 0 0 60.558345590987301 181.33466543391842 0 181.33466543391842 186.67990050477965 0 0 0 0 156.11699896035134 70.255560504871937 0 70.255560504871937 86.740744779119495 0 0 0 0 -24.729381221955919 53.248411740416941 0 53.248411740416941 41.744904878200032 0 0 0 0 -22.981071504327701 34.681236408709992 0 34.681236408709992 217.61934875261431 0 0 0 0 11.02637277694663 -2.3876034057692408 0 -2.3876034057692408 -3.8221993489997814 0 0 0 0 -32.984840562901809 51.135833346752406 0 51.135833346752406 -78.883143445962787 0 0 0 0 78.123641427358962 199.03523195439902 0 199.03523195439902 73.662491362390938 0 0 0 0 37.309297599465935 128.43232285691101 0 128.43232285691101 -47.800198328632177 0 0 0 0 -29.449141595163383 70.284928595757265 0 70.284928595757265 -8.3944503921325122 0 0 0 0 -62.671628982425318 128.45070170783674 0 128.45070170783674 72.905677506993015 0 0 0 0 -147.50833804589638 38.807775054977355 0 38.807775054977355 126.25610369151786 0 0 0 0 -101.16769969993038 66.258962452869582 0 66.258962452869582 -7.3470055322741246 0 0 0 0 -111.40210244280024 143.92776117946687 0 143.92776117946687 111.09949603029054 0 0 0 0 -70.88664253774914 139.73875242213489 0 139.73875242213489 -65.720055622018663 0 0 0 0 -8.7046153110282205 7.0968906702020096 0 7.0968906702020096 2.008990169499028 0 0 0 0 416.6059626226488 91.563891183443047 0 91.563891183443047 317.19802076702399 0 0 0 0 431.5230840992881 96.442700814872296 0 96.442700814872296 -385.31684799790128 0 0 0 0 0.22836328579208498 -1.3066625286163651 0 -1.3066625286163651 -0.43161398181455457 0 0 0 0 336.16810552580864 93.162611590832057 0 93.162611590832057 -26.727230823504215 0 0 0 0 531.05822979006916 -177.07894049195966 0 -177.07894049195966 -25.198485919969244 0 0 0 0 533.5050619263202 201.59383395012446 0 201.59383395012446 -70.67997142924105 0 0 0 0 205.70222811450367 -22.535689724863914 0 -22.535689724863914 -221.89184379236031 0 0 0 0 16.68095895030234 17.47291511010306 0 17.47291511010306 18.105351675708285 0 0 0 0 167.85522274687537 151.99666269317277 0 151.99666269317277 144.10187814369579 0 0 0 0 147.2990626526298 100.22790861696558 0 100.22790861696558 92.907331949116269 0 0 0 0 200.64780083141522 -22.349727528520816 0 -22.349727528520816 -97.626061167818079 0 0 0 0 124.80403656721319 -129.74825254231837 0 -129.74825254231837 248.59484478234663 0 0 0 0 84.004449307364709 37.148243800110009 0 37.148243800110009 6.8424942828765953 0 0 0 0 455.34532642621343 -94.648948219703925 0 -94.648948219703925 -277.92597825650682 0 0 0 0 -28.560597758623771 137.14902695547789 0 137.14902695547789 -341.75647738446423 0 0 0 0 80.44519160565082 15.402857899020754 0 15.402857899020754 1.5284229524477162 0 0 0 0 -36.281875935586868 111.68836668173026 0 111.68836668173026 -94.119282894484968 0 0 0 0 -190.06513897279365 260.80134902359987 0 260.80134902359987 260.93555961644597 0 0 0 0 -115.30270107419346 143.49589841270972 0 143.49589841270972 -91.255174886725626 0 0 0 0 239.46898336597224 -69.413767857139192 0 -69.413767857139192 -1082.0726876483859 0 0 0 0 0.19559811059855292 3.1951449910085188 0 3.1951449910085188 10.673463956565069 0 0 0 0 30.281328436241211 -13.925435558672703 0 -13.925435558672703 -8.9817403991251954 0 0 0 0 85.849428312409145 394.95523689419315 0 394.95523689419315 475.57885724893276 0 0 0 0 433.77532642170263 81.506039381856681 0 81.506039381856681 20.885717941706389 0 0 0 0 948.11079088173574 401.82989822916079 0 401.82989822916079 191.96163146413346 0 0 0 0 1024.5031949767581 -110.93027351024284 0 -110.93027351024284 -46.956479802471222 0 0 0 0 156.1391711368633 1719.059439073284 0 1719.059439073284 830.4022880071916 0 0 0 0 -832.75642419935321 -834.15959244848818 0 -834.15959244848818 978.83880075085108 0 0 0 0 422.93909731718304 530.3096480119284 0 530.3096480119284 522.3861733923186 0 0 0 0 154.97115402825148 -80.468072370614209 0 -80.468072370614209 -743.31572621949363 0 0 0 0 82.48841138032472 24.911765947275484 0 24.911765947275484 2.0530671519606258 0 0 0 0 71.784934340081236 281.32870751382779 0 281.32870751382779 -130.73328999677324 0 0 0 0 1.9367409255391976 173.75621403970945 0 173.75621403970945 -32.523442644568604 0 0 0 0 66.801490694750726 27.246910973756847 0 27.246910973756847 5.6546708099434522 0 0 0 0 79.884083273969736 180.86295522889759 0 180.86295522889759 -114.58447844999591 0 0 0 0 183.54759242200453 138.01075393727842 0 138.01075393727842 -324.81549771039136 0 0 0 0 52.226016158008861 143.34505337264363 0 143.34505337264363 109.29852129496339 0 0 0 0 182.47553489727579 68.16743476406009 0 68.16743476406009 -89.065754914614899 0 0 0 0 149.21804352698018 44.348907783847608 0 44.348907783847608 105.86673913869708 0 0 0 0 212.79154919324355 212.22233450949352 0 212.22233450949352 228.74018323323492 0 0 0 0 194.82880097611269 187.59319268783838 0 187.59319268783838 223.84099731767856 0 0 0 0 106.06690878802874 63.298774262314737 0 63.298774262314737 224.79624209407848 0 0 0 0 -64.308818119410716 -11.7304264884433 0 -11.7304264884433 -40.058409273913639 0 0 0 0 271.87962004062865 263.60723127550773 0 263.60723127550773 -10.903428953804905 0 0 0 0 -6.1524987031298224 40.266480731757383 0 40.266480731757383 276.23153094713712 0 0 0 0 156.40586604903365 252.75761517282353 0 252.75761517282353 135.68826416673733 0 0 0 0 -3.8868785451351613 3.1631552320329899 0 3.1631552320329899 5.3555729398828449 0 0 0 0 -2.9077078868212993 13.946407221533718 0 13.946407221533718 -34.168716726810089 0 0 0 0 7.3540217517947895 22.783063511689761 0 22.783063511689761 -32.271033358623754 0 0 0 0 -65.33348737203778 78.248560519340117 0 78.248560519340117 32.2719429861354 0 0 0 0 33.523452507113689 16.561761356939314 0 16.561761356939314 26.152745812121793 0 0 0 0 71.959388210176257 3.9719718805508819 0 3.9719718805508819 17.150145836326374 0 0 0 0 -132.09104398261115 42.108537745390095 0 42.108537745390095 24.46738717104563 0 0 0 0 -103.45408231068177 126.64236106985072 0 126.64236106985072 -12.689398733035887 0 0 0 0 -55.062622649624245 126.59078596693234 0 126.59078596693234 -87.812761189461526 0 0 0 0 54.569781199761948 27.708114795451632 0 27.708114795451632 1.3382811021934096 0 0 0 0 66.501745394343743 25.26491151074697 0 25.26491151074697 -5.1064183578637312 0 0 0 0 71.316933238704223 41.335813167581819 0 41.335813167581819 37.252330535186047 0 0 0 0 62.622974964004243 38.998248408617656 0 38.998248408617656 -10.759794113660973 0 0 0 0 57.139094754354261 9.7454308708878195 0 9.7454308708878195 2.861011367972381 0 0 0 0 111.98419921278401 42.215123773787582 0 42.215123773787582 -260.35076479810232 0 0 0 0 91.085450028418563 15.155879243330673 0 15.155879243330673 -43.900516959925881 0 0 0 0 12.313761467172299 -29.025692720168081 0 -29.025692720168081 -260.00384107981881 0 0 0 0 53.641248750784143 61.319211164081935 0 61.319211164081935 -56.517247408770345 0 0 0 0 68.157383152133292 11.552240303487112 0 11.552240303487112 0.089207130764616949 0 0 0 0 -1572.837390851179 856.24980543518723 0 856.24980543518723 289.87669225518357 0 0 0 0 43.487198688329194 5.7853973856015486 0 5.7853973856015486 -5.8695916758195494 0 0 0 0 173.54573006359686 -103.19561803415354 0 -103.19561803415354 -517.80657688208339 0 0 0 0 275.46005109012185 95.166270776911915 0 95.166270776911915 30.657039589123542 0 0 0 0 109.52188900594774 1.019726642389287 0 1.019726642389287 -59.762312146542854 0 0 0 0 302.65029231650988 91.591278441085251 0 91.591278441085251 2.6397196774796612 0 0 0 0 242.07109963799303 1.8936717643296106 0 1.8936717643296106 -36.311720655750378 0 0 0 0 47.060553809799117 0.76386548521693953 0 0.76386548521693953 -23.470416864195037 0 0 0 0 203.29558601907601 26.575391385335102 0 26.575391385335102 -28.241353045212392 0 0 0 0 136.61440783485887 13.55062075547221 0 13.55062075547221 -20.876344807369776 0 0 0 0 222.40265724772325 34.075777596839544 0 34.075777596839544 -34.149378712195357 0 0 0 0 124.26893867256149 31.654232513200441 0 31.654232513200441 -45.351516813090257 0 0 0 0 108.01687804682857 11.291277219557657 0 11.291277219557657 -16.410747682883631 0 0 0 0 236.05216284404742 54.941393924294971 0 54.941393924294971 -31.245033386269597 0 0 0 0 189.37833478715493 19.00775464661001 0 19.00775464661001 -299.50214515514017 0 0 0 0 91.480922182102404 6.043113781641523 0 6.043113781641523 -32.449366731245391 0 0 0 0 145.69232185301979 24.422612256942624 0 24.422612256942624 -0.87594364646597001 0 0 0 0 136.33630783770695 55.811297967117753 0 55.811297967117753 -324.70105317506568 0 0 0 0 58.501186757549334 38.797690620852123 0 38.797690620852123 8.0158958087247303 0 0 0 0 49.347807162761455 67.453561686653302 0 67.453561686653302 4.5627867578696168 0 0 0 0 -1.8126472070580348 127.06581624635328 0 127.06581624635328 -57.550232871481057 0 0 0 0 118.3564936533221 68.481223940681957 0 68.481223940681957 -113.67400995734351 0 0 0 0 4.8375775590550631 -7.5438502843898174 0 -7.5438502843898174 -4.0381944627809325 0 0 0 0 98.081401326286141 66.427696145303344 0 66.427696145303344 -113.67363807851052 0 0 0 0 71.02861324508558 60.575183406930591 0 60.575183406930591 24.771825916664966 0 0 0 0 16.865402566830426 -29.200351741273636 0 -29.200351741273636 -11.724468655313704 0 0 0 0 107.73339577636216 91.392556846105435 0 91.392556846105435 1.6536294613797509 0 0 0 0 92.106196724824258 26.651953653562032 0 26.651953653562032 25.969514017335314 0 0 0 0 -24.74714690494875 86.659386356222967 0 86.659386356222967 135.95778181718561 0 0 0 0 55.038431252888415 29.046233390069577 0 29.046233390069577 -8.0597022787288353 0 0 0 0 28.079093445689068 101.99456142619783 0 101.99456142619783 86.203046095604805 0 0 0 0 -58.495443293650169 130.71677324003758 0 130.71677324003758 92.377869929316148 0 0 0 0 67.978371035755231 19.295474509080734 0 19.295474509080734 6.2228980835549734 0 0 0 0 198.4239350652133 123.98657739443661 0 123.98657739443661 -355.30097605323544 0 0 0 0 40.548995556659065 193.94773629835981 0 193.94773629835981 -346.13072137227209 0 0 0 0 37.05582212889567 102.00789154874656 0 102.00789154874656 -310.61070060391557 0 0 0 0 34.082178493554238 123.00084898814021 0 123.00084898814021 -144.51440289422135 0 0 0 0 20.870155596399854 240.80316710946863 0 240.80316710946863 -58.827410256901203 0 0 0 0 97.006747431749716 10.037947029369633 0 10.037947029369633 1.6098693870281231 0 0 0 0 163.87804864393547 88.448183685890399 0 88.448183685890399 -340.92572171341453 0 0 0 0 31.595002335954632 64.377037689602275 0 64.377037689602275 -81.924778900131059 0 0 0 0 -3.4018228427393922 17.197523980219898 0 17.197523980219898 4.0713890877935395 0 0 0 0 47.2501191823103 173.15313861441609 0 173.15313861441609 -203.53035907895628 0 0 0 0 -68.111086046825221 277.64463878439983 0 277.64463878439983 -234.16650682273394 0 0 0 0 27.435226473484136 20.032515136199549 0 20.032515136199549 -144.89524557683399 0 0 0 0 38.758398133368246 105.10730667862055 0 105.10730667862055 175.07451140815192 0 0 0 0 119.75060914116784 173.13171370215878 0 173.13171370215878 -47.478454155185318 0 0 0 0 318.24313967996841 295.76951153847472 0 295.76951153847472 96.00185304461661 0 0 0 0 82.317302052253694 117.53118728334584 0 117.53118728334584 -15.799290031013697 0 0 0 0 261.28911339365141 205.47256390833809 0 205.47256390833809 -231.2213194182923 0 0 0 0 165.41273758147207 33.394575664027116 0 33.394575664027116 -147.2043191462235 0 0 0 0 -24.150193054507554 270.04325292804424 0 270.04325292804424 -442.31486117913369 0 0 0 0 395.28305838369977 129.10487143777209 0 129.10487143777209 -109.19421096912174 0 0 0 0 226.27762503357872 109.37966640322998 0 109.37966640322998 71.848290233494481 0 0 0 0 307.44395262443413 -216.53991142186442 0 -216.53991142186442 -36.826466971500849 0 0 0 0 477.34094731854088 -271.25598214476213 0 -271.25598214476213 -65.68361892367102 0 0 0 0 -377.5668940187071 -278.46630148762733 0 -278.46630148762733 -19.357019455252157 0 0 0 0 814.06467786231315 -1282.6673127999566 0 -1282.6673127999566 -267.15153745893986 0 0 0 0 485.20907625811788 246.39125258488707 0 246.39125258488707 293.38953555576779 0 0 0 0 529.06344433580148 -186.51377109284792 0 -186.51377109284792 230.72132562886475 0 0 0 0 412.68183489478315 -47.610872488782206 0 -47.610872488782206 78.426179456249884 0 0 0 0 812.37692996670864 333.73255452447108 0 333.73255452447108 147.65619440531873 0 0 0 0 641.15108195813991 293.08019481338664 0 293.08019481338664 -67.867850479551635 0 0 0 0 408.87019963333734 -141.24513538786505 0 -141.24513538786505 -85.010971005347301 0 0 0 0 5.0788367039119819 5.0478768511253786 0 5.0478768511253786 1.4797524191421541 0 0 0 0 69.908343203508409 87.30317974610108 0 87.30317974610108 0.90832920880939128 0 0 0 0 -2.7425395083639614 96.276297134905349 0 96.276297134905349 296.09678073835175 0 0 0 0 161.80679374592546 345.74100519084504 0 345.74100519084504 674.10291131234885 0 0 0 0 30.129399809342431 131.62054550531525 0 131.62054550531525 90.76297640757366 0 0 0 0 11.637736722411319 111.81121891318304 0 111.81121891318304 114.5989262205951 0 0 0 0 24.291571919337002 147.54879918245763 0 147.54879918245763 175.94268143225287 0 0 0 0 45.608170765007799 29.464134697655012 0 29.464134697655012 -80.4342053693411 0 0 0 0 15.10000233300638 8.6369215898534701 0 8.6369215898534701 2.7692936361842504 0 0 0 0 23.676345317550595 15.939351944297236 0 15.939351944297236 -40.097516561994013 0 0 0 0 3.5525115551045019 -20.709517216061045 0 -20.709517216061045 -47.014415634660509 0 0 0 0 7.8891473453986691 20.47511395826541 0 20.47511395826541 -33.609996029784725 0 0 0 0 72.056262101559469 -36.523893534476429 0 -36.523893534476429 -27.141846903269652 0 0 0 0 48.217927109605625 7.5420061855020322 0 7.5420061855020322 -9.5949733859838489 0 0 0 0 263.47082528534736 52.600102372559377 0 52.600102372559377 -72.835154747854176 0 0 0 0 -3.9097219098830571 14.376996245692254 0 14.376996245692254 37.653061642841749 0 0 0 0 153.04494007415747 240.14883576240481 0 240.14883576240481 99.703347954641686 0 0 0 0 54.062952352224102 -28.569118582933697 0 -28.569118582933697 -65.674989401098287 0 0 0 0 992.89726734218038 515.56585813675792 0 515.56585813675792 123.96489460975499 0 0 0 0 -94.061101145817702 104.35158105820392 0 104.35158105820392 69.047829323941642 0 0 0 0 1.7888708373720248 -2.1909553381507507 0 -2.1909553381507507 0.30858439628950762 0 0 0 0 598.57694658976288 228.96639494225678 0 228.96639494225678 -110.26161646923038 0 0 0 0 604.70441189563326 260.26428634944477 0 260.26428634944477 -87.125085479022459 0 0 0 0 33.507581654837466 20.048214331297299 0 20.048214331297299 -12.097932716751867 0 0 0 0 17.930878043716802 41.512057179808835 0 41.512057179808835 51.483815633740051 0 0 0 0 25.941780500943423 12.88742327934051 0 12.88742327934051 -42.961086543997226 0 0 0 0 17.515499378845561 42.728416252679381 0 42.728416252679381 -51.425763569482569 0 0 0 0 35.490733688582573 4.6208403367346662 0 4.6208403367346662 -25.161832935831768 0 0 0 0 5.1979406824539183 64.527457173420771 0 64.527457173420771 -37.42108127317897 0 0 0 0 -2.0983549982120167 60.756324450714601 0 60.756324450714601 -38.99777578863177 0 0 0 0 9.4036097888709378 15.759971138554802 0 15.759971138554802 4.8470835703862072 0 0 0 0 23.394407051615417 22.08544804990197 0 22.08544804990197 -15.587315633296384 0 0 0 0 6.3910680735607457 44.704514534590771 0 44.704514534590771 -42.425310669716055 0 0 0 0 8.1705255096877067 16.748414219569057 0 16.748414219569057 -0.20233552603070049 0 0 0 0 22.187052531417535 10.757773078510859 0 10.757773078510859 -3.1357328601514496 0 0 0 0 26.439939397328999 6.3793617349710985 0 6.3793617349710985 -15.188082142049097 0 0 0 0 10.356606622800953 29.193451933480041 0 29.193451933480041 -9.8424876062709945 0 0 0 0 -13.252251217192679 68.711607153298132 0 68.711607153298132 -2.0955947924780958 0 0 0 0 76.765654695487129 14.887004993190281 0 14.887004993190281 -25.119972456218719 0 0 0 0 -2.6587410878896947 19.487019680410107 0 19.487019680410107 -0.13251698758554442 0 0 0 0 13.00187252505566 64.031566677409842 0 64.031566677409842 -42.417700267348067 0 0 0 0 -2.8714463859232779 14.483504804643619 0 14.483504804643619 -3.2432640849240304 0 0 0 0 7.5095237270907091 17.368653091731176 0 17.368653091731176 -19.410155742887582 0 0 0 0 7.9743090694462353 24.230025377287586 0 24.230025377287586 -20.334509128321841 0 0 0 0 1.7696417674815166 37.987973716601118 0 37.987973716601118 -52.187883453180348 0 0 0 0 -44.472502057589736 14.876113574444844 0 14.876113574444844 51.415787491435367 0 0 0 0 -3.3093854804375553 9.5039939768377231 0 9.5039939768377231 -3.244575802281144 0 0 0 0 -9.8807420644225203 30.784835171705936 0 30.784835171705936 -56.250668376720341 0 0 0 0 8.4991962418498588 10.29992899908143 0 10.29992899908143 -44.35034256538529 0 0 0 0 1.0885222110664472 -16.61099347218601 0 -16.61099347218601 -47.189822594098132 0 0 0 0 -3.9260906126585411 1.3047142624478312 0 1.3047142624478312 2.916129674870791 0 0 0 0 0.77778715732130621 0.75078241879467811 0 0.75078241879467811 -15.589616221894573 0 0 0 0 76.721090288170672 83.261968550110964 0 83.261968550110964 119.22732990963323 0 0 0 0 -0.9951547569137702 4.7146085412990093 0 4.7146085412990093 -0.72297891490136168 0 0 0 0 283.30732281724704 62.195260910722027 0 62.195260910722027 5.3626208860387123 0 0 0 0 117.19641759483056 -65.059105199991592 0 -65.059105199991592 7.3166154564838646 0 0 0 0 -27.914918260827108 -3.0093969514134642 0 -3.0093969514134642 -3.6460291513465108 0 0 0 0 196.41689313945244 143.00814175799661 0 143.00814175799661 75.919384502310265 0 0 0 0 7.2329259732778155 15.25055464677348 0 15.25055464677348 -59.752180117378941 0 0 0 0 27.644684517466757 20.637766237199529 0 20.637766237199529 -36.114353887255618 0 0 0 0 23.997977338249164 6.3050751598963011 0 6.3050751598963011 -9.1265730063868062 0 0 0 0 146.93030201568035 13.257152490537919 0 13.257152490537919 -132.4535937983137 0 0 0 0 31.592053186403231 18.689360526539986 0 18.689360526539986 -24.8488018490151 0 0 0 0 70.172532896611301 67.154566512814654 0 67.154566512814654 -44.358238456294202 0 0 0 0 -22.87353822350542 172.57024665666813 0 172.57024665666813 -155.27317739590762 0 0 0 0 70.778418978028768 65.39726817205451 0 65.39726817205451 -44.12065119836916 0 0 0 0 86.086561970445587 75.862872491951748 0 75.862872491951748 -38.266910308126626 0 0 0 0 359.72510770857525 -31.478916077745225 0 -31.478916077745225 -59.110313688619044 0 0 0 0 -1.0117743120808242 -2.0641407822398827 0 -2.0641407822398827 0.82206414022867591 0 0 0 0 -242.56242867734818 167.59001344699755 0 167.59001344699755 -18.431268652840117 0 0 0 0 -3.7224407102221448 54.87245730066752 0 54.87245730066752 -91.638130284769431 0 0 0 0 -39.873342678550102 45.665786144669369 0 45.665786144669369 -30.603484086503158 0 0 0 0 37.841820927011213 68.180755219618732 0 68.180755219618732 -41.873310335020506 0 0 0 0 -17.880822408857057 55.306061148744448 0 55.306061148744448 -37.445455614465551 0 0 0 0 27.553484116903292 4.372403926731522 0 4.372403926731522 -27.293896030940232 0 0 0 0 39.294051825793233 29.608193546339656 0 29.608193546339656 11.287969708443299 0 0 0 0 9.609693845090078 45.273900024123577 0 45.273900024123577 -45.056352317604251 0 0 0 0 -3.9839220397880126 89.252420816063932 0 89.252420816063932 74.22390775103122 0 0 0 0 -10.03364819905164 45.42472949590865 0 45.42472949590865 -23.123184444280923 0 0 0 0 40.58031712373122 84.525446753681877 0 84.525446753681877 -54.911631804377976 0 0 0 0 34.66300575652167 105.94436385393283 0 105.94436385393283 -42.551233001658247 0 0 0 0 -38.556310692663828 70.064359926729821 0 70.064359926729821 -30.960554049135112 0 0 0 0 -42.670514405882386 76.768819987173174 0 76.768819987173174 -39.934582834967387 0 0 0 0 -160.53039566827738 66.438442789005876 0 66.438442789005876 -32.241892120974626 0 0 0 0 -28.099886457902358 66.024858762503754 0 66.024858762503754 -54.592336586338206 0 0 0 0 -23.424849054967126 56.609613099051785 0 56.609613099051785 -38.621883078842984 0 0 0 0 134.15744503082107 -17.622081237611383 0 -17.622081237611383 19.327003225535464 0 0 0 0 164.7951475441746 52.542955047338864 0 52.542955047338864 -27.826698421407855 0 0 0 0 109.05031298468035 29.030543555885401 0 29.030543555885401 -18.571537790111506 0 0 0 0 -0.43263236178656062 -1.138250718642845 0 -1.138250718642845 0.14836752877598869 0 0 0 0 230.71173987063275 -8.1971903167497544 0 -8.1971903167497544 -38.365206383602072 0 0 0 0 109.99282107453428 16.636486221999462 0 16.636486221999462 -3.8956436297071377 0 0 0 0 68.182765493286752 43.829178745115428 0 43.829178745115428 -18.627178221672466 0 0 0 0 99.512049741664754 76.171393856768248 0 76.171393856768248 -32.730100668320119 0 0 0 0 118.16968230540404 70.519504631442473 0 70.519504631442473 -53.22918000560685 0 0 0 0 84.776893711712773 72.511886808663348 0 72.511886808663348 -31.129213705107418 0 0 0 0 90.615231547912458 87.22627957977727 0 87.22627957977727 5.2279778055208226 0 0 0 0 43.024061344544862 33.919021512355812 0 33.919021512355812 -21.849029684875404 0 0 0 0 79.325998310497198 75.583180643671085 0 75.583180643671085 -24.745209270947271 0 0 0 0 114.8833573741158 -3.5918474761642756 0 -3.5918474761642756 -3.043556730716773 0 0 0 0 104.00517151648569 63.689495509276384 0 63.689495509276384 -50.948343571067198 0 0 0 0 48.61490138816302 92.631088783530998 0 92.631088783530998 -51.692489472829038 0 0 0 0 49.608682299605249 40.872470679277022 0 40.872470679277022 -26.664048730947343 0 0 0 0 65.852310830869101 36.143769211308609 0 36.143769211308609 -35.117797209164337 0 0 0 0 -0.21981442268564777 -0.61860945781839582 0 -0.61860945781839582 0.17952331330707816 0 0 0 0 28.82078850348886 17.199770322628698 0 17.199770322628698 -44.162896954945623 0 0 0 0 44.993851364159816 -24.194509840969037 0 -24.194509840969037 -39.793466167852316 0 0 0 0 49.290234857142423 17.963521492603832 0 17.963521492603832 9.5920130159120163 0 0 0 0 66.021300406006048 -19.738440706367328 0 -19.738440706367328 1.217080545877252 0 0 0 0 33.74580578910755 -35.755273324821573 0 -35.755273324821573 -13.06581326898754 0 0 0 0 27.045522603169957 -8.3765169370344665 0 -8.3765169370344665 -28.491211122556706 0 0 0 0 32.528096554467623 -10.212786717333664 0 -10.212786717333664 -10.225935166925282 0 0 0 0 33.059088344833668 10.626035784987401 0 10.626035784987401 -23.475241855617497 0 0 0 0 9.4358521788382443 0.87284494814296032 0 0.87284494814296032 2.2923806349232478 0 0 0 0 46.269654511422061 46.232004398186803 0 46.232004398186803 -27.065642169076455 0 0 0 0 79.00167505925117 98.397924226091163 0 98.397924226091163 -20.616774602407531 0 0 0 0 211.18270599925927 -146.69139682336163 0 -146.69139682336163 -375.47148930024377 0 0 0 0 25.394675279240346 -108.44514989729282 0 -108.44514989729282 -50.335693101119318 0 0 0 0 176.42144567561991 30.101533522028603 0 30.101533522028603 -87.439445570486896 0 0 0 0 49.469248856448758 -4.4765403400492687 0 -4.4765403400492687 -79.432728917061766 0 0 0 0 53.610136137040172 -50.112738515502542 0 -50.112738515502542 14.34888607930543 0 0 0 0 -2.4984944182682174 -3.2386513740051583 0 -3.2386513740051583 -0.91081664630856274 0 0 0 0 -182.07414951282954 159.57792111481331 0 159.57792111481331 -102.01909834943217 0 0 0 0 -83.486639722184918 35.976419010773952 0 35.976419010773952 -42.315365537532671 0 0 0 0 -8.5765854253804719 76.53767157548009 0 76.53767157548009 -239.75440453275951 0 0 0 0 -49.350875561502107 92.578685397940717 0 92.578685397940717 19.724272982406546 0 0 0 0 -419.44780414413253 -81.611333273611763 0 -81.611333273611763 90.923341553910177 0 0 0 0 23.4868696545708 16.724905405665758 0 16.724905405665758 -39.439187081975845 0 0 0 0 27.957042999767509 -27.483563348680264 0 -27.483563348680264 -67.866934824662167 0 0 0 0 -3.738779602341026 5.3726992958555968 0 5.3726992958555968 -96.450149180697736 0 0 0 0 132.65009700146982 18.492254027373619 0 18.492254027373619 -64.568185840289516 0 0 0 0 41.146232606937247 42.669499469183393 0 42.669499469183393 -69.37431001194426 0 0 0 0 61.009496893375399 -2.3340141111925732 0 -2.3340141111925732 -52.840620700563704 0 0 0 0 43.686224189827954 38.911355604018127 0 38.911355604018127 -63.929347559762391 0 0 0 0 95.920934799979648 71.340579904133506 0 71.340579904133506 -73.768986088470228 0 0 0 0 23.223255929260176 98.674475951853537 0 98.674475951853537 -118.52424625179356 0 0 0 0 -0.86349483357525969 22.79935293936407 0 22.79935293936407 -35.002232197065723 0 0 0 0 64.642339107082535 83.814157303866978 0 83.814157303866978 -52.363525543105993 0 0 0 0 97.147245882496293 65.189104602131096 0 65.189104602131096 -59.452328688225975 0 0 0 0 -21.686597382458331 86.85420288092746 0 86.85420288092746 28.612975857154197 0 0 0 0 113.30275649544501 92.700192797274212 0 92.700192797274212 -36.620825548418907 0 0 0 0 -9.38970676558694 8.9100977569289483 0 8.9100977569289483 -2.6564740704250829 0 0 0 0 100.21828793937357 27.556694335482966 0 27.556694335482966 -48.988932520862249 0 0 0 0 44.852899790367943 37.880682036001502 0 37.880682036001502 -34.606982210607825 0 0 0 0 95.267861870346678 4.8747817590938212 0 4.8747817590938212 -29.445931557999302 0 0 0 0 60.996503481837372 8.3043239596962231 0 8.3043239596962231 -36.648098552137981 0 0 0 0 -31.553309797753172 57.935363591444172 0 57.935363591444172 -39.603317193254099 0 0 0 0 9.1205643135841754 -8.6900263991233917 0 -8.6900263991233917 -4.7781111381249257 0 0 0 0 96.355480739682207 -9.3274836146854341 0 -9.3274836146854341 -32.388290971852143 0 0 0 0 132.91053155303598 35.200202973402156 0 35.200202973402156 -55.732652123113439 0 0 0 0 107.59431860458835 -48.391929254705701 0 -48.391929254705701 -48.250697710383974 0 0 0 0 197.40216292656623 -102.24315358772219 0 -102.24315358772219 13.18545256103198 0 0 0 0 99.307508673060511 -114.35244703857188 0 -114.35244703857188 -109.70398010621648 0 0 0 0 104.9674927134547 -35.097702141246373 0 -35.097702141246373 -25.336103136242855 0 0 0 0 -30.242928407082218 -118.0172340763329 0 -118.0172340763329 -17.66104313681717 0 0 0 0 37.742220105068554 -81.401612252071573 0 -81.401612252071573 -26.269197579320462 0 0 0 0 416.63218009310003 -361.36821077042077 0 -361.36821077042077 174.77117848843545 0 0 0 0 107.82377457232633 -51.088864707868993 0 -51.088864707868993 123.00906476239834 0 0 0 0 180.07375114167371 -424.44421823606717 0 -424.44421823606717 424.61731980047443 0 0 0 0 305.93468524979471 -321.35370481438986 0 -321.35370481438986 327.08229544293908 0 0 0 0 230.07546638482108 -112.2857916795972 0 -112.2857916795972 25.151610324835019 0 0 0 0 435.94964167181752 -294.04354759935597 0 -294.04354759935597 128.66798502153904 0 0 0 0 46.905115500696411 93.831650861517346 0 93.831650861517346 -17.69808632897184 0 0 0 0 513.78143467971677 -16.631735716347521 0 -16.631735716347521 -83.468646149216454 0 0 0 0 176.06871898446911 34.576307587960571 0 34.576307587960571 -23.922421899816072 0 0 0 0 283.33726524264057 -94.172152644144717 0 -94.172152644144717 7.6252520107946111 0 0 0 0 128.62145843231667 53.058251528150777 0 53.058251528150777 -58.947687046738338 0 0 0 0 108.23088766618523 68.89945828305008 0 68.89945828305008 -42.952241287431207 0 0 0 0 33.030488986440744 52.454436598709883 0 52.454436598709883 -6.9603757057649176 0 0 0 0 4.9342261847505142 161.55500620870095 0 161.55500620870095 165.31003844964926 0 0 0 0 143.10293425737905 39.005425533639936 0 39.005425533639936 -2.2086131914256839 0 0 0 0 42.19652810631856 63.820474021739237 0 63.820474021739237 18.401359328980099 0 0 0 0 -3.1223661539162322 14.292017865379798 0 14.292017865379798 3.2093908822468058 0 0 0 0 895.87815893605512 -72.565644381571587 0 -72.565644381571587 -409.16480548711797 0 0 0 0 -377.2794140135411 408.67323373464637 0 408.67323373464637 44.054025042061312 0 0 0 0 704.75618384689551 -240.76718594530053 0 -240.76718594530053 -286.01000213332827 0 0 0 0 449.499325641631 -353.77802123456524 0 -353.77802123456524 40.480366932604454 0 0 0 0 482.73508920493259 -578.57362367294672 0 -578.57362367294672 162.07590342972935 0 0 0 0 801.96183070924235 -422.5887324486348 0 -422.5887324486348 53.867300628656267 0 0 0 0 332.86616765286453 -457.08461474904016 0 -457.08461474904016 153.45700707544324 0 0 0 0 471.55258972148295 -468.38216093938695 0 -468.38216093938695 231.72987419386573 0 0 0 0 451.04891909408616 -515.5876474089082 0 -515.5876474089082 157.22195266020984 0 0 0 0 -39.808947968793291 15.091689729991231 0 15.091689729991231 -56.037592289475924 0 0 0 0 416.86604066898599 -7.4406178422923404 0 -7.4406178422923404 -58.997656042326525 0 0 0 0 173.08633352541892 -29.943410038335969 0 -29.943410038335969 55.359224793873636 0 0 0 0 183.91687876141896 29.815381495878142 0 29.815381495878142 -16.267916250594681 0 0 0 0 -0.4581793399268026 -0.97906846099020584 0 -0.97906846099020584 0.76725675397816318 0 0 0 0 173.85771424679069 -3.5387534619015923 0 -3.5387534619015923 -27.979305284097791 0 0 0 0 -89.188329922583762 58.94496476877714 0 58.94496476877714 -2.7171876129186785 0 0 0 0 47.264428393363687 41.175590730723343 0 41.175590730723343 -38.431738898370668 0 0 0 0 6.484219174462396 86.62973304289153 0 86.62973304289153 -34.094249742617649 0 0 0 0 85.32208461054006 71.347755874644463 0 71.347755874644463 -36.035565656638028 0 0 0 0 111.50804435503949 43.132169749192599 0 43.132169749192599 -15.303040635603111 0 0 0 0 99.754480583533336 53.889891718422859 0 53.889891718422859 9.8300223443939103 0 0 0 0 103.04839644864546 41.678762375054021 0 41.678762375054021 -50.574410853451809 0 0 0 0 27.040929865964245 84.155774083305232 0 84.155774083305232 3.6474681019699347 0 0 0 0 110.2179806708491 43.641533714113848 0 43.641533714113848 -25.904412541187412 0 0 0 0 74.513694558610496 38.179502250459791 0 38.179502250459791 74.154131800642972 0 0 0 0 59.699594838705885 46.589288453263592 0 46.589288453263592 12.153676582718449 0 0 0 0 30.749685382592936 35.587334320768363 0 35.587334320768363 -8.695013765964605 0 0 0 0 51.086065563338707 54.743076489615987 0 54.743076489615987 -36.134917914229391 0 0 0 0 52.881429477380152 39.235125330906271 0 39.235125330906271 -1.3339131639886546 0 0 0 0 74.565109511651826 59.673070216073029 0 59.673070216073029 -48.609260477676912 0 0 0 0 77.225766239088443 30.396420302869558 0 30.396420302869558 -13.422504140179626 0 0 0 0 73.028672595394653 35.502558225161664 0 35.502558225161664 10.644507023455834 0 0 0 0 64.322035707897157 59.803824553466939 0 59.803824553466939 18.231790656599514 0 0 0 0 -230.26933758391169 152.59787764020848 0 152.59787764020848 35.054378810938942 0 0 0 0 -55.2967864333732 45.024737341996115 0 45.024737341996115 81.163766727850998 0 0 0 0 83.535879201748685 107.62895838490476 0 107.62895838490476 -84.211477119002666 0 0 0 0 304.2442421980104 145.40678443807974 0 145.40678443807974 -3.8489290702455037 0 0 0 0 -0.95944553979867031 -1.9750033769211655 0 -1.9750033769211655 1.236957097487128 0 0 0 0 279.03994610846712 67.618927434923989 0 67.618927434923989 3.4211621831927914 0 0 0 0 168.73842518608171 43.443280683652802 0 43.443280683652802 9.3917341090891568 0 0 0 0 194.53214986049352 153.32659223037808 0 153.32659223037808 32.288353713178367 0 0 0 0 81.039976808344662 41.627514742150197 0 41.627514742150197 6.5578669774737008 0 0 0 0 140.5119941942794 100.42112531441671 0 100.42112531441671 -31.241818561075888 0 0 0 0 98.400271250353399 85.121612058572737 0 85.121612058572737 11.634038148122272 0 0 0 0 83.204334051883052 72.440414287311796 0 72.440414287311796 -6.450250021800457 0 0 0 0 78.481670080967888 89.62682238016896 0 89.62682238016896 15.998847400380328 0 0 0 0 110.47544825429213 153.99171801474176 0 153.99171801474176 40.366516020982999 0 0 0 0 88.921958147706391 107.1241581006102 0 107.1241581006102 27.272358327007737 0 0 0 0 89.802810544705181 47.592665472329045 0 47.592665472329045 -6.7594799429419306 0 0 0 0 -26.083788763786956 51.593228841920862 0 51.593228841920862 -29.443819255763238 0 0 0 0 189.45047343024635 273.93623774681282 0 273.93623774681282 -104.34262665257302 0 0 0 0 152.23007303149703 22.896361007903639 0 22.896361007903639 -3.3944775455494147 0 0 0 0 98.665632154160903 59.691227117204335 0 59.691227117204335 9.8091941432885505 0 0 0 0 69.228219222577536 10.530562556940822 0 10.530562556940822 26.921271940682345 0 0 0 0 11.502147098866416 21.282335887405647 0 21.282335887405647 -11.760897303039631 0 0 0 0 120.15168478562919 63.700653654959751 0 63.700653654959751 -10.535468068711907 0 0 0 0 217.53942653606282 212.96346726691809 0 212.96346726691809 -399.11557694085968 0 0 0 0 110.5717831650245 64.95681993827634 0 64.95681993827634 11.511914036085727 0 0 0 0 200.32825095057342 401.89687676362519 0 401.89687676362519 132.70806344582707 0 0 0 0 170.35812410081053 291.69837234077772 0 291.69837234077772 189.0370594751239 0 0 0 0 -49.743658155294426 37.389015809923691 0 37.389015809923691 -30.746906283844435 0 0 0 0 -5.4117298655073682 86.711512138481794 0 86.711512138481794 86.734413272881056 0 0 0 0 0.76744960726468037 1.6669594913356214 0 1.6669594913356214 -5.528543837851819 0 0 0 0 -262.80784841676359 43.022352449623213 0 43.022352449623213 52.639727413786886 0 0 0 0 27.50266151483811 32.051094279539939 0 32.051094279539939 30.869904084664086 0 0 0 0 -42.614769557322688 270.6731920815887 0 270.6731920815887 -46.730261276252804 0 0 0 0 90.253025977232028 67.093673848248727 0 67.093673848248727 21.484818946660198 0 0 0 0 142.2701515250701 17.671329203545611 0 17.671329203545611 45.380267192525025 0 0 0 0 39.076804555625131 51.324399007131433 0 51.324399007131433 20.69034384690076 0 0 0 0 95.043452223108034 53.777060813366461 0 53.777060813366461 6.4845121014000142 0 0 0 0 -4.5196857272065074 4.8939869421658564 0 4.8939869421658564 -12.975642733079727 0 0 0 0 -3.5378128830052447 102.98207570429327 0 102.98207570429327 51.606801054844823 0 0 0 0 39.277638873591059 23.958075041757525 0 23.958075041757525 0.66307669023154858 0 0 0 0 91.183216973862727 42.782447156867079 0 42.782447156867079 -3.8557659933856598 0 0 0 0 105.73439178428271 48.665329054792693 0 48.665329054792693 -85.355378238168669 0 0 0 0 104.86239632501201 62.991187695859082 0 62.991187695859082 -53.530953942752262 0 0 0 0 61.922272659741793 107.61385368277161 0 107.61385368277161 -46.73428309679457 0 0 0 0 47.661224103701898 95.268003202564557 0 95.268003202564557 -55.647536197194313 0 0 0 0 39.709861021547113 137.61295763545058 0 137.61295763545058 -86.58430094223381 0 0 0 0 0.20976264898672525 144.4862989568669 0 144.4862989568669 -0.50655702181984452 0 0 0 0 68.075614317167492 99.162994717931269 0 99.162994717931269 -88.141257564653955 0 0 0 0 64.478474283640026 100.13610855660204 0 100.13610855660204 -83.329943723806991 0 0 0 0 45.878883373500685 4.953591711997305 0 4.953591711997305 -204.33655136246807 0 0 0 0 58.266403214219736 146.596205565102 0 146.596205565102 -252.72536943452167 0 0 0 0 30.425401318929289 232.16287497582942 0 232.16287497582942 -253.72442708743154 0 0 0 0 -189.89419456606447 162.93431071429387 0 162.93431071429387 97.737422386479921 0 0 0 0 1.0238088546357176 -186.08989852245318 0 -186.08989852245318 4.2482887657111519 0 0 0 0 -52.837033522486308 231.72051171386715 0 231.72051171386715 -137.36892567475797 0 0 0 0 51.64812212781564 25.519558125701227 0 25.519558125701227 9.7292403954023943 0 0 0 0 -4.2761102773893072 80.535348279028824 0 80.535348279028824 -7.8761391794487281 0 0 0 0 -26.755609136453131 0.092500236306022998 0 0.092500236306022998 122.22254576609311 0 0 0 0 115.95378825103126 -46.251735111470467 0 -46.251735111470467 -37.343402225862292 0 0 0 0 82.302622036022512 142.334810271984 0 142.334810271984 -259.26494638080248 0 0 0 0 347.54428588214432 -56.220140555506759 0 -56.220140555506759 -150.29551212222032 0 0 0 0 -39.07724188820066 272.51778090090511 0 272.51778090090511 251.76734929070625 0 0 0 0 77.438657733073342 83.907963426783681 0 83.907963426783681 1.7426123765726516 0 0 0 0 -20.800384613015922 258.1546773525472 0 258.1546773525472 -197.49011929867538 0 0 0 0 45.898097249283737 29.831053646653171 0 29.831053646653171 12.437325684412279 0 0 0 0 -20.497804149556032 93.24420017742932 0 93.24420017742932 -0.4592400221445132 0 0 0 0 9.096799220249224 -2.9489359433456137 0 -2.9489359433456137 -2.8543649446083315 0 0 0 0 94.94115031464753 42.522854544751681 0 42.522854544751681 -52.712915019128559 0 0 0 0 52.903676735304543 75.506496617740595 0 75.506496617740595 -49.397253428494878 0 0 0 0 10.819478001893003 47.970396231822178 0 47.970396231822178 -51.258459543775871 0 0 0 0 44.54205986564557 91.11311161407798 0 91.11311161407798 -49.831371925465646 0 0 0 0 29.890115724239877 102.19737315670727 0 102.19737315670727 -46.164968627374947 0 0 0 0 26.909941967693157 95.932074683496467 0 95.932074683496467 -6.7012404100204321 0 0 0 0 23.244827887823703 103.11454139622447 0 103.11454139622447 -20.008642370224152 0 0 0 0 51.486169099363906 66.383663714139857 0 66.383663714139857 -9.7011697760808602 0 0 0 0 52.283498941069411 104.3838107071424 0 104.3838107071424 -22.310524161398462 0 0 0 0 621.7458653670401 207.65967030037291 0 207.65967030037291 -26.888889785336687 0 0 0 0 748.69688600120571 -21.110858843446749 0 -21.110858843446749 40.49107126924082 0 0 0 0 811.79905696134301 -278.15535686048656 0 -278.15535686048656 685.23469397248527 0 0 0 0 837.5295149660019 -30.121951241580973 0 -30.121951241580973 -81.10005361601543 0 0 0 0 505.32689984106401 37.478890088707431 0 37.478890088707431 219.13613668813787 0 0 0 0 435.81178146194361 205.12780911811319 0 205.12780911811319 -112.44832904892792 0 0 0 0 99.944412298762472 211.13418518660319 0 211.13418518660319 -0.32241934117155324 0 0 0 0 90.482329753262093 -16.279880565870144 0 -16.279880565870144 -77.069467877900024 0 0 0 0 -211.54464919199381 92.56757824274473 0 92.56757824274473 73.357471836467084 0 0 0 0 19.703715471354371 -55.29336916888343 0 -55.29336916888343 12.287796148661187 0 0 0 0 -1.045807441225441 -0.46627783585481097 0 -0.46627783585481097 -10.370722852313687 0 0 0 0 154.39474475545285 32.143897534676398 0 32.143897534676398 -49.204087408612395 0 0 0 0 225.22595498401643 193.37554365915776 0 193.37554365915776 2.3958219975957036 0 0 0 0 409.09664072081796 131.88014418306329 0 131.88014418306329 -73.259040157256095 0 0 0 0 327.49807456956842 70.621281185130783 0 70.621281185130783 -86.332895726016432 0 0 0 0 382.06067228633037 210.60903111799325 0 210.60903111799325 -19.73040857385331 0 0 0 0 34.541053026478039 53.939210179814381 0 53.939210179814381 25.16301226529049 0 0 0 0 46.079375187903437 28.849000988173806 0 28.849000988173806 3.8430852326919398 0 0 0 0 88.951862087422342 25.566840698608416 0 25.566840698608416 -102.94262080193346 0 0 0 0 10.114736307698042 0.23893277686111958 0 0.23893277686111958 -22.423180817196432 0 0 0 0 352.44752860075096 61.655009477737622 0 61.655009477737622 -142.68623473729895 0 0 0 0 1.903412374587873 34.895498334244486 0 34.895498334244486 -26.752672237540807 0 0 0 0 170.95947320791311 42.383050470240505 0 42.383050470240505 2.4579914190344425 0 0 0 0 110.94473391586507 20.045344295905124 0 20.045344295905124 24.274791287130938 0 0 0 0 348.10286846461531 124.68762624236842 0 124.68762624236842 -121.07252102961183 0 0 0 0 267.58412385334668 -153.02609449943702 0 -153.02609449943702 -87.647913665690794 0 0 0 0 13.906270055292495 1.674316925916763 0 1.674316925916763 -9.4912558201995285 0 0 0 0 470.23412490040937 289.90996400922859 0 289.90996400922859 87.131462662264312 0 0 0 0 452.97406140408566 192.33579256425583 0 192.33579256425583 -34.910443660353849 0 0 0 0 613.45427506559645 129.58840823074206 0 129.58840823074206 -118.83035182788262 0 0 0 0 348.01430246113159 152.65733210151302 0 152.65733210151302 -26.717651899360135 0 0 0 0 493.86825527985638 209.92674586021167 0 209.92674586021167 134.92352334904535 0 0 0 0 445.50468662929052 288.53707767240121 0 288.53707767240121 159.47900848791778 0 0 0 0 417.83455675889854 224.70427145513167 0 224.70427145513167 76.206830608310156 0 0 0 0 450.58879810731014 169.20399042402755 0 169.20399042402755 83.372964885658803 0 0 0 0 449.72503969176682 257.33958968167059 0 257.33958968167059 38.658893409239681 0 0 0 0 397.12655404118004 215.40353997156186 0 215.40353997156186 17.395659204437834 0 0 0 0 520.05562192562502 212.10250003877627 0 212.10250003877627 -21.128519215167216 0 0 0 0 567.08089884631408 103.09683470458299 0 103.09683470458299 32.678699428079199 0 0 0 0 509.44512845102872 75.192039292325717 0 75.192039292325717 26.261863454309946 0 0 0 0 497.12161773695698 50.477918680857329 0 50.477918680857329 36.731849879102811 0 0 0 0 336.52570885041496 21.215232027341699 0 21.215232027341699 43.380006921365407 0 0 0 0 416.95952090829815 126.71098363965484 0 126.71098363965484 31.603339887308266 0 0 0 0 240.25739814815461 20.639897940554874 0 20.639897940554874 100.23226914807424 0 0 0 0 379.49269184784498 68.319325912687873 0 68.319325912687873 79.716252197094946 0 0 0 0 352.50997534165799 158.31065926169504 0 158.31065926169504 157.62742163716575 0 0 0 0 327.92355729368137 127.49430391303667 0 127.49430391303667 119.5553306959855 0 0 0 0 335.05413549124933 195.97546385074315 0 195.97546385074315 211.32783566798753 0 0 0 0 263.65233486840498 158.10744784095846 0 158.10744784095846 233.0453112647574 0 0 0 0 244.8736050195148 61.51153502222769 0 61.51153502222769 149.2375878900757 0 0 0 0 290.72387419886218 62.033526506280396 0 62.033526506280396 90.736286293102239 0 0 0 0 265.08995397788385 34.823403724587934 0 34.823403724587934 -33.384556579072523 0 0 0 0 176.75462417241943 -18.764379027936229 0 -18.764379027936229 84.620864108884689 0 0 0 0 242.19948606109392 -20.837882288861238 0 -20.837882288861238 -45.881451598237618 0 0 0 0 197.49609671148937 -62.228150433723386 0 -62.228150433723386 20.026802326838833 0 0 0 0 302.29673541543161 -13.432295045223782 0 -13.432295045223782 29.778154355541119 0 0 0 0 -39.222089399663545 39.286637101680995 0 39.286637101680995 -29.846347883292442 0 0 0 0 -1.9171176986783394 201.10145378036123 0 201.10145378036123 457.59796579808426 0 0 0 0 1036.2794393533331 466.53252909106595 0 466.53252909106595 139.02954159255023 0 0 0 0 -9.8037033514078384 7.4352700685473252 0 7.4352700685473252 1.8804555699607377 0 0 0 0 346.65091586928611 158.95988640778796 0 158.95988640778796 294.02572513609971 0 0 0 0 761.69929732935998 354.67208715241031 0 354.67208715241031 148.87973210049859 0 0 0 0 764.74021476389953 323.04563231333435 0 323.04563231333435 152.5721170110628 0 0 0 0 421.33533352302038 220.10391669634555 0 220.10391669634555 201.58512844524557 0 0 0 0 435.21866650437005 330.91229916978955 0 330.91229916978955 349.27729723001903 0 0 0 0 384.65210667348583 158.59942882349287 0 158.59942882349287 161.09451480608095 0 0 0 0 166.59579127194593 89.070728824656726 0 89.070728824656726 206.68468821435226 0 0 0 0 491.89195292804652 488.085479315866 0 488.085479315866 610.05184240097151 0 0 0 0 590.45776194985956 188.02660195072167 0 188.02660195072167 149.6272818115026 0 0 0 0 242.9350107525097 435.14756043131183 0 435.14756043131183 304.83893602977878 0 0 0 0 219.54790614482772 219.09234955848478 0 219.09234955848478 157.2169959182429 0 0 0 0 322.25131451603374 251.63466961611402 0 251.63466961611402 -113.51347659852036 0 0 0 0 190.84394841978792 253.14027838992388 0 253.14027838992388 -95.159886326114247 0 0 0 0 205.2634998247886 63.240927248795288 0 63.240927248795288 -200.85222319606328 0 0 0 0 246.44191743001647 -27.451273200519381 0 -27.451273200519381 -13.812092372736515 0 0 0 0 300.61860498422175 265.42936742307575 0 265.42936742307575 -99.583582618814035 0 0 0 0 225.420205643597 85.205740375367895 0 85.205740375367895 -229.95399545580403 0 0 0 0 41.615820992912177 -92.935822468217566 0 -92.935822468217566 -280.85798299350608 0 0 0 0 202.01723244807363 22.319875070143553 0 22.319875070143553 -477.38977385530961 0 0 0 0 71.621034230708119 246.31067693923464 0 246.31067693923464 -411.6427693215719 0 0 0 0 139.44078678420192 50.504195258331947 0 50.504195258331947 -325.08503700208075 0 0 0 0 121.68807257172739 -68.761247969468968 0 -68.761247969468968 -214.10527443543742 0 0 0 0 203.75524483677873 -38.934404381618151 0 -38.934404381618151 -203.9212633433508 0 0 0 0 134.26753502359497 -56.489463456388876 0 -56.489463456388876 -47.67344010038687 0 0 0 0 206.85516168606046 -25.371284841871329 0 -25.371284841871329 -231.86035968549186 0 0 0 0 130.45612824258569 -30.506601400139516 0 -30.506601400139516 -29.424461596573849 0 0 0 0 64.272899694216903 79.317706872117924 0 79.317706872117924 -263.86937977214939 0 0 0 0 244.60126766214671 2.1540040815666543 0 2.1540040815666543 -606.12887449877508 0 0 0 0 -5.8974236503127031 340.57187422318566 0 340.57187422318566 -627.2255768039463 0 0 0 0 169.24447915001838 27.595714864703268 0 27.595714864703268 -374.61922575912831 0 0 0 0 117.91593329849638 93.045022376375073 0 93.045022376375073 -436.36358472768188 0 0 0 0 55.68217690442691 3.2305147938794079 0 3.2305147938794079 -4.931928505225752 0 0 0 0 25.872568004859204 51.548241247029637 0 51.548241247029637 -339.42902091397218 0 0 0 0 107.56825004562324 -3.1317118737142664 0 -3.1317118737142664 34.591386631113892 0 0 0 0 12.250080313200485 -8.901719551236539 0 -8.901719551236539 -3.1556583529001792 0 0 0 0 122.56385230027016 15.060126465296054 0 15.060126465296054 -2.1443826025394079 0 0 0 0 98.157907411161432 -18.027524321806595 0 -18.027524321806595 -6.7376618746147869 0 0 0 0 133.38041903176236 5.9818481554098071 0 5.9818481554098071 -0.54065981743860902 0 0 0 0 104.40825472257438 -14.514234245725504 0 -14.514234245725504 -5.8204894270681393 0 0 0 0 187.29441842038796 -38.724427227083879 0 -38.724427227083879 -10.825257331060129 0 0 0 0 80.888747774370131 -16.617563986405912 0 -16.617563986405912 -18.679551329091964 0 0 0 0 130.99279286655133 -8.1082707384762926 0 -8.1082707384762926 -17.282889104421429 0 0 0 0 59.317863071505343 0.94559663122106841 0 0.94559663122106841 -9.3172761424327835 0 0 0 0 254.21042982209838 40.865548172569788 0 40.865548172569788 -514.59517208863372 0 0 0 0 138.2584440603747 31.303766887970596 0 31.303766887970596 0.22980424214028972 0 0 0 0 116.44487685394643 21.520675433722317 0 21.520675433722317 25.510460477216157 0 0 0 0 136.26526491559056 12.596761894362928 0 12.596761894362928 0.16280489061815784 0 0 0 0 228.39321953601029 -203.55234931075938 0 -203.55234931075938 -71.71713731514501 0 0 0 0 99.209508962110249 12.65414120763927 0 12.65414120763927 3.6798132854674321 0 0 0 0 136.89936613376631 18.657755340817744 0 18.657755340817744 4.6147874369066813 0 0 0 0 110.60971314000869 39.505516888189049 0 39.505516888189049 1.3800532678892523 0 0 0 0 77.410131843838826 27.597899725255729 0 27.597899725255729 -1.1010156231423025 0 0 0 0 105.83192766160801 37.79768498191163 0 37.79768498191163 -2.1726963059682021 0 0 0 0 117.21742559374161 36.678939070823304 0 36.678939070823304 -6.6776929774807741 0 0 0 0 92.863199346847978 23.219246432412461 0 23.219246432412461 -6.7245468848063865 0 0 0 0 89.816936501685632 -12.56144369432792 0 -12.56144369432792 -41.67570746626734 0 0 0 0 70.295997537067251 -10.088221197682969 0 -10.088221197682969 -18.914440035471273 0 0 0 0 104.11551225092262 20.906395277522535 0 20.906395277522535 -13.123941186308798 0 0 0 0 50.647508799866046 0.30562131196938935 0 0.30562131196938935 -3.8365008853852487 0 0 0 0 56.53970087817175 -8.6413422765187544 0 -8.6413422765187544 -11.960509513221979 0 0 0 0 56.709911698828364 -13.569152643226289 0 -13.569152643226289 -5.8290757368149855 0 0 0 0 46.94848167537512 -6.4865194504917536 0 -6.4865194504917536 -9.3644582474599325 0 0 0 0 52.120732296706592 10.268419403386872 0 10.268419403386872 -2.2194566997955008 0 0 0 0 59.252189723358391 0.8136726808275121 0 0.8136726808275121 -11.251602330421115 0 0 0 0 91.805916806564767 27.807434510659732 0 27.807434510659732 -7.7170428124509272 0 0 0 0 77.051096074877023 10.857903558910039 0 10.857903558910039 -0.46888491565914592 0 0 0 0 89.04619096543081 17.874271812855113 0 17.874271812855113 -8.1964388486180155 0 0 0 0 86.902955197836491 27.35883990484399 0 27.35883990484399 4.7840086758556026 0 0 0 0 120.14134193691211 12.130546147632685 0 12.130546147632685 -8.6059696923903175 0 0 0 0 119.08052244126156 -2.8209845526498611 0 -2.8209845526498611 -9.0779004630185227 0 0 0 0 133.5098730927275 -6.9421571507905355 0 -6.9421571507905355 -36.698288850815516 0 0 0 0 52.288437552243991 9.7509189577493469 0 9.7509189577493469 -9.7534594996017994 0 0 0 0 179.10334694534322 33.581581946426468 0 33.581581946426468 -45.939955202775536 0 0 0 0 1.5149200549406316 -25.013456025846679 0 -25.013456025846679 -5.0785698969141029 0 0 0 0 178.55638551580887 -56.98676710631446 0 -56.98676710631446 -76.509458646771151 0 0 0 0 72.283381187742634 -53.675336006457428 0 -53.675336006457428 0.8504843693501698 0 0 0 0 31.924464640862425 -5.8843948538744542 0 -5.8843948538744542 -19.292853526723349 0 0 0 0 51.161415657905309 -42.868835938036057 0 -42.868835938036057 -0.77668156864529081 0 0 0 0 62.002842583369784 21.945850722799406 0 21.945850722799406 -37.261391643864556 0 0 0 0 99.069681969900557 -28.382539016415421 0 -28.382539016415421 -12.975064892536011 0 0 0 0 82.970073327080172 9.7494554446845996 0 9.7494554446845996 -32.250267787958364 0 0 0 0 64.600644905767695 -47.023816120449453 0 -47.023816120449453 -77.85330087409983 0 0 0 0 42.841704845326603 9.227586418020735 0 9.227586418020735 -68.973451340865722 0 0 0 0 100.62859246292413 -9.5102120175483229 0 -9.5102120175483229 -12.979964508971186 0 0 0 0 14.010400793645831 3.2959583941821666 0 3.2959583941821666 0.6263865833910145 0 0 0 0 76.241835617962352 -64.196917152512469 0 -64.196917152512469 14.215150598105538 0 0 0 0 143.39845068349678 15.693395761653846 0 15.693395761653846 -20.017573580519638 0 0 0 0 -2.504855307064048 -2.4532334817345243 0 -2.4532334817345243 1.0380307600867571 0 0 0 0 47.108002248834396 -9.687573823015839 0 -9.687573823015839 -8.557481039892096 0 0 0 0 157.26684101141655 36.890074435368206 0 36.890074435368206 -3.9088235269809957 0 0 0 0 129.81289053855289 -12.046769747572853 0 -12.046769747572853 17.037309974962454 0 0 0 0 125.26482699249027 -1.6028364996436721 0 -1.6028364996436721 -6.6415691242018511 0 0 0 0 123.31797900961101 15.667936621230183 0 15.667936621230183 4.4204901072462235 0 0 0 0 133.25001114582119 -4.7413243463445269 0 -4.7413243463445269 -5.432733365880722 0 0 0 0 110.05769135031733 -14.449356258107855 0 -14.449356258107855 0.92087643214540549 0 0 0 0 -2.2580981115794359 5.6668053199454675 0 5.6668053199454675 0.57182249229266802 0 0 0 0 73.030750740945223 -2.5256062798982839 0 -2.5256062798982839 6.4369772211048257 0 0 0 0 5.67787325263299 6.3961699452872409 0 6.3961699452872409 0.64775793565606321 0 0 0 0 104.95787293970079 6.5918059335396038 0 6.5918059335396038 2.228779657776613 0 0 0 0 107.14903933760252 13.369602267821165 0 13.369602267821165 -7.4449329836925244 0 0 0 0 70.233453519112118 3.94152965284826 0 3.94152965284826 -17.138788492684398 0 0 0 0 55.838369221106404 15.394409662374528 0 15.394409662374528 1.5620462243255133 0 0 0 0 55.85661901219585 -17.87936211904702 0 -17.87936211904702 -39.476259342034609 0 0 0 0 55.375686583680363 5.6080926403399189 0 5.6080926403399189 -2.55046784151682 0 0 0 0 46.002922002940139 -3.3750992301899725 0 -3.3750992301899725 -6.9470397307550167 0 0 0 0 64.241452281083184 -7.4550303054163578 0 -7.4550303054163578 -32.535011831024804 0 0 0 0 -37.080458550306503 -74.49503397395938 0 -74.49503397395938 -8.099094364283701 0 0 0 0 97.08782534783677 -3.0270938212493093 0 -3.0270938212493093 -64.470652843659536 0 0 0 0 73.224399793794873 34.341357773315849 0 34.341357773315849 -20.66890362682102 0 0 0 0 103.15053279233689 53.332207747507255 0 53.332207747507255 -10.5506982946672 0 0 0 0 -13.01968001484056 11.980979796760153 0 11.980979796760153 63.508170870203458 0 0 0 0 13.390334365009039 45.218747723681645 0 45.218747723681645 72.915691756026689 0 0 0 0 1.4010487882362135 6.0586945455857872 0 6.0586945455857872 0.31103044805321201 0 0 0 0 109.90776489534255 100.35658837397455 0 100.35658837397455 70.068290813208023 0 0 0 0 43.461581943221972 19.114482477227739 0 19.114482477227739 -9.4574376546058687 0 0 0 0 381.29416432635844 232.19632485695729 0 232.19632485695729 155.98606055953132 0 0 0 0 32.743265402436947 10.896231660620714 0 10.896231660620714 -1.7536901451166478 0 0 0 0 164.05523280977468 -100.45217014168333 0 -100.45217014168333 -60.207859766159345 0 0 0 0 243.74397854979179 60.205019707504562 0 60.205019707504562 -37.224211037369969 0 0 0 0 34.004284039576305 -11.083850372497196 0 -11.083850372497196 18.422878915843626 0 0 0 0 39.272329495463055 -1.9698060920383114 0 -1.9698060920383114 8.67472315661864 0 0 0 0 210.80479956039926 45.77146586004892 0 45.77146586004892 206.72324379943893 0 0 0 0 -159.18615267160931 -369.66007545751813 0 -369.66007545751813 -9.1104271386980145 0 0 0 0 -0.23860380061481123 2.0269114116742024 0 2.0269114116742024 2.0347038954361385 0 0 0 0 49.92973866333341 -34.852445812228027 0 -34.852445812228027 -69.814409373035232 0 0 0 0 36.524443348342942 11.225437385875082 0 11.225437385875082 -4.3007925596793104 0 0 0 0 311.96948063631135 42.493801862379769 0 42.493801862379769 160.76367874324069 0 0 0 0 76.794488495788755 4.8010006867640982 0 4.8010006867640982 245.15674403130924 0 0 0 0 2.2646008314435662 0.51383857698627367 0 0.51383857698627367 0.18437298976002481 0 0 0 0 54.334160585680365 9.1280139980528929 0 9.1280139980528929 -2.9559815759134835 0 0 0 0 -95.250756075693062 -177.66071844138787 0 -177.66071844138787 134.17016494948712 0 0 0 0 14.552285934727664 8.6929564458702728 0 8.6929564458702728 3.9013619299595494 0 0 0 0 54.790799259684718 -0.36603568090777117 0 -0.36603568090777117 14.340458545197862 0 0 0 0 9.2887918040687509 -73.64318355919653 0 -73.64318355919653 42.588352011769075 0 0 0 0 17.652128072236238 -33.340360292163446 0 -33.340360292163446 5.5345096530215772 0 0 0 0 101.40413064763561 -10.958955211832304 0 -10.958955211832304 -2.7252403291639098 0 0 0 0 90.568712822168891 -23.079112609318486 0 -23.079112609318486 9.4174921025451113 0 0 0 0 12.892417315150668 -33.085214009156445 0 -33.085214009156445 -3.5876876806934135 0 0 0 0 125.46096760262299 -1.9906039828961184 0 -1.9906039828961184 -8.0187845318274071 0 0 0 0 34.342783901365692 1.1327080889325885 0 1.1327080889325885 14.046799629152702 0 0 0 0 71.594903210661869 14.55637786512716 0 14.55637786512716 -6.246579971844767 0 0 0 0 191.89887426201312 49.595064849522714 0 49.595064849522714 7.0243303945353546 0 0 0 0 210.13725259638159 -1.0739643805382002 0 -1.0739643805382002 -29.239798799113487 0 0 0 0 324.62560057931114 25.670280258509592 0 25.670280258509592 -51.085932096852957 0 0 0 0 337.32492553750944 204.94092688091382 0 204.94092688091382 -75.469059750907036 0 0 0 0 81.674116397771286 175.83292915458787 0 175.83292915458787 26.994995687067785 0 0 0 0 289.60190598156441 2.6443015945555999 0 2.6443015945555999 -295.50380631878534 0 0 0 0 30.756033831904006 -178.80172001060899 0 -178.80172001060899 -273.54876329652052 0 0 0 0 122.89532582658285 172.57201785353209 0 172.57201785353209 -37.206414585977654 0 0 0 0 146.92081889724068 285.41763148233053 0 285.41763148233053 350.45651657860662 0 0 0 0 264.13060400707764 188.3372566433718 0 188.3372566433718 -44.078779020163097 0 0 0 0 150.52384832443204 110.87494405603525 0 110.87494405603525 -26.101328591068523 0 0 0 0 659.23896394945041 305.85362829597079 0 305.85362829597079 30.432691441906854 0 0 0 0 86.782083695386973 60.328336950083212 0 60.328336950083212 5.9301572688073065 0 0 0 0 -0.90574106875283178 93.202541227740312 0 93.202541227740312 104.18331929711911 0 0 0 0 181.76537193881086 181.79165129906869 0 181.79165129906869 108.55532514740571 0 0 0 0 27.078194749890827 18.616551283701938 0 18.616551283701938 46.649838289741069 0 0 0 0 46.032715520705096 25.744866418804577 0 25.744866418804577 18.851278530075746 0 0 0 0 52.041335391259054 57.900092341807522 0 57.900092341807522 61.135493215861288 0 0 0 0 18.119066736180685 -6.2221772214111297 0 -6.2221772214111297 17.356675641117036 0 0 0 0 9.1223002479235191 3.7944306181564258 0 3.7944306181564258 14.451662005184964 0 0 0 0 15.326949168131932 16.773458651094053 0 16.773458651094053 24.284963279182193 0 0 0 0 44.365426956763258 38.635798498439726 0 38.635798498439726 6.4115200115220432 0 0 0 0 39.726465588144492 17.267535417077852 0 17.267535417077852 19.72406616121134 0 0 0 0 27.363752427147119 47.709231758007263 0 47.709231758007263 9.7175033332364364 0 0 0 0 71.083727666395134 143.39795790422158 0 143.39795790422158 96.721100965659389 0 0 0 0 11.487786737764651 8.5233852192417459 0 8.5233852192417459 0.20639986870302707 0 0 0 0 72.692486442916561 -26.597637573831889 0 -26.597637573831889 -31.574308007005357 0 0 0 0 81.643011968852079 3.6901528841311801 0 3.6901528841311801 -26.396310012224831 0 0 0 0 91.877022509994404 18.424722748391883 0 18.424722748391883 -4.0623726156861784 0 0 0 0 46.614652613388898 14.422909419055486 0 14.422909419055486 3.2139185924265803 0 0 0 0 35.076596947773382 15.021225926520067 0 15.021225926520067 7.0365967008798318 0 0 0 0 49.288442687433957 9.911060733276539 0 9.911060733276539 -5.9758219053987771 0 0 0 0 22.444523508800813 4.1435835540945902 0 4.1435835540945902 0.063344546264966439 0 0 0 0 69.264099755011557 14.184061970183393 0 14.184061970183393 -2.9380028473105995 0 0 0 0 65.793106230142939 15.800382212359072 0 15.800382212359072 -1.7694993108020753 0 0 0 0 61.194688354551204 -2.9851804726531288 0 -2.9851804726531288 -15.495148090478271 0 0 0 0 84.478291061316668 6.8689624773905962 0 6.8689624773905962 5.9192909927487563 0 0 0 0 40.15651875670612 10.132646088525824 0 10.132646088525824 3.1534776678606233 0 0 0 0 76.601175036424138 17.245104216661275 0 17.245104216661275 8.9583869984817284 0 0 0 0 8.3344669488169671 5.5034686065741321 0 5.5034686065741321 0.2158219661328058 0 0 0 0 101.28438383649063 8.9678427565149832 0 8.9678427565149832 2.6465861579904413 0 0 0 0 74.021170479419496 4.4337877561239427 0 4.4337877561239427 -14.294787001250555 0 0 0 0 64.252549550702497 17.882305486214818 0 17.882305486214818 37.246806729940545 0 0 0 0 83.04187195320219 25.81425981545749 0 25.81425981545749 90.298695696980758 0 0 0 0 20.75676897448848 -9.6355621216066538 0 -9.6355621216066538 -7.8448278917329617 0 0 0 0 243.86181414143903 -75.482453026287203 0 -75.482453026287203 -56.381379447396284 0 0 0 0 130.79406330028053 -3.4077991258346927 0 -3.4077991258346927 -21.882531348946713 0 0 0 0 424.92474075359496 -30.219328366284572 0 -30.219328366284572 -170.71666789598748 0 0 0 0 140.70236828516772 79.393976941894607 0 79.393976941894607 49.611633814516608 0 0 0 0 171.47390733804423 28.475034540809702 0 28.475034540809702 104.78567790324178 0 0 0 0 199.51816153246364 -10.859042698369421 0 -10.859042698369421 99.450049128547107 0 0 0 0 196.06987510550789 -1.8514853209153443 0 -1.8514853209153443 81.105026088131467 0 0 0 0 170.95895191728414 28.631898073995103 0 28.631898073995103 71.893451184294463 0 0 0 0 151.54129096251927 61.20052722719214 0 61.20052722719214 51.503866019818673 0 0 0 0 255.11805877833876 43.039964843416783 0 43.039964843416783 39.768976641510108 0 0 0 0 154.15841238399298 90.003933453235504 0 90.003933453235504 71.555479801082129 0 0 0 0 159.58737117734699 62.501491281877549 0 62.501491281877549 17.323208285290036 0 0 0 0 149.0008251405452 77.255688724693073 0 77.255688724693073 16.037744970324638 0 0 0 0 161.50279781956851 61.6207735642339 0 61.6207735642339 -5.6573973595495772 0 0 0 0 168.53202082504504 77.286616142030653 0 77.286616142030653 21.62143009148167 0 0 0 0 181.96400809194847 36.55264992639065 0 36.55264992639065 67.902755269296108 0 0 0 0 161.21186013271472 110.615404709622 0 110.615404709622 -13.390762544351674 0 0 0 0 93.754957320917129 28.960484692928276 0 28.960484692928276 3.9844995842177013 0 0 0 0 88.523051130365275 24.054823142131681 0 24.054823142131681 7.5019821657380135 0 0 0 0 81.841751757294105 21.639909767104427 0 21.639909767104427 10.214940462886261 0 0 0 0 81.980819061790044 25.712297871247074 0 25.712297871247074 19.88531339089559 0 0 0 0 86.275845059871926 37.085764592062787 0 37.085764592062787 26.325757434206935 0 0 0 0 92.637611281505997 42.875056138201671 0 42.875056138201671 46.062638019847327 0 0 0 0 132.09631264222298 80.117588298333771 0 80.117588298333771 42.981570978535615 0 0 0 0 98.85410339162263 43.120952607180243 0 43.120952607180243 32.51674700177125 0 0 0 0 106.65465843710945 54.827889965843298 0 54.827889965843298 19.977723953218174 0 0 0 0 135.24620342558683 72.09540399750631 0 72.09540399750631 7.3098566602100163 0 0 0 0 139.00119363234489 62.646742561526338 0 62.646742561526338 -5.100150783709978 0 0 0 0 109.23589444032632 51.631951001496247 0 51.631951001496247 12.900513841892604 0 0 0 0 123.46258180473114 52.09117739647445 0 52.09117739647445 1.7778317273654807 0 0 0 0 99.783569476795265 41.351066188062674 0 41.351066188062674 3.4145295172953638 0 0 0 0 123.08611404258136 55.78682336251984 0 55.78682336251984 -14.445078563445804 0 0 0 0 145.79944142589909 43.104476242664759 0 43.104476242664759 -56.344313078394407 0 0 0 0 144.85521001512916 49.174929309632944 0 49.174929309632944 -12.69843928879709 0 0 0 0 146.12771093868454 15.82064371764791 0 15.82064371764791 1.2066751576497663 0 0 0 0 135.18388672795118 39.522669157029895 0 39.522669157029895 -21.672341867193381 0 0 0 0 171.69705485278428 48.077843437319871 0 48.077843437319871 -76.592326761139702 0 0 0 0 216.92772619204879 70.513660221974988 0 70.513660221974988 -88.867792540263508 0 0 0 0 182.69067051376442 64.650982873914245 0 64.650982873914245 -62.399465236246215 0 0 0 0 154.44252478600902 75.842526798981226 0 75.842526798981226 -24.77987247314195 0 0 0 0 148.04759378645667 71.914238670331997 0 71.914238670331997 -7.6374571601717207 0 0 0 0 144.29632515835965 41.582526857556331 0 41.582526857556331 -53.406112471259917 0 0 0 0 201.1135790607841 57.590753105862859 0 57.590753105862859 -96.829052724310714 0 0 0 0 29.340786793140015 14.770929755596107 0 14.770929755596107 0.21720320641836111 0 0 0 0 127.19517309338744 -20.247482318460527 0 -20.247482318460527 -123.54816017404119 0 0 0 0 185.93464193335694 -63.786292869483987 0 -63.786292869483987 -94.248631235353969 0 0 0 0 123.83230560833181 85.676276588377505 0 85.676276588377505 5.446128142239786 0 0 0 0 15.906124462510384 14.928764785344201 0 14.928764785344201 -4.9794735382197892 0 0 0 0 118.39813399122841 54.555103130648348 0 54.555103130648348 14.558836718742896 0 0 0 0 216.85768457327069 75.903896034599214 0 75.903896034599214 -201.02243663366517 0 0 0 0 141.4425552697794 130.53410144539671 0 130.53410144539671 -42.768130518659746 0 0 0 0 84.902195229634344 -320.76394670878483 0 -320.76394670878483 -153.26179284940588 0 0 0 0 -0.88595708480953306 -0.58970584783804014 0 -0.58970584783804014 -5.7557654718666225 0 0 0 0 106.53211542882855 102.18109496426467 0 102.18109496426467 42.646043761038193 0 0 0 0 78.488981193146174 54.803105371664856 0 54.803105371664856 46.122845964991711 0 0 0 0 85.293081334628368 68.913867781055615 0 68.913867781055615 9.1960348602506201 0 0 0 0 68.154170923924539 36.412618147866851 0 36.412618147866851 -0.81491297924316086 0 0 0 0 20.011325571621416 35.010455234125743 0 35.010455234125743 11.425363615656 0 0 0 0 102.03488608143516 54.76007451909669 0 54.76007451909669 8.7216966304579273 0 0 0 0 -432.14535342008639 172.09281250618903 0 172.09281250618903 276.57049932750851 0 0 0 0 90.846198420396831 70.576863217503103 0 70.576863217503103 -7.2448531618381651 0 0 0 0 -82.433079936912691 -50.808544923769318 0 -50.808544923769318 86.754116917689799 0 0 0 0 156.15084001414152 -37.31366829138171 0 -37.31366829138171 -89.16571453894278 0 0 0 0 22.059583167529745 36.816480386331335 0 36.816480386331335 18.056589873723091 0 0 0 0 229.18205216444858 -238.38281146263904 0 -238.38281146263904 73.439881078853887 0 0 0 0 602.81611303238606 -254.13009341176985 0 -254.13009341176985 51.84953529883262 0 0 0 0 69.403359662126604 -4.5430346764619571 0 -4.5430346764619571 78.263564377174134 0 0 0 0 23.576884115976085 38.946479826314828 0 38.946479826314828 22.199461259268482 0 0 0 0 64.152745297338697 0.84901033832761641 0 0.84901033832761641 90.797585194929809 0 0 0 0 196.25797349121603 168.77023948598935 0 168.77023948598935 48.679228626256645 0 0 0 0 65.537702424846429 3.4960778837668158 0 3.4960778837668158 74.605690134744691 0 0 0 0 244.80559271046877 18.19105329774527 0 18.19105329774527 57.120642062731804 0 0 0 0 209.32633843770554 35.201752112946053 0 35.201752112946053 59.132087412222972 0 0 0 0 1.1361797516698733 -3.8733334551638805 0 -3.8733334551638805 2.151506712634772 0 0 0 0 196.75444971036086 -15.251288359094833 0 -15.251288359094833 130.92068389933738 0 0 0 0 151.26398655410912 74.052399982530744 0 74.052399982530744 99.038233878341984 0 0 0 0 -81.244120560379088 215.99282731591853 0 215.99282731591853 113.81801166617839 0 0 0 0 107.0634199902488 -115.84376726124219 0 -115.84376726124219 57.404011219786298 0 0 0 0 287.9198385871714 -71.412558067842838 0 -71.412558067842838 -183.31129956951554 0 0 0 0 364.69460587670983 -303.47714551925014 0 -303.47714551925014 32.348453189382781 0 0 0 0 776.53209618625988 -981.05313719171886 0 -981.05313719171886 580.91327613089834 0 0 0 0 178.34774793490215 -412.26022182716133 0 -412.26022182716133 154.59258457804833 0 0 0 0 -301.56496374910057 -324.26898737791657 0 -324.26898737791657 659.78019823884915 0 0 0 0 10.189126195838952 -8.4397764458171167 0 -8.4397764458171167 8.4434676519443848 0 0 0 0 2736.9584232593661 299.25114760167708 0 299.25114760167708 39.599436174373295 0 0 0 0 1818.9428278502455 -647.74407678887974 0 -647.74407678887974 -227.98825996818891 0 0 0 0 523.41391594008019 -806.11353933103146 0 -806.11353933103146 1045.7086934070007 0 0 0 0 1166.2023130288107 650.27728663194284 0 650.27728663194284 -94.672732139429172 0 0 0 0 1131.1429161819542 -636.05737303550995 0 -636.05737303550995 185.90152386208041 0 0 0 0 807.81490925926755 -198.84597927745287 0 -198.84597927745287 -107.83662800710681 0 0 0 0 780.36034421120712 -84.779867499069042 0 -84.779867499069042 -139.40174218060065 0 0 0 0 707.61836856136506 -89.972415649538107 0 -89.972415649538107 -101.70875632297248 0 0 0 0 739.72105287552404 51.426594213116459 0 51.426594213116459 57.717742064769396 0 0 0 0 985.62730322527659 23.762046623156209 0 23.762046623156209 -64.055776182847694 0 0 0 0 29.847261551876301 -23.790294627904046 0 -23.790294627904046 20.133500408983139 0 0 0 0 629.1854056832226 105.83278048405043 0 105.83278048405043 -2.7341507208316216 0 0 0 0 824.08956880018013 103.49425779906142 0 103.49425779906142 -2.7091966433258676 0 0 0 0 282.44329604577069 -14.385065142359053 0 -14.385065142359053 4.6923277562050316 0 0 0 0 44.262099791624195 -40.421289502593964 0 -40.421289502593964 22.877766804109875 0 0 0 0 274.31945346824341 -45.524030434950191 0 -45.524030434950191 7.7695560006714004 0 0 0 0 84.87720590491881 -102.98642537599699 0 -102.98642537599699 -145.12628597170919 0 0 0 0 -38.161383161175763 -203.55598717657267 0 -203.55598717657267 -182.03360087846517 0 0 0 0 143.38417367694638 -61.426911770632614 0 -61.426911770632614 -140.73572445842365 0 0 0 0 298.98588950883277 -92.698438259927684 0 -92.698438259927684 99.005133822940195 0 0 0 0 145.96597933616522 -52.669537693638631 0 -52.669537693638631 88.562300848234372 0 0 0 0 319.45643957671564 -78.734820255942168 0 -78.734820255942168 -21.892446823744194 0 0 0 0 127.20504537816669 -27.286955186263185 0 -27.286955186263185 41.407292970090566 0 0 0 0 568.11117328448745 -3.096684447545158 0 -3.096684447545158 -29.334798648471178 0 0 0 0 330.41897827436333 -50.03613110997253 0 -50.03613110997253 7.0747576546223172 0 0 0 0 554.36926816288906 -168.01507404197901 0 -168.01507404197901 22.144330742961529 0 0 0 0 275.81998436989306 -168.4573932212262 0 -168.4573932212262 89.588507755835053 0 0 0 0 736.49411814067207 -243.32872665600667 0 -243.32872665600667 -64.885772382075174 0 0 0 0 643.06646908504626 -129.88773572735602 0 -129.88773572735602 -77.429591105463714 0 0 0 0 593.18550738108206 -136.8675288016135 0 -136.8675288016135 -78.206508484681763 0 0 0 0 620.15576735317154 -135.7383977105867 0 -135.7383977105867 -128.59341586160804 0 0 0 0 848.25265955364557 -108.91062998246991 0 -108.91062998246991 -146.36948412511993 0 0 0 0 942.5885609082834 -408.73026928187051 0 -408.73026928187051 -91.326982637067204 0 0 0 0 676.95636422766256 -972.8807795022567 0 -972.8807795022567 677.33642514219275 0 0 0 0 2202.5355988600131 -417.02473429473537 0 -417.02473429473537 -100.11115163035208 0 0 0 0 128.34780751805374 -109.04888920056749 0 -109.04888920056749 254.14194827482544 0 0 0 0 531.47603278676615 -377.34822177410058 0 -377.34822177410058 181.86429802964426 0 0 0 0 728.51157983974554 -250.10679582944374 0 -250.10679582944374 -68.100289005336435 0 0 0 0 -41.489343721215391 219.11425800678688 0 219.11425800678688 -226.00195353208619 0 0 0 0 29.061495134024625 27.534613810349249 0 27.534613810349249 21.735545827796003 0 0 0 0 99.181824208142643 16.180870348263397 0 16.180870348263397 -86.240776832316442 0 0 0 0 -18.409053591960401 57.255913918088936 0 57.255913918088936 -63.9540890158396 0 0 0 0 27.201985892960593 27.432841921911212 0 27.432841921911212 20.368267164241391 0 0 0 0 -13.339568684459664 132.80980625030134 0 132.80980625030134 -39.109564212953046 0 0 0 0 88.439531383253779 44.246911863191826 0 44.246911863191826 33.717455782706566 0 0 0 0 197.97416785754558 94.313588907466965 0 94.313588907466965 25.292684658496 0 0 0 0 11.001486753046738 -2.1499470287701605 0 -2.1499470287701605 12.520260147641782 0 0 0 0 157.42787338773633 92.756504805676741 0 92.756504805676741 65.65440647484138 0 0 0 0 137.69632223918961 53.719391064681076 0 53.719391064681076 36.724123622118896 0 0 0 0 191.20114027043928 69.557959246036717 0 69.557959246036717 20.230325073949643 0 0 0 0 175.87315657027102 29.674662542278838 0 29.674662542278838 -43.00668544603559 0 0 0 0 161.46771268413954 77.373048540626598 0 77.373048540626598 47.712606964550105 0 0 0 0 71.089683865873667 -3.2043558937248235 0 -3.2043558937248235 64.23853078268985 0 0 0 0 343.32994163619696 -103.3887445399024 0 -103.3887445399024 5.7212102885614513 0 0 0 0 625.50459751205926 -103.16138327660087 0 -103.16138327660087 -44.984941793136613 0 0 0 0 672.2153930310451 -7.8167406962413679 0 -7.8167406962413679 -65.365264275726076 0 0 0 0 671.9124212495808 -21.100199121285186 0 -21.100199121285186 -144.0458127938814 0 0 0 0 16.508101145940191 39.149185935681217 0 39.149185935681217 27.930282082280268 0 0 0 0 407.49570839407534 -55.56535818637667 0 -55.56535818637667 -48.219197376689635 0 0 0 0 230.64706662550452 112.46537452408529 0 112.46537452408529 74.411120031159044 0 0 0 0 153.63159362992155 43.386571236294003 0 43.386571236294003 103.53963213175189 0 0 0 0 449.2922969634019 157.75551420000716 0 157.75551420000716 47.874676654858376 0 0 0 0 7.7870944973903207 31.300553512777668 0 31.300553512777668 47.000410808025819 0 0 0 0 1373.3089929769849 86.714715094184157 0 86.714715094184157 -139.51951093621676 0 0 0 0 1955.6515230456644 879.69715226406618 0 879.69715226406618 360.43032483111062 0 0 0 0 479.12656570271065 267.91815021921508 0 267.91815021921508 192.42241645254364 0 0 0 0 10.533892825496537 -6.0392409430290748 0 -6.0392409430290748 4.6021713954038441 0 0 0 0 471.02574109230341 136.52275730964482 0 136.52275730964482 60.136289760138652 0 0 0 0 -274.11357299164956 -320.60401508835275 0 -320.60401508835275 -157.81141125239537 0 0 0 0 23.220057400766343 12.314166485543112 0 12.314166485543112 -12.466825180273936 0 0 0 0 152.14321749171359 28.67083459530744 0 28.67083459530744 -73.203815888395752 0 0 0 0 37.976881691342328 -6.6613341875672347 0 -6.6613341875672347 11.909013671500261 0 0 0 0 79.216895407203992 -256.12460702369617 0 -256.12460702369617 -262.72214560232828 0 0 0 0 -17.209914544553612 -47.143118927234354 0 -47.143118927234354 -80.414176867880997 0 0 0 0 157.42787338772905 92.756504805690383 0 92.756504805690383 65.654406474846837 0 0 0 0 157.42787338771086 92.756504805682198 0 92.756504805682198 65.654406474837742 0 0 0 0 111.79265314900195 2.1816202833879075 0 2.1816202833879075 -26.589180999981977 0 0 0 0 191.10703282017948 52.841981978199783 0 52.841981978199783 41.473841106539112 0 0 0 0 119.41993524415619 -6.4682602454913294 0 -6.4682602454913294 -26.767015081944955 0 0 0 0 415.02291859674733 131.5874109079823 0 131.5874109079823 -215.36683783178114 0 0 0 0 443.30068596627098 -163.26534872718412 0 -163.26534872718412 74.392158695592343 0 0 0 0 23.988881847268203 -5.633187075109845 0 -5.633187075109845 16.08590219835196 0 0 0 0 569.24945532265701 324.24802411634255 0 324.24802411634255 104.3175166494002 0 0 0 0 263.08051032814546 267.07963437729802 0 267.07963437729802 406.32007295977746 0 0 0 0 172.67690860816947 75.71418024620948 0 75.71418024620948 11.442601424954773 0 0 0 0 352.33880979374226 341.13297830523788 0 341.13297830523788 177.58221018325457 0 0 0 0 319.97598099103288 244.97271396739177 0 244.97271396739177 124.29055191667157 0 0 0 0 197.82554356567562 375.97799420850788 0 375.97799420850788 358.02293378940385 0 0 0 0 327.43356642824438 392.06319912758158 0 392.06319912758158 127.40158846590202 0 0 0 0 17.957165304920636 160.5868673831967 0 160.5868673831967 198.90163117495922 0 0 0 0 437.09387091769895 517.47109452988798 0 517.47109452988798 231.19891437866409 0 0 0 0 788.78421984066517 387.53095206876765 0 387.53095206876765 -87.365406069170604 0 0 0 0 330.79435287362139 71.858815051769398 0 71.858815051769398 -210.1668113496778 0 0 0 0 275.52308792048279 4.0096552547513511 0 4.0096552547513511 -175.32622339406498 0 0 0 0 114.02721140722861 38.795252092619648 0 38.795252092619648 -81.050096557795769 0 0 0 0 191.66505968916135 -135.25454766651012 0 -135.25454766651012 -247.84263510624351 0 0 0 0 843.01399460392713 -517.44156460461636 0 -517.44156460461636 438.49548633476115 0 0 0 0 -1.0977066709174323 2.0542080198445944 0 2.0542080198445944 -3.5351252543626863 0 0 0 0 -701.083612280323 -421.3856051125299 0 -421.3856051125299 -0.8052187788680385 0 0 0 0 1908.3357006458173 -939.43010737466989 0 -939.43010737466989 -45.352053206957407 0 0 0 0 506.63964974323608 -762.55030411961593 0 -762.55030411961593 827.107795614564 0 0 0 0 78.777492635985254 69.474871955574031 0 69.474871955574031 61.637418005601376 0 0 0 0 746.04240294657939 -885.06562602293286 0 -885.06562602293286 106.51398529665039 0 0 0 0 1302.9964267279647 -510.65992831924063 0 -510.65992831924063 -224.93485775665658 0 0 0 0 515.24509697059511 -472.01971145415951 0 -472.01971145415951 -177.32473229269908 0 0 0 0 1092.1735516815388 225.56083173599154 0 225.56083173599154 346.84589387210099 0 0 0 0 1063.1786484415352 227.50147906357051 0 227.50147906357051 419.94626355595847 0 0 0 0 751.83123857741157 184.93392674102324 0 184.93392674102324 481.92319798764265 0 0 0 0 2368.8938779337041 -685.96962574201268 0 -685.96962574201268 74.622323640259765 0 0 0 0 10.494803531914826 7.9343762363360781 0 7.9343762363360781 5.8208906134731997 0 0 0 0 659.98806874453294 -177.75443587701011 0 -177.75443587701011 585.4981670834411 0 0 0 0 716.43929387759999 -253.92285376187237 0 -253.92285376187237 -13.774183658909351 0 0 0 0 -17.1868381208551 -108.68894330711055 0 -108.68894330711055 162.81351021169394 0 0 0 0 284.3562757046675 -318.06385741262511 0 -318.06385741262511 147.52288256385964 0 0 0 0 -59.228455754018796 167.49833635572395 0 167.49833635572395 303.5154683590963 0 0 0 0 87.335668862160674 -23.527147230896617 0 -23.527147230896617 -193.57105106526524 0 0 0 0 728.98799730389146 -30.77870137705213 0 -30.77870137705213 61.827141036083049 0 0 0 0 5.6480903791591857 2.6667189834896234 0 2.6667189834896234 1.3020326858673137 0 0 0 0 267.24065084781614 23.376167442926089 0 23.376167442926089 -131.47465509067797 0 0 0 0 236.93911387495882 -122.08623794541791 0 -122.08623794541791 -38.334593674753705 0 0 0 0 183.85250910151444 28.399668518339922 0 28.399668518339922 -175.98690447049921 0 0 0 0 110.88858365066699 46.749476435969882 0 46.749476435969882 -175.31482256500931 0 0 0 0 75.822775019034452 28.023887322735845 0 28.023887322735845 -100.47423090593566 0 0 0 0 -221.09210498109678 417.89296194297322 0 417.89296194297322 -133.0886647220932 0 0 0 0 1297.7857756255071 513.65473675670751 0 513.65473675670751 359.05321096355829 0 0 0 0 23.777508172255551 22.155193807480643 0 22.155193807480643 16.645266272015022 0 0 0 0 -424.13817623674549 271.08246571787004 0 271.08246571787004 290.49302002201784 0 0 0 0 -403.58854628113477 313.06859485925816 0 313.06859485925816 308.82939694897709 0 0 0 0 -418.76600834211422 395.06398763751122 0 395.06398763751122 138.56905117650376 0 0 0 0 888.42125866476272 -186.20131456612387 0 -186.20131456612387 -2.2642259026870306 0 0 0 0 4.0811528897061748 3.2595695634043835 0 3.2595695634043835 2.322987215545929 0 0 0 0 -167.07087387646607 120.16596459023731 0 120.16596459023731 -150.20434081147141 0 0 0 0 366.08944066274853 495.24040507127074 0 495.24040507127074 72.776512663897847 0 0 0 0 381.25467648886809 -181.71744041656109 0 -181.71744041656109 73.079683685277814 0 0 0 0 660.55254567351221 217.68121773279563 0 217.68121773279563 127.48835912721461 0 0 0 0 216.3304466284826 71.109446777699304 0 71.109446777699304 345.53000113063399 0 0 0 0 261.23912136198305 -10.089232501847619 0 -10.089232501847619 42.321606364615945 0 0 0 0 375.0730939342684 -4.118169476842013 0 -4.118169476842013 -61.016678029562627 0 0 0 0 514.78882481877372 63.23407687045983 0 63.23407687045983 -35.039662533172304 0 0 0 0 289.03196026269325 54.001155131004225 0 54.001155131004225 55.516649840810715 0 0 0 0 566.38262060218403 -75.826321873502934 0 -75.826321873502934 -116.679532538903 0 0 0 0 301.96779240798787 678.42052379131451 0 678.42052379131451 -274.29005908918634 0 0 0 0 374.83072711921704 -71.140397567316541 0 -71.140397567316541 -95.481838404131395 0 0 0 0 378.56417352099379 -54.163488866091029 0 -54.163488866091029 -136.70360433094618 0 0 0 0 356.6263535396065 -112.51246607436224 0 -112.51246607436224 -11.883580906164752 0 0 0 0 10.597412464991066 7.9926483411465483 0 7.9926483411465483 4.0268001467680072 0 0 0 0 207.69198638368107 54.652344340999662 0 54.652344340999662 -114.43063286636516 0 0 0 0 363.22849534808483 -93.428381735482844 0 -93.428381735482844 -123.91225940376808 0 0 0 0 86.449342135499137 -0.78336310843667434 0 -0.78336310843667434 -66.823242801192464 0 0 0 0 388.67782879876904 -7.6267208930294146 0 -7.6267208930294146 80.932862074189842 0 0 0 0 144.5644004852802 58.067264433399487 0 58.067264433399487 79.375211309272345 0 0 0 0 367.51843401618316 -14.232322620563536 0 -14.232322620563536 139.38266150211439 0 0 0 0 588.25285539988181 -66.089065084515369 0 -66.089065084515369 -113.10711394823647 0 0 0 0 455.50370990986266 -57.02501857774314 0 -57.02501857774314 -110.3627282648963 0 0 0 0 281.35788117467382 -193.00790721481121 0 -193.00790721481121 78.827804342377931 0 0 0 0 964.15828109542781 -61.857973784047317 0 -61.857973784047317 -103.46609817099989 0 0 0 0 511.33289891686582 -162.30056324458474 0 -162.30056324458474 -122.05752484027244 0 0 0 0 547.26915315227052 -92.734323877896486 0 -92.734323877896486 -39.126660045008975 0 0 0 0 453.22558926705824 -160.02982970994026 0 -160.02982970994026 -34.47536746359583 0 0 0 0 183.56481616330711 -45.978019262998259 0 -45.978019262998259 0.72591977455795131 0 0 0 0 452.07762772612159 -264.89734326997359 0 -264.89734326997359 73.072129090780436 0 0 0 0 819.2753722954003 -290.22312308114124 0 -290.22312308114124 -95.883772430555837 0 0 0 0 821.16290572185608 -285.93806108241421 0 -285.93806108241421 -207.8471417821147 0 0 0 0 1004.4699351350246 -309.6047101545721 0 -309.6047101545721 -269.1699590821745 0 0 0 0 833.87707855600456 -503.78465156344873 0 -503.78465156344873 156.57683795225375 0 0 0 0 597.19457771991438 153.6115247932089 0 153.6115247932089 -535.83511269364726 0 0 0 0 11.557978384407534 7.8195027288777936 0 7.8195027288777936 3.0616011978922231 0 0 0 0 687.58480589966348 -228.46855037503656 0 -228.46855037503656 -130.04494647761203 0 0 0 0 1548.1420475312771 -345.72670671690776 0 -345.72670671690776 -89.530692970020937 0 0 0 0 5.2842113904699772 3.0165778151641689 0 3.0165778151641689 1.2673895529721904 0 0 0 0 802.36930628530536 -307.10183235308341 0 -307.10183235308341 -79.38754487128972 0 0 0 0 48.369940103038061 246.15456396880933 0 246.15456396880933 -273.71562234349039 0 0 0 0 134.28782766231598 -36.967085082160338 0 -36.967085082160338 -164.87804936924476 0 0 0 0 -189.76445287894239 419.79311411220601 0 419.79311411220601 66.426871118977942 0 0 0 0 779.51634679277413 194.82259102444118 0 194.82259102444118 345.99090062545565 0 0 0 0 494.64207876633736 -108.29221560869792 0 -108.29221560869792 96.339403227911816 0 0 0 0 451.60055103256309 -72.557813952241759 0 -72.557813952241759 6.7494350122506148 0 0 0 0 499.45546721888968 26.302655771061836 0 26.302655771061836 152.905021086136 0 0 0 0 383.96556541469909 21.452714861327877 0 21.452714861327877 202.1383548748463 0 0 0 0 205.49436600277841 -121.03326552783346 0 -121.03326552783346 112.74368578512622 0 0 0 0 133.51712865336594 -1.6485567656791318 0 -1.6485567656791318 146.95770540959441 0 0 0 0 6.736659716876602 -79.328754817184972 0 -79.328754817184972 109.7681468740775 0 0 0 0 86.017142773605883 45.981229945373343 0 45.981229945373343 19.668053115351086 0 0 0 0 242.54943554924103 1.0099277428344067 0 1.0099277428344067 115.31374220596271 0 0 0 0 134.2674873700671 -72.534286273710677 0 -72.534286273710677 81.439405408737002 0 0 0 0 226.32754369646864 -68.393308817376692 0 -68.393308817376692 66.204813844878572 0 0 0 0 186.25195564555906 48.239178421857105 0 48.239178421857105 -14.149620752568808 0 0 0 0 103.5522908852945 -29.836863929518586 0 -29.836863929518586 -67.186465885215512 0 0 0 0 -120.20392740741954 -34.376491294719472 0 -34.376491294719472 57.420226719202219 0 0 0 0 31.754185696201603 2.4846302432754328 0 2.4846302432754328 -20.500647895587463 0 0 0 0 -65.158311539365968 127.26759133116911 0 127.26759133116911 -2.6034203879735287 0 0 0 0 4.7030174078371942 2.8301206812311648 0 2.8301206812311648 0.69019159308415823 0 0 0 0 7.8068997941067835 4.9636876640290311 0 4.9636876640290311 2.6901357086767117 0 0 0 0 7.8517171576968394 55.967526673566681 0 55.967526673566681 -53.201191259716325 0 0 0 0 127.23652981447958 -97.123213853086781 0 -97.123213853086781 -13.619818421250784 0 0 0 0 85.844249516800119 -52.443154638718426 0 -52.443154638718426 6.1194271449439839 0 0 0 0 75.473127390388981 28.844602864111039 0 28.844602864111039 27.732044601609743 0 0 0 0 85.006764907695469 -80.058186929300973 0 -80.058186929300973 40.077095321808997 0 0 0 0 75.753821090947895 13.231985894235549 0 13.231985894235549 -38.746204013134047 0 0 0 0 5.5903716217871988 -48.165124486362856 0 -48.165124486362856 20.253520610574469 0 0 0 0 -28.623882198349747 30.479470345837854 0 30.479470345837854 0.64016252628971415 0 0 0 0 5.5311064251945936 28.948983196271911 0 28.948983196271911 -26.794783409633965 0 0 0 0 28.676042180944933 -8.5521199107115535 0 -8.5521199107115535 -35.035679950395092 0 0 0 0 29.058361062860058 -29.328223487115338 0 -29.328223487115338 -2.868450773037921 0 0 0 0 6.4389424140731535 3.2056225747361964 0 3.2056225747361964 1.279559588363675 0 0 0 0 -18.594785108398355 14.918490812586697 0 14.918490812586697 26.994916333812398 0 0 0 0 14.085596405660908 -19.261259278119724 0 -19.261259278119724 14.483112616411745 0 0 0 0 -159.0840675358495 134.86342071335525 0 134.86342071335525 31.148102898630896 0 0 0 0 1.3574640593387954 2.3500124488225964 0 2.3500124488225964 2.6134382990591654 0 0 0 0 42.249060345196995 -12.559094740897081 0 -12.559094740897081 -80.278611804011234 0 0 0 0 -115.13744173074156 9.323823058657581 0 9.323823058657581 152.45071500143331 0 0 0 0 188.41829764578142 44.417164805566699 0 44.417164805566699 36.859078086253703 0 0 0 0 132.2299465332253 137.9195843193902 0 137.9195843193902 82.133968884611022 0 0 0 0 0.70695472329947506 0.94005882702656152 0 0.94005882702656152 1.2676633835340674 0 0 0 0 94.740597322430403 88.9029654941437 0 88.9029654941437 36.539188582723 0 0 0 0 96.111017761213589 82.457354271917211 0 82.457354271917211 49.547614587416319 0 0 0 0 25.523767474252963 10.264964155727284 0 10.264964155727284 13.254256820082446 0 0 0 0 69.453990319841978 -5.2325090186104717 0 -5.2325090186104717 5.3413645766959235 0 0 0 0 21.475922180747148 -35.788920263895307 0 -35.788920263895307 -90.791954541114137 0 0 0 0 6.8904663337816601 -32.776670281550878 0 -32.776670281550878 126.01519546516647 0 0 0 0 -78.015715477289632 60.888279177459481 0 60.888279177459481 25.870608227778575 0 0 0 0 28.840787908047787 42.354222886706339 0 42.354222886706339 30.449232664087049 0 0 0 0 -0.15825901997283598 0.4554975522581941 0 0.4554975522581941 0.46820793119397308 0 0 0 0 -210.58213785363478 -9.5060093217839494 0 -9.5060093217839494 221.01216356493569 0 0 0 0 -29.127721778902924 -67.833895617096914 0 -67.833895617096914 256.37692167935165 0 0 0 0 -78.655102461139904 35.857582501424076 0 35.857582501424076 136.90264972319414 0 0 0 0 191.60900978565041 151.96426225433243 0 151.96426225433243 158.19301579475496 0 0 0 0 52.820656257266819 111.61480701985136 0 111.61480701985136 67.79460240849312 0 0 0 0 2.7392501524583963 1.0411190693182277 0 1.0411190693182277 0.23782414166651833 0 0 0 0 167.53646706305153 105.80262295270677 0 105.80262295270677 40.446644996764462 0 0 0 0 213.79582987277536 -58.748239717404431 0 -58.748239717404431 81.900787439080887 0 0 0 0 50.610866824677942 8.8395201968683068 0 8.8395201968683068 18.467999035815296 0 0 0 0 63.080319810316723 16.363596856665538 0 16.363596856665538 22.207307743459026 0 0 0 0 53.863150729695917 10.04587682316469 0 10.04587682316469 24.523413517543645 0 0 0 0 -1.511746927986124 0.13510200116247972 0 0.13510200116247972 23.624000469324148 0 0 0 0 -88.924512202806 13.612469184762404 0 13.612469184762404 338.36647565600651 0 0 0 0 52.932087706009042 14.158761405372189 0 14.158761405372189 26.963752828990167 0 0 0 0 56.383560786925955 14.956799673104484 0 14.956799673104484 26.88692216245397 0 0 0 0 115.70834036686574 12.768754584137696 0 12.768754584137696 -242.12640714230656 0 0 0 0 56.696745326873952 12.553136180469238 0 12.553136180469238 14.55707477866406 0 0 0 0 56.018195939479483 20.107329563048552 0 20.107329563048552 23.694238186664904 0 0 0 0 22.983498728511449 16.371961681549088 0 16.371961681549088 14.724596681919127 0 0 0 0 37.943296396335427 16.911256754951971 0 16.911256754951971 38.729444367361722 0 0 0 0 52.08594482882836 16.477398175889647 0 16.477398175889647 37.541030573969536 0 0 0 0 19.476748815217434 0.00093589142079508747 0 0.00093589142079508747 100.03445444962199 0 0 0 0 56.710444744108827 16.890162243450504 0 16.890162243450504 -13.065112299838802 0 0 0 0 52.123381658675498 14.078361551724356 0 14.078361551724356 32.509242834822089 0 0 0 0 3.1710319214971108 1.3784124939025588 0 1.3784124939025588 23.016096828270548 0 0 0 0 1.1764717147434283 -1.9604479796689134 0 -1.9604479796689134 3.1673704084617942 0 0 0 0 11.40652394324421 -4.2808694726190737 0 -4.2808694726190737 11.854077062881716 0 0 0 0 30.981355115894985 6.4865532913227071 0 6.4865532913227071 16.917934319279084 0 0 0 0 56.443578993981646 5.7987688654280873 0 5.7987688654280873 5.1247708178636913 0 0 0 0 17.237208313462503 9.7634160856506185 0 9.7634160856506185 12.754164979314943 0 0 0 0 16.723777331524616 8.5104632845312551 0 8.5104632845312551 11.38171834951072 0 0 0 0 18.926917435906944 8.951905493791628 0 8.951905493791628 11.2552998037213 0 0 0 0 25.016738372446483 6.9379732457829917 0 6.9379732457829917 8.7945188355504609 0 0 0 0 27.556490550768373 10.311408566070327 0 10.311408566070327 4.8082754673437602 0 0 0 0 24.04432198334689 5.6024434380442472 0 5.6024434380442472 20.547309031386703 0 0 0 0 47.740408234167262 -15.594449849708099 0 -15.594449849708099 18.005100597228306 0 0 0 0 52.572633998657693 -4.180920164813358 0 -4.180920164813358 1.4291874109999299 0 0 0 0 35.955348287022559 8.48212600149742 0 8.48212600149742 6.0026568924759465 0 0 0 0 22.670052505027115 2.8673146018682587 0 2.8673146018682587 10.470380398984002 0 0 0 0 15.455700934242486 9.5862463121673045 0 9.5862463121673045 22.007017744492714 0 0 0 0 8.6309279685587939 12.268757817213761 0 12.268757817213761 20.313829862952954 0 0 0 0 92.348085231045843 -67.698892399643228 0 -67.698892399643228 23.441852507175895 0 0 0 0 249.99642416460847 -115.42515708014798 0 -115.42515708014798 14.251583184500305 0 0 0 0 150.66659793637518 -23.256532538891406 0 -23.256532538891406 -18.274632155156723 0 0 0 0 -82.583022381411865 34.543065025457508 0 34.543065025457508 14.877700471435674 0 0 0 0 37.204242972540669 93.766593701186139 0 93.766593701186139 -20.953334625910543 0 0 0 0 6.5817961405704413 3.9243240520089984 0 3.9243240520089984 1.1070807175458341 0 0 0 0 26.940226772749156 -34.832818587161 0 -34.832818587161 -46.671011733918931 0 0 0 0 11.045922078514195 16.109489022720737 0 16.109489022720737 2.1321710222168804 0 0 0 0 29.520740228726936 44.330858575907087 0 44.330858575907087 -20.637218618211818 0 0 0 0 13.274016149413995 10.266548721744549 0 10.266548721744549 6.7874268265095363 0 0 0 0 14.445524995644519 25.987761121933545 0 25.987761121933545 -11.057184824470426 0 0 0 0 44.539865570142865 -42.252209107045928 0 -42.252209107045928 37.671541001095648 0 0 0 0 7.7586817760107465 5.4875726613220834 0 5.4875726613220834 4.1957919258589733 0 0 0 0 31.26463427242561 8.6479338877538794 0 8.6479338877538794 -9.7616764841411623 0 0 0 0 3.7751488282497121 35.701797865417959 0 35.701797865417959 7.2772156412499953 0 0 0 0 8.0316830743795435 2.70755211004861 0 2.70755211004861 -9.588866389879513 0 0 0 0 11.651938045594022 4.9289283055306186 0 4.9289283055306186 2.6409575319599767 0 0 0 0 11.988105309954818 9.8332580442372759 0 9.8332580442372759 5.1517398331102378 0 0 0 0 7.0245147926034406 21.109483284864837 0 21.109483284864837 6.3782926875692283 0 0 0 0 5.5678311624797061 -3.3047105344230658 0 -3.3047105344230658 -26.661221873480827 0 0 0 0 13.360765964943596 4.2862083702834468 0 4.2862083702834468 2.4922449188488951 0 0 0 0 9.4782097906804097 7.164689655387015 0 7.164689655387015 5.8399543902214202 0 0 0 0 39.489014433562261 6.5896987685624708 0 6.5896987685624708 -6.448297149563615 0 0 0 0 19.160246760544396 3.6064877956837904 0 3.6064877956837904 7.4512842180881478 0 0 0 0 2.3255956243956462 17.524100233963509 0 17.524100233963509 -9.6763542029375458 0 0 0 0 21.547983795191158 21.381979395181776 0 21.381979395181776 -0.25714315445418379 0 0 0 0 -384.19214231865226 50.546028223309122 0 50.546028223309122 251.60451400274542 0 0 0 0 3.5362418575494488 5.2498384820860053 0 5.2498384820860053 17.949680246588567 0 0 0 0 23.951969043911959 3.0581062078445029 0 3.0581062078445029 15.511136409653318 0 0 0 0 3.4896673770695301 -5.1171609153874869 0 -5.1171609153874869 13.643825293051503 0 0 0 0 6.1167322455825737 0.58452458581142253 0 0.58452458581142253 2.2013127170837361 0 0 0 0 53.147838779310405 0.99004848737479278 0 0.99004848737479278 15.105250952756705 0 0 0 0 55.958410586245009 2.9449182759641985 0 2.9449182759641985 15.484448356789926 0 0 0 0 78.860662554710871 -5.661809327249216 0 -5.661809327249216 16.785845240036437 0 0 0 0 -89.254157662711805 -238.9135547740434 0 -238.9135547740434 83.996399865025523 0 0 0 0 10.294923198889592 -86.784503523722151 0 -86.784503523722151 -286.02718273790742 0 0 0 0 8.290931293383494 -5.8197861268763518 0 -5.8197861268763518 16.056148928784697 0 0 0 0 -8.1036966324827517 -78.113345382385432 0 -78.113345382385432 -139.50805106501821 0 0 0 0 5.2830231381104085 -2.481497898053199 0 -2.481497898053199 3.1853017789200972 0 0 0 0 4.1799127539197798 -20.112342824371439 0 -20.112342824371439 10.686642309058925 0 0 0 0 54.322925982298329 -17.736087272854149 0 -17.736087272854149 19.70646429848739 0 0 0 0 120.36503291931876 -31.216924175069451 0 -31.216924175069451 -16.176508651598056 0 0 0 0 3.1212224315601418 -1.7029950119948865 0 -1.7029950119948865 7.9812118473488285 0 0 0 0 -0.55950639736151864 -0.58505408619157606 0 -0.58505408619157606 0.68274022959369463 0 0 0 0 89.554265339451376 -73.297308220325178 0 -73.297308220325178 -25.983750848724071 0 0 0 0 36.282719190837042 6.010695213225894 0 6.010695213225894 -0.74597378723283803 0 0 0 0 143.04742587480359 0.76557607721372278 0 0.76557607721372278 20.656306843060179 0 0 0 0 0.088142065913913825 0.57891555910995862 0 0.57891555910995862 2.0676494273908173 0 0 0 0 26.975554339071095 7.6828574749860934 0 7.6828574749860934 -29.419210949412673 0 0 0 0 99.893328147896682 239.46131293498024 0 239.46131293498024 260.12164020624641 0 0 0 0 179.26550444094755 55.166244137902751 0 55.166244137902751 60.387845386177105 0 0 0 0 134.70507728806115 39.491947688840582 0 39.491947688840582 112.43397507791656 0 0 0 0 -105.6969984601601 341.03307405352979 0 341.03307405352979 852.39607002812704 0 0 0 0 31.984173912902925 0.90189304264910675 0 0.90189304264910675 5.315980358129174 0 0 0 0 45.724348925386948 -18.246666794777582 0 -18.246666794777582 39.75643236207361 0 0 0 0 29.400210552139722 -24.404768517304667 0 -24.404768517304667 16.767043198007514 0 0 0 0 49.152110615257698 -50.827641018071745 0 -50.827641018071745 50.241974015397318 0 0 0 0 19.365250349379494 -48.874174707980728 0 -48.874174707980728 -3.4684077782643499 0 0 0 0 5.2590126027644146 11.455103861911653 0 11.455103861911653 20.424147260620884 0 0 0 0 21.551087380225113 6.0114665941803969 0 6.0114665941803969 4.3890605974530104 0 0 0 0 21.721864509803709 -0.87857432245108669 0 -0.87857432245108669 50.557540050395289 0 0 0 0 63.46258452499751 28.357056919810777 0 28.357056919810777 36.342883985524509 0 0 0 0 53.108188388374401 10.040336651032192 0 10.040336651032192 5.3100911736032401 0 0 0 0 43.966024227112939 -19.991616225040573 0 -19.991616225040573 12.655028949875174 0 0 0 0 30.1986299586315 -15.264363124854476 0 -15.264363124854476 11.283659620860647 0 0 0 0 29.940788620988315 -20.378956146797279 0 -20.378956146797279 93.833837319601969 0 0 0 0 134.93813627888062 47.311067420737032 0 47.311067420737032 119.12872999514553 0 0 0 0 -36.037510557073801 -99.050431361254027 0 -99.050431361254027 49.769082015071149 0 0 0 0 11.76124842686113 -5.6726400349824644 0 -5.6726400349824644 21.219911202753195 0 0 0 0 1.5764140895494165 -2.7255513275977989 0 -2.7255513275977989 20.959548647665542 0 0 0 0 -1.3139070966890691 4.0221229719236362 0 4.0221229719236362 9.4599848413910657 0 0 0 0 19.868814686851692 -4.4637929697014442 0 -4.4637929697014442 0.31753354964018854 0 0 0 0 17.089363273291383 4.7001203038598973 0 4.7001203038598973 -7.8280318270201619 0 0 0 0 5.1648254438338457 5.288642714062064 0 5.288642714062064 4.1481996857372385 0 0 0 0 -2.2721498162427451 17.177818732263859 0 17.177818732263859 -10.702004411753478 0 0 0 0 4.2824403719496331 1.8788587806768646 0 1.8788587806768646 1.5442733855015831 0 0 0 0 15.657654019811162 26.537268263972663 0 26.537268263972663 -27.161701683239016 0 0 0 0 5.0045846705221209 4.7459716214567678 0 4.7459716214567678 4.1091966094042931 0 0 0 0 480.75192098174011 -154.31507352487642 0 -154.31507352487642 91.637477427470003 0 0 0 0 77.586613141407724 -51.360566611969261 0 -51.360566611969261 160.01478465259515 0 0 0 0 12.443293667834951 -7.1046919087420974 0 -7.1046919087420974 29.082847016834421 0 0 0 0 31.695252647590678 0.57119723202833939 0 0.57119723202833939 -20.496783512186539 0 0 0 0 37.292759837655467 18.355628878607718 0 18.355628878607718 31.17221974897484 0 0 0 0 59.821923963987501 68.868022440165191 0 68.868022440165191 85.898809138382603 0 0 0 0 4.098260872400715 0.14799851312648116 0 0.14799851312648116 51.831301597081847 0 0 0 0 41.517542877518281 64.379142397468399 0 64.379142397468399 -22.495066887279336 0 0 0 0 6.977297791821826 5.304004984843445 0 5.304004984843445 4.6087886324973368 0 0 0 0 -61.922902811100357 8.3594970687149726 0 8.3594970687149726 341.76922324764104 0 0 0 0 519.35407764601405 -144.26901412948973 0 -144.26901412948973 79.637601593747604 0 0 0 0 2.4684701729144081 1.9834830268547137 0 1.9834830268547137 2.0409622383709749 0 0 0 0 96.273673193631112 -32.650822221370163 0 -32.650822221370163 140.45649615852881 0 0 0 0 67.845895103921066 -50.476568572961696 0 -50.476568572961696 72.455959385579263 0 0 0 0 64.783567915306776 -63.432006264562006 0 -63.432006264562006 122.37750446763221 0 0 0 0 163.80840286064631 16.501673117990549 0 16.501673117990549 55.256276191007601 0 0 0 0 83.803387594423839 -87.293490063721265 0 -87.293490063721265 125.36757517709339 0 0 0 0 64.194846033336944 -75.401258910208071 0 -75.401258910208071 118.77286930281343 0 0 0 0 44.201459263189463 -95.670343646565016 0 -95.670343646565016 100.0271425412293 0 0 0 0 106.52523581756395 -80.51170265357996 0 -80.51170265357996 102.86257392087464 0 0 0 0 6.7181640560910694 3.6408478896714698 0 3.6408478896714698 2.2892305485825641 0 0 0 0 65.62534358722769 -107.59682953084874 0 -107.59682953084874 115.21525374600606 0 0 0 0 52.93146045555477 -66.529424631527945 0 -66.529424631527945 113.06472160185314 0 0 0 0 68.875915442040423 -76.087260634977611 0 -76.087260634977611 89.833040469064144 0 0 0 0 48.874790348563693 -82.333815678720384 0 -82.333815678720384 84.823602227845186 0 0 0 0 77.150723427868797 -49.260164225322114 0 -49.260164225322114 91.006875914306875 0 0 0 0 76.30498232987884 -67.382331438592246 0 -67.382331438592246 24.752947173021312 0 0 0 0 48.441297366038953 -56.111746963551354 0 -56.111746963551354 66.560546929802513 0 0 0 0 34.15525963428081 -95.554969573056042 0 -95.554969573056042 3.3147403464354284 0 0 0 0 26.465912515399395 -13.488578670347124 0 -13.488578670347124 -10.967488938086262 0 0 0 0 47.936626851485926 -54.146463905158726 0 -54.146463905158726 -11.199320333145806 0 0 0 0 86.320073516952107 -62.108680626938167 0 -62.108680626938167 6.4837077534393757 0 0 0 0 57.990086306759622 -34.637628265052626 0 -34.637628265052626 23.904607442969876 0 0 0 0 -19.010584682924673 8.472245906173157 0 8.472245906173157 55.763529812668992 0 0 0 0 8.8978994187928038 -92.184568189175934 0 -92.184568189175934 -26.780773819297792 0 0 0 0 14.14029287217636 -46.706173855275779 0 -46.706173855275779 72.90865051311448 0 0 0 0 62.863972852239385 -24.721195223994528 0 -24.721195223994528 -158.63875222542083 0 0 0 0 11.393321389822887 7.039916501393904 0 7.039916501393904 3.4210222206300465 0 0 0 0 61.800132168284108 89.498547875735767 0 89.498547875735767 -78.096121475547989 0 0 0 0 24.484794056857936 45.418681161290351 0 45.418681161290351 -177.18394210598262 0 0 0 0 4.4464300968875392 0.64176078583919605 0 0.64176078583919605 -2.9195292685751451 0 0 0 0 -72.361891098778869 99.857369323683088 0 99.857369323683088 -95.171898641911866 0 0 0 0 74.658098769694334 -21.32968407304179 0 -21.32968407304179 -58.452807129050598 0 0 0 0 21.360684939543717 22.475250426640741 0 22.475250426640741 -29.779334348493649 0 0 0 0 13.313147859604214 9.677658172253814 0 9.677658172253814 -49.834452521399726 0 0 0 0 54.23193166400597 -15.204628314473666 0 -15.204628314473666 -20.780493582170948 0 0 0 0 77.107988057658076 -53.794316833023004 0 -53.794316833023004 10.799383177246 0 0 0 0 52.195018743048422 -11.055370329234847 0 -11.055370329234847 -5.4666791862709943 0 0 0 0 93.348684490920277 -47.357235742306329 0 -47.357235742306329 14.192523533071835 0 0 0 0 61.885853338937522 -50.255405352644061 0 -50.255405352644061 26.278977613908864 0 0 0 0 82.671991456933029 -25.750548324827378 0 -25.750548324827378 -14.424593831785387 0 0 0 0 160.06007335289905 -44.309817410327923 0 -44.309817410327923 -2.1729142377998869 0 0 0 0 5.2483404035003343 2.1070330513504985 0 2.1070330513504985 1.0033555008862969 0 0 0 0 93.960969779123843 -36.42198220703699 0 -36.42198220703699 41.513836456970239 0 0 0 0 55.786889332215651 -24.556893194326221 0 -24.556893194326221 40.608477511002093 0 0 0 0 2.5670714726438746 17.950942154544009 0 17.950942154544009 -5.7709812015045827 0 0 0 0 8.4969383144766084 6.131467360827493 0 6.131467360827493 4.6017696768356657 0 0 0 0 7.4062468291608354 8.561136479881398 0 8.561136479881398 6.9447246804261926 0 0 0 0 31.203557559911722 13.109833584835627 0 13.109833584835627 0.86607837075335858 0 0 0 0 1.9872992659802549 15.64527478473974 0 15.64527478473974 -6.7670750571132885 0 0 0 0 0.49386178543500137 13.439095791608906 0 13.439095791608906 -12.500219276875896 0 0 0 0 8.1141475174780737 5.2567610859628999 0 5.2567610859628999 3.4395186296779734 0 0 0 0 112.94674222645699 -107.82375970118756 0 -107.82375970118756 78.747347194356735 0 0 0 0 -99.652587925927946 -22.509856562258847 0 -22.509856562258847 68.506142434855292 0 0 0 0 -0.25085486537301449 0.84617183671229412 0 0.84617183671229412 1.2849603790779902 0 0 0 0 140.68203799503681 -48.937912777377278 0 -48.937912777377278 69.946803302478656 0 0 0 0 105.62829887548287 -77.44131381647685 0 -77.44131381647685 47.075847748374144 0 0 0 0 112.50591060456645 -84.025978005195611 0 -84.025978005195611 39.041109636733381 0 0 0 0 82.692480149446055 -54.474430037877937 0 -54.474430037877937 40.896160334878914 0 0 0 0 57.659519924854976 -20.498568455461736 0 -20.498568455461736 -0.024867930256732507 0 0 0 0 81.121480868372601 -46.945083964525111 0 -46.945083964525111 20.445156091509489 0 0 0 0 75.527652515767841 -86.318642749687569 0 -86.318642749687569 88.393547309977293 0 0 0 0 76.579869433044223 -51.602312364314002 0 -51.602312364314002 75.756597804476769 0 0 0 0 87.870189641369507 -72.434852480730115 0 -72.434852480730115 46.104375249932673 0 0 0 0 1396.7238073645058 -1808.8178808694793 0 -1808.8178808694793 2295.0916228943465 0 0 0 0 13.7873164074378 -6.1064611232615196 0 -6.1064611232615196 1.0204699205849483 0 0 0 0 2176.6668040384029 -2210.5098480950987 0 -2210.5098480950987 1063.1521813684253 0 0 0 0 2358.6696862978006 -1869.866100565873 0 -1869.866100565873 496.74268184903298 0 0 0 0 956.99916189957003 -1354.7068378246768 0 -1354.7068378246768 671.23271234242657 0 0 0 0 843.31631787169317 -1416.5418594426467 0 -1416.5418594426467 845.2576462618656 0 0 0 0 -324.02816608411376 -533.36118902725616 0 -533.36118902725616 846.70086854662713 0 0 0 0 75.240515083554783 -467.97395429377502 0 -467.97395429377502 1148.2695143314818 0 0 0 0 737.6845407646324 -1750.8600106799001 0 -1750.8600106799001 1633.6470806286043 0 0 0 0 -890.34421286763973 1514.4884328051285 0 1514.4884328051285 -2786.2699281609566 0 0 0 0 4491.3546525565962 -1776.5211707847227 0 -1776.5211707847227 1491.900267127801 0 0 0 0 4745.8638402785491 -2167.3914042497731 0 -2167.3914042497731 2.4857824950543512 0 0 0 0 3749.573296354698 -2947.4592629155786 0 -2947.4592629155786 1303.3457896854402 0 0 0 0 3565.9724495895716 -1576.8928144745573 0 -1576.8928144745573 -239.24195809369468 0 0 0 0 3042.2313305139105 -2308.4838863370906 0 -2308.4838863370906 418.56845802278173 0 0 0 0 2454.1965379105859 -1425.6092213748213 0 -1425.6092213748213 108.47595954030363 0 0 0 0 942.13686330740165 -1509.0882064676878 0 -1509.0882064676878 860.93150647445054 0 0 0 0 456.25889188729343 -576.92845641254371 0 -576.92845641254371 515.13136223189736 0 0 0 0 351.5572490360064 -335.70654265922803 0 -335.70654265922803 291.85671259440846 0 0 0 0 1005.491134363423 -1429.906035724988 0 -1429.906035724988 740.09873576304744 0 0 0 0 813.07392996804265 19.156419158299343 0 19.156419158299343 -397.65383549244245 0 0 0 0 -502.80494262939101 -52.816939471343289 0 -52.816939471343289 124.58092718962871 0 0 0 0 294.44399230041745 -381.99941472008629 0 -381.99941472008629 -605.86057058635811 0 0 0 0 233.02085273010471 694.25650654912351 0 694.25650654912351 248.39547876437268 0 0 0 0 2.0815679882247196 0.64760370584572158 0 0.64760370584572158 -0.83669081017298885 0 0 0 0 788.56131467605155 44.920013288487098 0 44.920013288487098 -1157.2623758702384 0 0 0 0 501.3035236721189 -362.34222497809515 0 -362.34222497809515 201.20707990326559 0 0 0 0 -769.86209403442626 -817.72660888248265 0 -817.72660888248265 678.29213788540983 0 0 0 0 -380.91862579738518 665.70728629499854 0 665.70728629499854 -730.0504778389286 0 0 0 0 13.142890665636514 14.986846303712582 0 14.986846303712582 -9.5949326993004433 0 0 0 0 17.909411075038946 0.18476741136037278 0 0.18476741136037278 -4.0773556408992242 0 0 0 0 148.22691885871973 -133.26210056081027 0 -133.26210056081027 -577.22132888347051 0 0 0 0 61.204105891446233 -14.973305119768069 0 -14.973305119768069 0.89696057841374599 0 0 0 0 8.2390505492937081 -4.319884707714948 0 -4.319884707714948 -3.2124269298604258 0 0 0 0 137.86404773118556 55.929982080840546 0 55.929982080840546 -152.99238049870974 0 0 0 0 7.2156852699081355 -250.26535450610447 0 -250.26535450610447 -966.7220375463819 0 0 0 0 -139.07877290584656 41.948684207844394 0 41.948684207844394 183.00177410148126 0 0 0 0 47.582499818181532 -228.01354059419191 0 -228.01354059419191 -283.6281150335376 0 0 0 0 5.1759755430249044 -1.8737406297569668 0 -1.8737406297569668 0.63699915282232444 0 0 0 0 -81.190113512209791 -174.08678388247529 0 -174.08678388247529 -247.69488418848368 0 0 0 0 40.867373615499673 -204.71123981476649 0 -204.71123981476649 -255.77755392178949 0 0 0 0 -43.707021891776094 -78.809242037509193 0 -78.809242037509193 -479.77740306451528 0 0 0 0 125.22265500331196 -306.48028451276605 0 -306.48028451276605 -234.04996422289469 0 0 0 0 215.61639745403409 -190.00315010403449 0 -190.00315010403449 -639.13174447977144 0 0 0 0 474.10341736955525 -516.37782107692453 0 -516.37782107692453 -255.8003454907215 0 0 0 0 834.12453729046138 -8.9521112183216474 0 -8.9521112183216474 -890.58158877797985 0 0 0 0 32.346860430944844 472.03055805271583 0 472.03055805271583 -1000.3299899501706 0 0 0 0 57.660061370239418 -81.80477670000073 0 -81.80477670000073 -589.83414921840881 0 0 0 0 9.1541625065656262 5.0285386291493523 0 5.0285386291493523 12.092885215228591 0 0 0 0 17.611582873766967 -0.022541111419712934 0 -0.022541111419712934 -4.8630417899863989 0 0 0 0 36.821525196386339 -8.9819948557778204 0 -8.9819948557778204 -6.1119437954510838 0 0 0 0 1207.6184567279524 873.08404649673741 0 873.08404649673741 630.05207130955023 0 0 0 0 16.029274373380403 -1.3966887865294488 0 -1.3966887865294488 -0.53272744651040638 0 0 0 0 3908.9159634674143 -2289.4552721786463 0 -2289.4552721786463 1361.1277803751766 0 0 0 0 -182.60977850901872 1110.9026235009962 0 1110.9026235009962 -959.04483350970622 0 0 0 0 4485.3550535583963 -881.25928025131248 0 -881.25928025131248 -646.27228511045098 0 0 0 0 8.4897356437608238 2.3915929044614863 0 2.3915929044614863 -1.7882763115994933 0 0 0 0 4752.8942334602943 375.07244010265754 0 375.07244010265754 -914.62972788118554 0 0 0 0 44.353982117583655 -342.56418090167165 0 -342.56418090167165 107.785102009909 0 0 0 0 -44.361136926660038 15.035902643767685 0 15.035902643767685 -9.8563316187984356 0 0 0 0 28.661250206221428 0.33413793823263704 0 0.33413793823263704 0.60792150516445731 0 0 0 0 844.52206151985956 -769.11677788504085 0 -769.11677788504085 371.80616892408966 0 0 0 0 2647.9793473568252 2020.4005385688874 0 2020.4005385688874 943.12183616020616 0 0 0 0 4492.2678400069799 1028.7358219075541 0 1028.7358219075541 2475.3422598422753 0 0 0 0 5564.210182752262 1320.948144718335 0 1320.948144718335 125.34258965108501 0 0 0 0 4502.2857410973447 2162.6490682857493 0 2162.6490682857493 -334.19914888359233 0 0 0 0 -575.94476696163201 916.45260717654935 0 916.45260717654935 701.94631879355177 0 0 0 0 2847.9950201495317 1309.3472348047267 0 1309.3472348047267 -327.29226761351305 0 0 0 0 2938.7980011254317 1022.5953908587218 0 1022.5953908587218 -786.90429245382529 0 0 0 0 1179.5145804803942 47.798752587952961 0 47.798752587952961 -358.31077539173668 0 0 0 0 116.90467281595738 -143.96467174928853 0 -143.96467174928853 138.65427911911718 0 0 0 0 961.54412299667524 600.19328346957309 0 600.19328346957309 -170.2963599033063 0 0 0 0 -58.309305096212256 168.90833412804898 0 168.90833412804898 -350.68404033307843 0 0 0 0 800.00417431662777 -295.25177830081736 0 -295.25177830081736 -1538.9070519423512 0 0 0 0 47.584751674407016 -56.460695038975075 0 -56.460695038975075 -438.54042131339929 0 0 0 0 66.110368186131993 -4.9957442360645219 0 -4.9957442360645219 -1.2859495130363121 0 0 0 0 -65.562196122213209 -152.61643007170915 0 -152.61643007170915 -190.79829989803258 0 0 0 0 25.520236888740328 -142.30740116318862 0 -142.30740116318862 -268.27969067752861 0 0 0 0 -60.27148609948199 -155.45506774330946 0 -155.45506774330946 -269.04307883446927 0 0 0 0 84.353410093285675 -135.59865408024129 0 -135.59865408024129 -305.85810736170674 0 0 0 0 15.896089509576086 -115.69886570900709 0 -115.69886570900709 -305.03057069111537 0 0 0 0 37.823905629702494 -111.78885597076533 0 -111.78885597076533 -309.52688979687673 0 0 0 0 5.2232482854506088 -86.60517972106959 0 -86.60517972106959 -319.28392478470744 0 0 0 0 77.950403679203532 -9.5416287656087313 0 -9.5416287656087313 -0.7325293517245588 0 0 0 0 125.58244600049784 -108.47927790375994 0 -108.47927790375994 -556.73514100178625 0 0 0 0 145.61866167471044 -468.20636665633941 0 -468.20636665633941 -1114.5563062178608 0 0 0 0 12.307952501328145 -23.76151456304413 0 -23.76151456304413 -396.82024860233332 0 0 0 0 -111.17279256219508 -246.25046575139297 0 -246.25046575139297 -197.33506550659013 0 0 0 0 253.74121954226644 -236.36311490874738 0 -236.36311490874738 -277.65812283443574 0 0 0 0 56.597876716988914 -219.04954929692298 0 -219.04954929692298 -197.40861748009343 0 0 0 0 -8.6105451922974794 -123.97260294320074 0 -123.97260294320074 -180.65802882559206 0 0 0 0 74.815541618885163 -212.92164078251244 0 -212.92164078251244 -784.56842208715875 0 0 0 0 5.2907807821218285 -73.18939501121622 0 -73.18939501121622 -194.75989087467553 0 0 0 0 -34.866703246046882 -27.577947811844268 0 -27.577947811844268 -409.36826951640523 0 0 0 0 -66.87442482201368 -251.09033389275328 0 -251.09033389275328 -316.95697124936169 0 0 0 0 79.726733306176357 -10.94143241254417 0 -10.94143241254417 -0.27914874354653013 0 0 0 0 81.684032778044639 -148.3218237415274 0 -148.3218237415274 -756.90487948333339 0 0 0 0 -68.635722347776209 -108.33451161435843 0 -108.33451161435843 -136.42110509340819 0 0 0 0 -61.354230653330887 -47.563425672761014 0 -47.563425672761014 -154.78338652061484 0 0 0 0 -3.7440672195152729 -94.455398086835658 0 -94.455398086835658 -294.24856788222218 0 0 0 0 -57.0680214447857 -143.98437840942483 0 -143.98437840942483 -116.72765224923569 0 0 0 0 -54.636640677369996 -120.31554750001939 0 -120.31554750001939 112.02682906732389 0 0 0 0 -32.862935487228242 6.7193190687205515 0 6.7193190687205515 -27.45046019611118 0 0 0 0 -39.47392446079175 -10.390178426622242 0 -10.390178426622242 -24.212420736313334 0 0 0 0 -22.418648441525875 -4.9740935958157024 0 -4.9740935958157024 -43.073670985509125 0 0 0 0 1532.4419081449378 -945.83940372734412 0 -945.83940372734412 594.57732395212247 0 0 0 0 984.74113856459735 -165.83244024091164 0 -165.83244024091164 -418.48592222968659 0 0 0 0 42.456701811710829 -12.456778177300754 0 -12.456778177300754 1.6400935345405379 0 0 0 0 14.15040352740516 8.0533359569180867 0 8.0533359569180867 -6.9317292648972275 0 0 0 0 -50.193014218522876 116.3300591076557 0 116.3300591076557 -41.818673001438469 0 0 0 0 -489.94730409698968 450.82642268317295 0 450.82642268317295 332.67797886352878 0 0 0 0 8.5030352048288478 -110.97661406523906 0 -110.97661406523906 -127.17341203050273 0 0 0 0 33.0978672904821 -2.8964883214944166 0 -2.8964883214944166 -80.29558989715224 0 0 0 0 -57.282868681975742 -78.79245533555968 0 -78.79245533555968 -124.44006432935157 0 0 0 0 -68.092519398094737 -84.564439981344094 0 -84.564439981344094 -124.52748261151464 0 0 0 0 91.195740216957347 10.898934025727158 0 10.898934025727158 -206.96785855652797 0 0 0 0 -102.94709689610318 -199.91374480940362 0 -199.91374480940362 -77.602824855925292 0 0 0 0 -67.480222042962851 -74.523763129950567 0 -74.523763129950567 14.712480927855722 0 0 0 0 299.80810954872868 -185.04113718098233 0 -185.04113718098233 -334.54305247561024 0 0 0 0 186.57777557784902 144.03980591371908 0 144.03980591371908 -44.650587919771169 0 0 0 0 -136.58873877336737 -121.16213471674791 0 -121.16213471674791 230.26618438873788 0 0 0 0 539.09257244277615 92.864336960040191 0 92.864336960040191 -417.96033423266226 0 0 0 0 563.92054341208859 -192.12838604814874 0 -192.12838604814874 -530.71808369795281 0 0 0 0 65.459446033750055 -14.669299571974136 0 -14.669299571974136 1.9836138513739403 0 0 0 0 285.79076846990756 -184.78590748041745 0 -184.78590748041745 -139.34132309036181 0 0 0 0 -115.50528523932007 314.62048583657656 0 314.62048583657656 63.292448655875546 0 0 0 0 -25.994646433035086 -172.95725908011195 0 -172.95725908011195 -193.31191356330601 0 0 0 0 57.734441859442398 -12.647608573109506 0 -12.647608573109506 2.0500372216510585 0 0 0 0 -204.02788119728939 -314.62093565426233 0 -314.62093565426233 -467.04503411274834 0 0 0 0 64.739790621933935 92.508647811989022 0 92.508647811989022 -508.81727976073455 0 0 0 0 8.6106823318170882 2.0303035082376368 0 2.0303035082376368 -3.4328380194748123 0 0 0 0 -76.118734475072415 10.147011527327507 0 10.147011527327507 -303.32933149791739 0 0 0 0 6.6328936279023765 210.13500535285016 0 210.13500535285016 -357.20570550674898 0 0 0 0 -216.20962601075007 -13.569245502563223 0 -13.569245502563223 -109.55450902295685 0 0 0 0 292.95011850732408 -41.375655060887311 0 -41.375655060887311 -120.2771134685118 0 0 0 0 108.11685878734716 290.92073710049948 0 290.92073710049948 121.52458998298795 0 0 0 0 137.53115968602651 249.32151366493363 0 249.32151366493363 -51.574278362963597 0 0 0 0 -91.941837331673014 147.48283342791035 0 147.48283342791035 -39.509315702681448 0 0 0 0 34.563250360224629 302.46108090676694 0 302.46108090676694 112.37666405938407 0 0 0 0 199.17243213907932 408.3576831344368 0 408.3576831344368 91.990855330088792 0 0 0 0 130.68154952403347 442.05854992075587 0 442.05854992075587 82.61005052673876 0 0 0 0 134.25561705610016 359.65691959865535 0 359.65691959865535 -0.13056427140249127 0 0 0 0 180.21117684903038 507.89265669910253 0 507.89265669910253 108.27255824523128 0 0 0 0 369.15837488498073 532.59171355015633 0 532.59171355015633 64.060679876155092 0 0 0 0 493.12203861036323 425.8925837828138 0 425.8925837828138 26.527122418020809 0 0 0 0 472.33546660161664 376.4923735264282 0 376.4923735264282 -65.906938467352717 0 0 0 0 737.92424935629242 414.13628854849901 0 414.13628854849901 -88.8311909886243 0 0 0 0 456.24794961535008 782.20082612980423 0 782.20082612980423 250.15933271120227 0 0 0 0 770.9992035578689 423.90445972497332 0 423.90445972497332 -102.84061302576228 0 0 0 0 1642.6931006526283 821.1497425123797 0 821.1497425123797 76.648261317964028 0 0 0 0 603.53847954519006 846.75620773294668 0 846.75620773294668 851.86838638188385 0 0 0 0 368.91070741095609 451.36688313148386 0 451.36688313148386 242.32668742367599 0 0 0 0 15.511926124585443 669.20024276692993 0 669.20024276692993 218.42451981591108 0 0 0 0 -330.07510335455299 147.83078551728264 0 147.83078551728264 60.344774206888601 0 0 0 0 -858.95956370943168 -47.029098170978145 0 -47.029098170978145 208.66960657578613 0 0 0 0 -181.20898462535297 249.47642644028832 0 249.47642644028832 98.207017757981461 0 0 0 0 -2.4964218897803221 439.60508227419677 0 439.60508227419677 225.37973557709714 0 0 0 0 97.34074427872838 416.95175241226366 0 416.95175241226366 51.037383568607609 0 0 0 0 38.883991520429845 105.62355581519176 0 105.62355581519176 -2.6732419120543227 0 0 0 0 354.77807599840162 -12.961405587843409 0 -12.961405587843409 29.543225780991865 0 0 0 0 86.453590594276648 -13.263179352082783 0 -13.263179352082783 97.479071822427841 0 0 0 0 59.752578406958492 71.621905183204262 0 71.621905183204262 -6.3045659755009069 0 0 0 0 103.60148979828955 88.679255980131629 0 88.679255980131629 -0.97049655206808438 0 0 0 0 184.00248849340278 -372.60868669515582 0 -372.60868669515582 -100.9663500630914 0 0 0 0 1336.6122902641728 -194.23757489918893 0 -194.23757489918893 -137.38747770864958 0 0 0 0 346.52198976148065 -67.78419419213769 0 -67.78419419213769 7.9862091360095135 0 0 0 0 767.71929932160947 14.130488125141069 0 14.130488125141069 -45.72449641821877 0 0 0 0 295.68178101593367 65.37680238573158 0 65.37680238573158 -35.61359168656579 0 0 0 0 119.69271478877272 75.293388712901077 0 75.293388712901077 50.112914705131971 0 0 0 0 301.535815678777 49.258921964310915 0 49.258921964310915 8.5816648016102235 0 0 0 0 46.768005747857387 26.698647278128426 0 26.698647278128426 3.6124425859432847 0 0 0 0 49.060123710663902 44.008090468659972 0 44.008090468659972 81.862967697729061 0 0 0 0 71.717734432739235 40.143934236425139 0 40.143934236425139 28.07620687947383 0 0 0 0 44.920900078135205 -1.2637994128018377 0 -1.2637994128018377 -19.147277385504577 0 0 0 0 37.554429681711824 41.327969871717613 0 41.327969871717613 12.344185657404324 0 0 0 0 83.281803364567168 46.107434795822968 0 46.107434795822968 13.107756179302953 0 0 0 0 81.35868717161793 63.385350685270396 0 63.385350685270396 -72.728775116520524 0 0 0 0 80.685079603328631 54.960685170754132 0 54.960685170754132 1.4819183180419486 0 0 0 0 51.307294951162476 -6.2491106447673133 0 -6.2491106447673133 -32.173426543469191 0 0 0 0 110.25278486391471 -4.7742192148380695 0 -4.7742192148380695 -14.535808829299441 0 0 0 0 126.77518494888136 29.427785330933489 0 29.427785330933489 -17.168729377528507 0 0 0 0 20.369818621057114 32.886952529306221 0 32.886952529306221 6.6748479961401603 0 0 0 0 46.093377193188644 112.64726408852289 0 112.64726408852289 61.606423251080059 0 0 0 0 55.220500837166824 -14.707204136640357 0 -14.707204136640357 4.7437695638398854 0 0 0 0 91.05836765642016 19.369984897719519 0 19.369984897719519 -23.064643070901866 0 0 0 0 -43.139514127338771 41.506497154010503 0 41.506497154010503 38.565657491775255 0 0 0 0 -739.08045565167777 532.53382955195502 0 532.53382955195502 625.2653655894137 0 0 0 0 1797.0174803246882 1797.8231406182026 0 1797.8231406182026 469.21275123476516 0 0 0 0 1093.7231542470981 1054.1302477795743 0 1054.1302477795743 188.19558590768247 0 0 0 0 699.60446664513438 151.32724530142423 0 151.32724530142423 -130.30633277364905 0 0 0 0 2672.4544579294488 -49.343086142354423 0 -49.343086142354423 -158.70005805732035 0 0 0 0 -381.72945233703649 1499.5066770125454 0 1499.5066770125454 1037.9151368400198 0 0 0 0 1091.1252819956862 1523.3649405436217 0 1523.3649405436217 432.27227495925695 0 0 0 0 2252.7407900307926 716.53507289339791 0 716.53507289339791 748.2795100498588 0 0 0 0 3176.3609134706785 -314.61295076681921 0 -314.61295076681921 929.02226451229524 0 0 0 0 82.74861785244866 -48.278553443115868 0 -48.278553443115868 -220.56290574554123 0 0 0 0 41.102155643494882 -13.340405278599903 0 -13.340405278599903 2.6914388284518589 0 0 0 0 114.92889220711368 83.727248588025191 0 83.727248588025191 -175.78460664435806 0 0 0 0 404.18975298104488 2151.1832818323464 0 2151.1832818323464 1864.2678970793015 0 0 0 0 17.769456121032391 -3.0402072024387792 0 -3.0402072024387792 -0.091546804401540838 0 0 0 0 169.23216167559076 1577.7685437249381 0 1577.7685437249381 1446.3593384649159 0 0 0 0 52.142333799049084 -143.4810332120735 0 -143.4810332120735 319.89154022087632 0 0 0 0 12.369333058119736 1.4975395243594161 0 1.4975395243594161 -1.4076320932873396 0 0 0 0 606.25072559627733 -352.78417262463108 0 -352.78417262463108 225.88276224361039 0 0 0 0 2270.0308533813413 92.238654374126838 0 92.238654374126838 -18.313060933144243 0 0 0 0 13.465949316813564 2.5565992285179573 0 2.5565992285179573 -1.6267508002645532 0 0 0 0 -15.245283097065112 13.554683270819282 0 13.554683270819282 4.7126964035892343 0 0 0 0 286.74199389449859 -274.91989979669654 0 -274.91989979669654 -263.19061739211679 0 0 0 0 171.72354707825798 -77.826640764240892 0 -77.826640764240892 -72.141473228037512 0 0 0 0 990.7725113152992 -158.87002309378272 0 -158.87002309378272 -115.20684152629792 0 0 0 0 1288.7075749174946 607.60443464069249 0 607.60443464069249 -128.07002075630908 0 0 0 0 369.9072615404948 940.00154732439887 0 940.00154732439887 170.30951157346055 0 0 0 0 711.62781926981188 157.53595848580801 0 157.53595848580801 -313.21558382307467 0 0 0 0 563.12885147213092 456.97646080094592 0 456.97646080094592 -213.68793401144717 0 0 0 0 412.06976065476556 454.41311074331122 0 454.41311074331122 -65.072532514937393 0 0 0 0 -174.92617371500091 -179.63659472958398 0 -179.63659472958398 -297.78444052936902 0 0 0 0 -52.762748127155646 369.81296665237744 0 369.81296665237744 -53.903194263898513 0 0 0 0 259.27032678981595 -297.35273424228228 0 -297.35273424228228 -1141.3508495679605 0 0 0 0 75.190981341256247 -30.388426442244281 0 -30.388426442244281 -220.12649593605624 0 0 0 0 93.793886497485232 -217.98979565097034 0 -217.98979565097034 -522.15132970984314 0 0 0 0 74.162167582317053 -9.3539574894692592 0 -9.3539574894692592 -0.64066573382965908 0 0 0 0 10.387996723100969 -154.12145496943521 0 -154.12145496943521 -199.0372432145341 0 0 0 0 7.7898965778686033 -60.437338679650111 0 -60.437338679650111 -33.404494428826808 0 0 0 0 94.122467805997985 -52.711095696162147 0 -52.711095696162147 -285.42405515647044 0 0 0 0 12.380344166566147 -56.160249711023525 0 -56.160249711023525 -264.60910680729512 0 0 0 0 56.639202554929213 -4.8451226766100008 0 -4.8451226766100008 -0.84715953195273985 0 0 0 0 84.958525587713666 -109.20812032678487 0 -109.20812032678487 -367.79532412794015 0 0 0 0 -49.793365028057451 639.98705767328022 0 639.98705767328022 418.75987734264231 0 0 0 0 -175.11357789531758 539.92759894542155 0 539.92759894542155 433.45344732755075 0 0 0 0 692.91164746419599 -184.17953406029869 0 -184.17953406029869 -1010.1823669957955 0 0 0 0 214.66688959731982 573.00174591683367 0 573.00174591683367 -40.499612059321862 0 0 0 0 592.44420084422745 741.49101847412828 0 741.49101847412828 -118.09049393934185 0 0 0 0 720.5971038252228 620.92538244148454 0 620.92538244148454 -11.002192617986111 0 0 0 0 943.27934573156745 146.22205491974535 0 146.22205491974535 43.378163341762047 0 0 0 0 424.28812753208331 659.51690674757924 0 659.51690674757924 339.91331554568819 0 0 0 0 8.5386479936886559 1.3686577293921616 0 1.3686577293921616 8.0045929497592887 0 0 0 0 120.3143140770153 467.81519700843495 0 467.81519700843495 -174.67483283151444 0 0 0 0 -202.77570174639914 269.05577491188103 0 269.05577491188103 -14.348229649612449 0 0 0 0 8.4277265506678773 10.338773930465592 0 10.338773930465592 -0.89863687029532691 0 0 0 0 -6.4810310675638902 91.556446307082837 0 91.556446307082837 -561.87788205740662 0 0 0 0 582.93359314996633 141.57560981758638 0 141.57560981758638 -466.53635133711623 0 0 0 0 -1.5067528392428358 329.47786382641084 0 329.47786382641084 -278.43455174440555 0 0 0 0 579.1665172227149 -129.37507136865224 0 -129.37507136865224 -260.22917029897599 0 0 0 0 362.11491468789609 -161.04568049834558 0 -161.04568049834558 -201.84190956893394 0 0 0 0 371.05501713925332 -9.634637011646646 0 -9.634637011646646 -325.66543592612891 0 0 0 0 1378.7950670803202 -419.88208155374218 0 -419.88208155374218 -184.96024992336925 0 0 0 0 486.37275131484239 -252.60027851805839 0 -252.60027851805839 -159.34495972630339 0 0 0 0 446.25941258877901 -150.68588091012623 0 -150.68588091012623 -223.2087640074642 0 0 0 0 20.144670289439091 245.5100110534666 0 245.5100110534666 -116.30316406861175 0 0 0 0 1214.0684250239647 567.36991816732075 0 567.36991816732075 -29.572569059178363 0 0 0 0 481.76359170891465 -515.21299398895621 0 -515.21299398895621 90.374114892870267 0 0 0 0 21.978089596931639 -0.65586015530589137 0 -0.65586015530589137 0.20913030691270063 0 0 0 0 233.28516389806646 819.02683598013277 0 819.02683598013277 431.61950648612856 0 0 0 0 158.25006218818271 -648.86275394917777 0 -648.86275394917777 825.14049074883042 0 0 0 0 213.18336766551784 702.06731271276408 0 702.06731271276408 127.44659851236429 0 0 0 0 1322.815088661624 -186.61616293945161 0 -186.61616293945161 -627.35074197519293 0 0 0 0 255.70035253286733 -103.73720182468696 0 -103.73720182468696 -121.41537387150038 0 0 0 0 200.98191156153189 -134.97219872735604 0 -134.97219872735604 -115.79282024868124 0 0 0 0 -152.52399192256416 346.0655382381492 0 346.0655382381492 -459.41688932171883 0 0 0 0 0.32132542555934407 -1.2459972909711574 0 -1.2459972909711574 -8.6594977434578446 0 0 0 0 -406.38880864896055 90.75205554993795 0 90.75205554993795 150.83297051432828 0 0 0 0 -6.532478270682315 -10.195649410069564 0 -10.195649410069564 -24.761924466670131 0 0 0 0 163.58741355447796 34.328236581170074 0 34.328236581170074 -189.02910681775666 0 0 0 0 5.0444799199140107 72.709876004631951 0 72.709876004631951 -127.14603249867105 0 0 0 0 11.320202915090356 -29.49150715459092 0 -29.49150715459092 -44.941521401963584 0 0 0 0 63.308660337344918 -52.03218227609068 0 -52.03218227609068 -100.02974635348437 0 0 0 0 113.72489177543321 -6.3175714215085463 0 -6.3175714215085463 -73.118499681726462 0 0 0 0 130.84267826651194 -383.94105981448445 0 -383.94105981448445 179.42736687403675 0 0 0 0 -106.33897055611487 -187.08453232655779 0 -187.08453232655779 38.926594543816691 0 0 0 0 249.69859277529758 -175.25257652652593 0 -175.25257652652593 -160.13941655954113 0 0 0 0 254.97509698585054 -175.94547515923085 0 -175.94547515923085 -184.05746317445482 0 0 0 0 150.96677914779502 -260.57232438890208 0 -260.57232438890208 -34.362203278297557 0 0 0 0 -7.3973314566464978 -126.9449826364073 0 -126.9449826364073 -123.31872189182431 0 0 0 0 132.44950899634205 -169.6258846226691 0 -169.6258846226691 -165.34177386632518 0 0 0 0 253.74629073282813 -115.06053782977176 0 -115.06053782977176 -182.27129860279433 0 0 0 0 183.31853711998701 -199.75919955325526 0 -199.75919955325526 -167.84163370559713 0 0 0 0 -124.66645972842184 -86.040690650851076 0 -86.040690650851076 -10.1357191447687 0 0 0 0 -133.38197059169761 -207.48377707873078 0 -207.48377707873078 -153.15565876207933 0 0 0 0 -19.962036515840737 -139.81113939047304 0 -139.81113939047304 -58.894426254936775 0 0 0 0 135.40238612339272 -75.75534532843875 0 -75.75534532843875 -167.73539946983351 0 0 0 0 94.934893644087595 -21.625570709928994 0 -21.625570709928994 -13.844053921042921 0 0 0 0 34.651673602254299 1.6335333610738552 0 1.6335333610738552 -21.467047730647121 0 0 0 0 42.163457049422306 21.277771892250229 0 21.277771892250229 14.327650807138902 0 0 0 0 102.16649710654747 -40.774751687087701 0 -40.774751687087701 39.464837363694642 0 0 0 0 20.896960753876414 -7.3287078319542047 0 -7.3287078319542047 1.5095685328124553 0 0 0 0 147.76738979858146 -50.357218082156464 0 -50.357218082156464 8.452807028490497 0 0 0 0 152.43285554969043 -14.410723870427319 0 -14.410723870427319 -61.806202838171885 0 0 0 0 272.21521631535143 38.343927471188181 0 38.343927471188181 -52.846524665575998 0 0 0 0 76.56775860475318 -20.958771193026223 0 -20.958771193026223 10.860018117968139 0 0 0 0 324.02465282607227 119.55325003108601 0 119.55325003108601 -40.433607740082152 0 0 0 0 -33.202845152598456 -109.27891177573201 0 -109.27891177573201 18.464747765147877 0 0 0 0 0.40168353913602317 -0.19528810382651329 0 -0.19528810382651329 -0.95050927933504425 0 0 0 0 98.716335888168032 -5.0433440394547233 0 -5.0433440394547233 -45.341253904696714 0 0 0 0 107.31371845164793 -37.310813876830451 0 -37.310813876830451 -26.28099228354867 0 0 0 0 138.1778762052636 63.52986970750527 0 63.52986970750527 -142.07114575285959 0 0 0 0 144.05518585158279 -166.08946551637052 0 -166.08946551637052 -166.68317775769128 0 0 0 0 110.17096880985628 -103.06569250227216 0 -103.06569250227216 -183.08683382108393 0 0 0 0 235.47055819333764 53.532462905203602 0 53.532462905203602 -249.74109250400079 0 0 0 0 201.08114356045189 -0.71175727606441797 0 -0.71175727606441797 -111.86720516672676 0 0 0 0 185.24500446683123 59.09508081683407 0 59.09508081683407 -107.55694452628529 0 0 0 0 253.88686734062503 109.62195021141181 0 109.62195021141181 -93.253008392683569 0 0 0 0 107.28052780573034 40.376604465398145 0 40.376604465398145 22.436534251537068 0 0 0 0 105.36372520830946 -29.68766345952843 0 -29.68766345952843 -30.022521188305689 0 0 0 0 105.63730470760493 -25.022283149989562 0 -25.022283149989562 -40.515695825849434 0 0 0 0 188.70206840298306 41.826307663254511 0 41.826307663254511 -83.696256789150084 0 0 0 0 115.29545166774187 -17.525023969196354 0 -17.525023969196354 -35.31800377964646 0 0 0 0 105.43296442007008 -21.119816970891748 0 -21.119816970891748 -32.531970416488733 0 0 0 0 175.06620978982392 51.449371739439073 0 51.449371739439073 23.310064365754897 0 0 0 0 113.0044965914858 -43.110315006266774 0 -43.110315006266774 -41.30963458180031 0 0 0 0 20.678136372928684 2.9151870620395925 0 2.9151870620395925 -2.892524637302202 0 0 0 0 80.573354958229174 -28.138518499226848 0 -28.138518499226848 -11.254670308455388 0 0 0 0 111.60415928021393 -22.491883506448175 0 -22.491883506448175 -17.419551192858307 0 0 0 0 177.83752135777468 -1.089855262299352 0 -1.089855262299352 17.8128834069812 0 0 0 0 299.82592672394821 68.132451430490164 0 68.132451430490164 -58.659040234785607 0 0 0 0 110.54678414779482 48.726166716401167 0 48.726166716401167 -11.826268359990536 0 0 0 0 221.33185216011771 -15.897315194850307 0 -15.897315194850307 -27.002124867091879 0 0 0 0 157.83361428610078 87.12463142350316 0 87.12463142350316 63.451076568177086 0 0 0 0 118.70496725332487 -20.681391738038201 0 -20.681391738038201 -33.828160386533455 0 0 0 0 1.0050000732561557 -0.93436288106275356 0 -0.93436288106275356 -2.1898527102728984 0 0 0 0 139.57244595891825 -37.166704054086949 0 -37.166704054086949 -45.700918425272903 0 0 0 0 38.696074036575737 -17.331737464250182 0 -17.331737464250182 -19.879715615444184 0 0 0 0 173.6215373899613 -87.96267808543962 0 -87.96267808543962 -46.929909873645329 0 0 0 0 209.32410828174761 -67.474741759440803 0 -67.474741759440803 -107.84764751365128 0 0 0 0 165.44204181660461 -29.778960059506176 0 -29.778960059506176 -78.652783217490651 0 0 0 0 183.20588381559355 -20.062307246368619 0 -20.062307246368619 -106.95994210382059 0 0 0 0 1.1338386844457062 -1.309636121717773 0 -1.309636121717773 -1.6722834837345175 0 0 0 0 171.68055641009414 -34.067425975603101 0 -34.067425975603101 -57.374671366946131 0 0 0 0 189.98227881334606 22.324539632518736 0 22.324539632518736 -7.3287699220188642 0 0 0 0 242.46457079279571 -12.340765356848578 0 -12.340765356848578 3.2178863455192186 0 0 0 0 143.49816502913745 -67.095625049964156 0 -67.095625049964156 -26.44411224965188 0 0 0 0 7.3230119421350537 -2.5825610204503846 0 -2.5825610204503846 -19.609399454322556 0 0 0 0 -41.935950702412811 -82.008255974883014 0 -82.008255974883014 -25.815448844151888 0 0 0 0 442.86968422850623 72.661696131571262 0 72.661696131571262 -12.387814723828342 0 0 0 0 0.79271905472401727 -0.59779606412529063 0 -0.59779606412529063 0.006577623249793163 0 0 0 0 442.04556141501962 85.831889347691231 0 85.831889347691231 -30.365354651131383 0 0 0 0 0.66262469760624754 -0.70786300800187973 0 -0.70786300800187973 -0.50731949958246148 0 0 0 0 -21.90182767596707 -33.084718419951969 0 -33.084718419951969 -21.267500578745967 0 0 0 0 174.7040808177444 -27.398380454028711 0 -27.398380454028711 20.496257235781741 0 0 0 0 1.4453598628042954 -1.3438725437544576 0 -1.3438725437544576 -0.30260042801930709 0 0 0 0 24.173627237738401 -20.449541579159813 0 -20.449541579159813 -38.367850992210151 0 0 0 0 122.16732668268378 4.9732074931616808 0 4.9732074931616808 3.2637993325138268 0 0 0 0 128.96818088334112 -19.801444616867229 0 -19.801444616867229 51.423429622132971 0 0 0 0 137.08045626294006 -9.1171414007134217 0 -9.1171414007134217 26.754138836642596 0 0 0 0 112.97470884535142 -93.160420018079094 0 -93.160420018079094 -50.343513440625429 0 0 0 0 -64.724063368445059 -119.19988528312501 0 -119.19988528312501 30.912316281461244 0 0 0 0 113.94615671229622 -105.52619198294587 0 -105.52619198294587 -10.187178815442167 0 0 0 0 168.52050532621797 -61.067452234837219 0 -61.067452234837219 -39.813908214071489 0 0 0 0 169.38303134549642 -79.938567034287189 0 -79.938567034287189 68.673818067361935 0 0 0 0 158.47741259346367 -46.999443792893544 0 -46.999443792893544 93.772782407702039 0 0 0 0 163.22303302720684 -0.2730414372517771 0 -0.2730414372517771 73.447522965231656 0 0 0 0 285.85209583789674 61.152875707320391 0 61.152875707320391 79.535474189488014 0 0 0 0 160.25770554956216 -14.751900515559328 0 -14.751900515559328 54.822592782704305 0 0 0 0 129.68581663297664 13.618493203377056 0 13.618493203377056 36.501647034274356 0 0 0 0 132.46538781235722 41.020669018592798 0 41.020669018592798 68.155888788805896 0 0 0 0 119.82667276691791 32.553152799237978 0 32.553152799237978 70.385183723731416 0 0 0 0 288.44456510221426 -119.99370761944988 0 -119.99370761944988 15.528983729174797 0 0 0 0 0.38906757254689239 0.34605933987843684 0 0.34605933987843684 0.20500014834633618 0 0 0 0 151.46719185947586 2.0125169001403265 0 2.0125169001403265 0.47276907794639556 0 0 0 0 214.77857585326637 23.768350751901153 0 23.768350751901153 0.33254951964590873 0 0 0 0 84.28831437023473 22.755536685964216 0 22.755536685964216 -5.8683079303964405 0 0 0 0 87.779004810930928 18.776736590970359 0 18.776736590970359 -1.6651328182142606 0 0 0 0 0.50742102473607531 0.61110859254554839 0 0.61110859254554839 0.21504547074362534 0 0 0 0 98.069224387778377 -7.7832255716252803 0 -7.7832255716252803 -2.0983875702266914 0 0 0 0 100.6049206413627 -1.1855987002531947 0 -1.1855987002531947 -5.1643522422327806 0 0 0 0 41.23779386512615 69.596842202025414 0 69.596842202025414 -43.855675585240533 0 0 0 0 70.510582590795821 42.982495873098742 0 42.982495873098742 -106.61088343418123 0 0 0 0 37.407826764785568 41.300549141084048 0 41.300549141084048 -19.416658181713501 0 0 0 0 48.772151538723847 46.194752604449604 0 46.194752604449604 -17.6366513842313 0 0 0 0 37.868715366726974 76.730995918871486 0 76.730995918871486 8.7877679639786948 0 0 0 0 31.486953456274932 80.307604420733696 0 80.307604420733696 21.655027540997253 0 0 0 0 17.14918866012431 9.2376804376803392 0 9.2376804376803392 -4.0160322005731359 0 0 0 0 29.610101902653696 58.720718726606719 0 58.720718726606719 1.7504408768763824 0 0 0 0 23.880115727311932 62.20409959430981 0 62.20409959430981 30.531220396980643 0 0 0 0 73.804041594645241 51.221056046898411 0 51.221056046898411 -47.035255243617939 0 0 0 0 42.976885081938235 74.980858963926948 0 74.980858963926948 -4.7063666146518699 0 0 0 0 38.698454873994706 79.10693578275459 0 79.10693578275459 -3.8353365733473765 0 0 0 0 100.61019745112571 39.090050545092708 0 39.090050545092708 -14.110826985611084 0 0 0 0 76.68917623256857 60.701270340001429 0 60.701270340001429 -16.77912944210766 0 0 0 0 65.04734054931032 35.56339766810197 0 35.56339766810197 -1.8084913539432819 0 0 0 0 89.180084904124669 37.584988938330753 0 37.584988938330753 -3.9804489706148161 0 0 0 0 86.793768682458904 41.827735145466249 0 41.827735145466249 28.22441094273745 0 0 0 0 58.800408204377163 42.221867862564068 0 42.221867862564068 24.689763714801302 0 0 0 0 69.237462810091529 46.88417538263775 0 46.88417538263775 -20.408925406693015 0 0 0 0 45.812389088256168 43.568621752967374 0 43.568621752967374 4.4066713661759422 0 0 0 0 54.644566002010833 49.476946518803743 0 49.476946518803743 -16.246210732864711 0 0 0 0 61.667779436640558 38.263916240619437 0 38.263916240619437 2.5425544715144497 0 0 0 0 59.667781179978192 40.706085107399304 0 40.706085107399304 23.595559523126212 0 0 0 0 78.122853921013302 24.522027764454833 0 24.522027764454833 19.27680182338645 0 0 0 0 81.840735450477951 33.849977894137055 0 33.849977894137055 42.444364617264 0 0 0 0 120.40497539353964 15.218184020372973 0 15.218184020372973 26.152156289498294 0 0 0 0 114.17853263180587 -3.0484236761913053 0 -3.0484236761913053 35.664345678811287 0 0 0 0 63.210086402657907 7.1456659671739544 0 7.1456659671739544 18.269731693369977 0 0 0 0 72.955381430081616 23.300657747769719 0 23.300657747769719 33.124852149470826 0 0 0 0 15.766270429950964 -5.3613492521326407 0 -5.3613492521326407 -8.8019678427272083 0 0 0 0 14.237726023744472 -9.3151743774724309 0 -9.3151743774724309 -11.867263425412602 0 0 0 0 0.9128248735622293 -1.0822161060798123 0 -1.0822161060798123 -0.81398897509992807 0 0 0 0 34.669707166169246 5.3322485899279854 0 5.3322485899279854 -5.4340210450985822 0 0 0 0 11.479706644720864 24.7657854615818 0 24.7657854615818 -22.498950107385099 0 0 0 0 26.165190468957007 -0.85678554594551315 0 -0.85678554594551315 -5.3664940246048261 0 0 0 0 18.487238208210741 14.407839841144323 0 14.407839841144323 -11.396993792776492 0 0 0 0 4.9512199537720534 -0.74204088735773155 0 -0.74204088735773155 -2.820101384923241 0 0 0 0 52.51587320172257 33.949971787556024 0 33.949971787556024 18.879949516045599 0 0 0 0 52.297916278203502 29.422013065249615 0 29.422013065249615 3.4905124297492875 0 0 0 0 54.600163588016585 48.032572843587332 0 48.032572843587332 8.5724683802291111 0 0 0 0 58.526182279136265 45.329783999530264 0 45.329783999530264 1.0039310539177677 0 0 0 0 49.728671225282596 48.49962594698809 0 48.49962594698809 0.17158644498158537 0 0 0 0 58.883652084674395 45.607126721316945 0 45.607126721316945 -19.421582885450334 0 0 0 0 55.218163403591461 82.501088991256438 0 82.501088991256438 0.7808082957926672 0 0 0 0 66.912503371771891 30.770624551942092 0 30.770624551942092 -36.847096433729803 0 0 0 0 58.590148929612042 44.962340700385994 0 44.962340700385994 0.54867041295074159 0 0 0 0 -2.5045050806898246 1.7052284770138897 0 1.7052284770138897 -1.0714929979165007 0 0 0 0 97.290773556567729 36.040850645298633 0 36.040850645298633 -2.8483627568602969 0 0 0 0 58.79091284123524 52.431036147223637 0 52.431036147223637 1.2341738177856314 0 0 0 0 12.945626954286126 24.646400195498245 0 24.646400195498245 -22.736904728960553 0 0 0 0 12.4449515666347 24.021274202030781 0 24.021274202030781 -23.013020183700064 0 0 0 0 19.989128468926708 12.479774678655488 0 12.479774678655488 -3.9546864656656506 0 0 0 0 9.7191637357957319 22.821773176645806 0 22.821773176645806 -19.275613896369741 0 0 0 0 30.906638538104744 29.523030493012811 0 29.523030493012811 -25.528636331364396 0 0 0 0 7.1536980543993849 8.4772964773291193 0 8.4772964773291193 -21.200898513724912 0 0 0 0 34.054505886291736 21.861059292617711 0 21.861059292617711 -16.212239668085545 0 0 0 0 42.024858404643965 29.897150431454406 0 29.897150431454406 -11.908349067538438 0 0 0 0 40.021056591615519 18.709837613995617 0 18.709837613995617 -6.2250320165432953 0 0 0 0 42.529250196637804 31.09349060616978 0 31.09349060616978 -15.160358350318347 0 0 0 0 68.563866072348901 42.603853147650625 0 42.603853147650625 -33.347415496246413 0 0 0 0 51.3462375869276 37.167398450008477 0 37.167398450008477 -33.820698746239941 0 0 0 0 61.352586707512188 42.053949237440904 0 42.053949237440904 3.924519631839793 0 0 0 0 7.1583772562451475 1.1850579213270152 0 1.1850579213270152 0.14307649938026401 0 0 0 0 57.295278501696885 -13.843092645322031 0 -13.843092645322031 -46.800800830540538 0 0 0 0 69.20172913170245 42.624271583277732 0 42.624271583277732 -34.150240601650921 0 0 0 0 69.751724461937556 40.256616448380555 0 40.256616448380555 -52.996773807288264 0 0 0 0 53.193706093326909 56.676621177610286 0 56.676621177610286 -27.602987282905815 0 0 0 0 33.89489328347554 14.116256241442557 0 14.116256241442557 -14.666274362227739 0 0 0 0 25.018789479756379 14.772365745930074 0 14.772365745930074 -13.832457431994499 0 0 0 0 18.343210926817846 29.610347014917352 0 29.610347014917352 -19.794795613948963 0 0 0 0 21.759965603913741 12.582956634385837 0 12.582956634385837 -5.279478332433829 0 0 0 0 156.9310802109394 38.042321476137317 0 38.042321476137317 -42.14676174984379 0 0 0 0 28.829158654349158 19.40142265013219 0 19.40142265013219 -19.621200496552774 0 0 0 0 5.0343666863670506 2.0491072581979637 0 2.0491072581979637 -18.837396498415778 0 0 0 0 301.73142480903334 -13.594299610160533 0 -13.594299610160533 -23.737972010260819 0 0 0 0 59.542780295756529 100.18295460754085 0 100.18295460754085 43.184007414432756 0 0 0 0 -0.96172419958810451 2.9981853642107552 0 2.9981853642107552 -2.4877690363330993 0 0 0 0 11.260910777247773 24.223119734078182 0 24.223119734078182 -21.119792575609608 0 0 0 0 20.249441398875206 23.808041660484832 0 23.808041660484832 -21.280694398199103 0 0 0 0 12.221444564245758 23.80411594085399 0 23.80411594085399 -22.573118815311318 0 0 0 0 13.059416695046821 27.127254704174447 0 27.127254704174447 -22.42873936326032 0 0 0 0 50.884498014100245 70.462540744210628 0 70.462540744210628 -19.646536677647646 0 0 0 0 36.486705267787329 1.6542896285995994 0 1.6542896285995994 -6.7972742781948909 0 0 0 0 2.1999287514537116 15.030690597396713 0 15.030690597396713 -18.705314190108641 0 0 0 0 18.493497811992711 15.778611653258395 0 15.778611653258395 -12.296400588362303 0 0 0 0 16.387740178050009 18.554094557405179 0 18.554094557405179 -11.451849595076972 0 0 0 0 18.240194248355692 20.634446555024795 0 20.634446555024795 1.8235696061265116 0 0 0 0 124.06129649382638 -5.3882270689445022 0 -5.3882270689445022 -42.05942211330148 0 0 0 0 152.00632646423765 10.462159804233806 0 10.462159804233806 -43.868091729831121 0 0 0 0 55.4229071694499 16.099782090573171 0 16.099782090573171 -12.729998301137243 0 0 0 0 48.381075063299321 19.378051571215337 0 19.378051571215337 -13.941503261905485 0 0 0 0 108.98284159097238 5.7760313991393559 0 5.7760313991393559 -1.7097855350875761 0 0 0 0 96.800340787844874 -42.016038201317038 0 -42.016038201317038 -30.214629103977728 0 0 0 0 53.500961052355706 3.3247821157847284 0 3.3247821157847284 -19.138016488943322 0 0 0 0 59.920381992400507 8.4225245319198621 0 8.4225245319198621 -17.97584444938002 0 0 0 0 51.368753987313539 7.809591784523036 0 7.809591784523036 -13.075284169815859 0 0 0 0 55.47410511867929 2.4674119188662189 0 2.4674119188662189 -14.244854068816494 0 0 0 0 35.389447735239003 18.722858944004287 0 18.722858944004287 -16.562542645470813 0 0 0 0 43.910504810854036 4.8074663894467449 0 4.8074663894467449 -15.557467579473268 0 0 0 0 44.924838341277791 2.7211166370352657 0 2.7211166370352657 -14.233242106649413 0 0 0 0 9.6534361034428002 -1.853505758060237 0 -1.853505758060237 -10.29670131945204 0 0 0 0 23.941708326670778 -12.765014329406313 0 -12.765014329406313 -23.992988218118626 0 0 0 0 28.89330925248214 3.757006250683844 0 3.757006250683844 -19.496259069029065 0 0 0 0 59.173332837599446 17.021243120991585 0 17.021243120991585 -16.264680320261846 0 0 0 0 54.31683299564429 -4.1883714727999859 0 -4.1883714727999859 -24.600441743807096 0 0 0 0 54.837840751781187 16.913303231407554 0 16.913303231407554 -9.353824643644657 0 0 0 0 40.423031568505394 -23.545334351541442 0 -23.545334351541442 -25.018561983682957 0 0 0 0 87.400820725235462 21.859036094426301 0 21.859036094426301 -11.376028750451951 0 0 0 0 76.193221867193643 8.3254857423144131 0 8.3254857423144131 -10.542716077115983 0 0 0 0 71.990609391107682 37.222902917319345 0 37.222902917319345 4.8756369177335728 0 0 0 0 99.556662988470634 14.638482594685115 0 14.638482594685115 28.004493660617115 0 0 0 0 36.99404888578681 -7.1551007073356487 0 -7.1551007073356487 -19.701876879013845 0 0 0 0 340.28086181003891 158.26967777009997 0 158.26967777009997 19.010911329437278 0 0 0 0 513.23267557769577 184.22886742777186 0 184.22886742777186 -36.777542881293186 0 0 0 0 51.37555026936522 1.8276820414082238 0 1.8276820414082238 -17.585301897462234 0 0 0 0 64.157591300623608 20.653691319846985 0 20.653691319846985 -11.777013056314559 0 0 0 0 352.70644785029435 186.42453400653287 0 186.42453400653287 37.08678579801564 0 0 0 0 238.13868577942776 121.61073022986639 0 121.61073022986639 70.136253609016734 0 0 0 0 60.717374736748752 7.3973514630120007 0 7.3973514630120007 1.4932076078184764 0 0 0 0 316.50124604717712 227.74253544459108 0 227.74253544459108 243.97373541224752 0 0 0 0 250.89695340419348 296.95235391835445 0 296.95235391835445 285.38106588793016 0 0 0 0 293.85336798540447 296.75894852872176 0 296.75894852872176 175.44389264590347 0 0 0 0 256.72875959195517 219.49083524813011 0 219.49083524813011 176.87361440702921 0 0 0 0 302.68969674778054 289.0401246682286 0 289.0401246682286 154.26188085901487 0 0 0 0 308.76654036880791 254.00433232140065 0 254.00433232140065 70.27730956630478 0 0 0 0 405.91870072381425 323.12569871966821 0 323.12569871966821 56.498955918915499 0 0 0 0 478.56696282720623 330.03475494142577 0 330.03475494142577 -13.051886549951462 0 0 0 0 341.18058323972946 391.79995385780671 0 391.79995385780671 18.963608929620676 0 0 0 0 325.62620967821204 374.73575677276125 0 374.73575677276125 120.35463094146758 0 0 0 0 275.50627045081637 373.04984892103471 0 373.04984892103471 130.94560240623824 0 0 0 0 288.51629660407343 338.67376419783989 0 338.67376419783989 162.83076083985264 0 0 0 0 264.36200470368203 421.98107351748979 0 421.98107351748979 94.232093037100412 0 0 0 0 232.52778361766832 332.72704792471438 0 332.72704792471438 112.97877497635353 0 0 0 0 188.39344715375773 359.20023361786878 0 359.20023361786878 162.45678789337643 0 0 0 0 317.13174370925844 229.18149352509451 0 229.18149352509451 173.39860658110879 0 0 0 0 125.7787489505863 225.3073921087998 0 225.3073921087998 183.49600001108678 0 0 0 0 604.44451545159245 -150.35970679017379 0 -150.35970679017379 171.69820457089827 0 0 0 0 486.67306187803842 121.10137292364726 0 121.10137292364726 272.82029467864851 0 0 0 0 329.87406997316975 288.01272587003666 0 288.01272587003666 318.97041981023438 0 0 0 0 268.47730248903827 352.41394089386529 0 352.41394089386529 217.00058280903374 0 0 0 0 393.49785456770587 303.82226343912464 0 303.82226343912464 286.8002531412327 0 0 0 0 576.94648373803284 237.28780980390306 0 237.28780980390306 352.148386343325 0 0 0 0 386.15980056075477 307.89129336118555 0 307.89129336118555 445.00649257881935 0 0 0 0 1004.3595180904449 170.64308848689734 0 170.64308848689734 200.54150672749466 0 0 0 0 339.9297853824537 59.164763279888085 0 59.164763279888085 207.44367612425262 0 0 0 0 240.50803900339815 219.38485746808408 0 219.38485746808408 367.14272218093595 0 0 0 0 196.66243165613196 154.22547642734767 0 154.22547642734767 292.92566642207464 0 0 0 0 278.02199717098119 260.1874659126899 0 260.1874659126899 253.23918493739518 0 0 0 0 95.789905407103305 -38.999849454381305 0 -38.999849454381305 -9.9186704186677943 0 0 0 0 223.49405184589159 127.48368574130095 0 127.48368574130095 185.25199005788653 0 0 0 0 267.71215896887588 163.4771005457946 0 163.4771005457946 129.15067035265179 0 0 0 0 285.66646513214073 197.39049901166047 0 197.39049901166047 186.21939961172524 0 0 0 0 126.46938853038591 -30.549466907172473 0 -30.549466907172473 -60.304131349568934 0 0 0 0 169.28745337422879 -23.122125569082755 0 -23.122125569082755 -59.387565894845309 0 0 0 0 140.33523641906504 -4.9960205428901077 0 -4.9960205428901077 -64.243769357523774 0 0 0 0 324.38261214853264 -13.547252498798258 0 -13.547252498798258 -63.870265250122188 0 0 0 0 146.69978846197409 -14.267347769148607 0 -14.267347769148607 -129.7056304174298 0 0 0 0 71.771229133435554 -122.36017527361128 0 -122.36017527361128 -99.854156064639142 0 0 0 0 114.30315175171563 -27.774606797332893 0 -27.774606797332893 21.970328007110808 0 0 0 0 224.68276592194161 96.37734449828838 0 96.37734449828838 -67.964650534751854 0 0 0 0 202.07274211147887 83.009302490550226 0 83.009302490550226 -1.1960160979651846 0 0 0 0 179.7747455918543 83.393836134756128 0 83.393836134756128 -233.02645080122966 0 0 0 0 168.93194773109281 80.897606501112818 0 80.897606501112818 -60.874963602981779 0 0 0 0 185.66935075176298 122.93986939628439 0 122.93986939628439 -95.141490626871473 0 0 0 0 142.94539650381193 166.0037910460851 0 166.0037910460851 -23.172146452431207 0 0 0 0 1.3977494270846904 1.7960692345398996 0 1.7960692345398996 -20.363854681391373 0 0 0 0 110.0318983404577 96.01222735498277 0 96.01222735498277 -2.7318111787542989 0 0 0 0 123.41033805249026 130.7627317917852 0 130.7627317917852 87.495226128657123 0 0 0 0 882.53544776201306 45.070069187175022 0 45.070069187175022 -501.86839262861304 0 0 0 0 398.89570122430086 518.3702351879657 0 518.3702351879657 257.70744505496077 0 0 0 0 145.01245018057671 169.22081727256568 0 169.22081727256568 -99.595046741522765 0 0 0 0 189.37765379859775 166.41734429397206 0 166.41734429397206 -103.10588617430881 0 0 0 0 -8.20001274398237 -141.89532481230094 0 -141.89532481230094 -337.4937718012402 0 0 0 0 339.44962984972517 23.374568105313131 0 23.374568105313131 -429.41614373270932 0 0 0 0 100.49466003599265 -44.314829994203507 0 -44.314829994203507 -0.019948194230540728 0 0 0 0 59.40659051404964 -265.59935453046626 0 -265.59935453046626 -461.41190659987024 0 0 0 0 103.09252596115402 -25.900018831005511 0 -25.900018831005511 -127.78717258149668 0 0 0 0 100.11689581778913 -41.886632544941158 0 -41.886632544941158 -3.2148547757385817 0 0 0 0 798.83507812017706 151.60518158728587 0 151.60518158728587 117.70508856624605 0 0 0 0 1576.3963027860955 281.74774158052799 0 281.74774158052799 144.91678053198302 0 0 0 0 2140.5915841376445 992.77243322355594 0 992.77243322355594 301.36738322231486 0 0 0 0 1597.9783771397833 686.53175500371958 0 686.53175500371958 333.53176595139962 0 0 0 0 808.30362923190114 607.18998736009758 0 607.18998736009758 494.02119936722659 0 0 0 0 127.28850560777937 -715.00847574069576 0 -715.00847574069576 -937.36321003298917 0 0 0 0 1594.1289768100978 702.29168718218011 0 702.29168718218011 319.9346534854883 0 0 0 0 92.781894955151955 -42.352377924677569 0 -42.352377924677569 3.1440813553672782 0 0 0 0 95.016541043223697 71.155370154231377 0 71.155370154231377 -438.63899934145479 0 0 0 0 2722.2782275097998 2073.4263128814673 0 2073.4263128814673 1498.3815131283495 0 0 0 0 71.494317881361155 -33.354668681619756 0 -33.354668681619756 5.7664565021660437 0 0 0 0 2495.9024593334543 1395.6051579668019 0 1395.6051579668019 763.58311282804584 0 0 0 0 2722.5231363538478 1679.3633153198189 0 1679.3633153198189 822.19551510048586 0 0 0 0 4500.3252202713484 2062.6732821029927 0 2062.6732821029927 439.56045832798412 0 0 0 0 3037.443543462683 1129.2032048352828 0 1129.2032048352828 -127.56002875829185 0 0 0 0 4498.5156474401956 1115.9676103616857 0 1115.9676103616857 -505.06859187063975 0 0 0 0 3247.3481204202326 497.21008312419207 0 497.21008312419207 -320.03730531698659 0 0 0 0 3293.2994353180875 619.59379670883573 0 619.59379670883573 -649.94363574931299 0 0 0 0 4499.7370115829108 230.23170315544422 0 230.23170315544422 -841.13838938041556 0 0 0 0 3387.6922273785312 -125.30463454419402 0 -125.30463454419402 -862.53240255940887 0 0 0 0 3385.1331941468961 -151.1204072658789 0 -151.1204072658789 -557.56764479422282 0 0 0 0 2437.6393510993876 265.3526840925233 0 265.3526840925233 -342.40937854603737 0 0 0 0 2314.4487719438002 29.295522776799032 0 29.295522776799032 -142.66514301595748 0 0 0 0 1713.9316876592129 471.80909858845723 0 471.80909858845723 112.95082454788765 0 0 0 0 1011.6000447300612 208.58769319768419 0 208.58769319768419 264.43107197255745 0 0 0 0 1696.0878482310036 1.6334498030342388 0 1.6334498030342388 43.294979643154193 0 0 0 0 1688.1242556504076 -25.74908418174914 0 -25.74908418174914 -17.817919272014478 0 0 0 0 1074.2050685864342 -121.58326824386762 0 -121.58326824386762 180.13467629304307 0 0 0 0 999.14884479642205 -2.9365230417425892 0 -2.9365230417425892 145.4106486675056 0 0 0 0 188.32866659807041 6.9700164956690003 0 6.9700164956690003 168.1604468584361 0 0 0 0 1490.7673048721826 -754.35722655475536 0 -754.35722655475536 121.24135018704749 0 0 0 0 1638.1856803695555 -561.63974672438985 0 -561.63974672438985 20.844140769417095 0 0 0 0 3316.0166517735488 -1143.314611853672 0 -1143.314611853672 -376.45333532300447 0 0 0 0 1822.5581649195883 -1349.6236015934492 0 -1349.6236015934492 149.03548568541322 0 0 0 0 4501.2993440871542 -1650.2019271835961 0 -1650.2019271835961 -634.06837407625096 0 0 0 0 3361.9072215130909 -890.72900471849584 0 -890.72900471849584 -824.4434931333318 0 0 0 0 4498.4540771230832 -697.83634666347211 0 -697.83634666347211 -900.44691393116852 0 0 0 0 2278.0064881607468 -517.0087049035526 0 -517.0087049035526 -280.32946392650535 0 0 0 0 2489.9591679929945 -449.9399663747464 0 -449.9399663747464 -281.68203359809399 0 0 0 0 4347.9228029318401 -999.84728048417435 0 -999.84728048417435 -185.6018816988792 0 0 0 0 3792.6598720954498 -800.69817807912466 0 -800.69817807912466 -148.08485398960977 0 0 0 0 4628.2324604225578 -639.15855592759374 0 -639.15855592759374 -973.80703398663832 0 0 0 0 3711.8176656484138 1174.6877130079224 0 1174.6877130079224 -1061.315731267423 0 0 0 0 1545.2091753122368 17.385532843144802 0 17.385532843144802 -151.66626702480789 0 0 0 0 2669.953236372894 -276.98023508874257 0 -276.98023508874257 -477.06831294669939 0 0 0 0 2339.2411977910524 -126.3574717402837 0 -126.3574717402837 -532.02950169640394 0 0 0 0 1321.0373047922476 -229.14721033124061 0 -229.14721033124061 -160.35218992784553 0 0 0 0 1993.2372939082852 282.57591131723507 0 282.57591131723507 -259.28385505171792 0 0 0 0 3686.4551330593604 -977.60982452470432 0 -977.60982452470432 -298.64715771057547 0 0 0 0 3483.2372413545672 -386.72047920638101 0 -386.72047920638101 -283.00000059844064 0 0 0 0 -0.88446856434291021 -1.7814867920479358 0 -1.7814867920479358 1.7722000831837887 0 0 0 0 2126.5816899090059 -705.21385608901392 0 -705.21385608901392 -112.25545739486165 0 0 0 0 14.751068899817597 -0.16911248979431193 0 -0.16911248979431193 0.40367281190593363 0 0 0 0 1852.4927244745631 -1297.3848422205408 0 -1297.3848422205408 677.68941071792369 0 0 0 0 4501.7531190348782 -1388.8997248604189 0 -1388.8997248604189 -66.476185061692547 0 0 0 0 3861.2307367776011 -839.19227492074367 0 -839.19227492074367 -126.54564918933252 0 0 0 0 3573.2994175902277 -759.41240374369033 0 -759.41240374369033 708.36712767336417 0 0 0 0 4488.6376089422447 -3056.6680333645172 0 -3056.6680333645172 594.30457825097733 0 0 0 0 2356.4204560974758 -964.27597422076269 0 -964.27597422076269 776.00046685885854 0 0 0 0 3348.9392202807139 -1597.1948409740987 0 -1597.1948409740987 216.81708394412291 0 0 0 0 2121.9339741950025 -1530.1384432822358 0 -1530.1384432822358 229.39582050902283 0 0 0 0 -424.27885016104847 -2078.8529244358142 0 -2078.8529244358142 1380.1156160034559 0 0 0 0 162.07681198135288 268.31610816709735 0 268.31610816709735 -319.9397999637722 0 0 0 0 4495.5474374655714 3089.6027431554398 0 3089.6027431554398 2014.5721407272999 0 0 0 0 29.264017728674276 -11.82679638155787 0 -11.82679638155787 5.9181109930877529 0 0 0 0 153.64635427694157 -226.69829537810017 0 -226.69829537810017 256.39924231254872 0 0 0 0 722.96028116544767 504.25286220628595 0 504.25286220628595 46.682837764480155 0 0 0 0 -238.64278914332681 -1037.185546967642 0 -1037.185546967642 -975.87963549367055 0 0 0 0 471.19535381024616 -462.10949679094534 0 -462.10949679094534 666.71094120753799 0 0 0 0 469.13410946736087 498.39405839279846 0 498.39405839279846 200.00634733351376 0 0 0 0 976.18241385069996 -28.775474596798404 0 -28.775474596798404 357.71313679799493 0 0 0 0 2492.5382173474027 -947.63965193610022 0 -947.63965193610022 371.47403341580673 0 0 0 0 1130.9623817726169 4.5308828901858362 0 4.5308828901858362 71.316180030785176 0 0 0 0 3257.8002802753836 -505.02404599255482 0 -505.02404599255482 67.7772482446087 0 0 0 0 862.82066371886322 756.89788849828938 0 756.89788849828938 155.97867768951642 0 0 0 0 -10.698113060745527 -73.872810438423699 0 -73.872810438423699 368.4864537017977 0 0 0 0 81.784185232929303 -220.48276884574238 0 -220.48276884574238 147.10980105335227 0 0 0 0 105.4940735304699 4.956162057450797 0 4.956162057450797 104.6264924025844 0 0 0 0 121.72250469811934 -123.81763203185648 0 -123.81763203185648 -48.667019106839462 0 0 0 0 -54.16620300411887 -88.981731305442281 0 -88.981731305442281 157.29920319350163 0 0 0 0 -44.515726989648101 -99.782422722984791 0 -99.782422722984791 -8.2621753451448967 0 0 0 0 209.61308946172358 -30.237807054130826 0 -30.237807054130826 70.559452381689653 0 0 0 0 -40.893486489279894 39.795131789774814 0 39.795131789774814 144.75645361461861 0 0 0 0 503.96787392323313 393.32278465666627 0 393.32278465666627 332.65467433262415 0 0 0 0 775.14832999394275 186.59765996859483 0 186.59765996859483 -155.20142145493924 0 0 0 0 -43.019958498334745 30.698481858099285 0 30.698481858099285 144.90061498998591 0 0 0 0 5.9311263776222063 4.1706483533320835 0 4.1706483533320835 3.4731369253627671 0 0 0 0 -56.770378400717163 49.428926732877017 0 49.428926732877017 439.68274176334648 0 0 0 0 46.227872462317464 32.906160305611138 0 32.906160305611138 21.722303008011522 0 0 0 0 -37.952691313496416 110.3522576521283 0 110.3522576521283 -26.801786826335729 0 0 0 0 15.981255372481826 12.111652936617617 0 12.111652936617617 4.0626283602155686 0 0 0 0 67.771266640302201 66.648894730987195 0 66.648894730987195 23.91830823726832 0 0 0 0 6.316993543565971 4.7949956299231076 0 4.7949956299231076 -20.687751071070288 0 0 0 0 32.128977762986324 14.894322506300284 0 14.894322506300284 -15.256070795030553 0 0 0 0 23.364955970357471 9.1521713306383958 0 9.1521713306383958 -2.804472781072977 0 0 0 0 37.036380705656484 13.697535280643507 0 13.697535280643507 -15.023962493190425 0 0 0 0 25.601381974491233 9.9104720184626416 0 9.9104720184626416 -8.1599854623646024 0 0 0 0 7.165126780342348 2.7141859333204934 0 2.7141859333204934 -6.7139622418664144 0 0 0 0 28.20966566575953 16.945881787926979 0 16.945881787926979 1.707925577508604 0 0 0 0 -104.9733308005525 -3.4876580612153703 0 -3.4876580612153703 40.75736585650867 0 0 0 0 -34.693240714019339 22.561866877491042 0 22.561866877491042 11.158138006187528 0 0 0 0 37.723851209913846 12.430110101516775 0 12.430110101516775 -2.5287260811151797 0 0 0 0 8.8121695110691292 1.2097129481227284 0 1.2097129481227284 -2.377355788013972 0 0 0 0 -91.794745838895324 -86.914843487334451 0 -86.914843487334451 -6.1217460979116822 0 0 0 0 36.475406881101662 20.312651317490452 0 20.312651317490452 7.5302277674394631 0 0 0 0 14.734906524945274 2.2951386765705593 0 2.2951386765705593 -6.1491684432208711 0 0 0 0 10.689401621988509 -6.8875530273264758 0 -6.8875530273264758 -21.829186013279468 0 0 0 0 12.921869994835902 -1.9855945862132174 0 -1.9855945862132174 -5.5741932471720919 0 0 0 0 16.899199728060239 3.3222627673520719 0 3.3222627673520719 -8.131882830200599 0 0 0 0 13.445119749507285 -1.4921984755746962 0 -1.4921984755746962 -13.624231611719551 0 0 0 0 16.890629132445611 -12.446341913007018 0 -12.446341913007018 -13.039524435913336 0 0 0 0 25.566141984221758 -11.19965795143662 0 -11.19965795143662 -40.323945904548964 0 0 0 0 17.812851190848392 -3.5540716226174496 0 -3.5540716226174496 -5.9734153305652962 0 0 0 0 111.14139650005382 51.676413048066934 0 51.676413048066934 -38.478444169362774 0 0 0 0 11.763367666193517 -5.6200138226076888 0 -5.6200138226076888 -25.632376334502624 0 0 0 0 9.0002222694202771 -1.4013403828507478 0 -1.4013403828507478 -21.180819148494361 0 0 0 0 16.230481486360077 0.70424150952544551 0 0.70424150952544551 -20.107107142258428 0 0 0 0 25.349095980200218 -5.4102993397132195 0 -5.4102993397132195 -22.24105969462471 0 0 0 0 19.714029344697508 -1.7353201017592035 0 -1.7353201017592035 -8.0972592427455616 0 0 0 0 12.021817479748279 -14.048964188559239 0 -14.048964188559239 -27.960102675327107 0 0 0 0 16.95392090518726 -9.9396116634743521 0 -9.9396116634743521 -38.369184044835492 0 0 0 0 23.979486317968679 1.3944183139224009 0 1.3944183139224009 -14.130551353174898 0 0 0 0 25.620077665313147 -0.46989688639082772 0 -0.46989688639082772 -223.94204710955833 0 0 0 0 25.767031213881864 -1.2083746738274925 0 -1.2083746738274925 -7.334689541236469 0 0 0 0 -27.785400789813139 -93.453381959758474 0 -93.453381959758474 -122.13850860385935 0 0 0 0 -40.644009442665265 -25.418997068466126 0 -25.418997068466126 -85.577479811740886 0 0 0 0 60.357254826725693 -44.037024668487049 0 -44.037024668487049 -171.20921677147447 0 0 0 0 13.957669245151919 -5.1691456393002113 0 -5.1691456393002113 -18.052692873913884 0 0 0 0 8.4389459340891335 26.339037810072455 0 26.339037810072455 -17.964239556746829 0 0 0 0 37.276120023176517 8.6101419743014844 0 8.6101419743014844 -16.04458814296143 0 0 0 0 13.135977453198336 -8.5651971369483739 0 -8.5651971369483739 -11.751156914053121 0 0 0 0 187.4760948865005 -73.671140379741416 0 -73.671140379741416 -387.28452437447265 0 0 0 0 33.611900497234046 -0.97491621884660873 0 -0.97491621884660873 -2.2799642187045475 0 0 0 0 194.12828849695507 221.03004358054093 0 221.03004358054093 186.37526694755763 0 0 0 0 68.125387260894058 46.012582126050972 0 46.012582126050972 -54.949993840549283 0 0 0 0 2.7673295227419885 2.9456358801839357 0 2.9456358801839357 -1.5711900777834993 0 0 0 0 138.97730669417069 -237.14226682314734 0 -237.14226682314734 -172.86509676521712 0 0 0 0 287.13578215090092 -456.56616880908678 0 -456.56616880908678 273.69758832550212 0 0 0 0 -38.862644112974522 84.4587645415221 0 84.4587645415221 -210.00102087687304 0 0 0 0 -60.524098323017824 177.2052712104821 0 177.2052712104821 131.81901444688924 0 0 0 0 -227.83426212584891 165.06483498621225 0 165.06483498621225 241.84180882784813 0 0 0 0 67.047031074733241 -154.38842701992434 0 -154.38842701992434 335.0549500490572 0 0 0 0 -296.9607678353932 -6.8096483860352919 0 -6.8096483860352919 143.26159145989322 0 0 0 0 87.442053089529509 -4.0317854345032629 0 -4.0317854345032629 -19.547692156204107 0 0 0 0 34.914499193524534 4.3479132229456354 0 4.3479132229456354 -20.615966093599127 0 0 0 0 84.872846090387611 59.276815536910497 0 59.276815536910497 -35.149495901433511 0 0 0 0 10.376904643645048 -2.6393486541513482 0 -2.6393486541513482 -17.050388864991664 0 0 0 0 -0.52682006948920446 0.29213608159827231 0 0.29213608159827231 0.40666740435428061 0 0 0 0 -21.681452972115949 52.553187524588552 0 52.553187524588552 -152.78639103703387 0 0 0 0 17.754323578374169 -8.8705366898204829 0 -8.8705366898204829 -18.967235642607193 0 0 0 0 22.743016079926747 -4.1320843724788574 0 -4.1320843724788574 -23.449991100549596 0 0 0 0 83.64282758635818 8.4660274911445867 0 8.4660274911445867 30.358592501268504 0 0 0 0 11.228751377265723 -4.8785065232178226 0 -4.8785065232178226 -13.873661418407604 0 0 0 0 4.5548355620810241 1.4315235646356257 0 1.4315235646356257 -1.9355843423030654 0 0 0 0 235.45370391583128 188.34640793293858 0 188.34640793293858 210.03927507689519 0 0 0 0 56.192285944460309 -247.09022177538384 0 -247.09022177538384 8.9087309590810406 0 0 0 0 726.41389196412638 -58.337322978522707 0 -58.337322978522707 -138.12591054985683 0 0 0 0 700.27096787816845 -164.87549777312324 0 -164.87549777312324 -54.817444973068405 0 0 0 0 349.71525396029756 139.87972817409354 0 139.87972817409354 -143.54334835921463 0 0 0 0 78.763700321374927 24.482405298878348 0 24.482405298878348 -0.94530204161310394 0 0 0 0 185.61399085597077 -95.823115401668929 0 -95.823115401668929 16.080293916201413 0 0 0 0 1259.023091796982 473.92670180357641 0 473.92670180357641 -99.095765743033212 0 0 0 0 33.203523622083878 -22.306191039533104 0 -22.306191039533104 -20.897136545479974 0 0 0 0 19.706321297941031 -17.265722420023394 0 -17.265722420023394 -17.087591013176279 0 0 0 0 69.984011034772266 33.640362269306934 0 33.640362269306934 -26.013928850590673 0 0 0 0 9.1303827458654609 0.15282148589869848 0 0.15282148589869848 -1.4661030665949522 0 0 0 0 -4.0050923676348589 -2.542457442442295 0 -2.542457442442295 -2.740174407450799 0 0 0 0 16.2919841978146 -19.795436039782771 0 -19.795436039782771 -18.764404491028927 0 0 0 0 32.861552565096645 -21.4754068754537 0 -21.4754068754537 -34.84432958594266 0 0 0 0 18.333074766983259 -6.8572046021737449 0 -6.8572046021737449 -1.9330104599148723 0 0 0 0 16.638193716077296 -6.7406706968476477 0 -6.7406706968476477 -6.0289617524382377 0 0 0 0 14.593750454615531 -8.1737896898350471 0 -8.1737896898350471 -17.454024837917487 0 0 0 0 25.988958002912113 -8.7828391269333679 0 -8.7828391269333679 -34.469954925738989 0 0 0 0 16.568743027942958 -11.645262846387823 0 -11.645262846387823 -11.447367702487615 0 0 0 0 16.168228168086387 -13.323281981009583 0 -13.323281981009583 -6.104463030163009 0 0 0 0 6.1302590596560549 -0.45958450639446369 0 -0.45958450639446369 -0.74657300091844192 0 0 0 0 -55.817363746697083 27.253356311673997 0 27.253356311673997 -14.148867480420449 0 0 0 0 0.20376107301854063 -51.149687526012713 0 -51.149687526012713 -4.5333638180922549 0 0 0 0 59.042478162285988 24.518672185607556 0 24.518672185607556 -18.618660535424851 0 0 0 0 -105.57780851772623 -106.10900367230511 0 -106.10900367230511 60.329463309039056 0 0 0 0 11.408013744764332 -1.6679734680488707 0 -1.6679734680488707 -26.853976585274719 0 0 0 0 60.86708865743276 -15.724882757814157 0 -15.724882757814157 -57.848969342245255 0 0 0 0 22.966668948385632 -10.088930501006871 0 -10.088930501006871 -28.347729812042644 0 0 0 0 24.16733291370474 -7.3822179121759746 0 -7.3822179121759746 -24.13305151140321 0 0 0 0 21.915045271423878 -1.5825504641675252 0 -1.5825504641675252 -13.536591113201212 0 0 0 0 22.300930060257087 -5.3455661471230087 0 -5.3455661471230087 -25.511503138858188 0 0 0 0 39.7797142894633 -36.102173635646977 0 -36.102173635646977 -62.716747579106595 0 0 0 0 50.687833763484377 -15.925370603965348 0 -15.925370603965348 -101.42241640437351 0 0 0 0 47.179351318176487 13.268148613815356 0 13.268148613815356 -68.456191156456043 0 0 0 0 36.984130506120437 -6.4986896741484994 0 -6.4986896741484994 -2.1219953624566443 0 0 0 0 9.9955598340602592 -66.433099547866732 0 -66.433099547866732 -87.882406456144963 0 0 0 0 10.208834717540867 -0.59731104573344851 0 -0.59731104573344851 -3.5495966790223079 0 0 0 0 239.99785127682844 -99.46849394401579 0 -99.46849394401579 -265.83975346971283 0 0 0 0 -44.126105163799366 -4.1471103238836804 0 -4.1471103238836804 -43.528688688635157 0 0 0 0 32.331464274117025 -132.09067976635015 0 -132.09067976635015 163.45079882856044 0 0 0 0 -107.95625817225664 -11.026945784540658 0 -11.026945784540658 -35.346187484306938 0 0 0 0 716.75729720274103 134.25915112696202 0 134.25915112696202 -32.238314833413654 0 0 0 0 160.78097654078738 498.43307834910775 0 498.43307834910775 431.19697204296517 0 0 0 0 32.883082229047432 260.12909989115724 0 260.12909989115724 261.90173373222387 0 0 0 0 8.845401347342488 -0.33427915059626212 0 -0.33427915059626212 0.29612341657806418 0 0 0 0 91.474301989022933 371.23345483838011 0 371.23345483838011 463.84098886125321 0 0 0 0 24.389882550883385 -102.62787057210724 0 -102.62787057210724 171.1032953504764 0 0 0 0 377.88006859448797 128.47981265799353 0 128.47981265799353 -151.92779072571102 0 0 0 0 24.842206896839514 -2.1428270809036407 0 -2.1428270809036407 0.21429398276891387 0 0 0 0 25.656304119315337 -61.644197744606856 0 -61.644197744606856 -51.168270919657516 0 0 0 0 37.649635643552756 -44.596380523207699 0 -44.596380523207699 -32.802259808304825 0 0 0 0 55.620003405434545 -58.090027971233212 0 -58.090027971233212 -68.515594351539221 0 0 0 0 194.91070710598433 -200.93590561591827 0 -200.93590561591827 -38.293972126756671 0 0 0 0 92.090024487668416 -23.158855543471873 0 -23.158855543471873 -53.009511729846054 0 0 0 0 82.161343000082809 30.381689712222339 0 30.381689712222339 5.4269360655809447 0 0 0 0 127.99454516006517 281.32927856765218 0 281.32927856765218 -330.94756794172372 0 0 0 0 117.13375390601868 -5.4803876239402598 0 -5.4803876239402598 -274.41591474630422 0 0 0 0 68.333127206700738 -13.432133366706239 0 -13.432133366706239 -24.548205227445578 0 0 0 0 80.432062654726906 0.83659781510141329 0 0.83659781510141329 -18.4628590502507 0 0 0 0 58.280294685275294 -32.528758386049958 0 -32.528758386049958 -30.258393953819905 0 0 0 0 48.186878153443104 -26.84030294117656 0 -26.84030294117656 -33.305147189010313 0 0 0 0 67.654409619804937 -43.823084917085907 0 -43.823084917085907 -63.41581492162004 0 0 0 0 65.082742920174496 60.28227033528492 0 60.28227033528492 -30.349464340224586 0 0 0 0 -1.6624173998570768 -4.8122119611925882 0 -4.8122119611925882 -23.27311479119453 0 0 0 0 49.917349994095275 -51.308964108260625 0 -51.308964108260625 -77.251650954984143 0 0 0 0 51.79089222946277 -4.0069905929185552 0 -4.0069905929185552 1.0398606537637534 0 0 0 0 85.425390718155541 -17.647593891604629 0 -17.647593891604629 6.5662573095687549 0 0 0 0 107.06058056978509 5.4584841220712406 0 5.4584841220712406 -27.021481056101038 0 0 0 0 94.66371348843677 6.9372383772911235 0 6.9372383772911235 0.80515880187886069 0 0 0 0 183.75872563978191 74.062068448212813 0 74.062068448212813 51.121450832230039 0 0 0 0 113.81670053448761 9.6076189159266505 0 9.6076189159266505 -13.672517329751713 0 0 0 0 21.937081088303984 -9.1278122970772984 0 -9.1278122970772984 -15.974873333575147 0 0 0 0 106.084795853385 22.32367953524772 0 22.32367953524772 -19.915713890211919 0 0 0 0 1.9378342195871596 -7.2241784851507731 0 -7.2241784851507731 -4.8670668695398316 0 0 0 0 65.450053400505567 13.522200337680715 0 13.522200337680715 18.479706137703033 0 0 0 0 18.195402873168291 -3.6634532229200332 0 -3.6634532229200332 -5.8869734157727667 0 0 0 0 27.869605105152004 2.6440532378990156 0 2.6440532378990156 -24.081525478281037 0 0 0 0 30.114911721000681 -8.8795024983528492 0 -8.8795024983528492 -28.541835995226393 0 0 0 0 92.365947786835022 8.8050495732554737 0 8.8050495732554737 14.989852621067257 0 0 0 0 19.554352060615201 -11.74204321052116 0 -11.74204321052116 -23.190738340616917 0 0 0 0 28.972736681918548 -3.4530791548320821 0 -3.4530791548320821 -19.454514714554115 0 0 0 0 54.878841355058057 -3.6851460830544482 0 -3.6851460830544482 -26.174556664771643 0 0 0 0 48.935882927713834 2.4156254377336666 0 2.4156254377336666 -23.179051714949473 0 0 0 0 22.048645697184838 -2.4983934901538305 0 -2.4983934901538305 -26.644094132811006 0 0 0 0 -148.70966221798153 80.635245096716517 0 80.635245096716517 -4.2407865192240024 0 0 0 0 72.033904716463383 19.784841967890216 0 19.784841967890216 -0.49873080622027643 0 0 0 0 92.492725802369023 6.0170664068652968 0 6.0170664068652968 -33.396530100453674 0 0 0 0 42.109747052174498 11.794614158612148 0 11.794614158612148 -70.111969907122329 0 0 0 0 31.85892616691126 19.955974734531083 0 19.955974734531083 -25.588777341828973 0 0 0 0 19.932561367243423 6.3282793737290888 0 6.3282793737290888 -21.092289007550065 0 0 0 0 5.301527011530311 8.0280499497560953 0 8.0280499497560953 -4.9299082942029067 0 0 0 0 37.321475752905826 7.7120260030387726 0 7.7120260030387726 -13.779812130384471 0 0 0 0 37.128245574005405 16.897393063951252 0 16.897393063951252 -17.187902564537694 0 0 0 0 23.997280962059904 1.4616314638692813 0 1.4616314638692813 -18.94825532636861 0 0 0 0 24.020477954211401 0.16669048952721255 0 0.16669048952721255 -17.417423256724103 0 0 0 0 35.367071110536926 17.76630448525691 0 17.76630448525691 -16.69422620197588 0 0 0 0 25.49804403608934 2.9549536369800364 0 2.9549536369800364 -30.247381074804363 0 0 0 0 3.4381026732685598 8.1137388013408867 0 8.1137388013408867 -12.104608675784014 0 0 0 0 37.541980840629549 21.459641455023132 0 21.459641455023132 -11.711205622230409 0 0 0 0 28.148780823968991 17.615545526970436 0 17.615545526970436 -11.200562602440414 0 0 0 0 35.544292672653683 16.041450559981911 0 16.041450559981911 -14.509270931519723 0 0 0 0 35.039817508077249 17.503414649755143 0 17.503414649755143 -14.683631492352106 0 0 0 0 42.449614251454477 27.149691767162949 0 27.149691767162949 -14.550760701636591 0 0 0 0 79.490207590426508 28.534531809566943 0 28.534531809566943 -28.632378351292573 0 0 0 0 80.171805329562631 40.011629926338173 0 40.011629926338173 -100.35045369785439 0 0 0 0 35.326411889095795 14.024483414540995 0 14.024483414540995 -23.637939170760976 0 0 0 0 43.320720074072597 24.214224967847258 0 24.214224967847258 -5.4210659796608525 0 0 0 0 -58.284740956565656 5.2127760744961051 0 5.2127760744961051 -20.702208613028233 0 0 0 0 55.887651440811169 36.147824538225223 0 36.147824538225223 5.2509650724095991 0 0 0 0 -10.717349454127543 -153.99448782008039 0 -153.99448782008039 15.53926795888583 0 0 0 0 140.50896202003787 -0.89205753654096043 0 -0.89205753654096043 -131.57608732771769 0 0 0 0 170.54920353648777 -30.76945907202844 0 -30.76945907202844 -134.41572632020052 0 0 0 0 185.48426886148081 -302.76318397931846 0 -302.76318397931846 409.35291103539748 0 0 0 0 688.19311038443266 -53.422252737878807 0 -53.422252737878807 -131.35755332327062 0 0 0 0 52.189772828423884 -12.986802330863611 0 -12.986802330863611 -106.22536143884645 0 0 0 0 -151.45753921430878 116.58557878266828 0 116.58557878266828 343.25114887371456 0 0 0 0 163.75899439699424 449.52427879371635 0 449.52427879371635 278.93172675665846 0 0 0 0 7.7868929982480211 4.4013498871755132 0 4.4013498871755132 4.9006424924597169 0 0 0 0 104.07474030720186 215.88329921407239 0 215.88329921407239 339.77710351991482 0 0 0 0 177.10917683318257 -271.04517239444249 0 -271.04517239444249 261.18003752057029 0 0 0 0 34.007577550975839 -46.342226191045484 0 -46.342226191045484 197.05136201284768 0 0 0 0 -318.93032951030182 -18.928855963555179 0 -18.928855963555179 -29.895030598410813 0 0 0 0 8.900267758683853 2.4746866000510579 0 2.4746866000510579 4.5500842278745424 0 0 0 0 9.427638092078908 -6.9235510927242103 0 -6.9235510927242103 0.4721108159289642 0 0 0 0 4.7563196278060786 0.16073502884319169 0 0.16073502884319169 2.1309379621961853 0 0 0 0 -0.24999133433482257 -2.4492815623345052 0 -2.4492815623345052 3.5988810114681371 0 0 0 0 60.91303016411257 117.69908330991257 0 117.69908330991257 209.61389316444183 0 0 0 0 13.201650190108921 28.003449311712757 0 28.003449311712757 -75.282203945025685 0 0 0 0 1.2707315847451639 -3.1757075220424866 0 -3.1757075220424866 1.8521517349702989 0 0 0 0 -475.60774179175496 82.187614407314868 0 82.187614407314868 -51.361006306844502 0 0 0 0 -266.52953059243737 170.82892735316727 0 170.82892735316727 -87.227127357255085 0 0 0 0 -149.9225283927517 40.259443262833884 0 40.259443262833884 -132.08287969949743 0 0 0 0 60.240969843405765 12.20503659615224 0 12.20503659615224 0.0034393914966130978 0 0 0 0 -229.81706077883018 506.14154188841439 0 506.14154188841439 -15.106125369395158 0 0 0 0 29.485313235102126 25.589419457491957 0 25.589419457491957 11.66589293740001 0 0 0 0 -46.405061195895541 323.76549677472576 0 323.76549677472576 -231.82644979195175 0 0 0 0 -269.08284078112047 37.364994067601401 0 37.364994067601401 -234.19486751918521 0 0 0 0 -184.21317066930351 201.42316290871713 0 201.42316290871713 82.097563416340563 0 0 0 0 8.7899128293356625 385.24430532588121 0 385.24430532588121 -164.59198460105836 0 0 0 0 3.7584979950916022 488.86047641281402 0 488.86047641281402 283.05324278202716 0 0 0 0 339.18031131741009 346.10694459600563 0 346.10694459600563 132.86904209919339 0 0 0 0 -42.555439303290768 256.57726909322173 0 256.57726909322173 209.11601029089798 0 0 0 0 260.12290852468868 224.75183309952081 0 224.75183309952081 6.4984822195729066 0 0 0 0 206.65213713820049 54.429810313814869 0 54.429810313814869 -256.88977171553051 0 0 0 0 -242.84045649478503 155.24269228206867 0 155.24269228206867 -1.902238816263889 0 0 0 0 58.755503049120307 23.524268515143376 0 23.524268515143376 11.418670336895957 0 0 0 0 70.341622139283572 45.193640392431917 0 45.193640392431917 -12.581345067497068 0 0 0 0 45.515050858807967 36.192429490433327 0 36.192429490433327 1.3236039366202021 0 0 0 0 45.822724623432009 59.196978697707742 0 59.196978697707742 5.3799526757375133 0 0 0 0 35.541714483741089 157.09848706120647 0 157.09848706120647 -195.23135822943368 0 0 0 0 40.320321443404922 35.598141437559661 0 35.598141437559661 22.265609804010314 0 0 0 0 34.081752109341323 53.331494650017703 0 53.331494650017703 15.094035123940557 0 0 0 0 51.612569266872015 65.07248796100248 0 65.07248796100248 -20.71879463231744 0 0 0 0 -16.552382793134001 6.4195692466409326 0 6.4195692466409326 14.108833577485434 0 0 0 0 56.154133503034245 5.5428373093818664 0 5.5428373093818664 -6.1087622069337613 0 0 0 0 69.189839191993769 21.256516146609982 0 21.256516146609982 -1.4045397735335428 0 0 0 0 55.578824644646375 25.554131530966515 0 25.554131530966515 -2.1440345468936357 0 0 0 0 58.225268903217511 19.279695708550207 0 19.279695708550207 -12.415861965297154 0 0 0 0 44.685855056304717 2.2485616418280188 0 2.2485616418280188 -19.96233154492802 0 0 0 0 51.161713308320032 16.151560878852251 0 16.151560878852251 0.83939171380370681 0 0 0 0 35.47075538898207 15.856331006721121 0 15.856331006721121 -3.7555128115764091 0 0 0 0 38.298768356093206 10.688633990086373 0 10.688633990086373 -12.026867056525589 0 0 0 0 0.32687332794192514 0.3980565705679453 0 0.3980565705679453 -0.06768415126051508 0 0 0 0 -11.43967810140748 -21.490203004292198 0 -21.490203004292198 -24.583340244396823 0 0 0 0 21.576467682818475 13.437152156622687 0 13.437152156622687 -7.3454967302859586 0 0 0 0 37.17335738777183 -3.1482260364782633 0 -3.1482260364782633 -22.56772950793038 0 0 0 0 49.083257505961228 4.6797727203156683 0 4.6797727203156683 -10.248169557531583 0 0 0 0 36.261635545713943 0.67435319877540678 0 0.67435319877540678 13.936789491279342 0 0 0 0 36.710379064083099 -13.136811465314167 0 -13.136811465314167 23.697501108273855 0 0 0 0 56.660530655142793 19.440567441948588 0 19.440567441948588 18.50627525102027 0 0 0 0 -454.32639562493932 175.77399533027989 0 175.77399533027989 -131.58126093503415 0 0 0 0 19.668002725630771 12.388586069357501 0 12.388586069357501 -2.3732345868731102 0 0 0 0 35.348720280424459 -24.577568928060828 0 -24.577568928060828 6.3077642989555898 0 0 0 0 35.713444255699869 -23.408419722461986 0 -23.408419722461986 10.010927538385658 0 0 0 0 35.900371741154231 -18.892342570034089 0 -18.892342570034089 -3.7185364001616108 0 0 0 0 -356.05532535276143 132.44842795785007 0 132.44842795785007 -242.96718741860423 0 0 0 0 -349.55017249885714 97.955902222228815 0 97.955902222228815 -348.04410364936666 0 0 0 0 12.394309191469958 -13.010335410658797 0 -13.010335410658797 10.566509057452727 0 0 0 0 34.968154367619718 -22.097048611282844 0 -22.097048611282844 -5.5631954905375096 0 0 0 0 661.66552564417361 309.40020744410253 0 309.40020744410253 48.72764277897295 0 0 0 0 570.37676442665543 493.7920006502427 0 493.7920006502427 174.23921390023315 0 0 0 0 256.81762095468002 296.05331478105927 0 296.05331478105927 243.58397883504404 0 0 0 0 69.077877773714135 -322.33795175515684 0 -322.33795175515684 -270.87122931376143 0 0 0 0 -60.912423159439641 37.834831699884489 0 37.834831699884489 143.22255581461104 0 0 0 0 1349.9826174241025 286.66901734170096 0 286.66901734170096 195.38424824415779 0 0 0 0 251.93876759274281 525.78026424017162 0 525.78026424017162 613.57417320384957 0 0 0 0 3.0140034858890203 -0.75614636307574301 0 -0.75614636307574301 1.3175198117786291 0 0 0 0 84.974583329516463 178.21027700653212 0 178.21027700653212 716.08772905049409 0 0 0 0 -531.39966044950415 -84.246369219720236 0 -84.246369219720236 480.3430384557314 0 0 0 0 809.70812130154809 1199.6027820523377 0 1199.6027820523377 114.27085391479704 0 0 0 0 12.86700930500956 9.0082273756590894 0 9.0082273756590894 6.5082439647858337 0 0 0 0 87.648848494791309 -5.4159149249744587 0 -5.4159149249744587 36.685066235017075 0 0 0 0 17.585774430652208 -7.8244258321145423 0 -7.8244258321145423 -6.6552040912706545 0 0 0 0 17.295814292956095 8.4474158755837578 0 8.4474158755837578 -6.4206901527516607 0 0 0 0 35.33314609068475 23.165000201252496 0 23.165000201252496 -20.486604853605058 0 0 0 0 19.815721468943053 14.310797585597562 0 14.310797585597562 7.2589218145096082 0 0 0 0 103.11024629593885 -48.035169263590433 0 -48.035169263590433 1.6185339245566865 0 0 0 0 -315.78580046500429 207.93186148342284 0 207.93186148342284 -376.0181463501558 0 0 0 0 77.571750884017092 653.11627941485312 0 653.11627941485312 -189.6979325247612 0 0 0 0 -299.30279736127704 406.91315534938622 0 406.91315534938622 -82.442514786398533 0 0 0 0 7.5187418623403914 -2.1599306978732642 0 -2.1599306978732642 -5.1251777043330655 0 0 0 0 107.36547516660357 -34.114746117055802 0 -34.114746117055802 22.759925293648394 0 0 0 0 2.6730840466870802 -4.781224980681742 0 -4.781224980681742 11.649501609547428 0 0 0 0 285.12292704057472 -121.10152239189938 0 -121.10152239189938 -50.219845012661608 0 0 0 0 11.331287227042935 3.8933847951555975 0 3.8933847951555975 -1.3900116940370335 0 0 0 0 212.38147602697427 -25.693378213343749 0 -25.693378213343749 -39.842908967952098 0 0 0 0 393.73558910932297 -201.33648915872652 0 -201.33648915872652 -184.00350836726102 0 0 0 0 173.77652307832614 212.04938354200749 0 212.04938354200749 -356.87943741341383 0 0 0 0 91.87272585815748 35.049531152861249 0 35.049531152861249 7.6354820851624687 0 0 0 0 555.5609633441054 491.74182436360934 0 491.74182436360934 -452.37536836541676 0 0 0 0 30.606591958538047 -10.006438454031013 0 -10.006438454031013 13.946337642594699 0 0 0 0 122.14769988736225 -110.81282186550652 0 -110.81282186550652 13.034255959559232 0 0 0 0 200.68215635990782 38.313090775500768 0 38.313090775500768 -116.66761566110381 0 0 0 0 -236.98027472949616 246.88127197288395 0 246.88127197288395 -46.503860212218569 0 0 0 0 90.681361980764223 37.036855391974996 0 37.036855391974996 8.5507827495799287 0 0 0 0 -181.98903130382678 -44.761933929210045 0 -44.761933929210045 -11.642037995321516 0 0 0 0 -338.89748010973562 214.0304725796027 0 214.0304725796027 501.39958120027586 0 0 0 0 -110.50554979525623 -214.23559431151807 0 -214.23559431151807 368.73199547587137 0 0 0 0 626.34282051732589 8.0664850864586697 0 8.0664850864586697 -181.93322575390266 0 0 0 0 13.951675360650199 0.75511622249500476 0 0.75511622249500476 -2.3096823701765938 0 0 0 0 199.76530269678915 -38.12139754268901 0 -38.12139754268901 -577.23098841120918 0 0 0 0 15.180426663128344 4.7069789222964857 0 4.7069789222964857 -1.2812550482289566 0 0 0 0 -2.2922205980285071 93.29127449209409 0 93.29127449209409 -184.55845199222722 0 0 0 0 295.32186895306222 -12.274830807425133 0 -12.274830807425133 -23.931772991145408 0 0 0 0 7.2962965961690145 -0.042003696097793863 0 -0.042003696097793863 1.4949067366321387 0 0 0 0 305.18225558334962 59.386557632366021 0 59.386557632366021 1.4440662195847835 0 0 0 0 -33.383648807634017 68.721931780847626 0 68.721931780847626 -14.591600083120284 0 0 0 0 -38.800635995121411 99.271255475063981 0 99.271255475063981 -105.86944358045002 0 0 0 0 197.07221416625907 -71.317382418798161 0 -71.317382418798161 -6.3065030239449698 0 0 0 0 194.65269795788845 10.153486850707452 0 10.153486850707452 -38.730366697309364 0 0 0 0 276.02667431463487 18.868158064708041 0 18.868158064708041 -18.092639361639158 0 0 0 0 294.4749881142634 70.195167370460695 0 70.195167370460695 8.3575590130567434 0 0 0 0 258.79314118018374 54.277848163714225 0 54.277848163714225 4.9851872267281578 0 0 0 0 241.61326256254688 84.317329953568333 0 84.317329953568333 25.992700282949954 0 0 0 0 247.19514600100229 85.354044802817953 0 85.354044802817953 14.431386316675344 0 0 0 0 192.0790851241909 96.111554615075875 0 96.111554615075875 19.003367236116901 0 0 0 0 187.43996325519402 93.079785486181208 0 93.079785486181208 17.382739697040961 0 0 0 0 168.95116372872144 59.277912595145608 0 59.277912595145608 4.0842161443033547 0 0 0 0 234.60378082981333 51.413808000856079 0 51.413808000856079 7.832678957394819 0 0 0 0 236.67996817384847 51.348498718951305 0 51.348498718951305 4.59199962526327 0 0 0 0 240.72356108995155 130.35777966150272 0 130.35777966150272 23.876055046021065 0 0 0 0 193.07216384980711 149.22993131452495 0 149.22993131452495 31.027750478802773 0 0 0 0 146.02095945156179 155.67660473562864 0 155.67660473562864 37.751951181402546 0 0 0 0 62.153639837575042 35.632785990701962 0 35.632785990701962 17.884430577168537 0 0 0 0 121.19842389971018 69.223547888068424 0 69.223547888068424 -9.1650035134152859 0 0 0 0 110.684529258986 144.78426587421563 0 144.78426587421563 44.088944856024682 0 0 0 0 202.08182667911751 -5.6158089801174356 0 -5.6158089801174356 -22.211138189351914 0 0 0 0 149.10846081550699 49.801776726184471 0 49.801776726184471 -27.280596073942434 0 0 0 0 178.81144023989327 65.731282999000541 0 65.731282999000541 -18.740006769017782 0 0 0 0 151.24434096249752 96.927129636598693 0 96.927129636598693 23.269862880719302 0 0 0 0 100.69034513831139 68.781791580549907 0 68.781791580549907 7.6262547492224257 0 0 0 0 18.301562904962339 106.15678688264597 0 106.15678688264597 -43.269467366053505 0 0 0 0 18.38049135786099 1.7645867161561455 0 1.7645867161561455 -7.2096782016819816 0 0 0 0 83.28724443342071 24.229030572580086 0 24.229030572580086 4.7854978636714804 0 0 0 0 128.7201543096744 61.555574426791281 0 61.555574426791281 -67.486704823328182 0 0 0 0 42.95662914687108 17.592933233069164 0 17.592933233069164 -2.0715905101579857 0 0 0 0 27.557245369273005 29.291700676201799 0 29.291700676201799 -27.747035492073337 0 0 0 0 37.958226825860038 41.374585210870919 0 41.374585210870919 20.108895974368352 0 0 0 0 67.400125769985607 14.356145865271628 0 14.356145865271628 3.0540391796043878 0 0 0 0 55.332004816739129 20.47863349623546 0 20.47863349623546 0.25624112131036725 0 0 0 0 49.531419097780599 32.458197109946923 0 32.458197109946923 18.870274005477768 0 0 0 0 63.255956603476079 33.490907016435813 0 33.490907016435813 12.643538762818025 0 0 0 0 40.986809475955965 34.691279403089091 0 34.691279403089091 16.655219004195249 0 0 0 0 63.888720105564346 0.52734402583618589 0 0.52734402583618589 -4.9801746930961777 0 0 0 0 27.841210304613924 16.203534482126997 0 16.203534482126997 5.0996806828857189 0 0 0 0 91.335115462017711 -13.535022726226998 0 -13.535022726226998 5.6549923148268135 0 0 0 0 26.927058036143606 18.899386767732764 0 18.899386767732764 10.794619319177727 0 0 0 0 66.271911619259413 13.260595403187267 0 13.260595403187267 -0.46918431429097041 0 0 0 0 46.925477972359744 7.5116568268959441 0 7.5116568268959441 -1.2345517509979906 0 0 0 0 42.94582067077863 15.080979145162473 0 15.080979145162473 -10.411630702841649 0 0 0 0 53.256596163549773 18.077813059110223 0 18.077813059110223 4.685077528266298 0 0 0 0 66.282550036790781 2.6824527139251586 0 2.6824527139251586 20.927655186023912 0 0 0 0 126.80671999859624 -48.41555937999874 0 -48.41555937999874 29.207450611567765 0 0 0 0 -386.70105233535287 331.8476775040117 0 331.8476775040117 4.0634207832374898 0 0 0 0 -302.08429959503701 161.86329097303587 0 161.86329097303587 21.415728832603236 0 0 0 0 126.89766048639831 92.467508851788295 0 92.467508851788295 -79.205499037823756 0 0 0 0 -2.5992286237441249 1.5427511425300793 0 1.5427511425300793 -7.9879966858601392 0 0 0 0 72.089878035098081 145.39305992487971 0 145.39305992487971 -38.222056834203272 0 0 0 0 112.16590868058847 71.342625170127576 0 71.342625170127576 2.4046261392177257 0 0 0 0 127.75768826674903 45.122577266485678 0 45.122577266485678 7.9101127213580185 0 0 0 0 133.57116167375352 59.503626730092947 0 59.503626730092947 -30.974848483674123 0 0 0 0 255.44539507431909 115.39399123119074 0 115.39399123119074 37.906655493221479 0 0 0 0 124.04868963756599 91.971133518976785 0 91.971133518976785 43.191911810004967 0 0 0 0 17.208500970302396 20.23184587636797 0 20.23184587636797 -13.563875272708017 0 0 0 0 111.47050992344157 48.049644193706627 0 48.049644193706627 49.082378935912857 0 0 0 0 263.45254054060206 109.23047094378444 0 109.23047094378444 123.70772651508742 0 0 0 0 107.76699444575934 74.224399855689626 0 74.224399855689626 69.859114106875495 0 0 0 0 107.43538340834039 63.767920034463486 0 63.767920034463486 34.063246597237594 0 0 0 0 126.33299571465614 87.519801144670964 0 87.519801144670964 33.499996711041604 0 0 0 0 301.61774404415337 89.786788086588786 0 89.786788086588786 27.587025819018891 0 0 0 0 265.31424744353717 94.527079602382855 0 94.527079602382855 78.812245983179309 0 0 0 0 294.82360287458869 105.0525718858953 0 105.0525718858953 51.025842013623333 0 0 0 0 283.77641073179257 110.25852189408579 0 110.25852189408579 83.131763714700355 0 0 0 0 286.75850442309456 95.153004962232444 0 95.153004962232444 34.841373792718514 0 0 0 0 257.74181676842272 80.671133095536788 0 80.671133095536788 26.265640252822777 0 0 0 0 261.81892516749213 86.04514783166087 0 86.04514783166087 29.752303541390575 0 0 0 0 290.65849045524374 96.036257909086999 0 96.036257909086999 33.053530121549556 0 0 0 0 -202.23021583163063 149.24428286649891 0 149.24428286649891 108.32908242344456 0 0 0 0 262.4654126901296 2.7773535153592093 0 2.7773535153592093 37.264682471968626 0 0 0 0 -125.20362269682664 251.47678978836984 0 251.47678978836984 7.3051400833646767 0 0 0 0 -55.596936133893905 203.89114291014812 0 203.89114291014812 -13.343647613106441 0 0 0 0 75.71295185519557 150.34619443717565 0 150.34619443717565 -142.9630513308748 0 0 0 0 -41.705881259127636 238.17379562464976 0 238.17379562464976 -208.64396922046581 0 0 0 0 28.425687608447333 3.1834659116520925 0 3.1834659116520925 -325.02543147900542 0 0 0 0 264.9117499035201 181.46616987622474 0 181.46616987622474 -264.32363407934918 0 0 0 0 211.51316893032345 120.89423703988359 0 120.89423703988359 -108.15279442069004 0 0 0 0 345.22547842064523 258.88945073189007 0 258.88945073189007 -5.1212300462625535 0 0 0 0 290.19409119779448 313.84492239596875 0 313.84492239596875 -208.0952319319731 0 0 0 0 -140.94625443452969 619.14685525874665 0 619.14685525874665 -288.37828347687901 0 0 0 0 456.47447033749631 390.3395812942025 0 390.3395812942025 -457.45874130951233 0 0 0 0 429.68126347183193 -151.36008449557346 0 -151.36008449557346 507.75182499674975 0 0 0 0 365.44609436586325 113.03400239727125 0 113.03400239727125 493.677172362899 0 0 0 0 2.53850682547926 3.6586021563965403 0 3.6586021563965403 6.0554402646007528 0 0 0 0 256.21638080851699 281.43673043537228 0 281.43673043537228 -54.434188862172959 0 0 0 0 259.51293690217426 310.80036173995404 0 310.80036173995404 189.99610709637454 0 0 0 0 125.12939696092508 163.92918291666138 0 163.92918291666138 -152.58931735227543 0 0 0 0 -138.34383479339886 292.39176714491646 0 292.39176714491646 -3.2838970725010768 0 0 0 0 -323.85701181152399 -127.50698981021503 0 -127.50698981021503 906.74596722202659 0 0 0 0 -9.0173938537482172 155.83837440073273 0 155.83837440073273 113.77161288702109 0 0 0 0 -30.135718081844971 47.422107261828614 0 47.422107261828614 157.2500507434147 0 0 0 0 -0.60291672562863141 13.636451717774307 0 13.636451717774307 17.711756074790497 0 0 0 0 -106.41914901963901 123.19458295808045 0 123.19458295808045 3.7461675239865144 0 0 0 0 -151.82647126387747 70.120043469435473 0 70.120043469435473 117.7455913503527 0 0 0 0 25.054912736079132 -66.731764495887546 0 -66.731764495887546 -43.306010553252236 0 0 0 0 -24.734391281366698 -55.663089485047294 0 -55.663089485047294 124.69428629707181 0 0 0 0 -90.548331182726542 20.965269816570071 0 20.965269816570071 64.092441047138891 0 0 0 0 -67.839284967747517 11.772682668817197 0 11.772682668817197 23.446418062987505 0 0 0 0 18.414511139359178 8.3972405308044529 0 8.3972405308044529 3.6851899439808236 0 0 0 0 51.116748912434559 16.36632048937463 0 16.36632048937463 24.965253896252761 0 0 0 0 5.8545965962402988 67.46277585994585 0 67.46277585994585 81.469697270993493 0 0 0 0 27.755800595451262 4.0249892602757456 0 4.0249892602757456 11.241381731142166 0 0 0 0 97.384335176480818 12.534249672641408 0 12.534249672641408 62.93726221558245 0 0 0 0 40.532236915536032 1.1937395156902042 0 1.1937395156902042 1.6836434064069732 0 0 0 0 -4.6031631200894481 -70.34000952405205 0 -70.34000952405205 12.819483855756289 0 0 0 0 47.825377872106003 -9.3845511144556255 0 -9.3845511144556255 3.0034011724311598 0 0 0 0 39.588160598999821 9.9824488272632141 0 9.9824488272632141 2.153465473354041 0 0 0 0 10.008253405472658 3.2209895407876985 0 3.2209895407876985 0.081961526044301625 0 0 0 0 138.29386764788069 -10.979575898119947 0 -10.979575898119947 -53.739697936802784 0 0 0 0 40.54780475008738 -0.60904065834331722 0 -0.60904065834331722 0.016905167094077373 0 0 0 0 22.289843903170549 14.165747421102001 0 14.165747421102001 2.1217135163306606 0 0 0 0 66.425563189535751 15.1617260190169 0 15.1617260190169 10.454174084082444 0 0 0 0 53.783176525394083 0.12993479677803146 0 0.12993479677803146 -3.4739763754158819 0 0 0 0 271.63188136249664 -121.58951119787572 0 -121.58951119787572 -103.08598112364859 0 0 0 0 38.385687451936917 -4.669779621819977 0 -4.669779621819977 -0.45473883960151684 0 0 0 0 426.65271375059092 -144.9117711647404 0 -144.9117711647404 -280.13315568300766 0 0 0 0 -157.82566161580326 202.5975078936707 0 202.5975078936707 114.69281621094831 0 0 0 0 0.83865648725441133 -0.73988292522729182 0 -0.73988292522729182 0.44111838342590037 0 0 0 0 4.6454013867478352 -1.8588246170054175 0 -1.8588246170054175 0.00016206058363017213 0 0 0 0 -93.174142136984301 -50.468175719370493 0 -50.468175719370493 258.91446093044669 0 0 0 0 -32.171225129102822 -88.601783251819143 0 -88.601783251819143 58.1145565443544 0 0 0 0 125.54423084390874 -89.752640623122943 0 -89.752640623122943 570.29470236778388 0 0 0 0 69.546382139393245 165.09270583107673 0 165.09270583107673 71.39621752952462 0 0 0 0 313.91436004978095 390.273482693765 0 390.273482693765 526.95833118608289 0 0 0 0 185.54381901603483 60.304599919972588 0 60.304599919972588 84.389424454972868 0 0 0 0 173.45636486777221 156.27526609846768 0 156.27526609846768 173.2577090217801 0 0 0 0 517.85474756436633 240.38067193628831 0 240.38067193628831 -8.542005143204733 0 0 0 0 488.78258329236996 114.86152157299102 0 114.86152157299102 41.639569723114164 0 0 0 0 809.19038420630386 413.82910392670351 0 413.82910392670351 80.399158676467778 0 0 0 0 127.9973675423098 120.45983654787915 0 120.45983654787915 70.309951468647796 0 0 0 0 233.20816118401126 -164.41300956776377 0 -164.41300956776377 26.018339764588745 0 0 0 0 860.13051427114988 83.695404763524039 0 83.695404763524039 -115.15769680579297 0 0 0 0 431.89944869713509 -306.56983532401864 0 -306.56983532401864 110.03922755181179 0 0 0 0 11.2905467262363 2.4108609075052314 0 2.4108609075052314 0.0053197458597229463 0 0 0 0 575.03027607309923 752.57625323505681 0 752.57625323505681 672.15349764531902 0 0 0 0 718.86948282578669 802.30669737211247 0 802.30669737211247 389.27458655681954 0 0 0 0 16.016812982903161 0.21153501909549988 0 0.21153501909549988 -0.13142514005619568 0 0 0 0 -40.874398879124783 -12.696529417391771 0 -12.696529417391771 -0.03595331092377152 0 0 0 0 860.37355436604412 923.16659418734446 0 923.16659418734446 473.93632754468098 0 0 0 0 -41.541791263211053 -12.112530780125534 0 -12.112530780125534 0.014943010635296969 0 0 0 0 16.812071422864392 -22.450880016672095 0 -22.450880016672095 11.778377385759976 0 0 0 0 1518.2861444004811 617.38063280493179 0 617.38063280493179 -51.437340958835193 0 0 0 0 -3.5149034338140837 -2.9738997302653729 0 -2.9738997302653729 -1.2438995272844957 0 0 0 0 745.22969905417995 -1401.0986318057739 0 -1401.0986318057739 17.617390817673559 0 0 0 0 99.919075310055632 284.4537323361742 0 284.4537323361742 68.741281237330895 0 0 0 0 148.61021918253391 329.0793948797882 0 329.0793948797882 311.54476750496406 0 0 0 0 372.28023983769526 -191.78935655909754 0 -191.78935655909754 -40.388749377879776 0 0 0 0 52.046112066032947 -19.891791517858564 0 -19.891791517858564 -40.377056343125332 0 0 0 0 20.720678635145305 23.639891509180416 0 23.639891509180416 -51.766887957686549 0 0 0 0 27.550957131916334 0.1199592616146461 0 0.1199592616146461 -3.7369257728156722 0 0 0 0 -1.2786546584822531 -10.852721781330047 0 -10.852721781330047 -7.7252268830925974 0 0 0 0 15.961526686817706 9.710309382268548 0 9.710309382268548 -0.42334813892193779 0 0 0 0 -31.285745686473092 18.538697761006915 0 18.538697761006915 54.878513378963362 0 0 0 0 -9.8738598573254421 7.9782025853101004 0 7.9782025853101004 0.29982886411175969 0 0 0 0 31.974603076261701 80.957300453552079 0 80.957300453552079 70.419123467358077 0 0 0 0 25.363094156084117 58.976903573142408 0 58.976903573142408 -2.5123386859104357 0 0 0 0 117.79734250060574 -109.09140711058581 0 -109.09140711058581 -9.4221786945595341 0 0 0 0 87.797419256545254 -59.558912605671594 0 -59.558912605671594 -90.69401572111974 0 0 0 0 2.3694812505564187 -17.07467551290938 0 -17.07467551290938 137.18352772558774 0 0 0 0 -0.20232084209055756 1.2802681100629343 0 1.2802681100629343 9.1351099243256613 0 0 0 0 -53.396584821108263 9.9740927142547662 0 9.9740927142547662 11.369221397462752 0 0 0 0 -7.037099783483427 -20.618763195616339 0 -20.618763195616339 -22.042162635370914 0 0 0 0 -49.612636133912019 -30.914070522385373 0 -30.914070522385373 5.3352658655742289 0 0 0 0 -24.667608989926521 -0.91132035655482468 0 -0.91132035655482468 7.9693624124320195 0 0 0 0 -70.314930395863485 -49.50375577468003 0 -49.50375577468003 -10.775788700324483 0 0 0 0 0.1681453880155459 -70.868717126475531 0 -70.868717126475531 -137.4863813824777 0 0 0 0 2.7611634289719404 -1.5991866695430588 0 -1.5991866695430588 -1.617116546172948 0 0 0 0 -2.5493137296289206 -20.562624452892123 0 -20.562624452892123 -40.314782461446157 0 0 0 0 6.3269366071981494 8.9840173164038788 0 8.9840173164038788 -47.099255278630153 0 0 0 0 8.3892747379359207 16.726733907971607 0 16.726733907971607 -28.330093899741769 0 0 0 0 90.964397451840341 7.7584408679431363 0 7.7584408679431363 -49.153178165744976 0 0 0 0 31.190786485472927 34.702176796288768 0 34.702176796288768 -45.400327547331472 0 0 0 0 30.000429449486546 30.571486410492753 0 30.571486410492753 -47.752552683392423 0 0 0 0 62.995174869269249 -20.322813463362763 0 -20.322813463362763 -52.439801291711774 0 0 0 0 63.872876343688404 -26.152562243914417 0 -26.152562243914417 -39.779231757207526 0 0 0 0 -4.2656963967601769 -43.258351792347639 0 -43.258351792347639 -83.951324126437157 0 0 0 0 47.975313571238075 -23.429261934967144 0 -23.429261934967144 -50.881932727268577 0 0 0 0 13.44731025327161 -3.5786548219283389 0 -3.5786548219283389 -0.34167676903045496 0 0 0 0 5.8885556465752416 -0.82633240523114893 0 -0.82633240523114893 0.19795047074990535 0 0 0 0 626.53042807725433 243.42094521035688 0 243.42094521035688 11.67337335276261 0 0 0 0 692.14443044966902 109.10520844403618 0 109.10520844403618 74.020467468497372 0 0 0 0 34.837736145898816 -174.09888221742222 0 -174.09888221742222 248.7467266539702 0 0 0 0 296.03205805322796 -155.16976949801119 0 -155.16976949801119 -243.50335898601952 0 0 0 0 329.42623268102761 -335.16244539325817 0 -335.16244539325817 8.888461005202771 0 0 0 0 556.85532041851548 50.048501144234706 0 50.048501144234706 -186.87050848546096 0 0 0 0 154.96559503655953 -41.441220053398183 0 -41.441220053398183 -207.28258232488224 0 0 0 0 58.4322650032409 89.684925571454187 0 89.684925571454187 -338.86564928238749 0 0 0 0 88.777141824870341 -354.68817395347901 0 -354.68817395347901 -393.20492791929792 0 0 0 0 6.7634338919627908 1.2643546275405768 0 1.2643546275405768 -1.1440124432511283 0 0 0 0 93.964172612832044 94.636627879045591 0 94.636627879045591 196.73971234466205 0 0 0 0 0.73105434811441228 -39.030830802977562 0 -39.030830802977562 33.010717130498961 0 0 0 0 19.04292040913424 64.069627811854843 0 64.069627811854843 26.563266719997046 0 0 0 0 148.6295631595076 37.515237654117186 0 37.515237654117186 -55.94413695932235 0 0 0 0 138.47840533647104 -52.439332105652284 0 -52.439332105652284 -32.555652130673025 0 0 0 0 358.90559319942258 13.263601543227196 0 13.263601543227196 -46.585811044200454 0 0 0 0 24.166907779908797 -5.2256309064107427 0 -5.2256309064107427 -14.096700906996375 0 0 0 0 17.51775527395796 -11.958416457789838 0 -11.958416457789838 -9.943063612714635 0 0 0 0 20.139875950582791 -4.3952963830779481 0 -4.3952963830779481 -12.932110654462122 0 0 0 0 7.5744603412627924 -3.5332849064359095 0 -3.5332849064359095 -9.5503315871105983 0 0 0 0 -80.363182494213106 25.506930335609468 0 25.506930335609468 20.795196960144494 0 0 0 0 -177.07995607389603 52.716913533145998 0 52.716913533145998 20.462325490909279 0 0 0 0 27.386434160071076 4.8944204144581818 0 4.8944204144581818 -3.6273276126230485 0 0 0 0 -40.619258730235742 -15.309569157443548 0 -15.309569157443548 -60.312285383378594 0 0 0 0 6.0109750686123959 -7.1956919993716326 0 -7.1956919993716326 -8.752856741122784 0 0 0 0 -33.410851795168128 15.314123504119834 0 15.314123504119834 -44.384234573992217 0 0 0 0 16.174734567837731 -2.0659892249760787 0 -2.0659892249760787 -12.499403520409032 0 0 0 0 14.38102871432784 -16.033462824460003 0 -16.033462824460003 -14.965740831727089 0 0 0 0 30.166690164274769 -10.748476907308941 0 -10.748476907308941 -12.868709770224541 0 0 0 0 34.34008969127899 -27.134079029627173 0 -27.134079029627173 -24.330708777770496 0 0 0 0 25.834186019146671 -17.79839672015234 0 -17.79839672015234 -20.055853210925584 0 0 0 0 42.853221000390477 -17.915833960779196 0 -17.915833960779196 -16.920521579880187 0 0 0 0 44.217526151427592 -19.961987692835351 0 -19.961987692835351 -14.577908391937854 0 0 0 0 315.88436472236936 205.56204542057134 0 205.56204542057134 -6.4844972528693461 0 0 0 0 34.632967786839686 -3.0949233970179222 0 -3.0949233970179222 -16.839767224235441 0 0 0 0 40.578599765285617 -17.232096021472671 0 -17.232096021472671 -17.125171992771243 0 0 0 0 -188.960145285404 -423.36765557210583 0 -423.36765557210583 818.29551037052317 0 0 0 0 46.824558886772138 -7.2490693248053049 0 -7.2490693248053049 -13.317285358506993 0 0 0 0 39.342223565588938 -552.94523924417103 0 -552.94523924417103 384.05132568152101 0 0 0 0 18.506561540416442 -44.317670574450887 0 -44.317670574450887 -91.427047155690275 0 0 0 0 164.22791830473579 -77.874723899606238 0 -77.874723899606238 -84.558611917934428 0 0 0 0 8.6066748335360614 0.89709902246428896 0 0.89709902246428896 -5.0430600444743376 0 0 0 0 2612.7828027244832 -1797.8505506122488 0 -1797.8505506122488 508.20845706274679 0 0 0 0 1351.7994393918343 -301.32151286132671 0 -301.32151286132671 -346.4013295347421 0 0 0 0 1161.1040358940081 -723.60743719944412 0 -723.60743719944412 -65.704131866848797 0 0 0 0 2942.3663276984589 -685.81521174072441 0 -685.81521174072441 -419.34514606746609 0 0 0 0 364.65156005934114 -88.345856451188752 0 -88.345856451188752 -91.500836672224068 0 0 0 0 120.70801708259387 33.674126419063214 0 33.674126419063214 -7.2756090389325436 0 0 0 0 117.29603724094341 10.790812536336034 0 10.790812536336034 0.69250060781860157 0 0 0 0 375.45929946402612 -34.589808432714619 0 -34.589808432714619 -7.7738977646913554 0 0 0 0 471.57199749982101 -167.67737776261242 0 -167.67737776261242 77.145198026612206 0 0 0 0 370.88467882297118 71.384139031546511 0 71.384139031546511 -0.73916218409340217 0 0 0 0 156.76455989241367 115.62918464241511 0 115.62918464241511 110.12525793192481 0 0 0 0 14.258769778069109 -2.805912050338975 0 -2.805912050338975 -10.517537960873369 0 0 0 0 2.2408814916493327 -1.6712749756454741 0 -1.6712749756454741 -13.974732236318189 0 0 0 0 -135.87651122774696 24.205465246234326 0 24.205465246234326 61.494037425893112 0 0 0 0 45.151929719606414 110.65024965778593 0 110.65024965778593 77.501586909518664 0 0 0 0 -2.4804471611278132 70.497141716956776 0 70.497141716956776 110.64316439495724 0 0 0 0 -98.811211169115268 57.775808667792035 0 57.775808667792035 109.1324043895338 0 0 0 0 120.07392210038961 26.583293366260477 0 26.583293366260477 47.740553935549542 0 0 0 0 -40.884118977934122 -1.8745275504495851 0 -1.8745275504495851 -73.690705688029084 0 0 0 0 -97.551193942520513 -8.9054689060034917 0 -8.9054689060034917 19.605404108474886 0 0 0 0 51.700360870803706 71.206575133945535 0 71.206575133945535 68.84505279264431 0 0 0 0 15.589728006423684 13.066142635984193 0 13.066142635984193 20.967311397533194 0 0 0 0 -23.817533718131017 38.647835471641883 0 38.647835471641883 21.073727428449253 0 0 0 0 65.681501568615204 -11.180576502044914 0 -11.180576502044914 -23.708027430013317 0 0 0 0 12.17817847977858 20.66023583913011 0 20.66023583913011 -153.32543059624663 0 0 0 0 4.3106303550873832 -7.4220954647933866 0 -7.4220954647933866 -15.502765390925148 0 0 0 0 -18.551389811560512 38.943815069433981 0 38.943815069433981 -32.861854345456067 0 0 0 0 20.825799030710186 -4.6498058648946881 0 -4.6498058648946881 -13.160379792039748 0 0 0 0 -5.8907273891818477 60.363564915241028 0 60.363564915241028 -129.42767342914726 0 0 0 0 21.50876742269611 -5.4634991000962145 0 -5.4634991000962145 -13.458730019214045 0 0 0 0 6.2233837013135656 -3.527110517336979 0 -3.527110517336979 -5.0086932961326438 0 0 0 0 12.422876491428326 -4.4916178394862243 0 -4.4916178394862243 -15.012605720197969 0 0 0 0 11.014401923004897 -6.6223636033324738 0 -6.6223636033324738 -10.28029698287208 0 0 0 0 18.802459719946285 -1.7048182116428308 0 -1.7048182116428308 -10.141372443238811 0 0 0 0 31.654531291453168 -3.1356517924049285 0 -3.1356517924049285 -17.166931586453757 0 0 0 0 1.7910428901082582 -2.4691292239751874 0 -2.4691292239751874 -2.1842074436907666 0 0 0 0 -36.790704198618187 27.157711622896386 0 27.157711622896386 -30.671771371998148 0 0 0 0 -69.150060567480978 38.280018632644442 0 38.280018632644442 -16.767179323376695 0 0 0 0 -24.810247509798501 -22.199464713487941 0 -22.199464713487941 -0.96883941940905061 0 0 0 0 54.913161034608493 -59.087625186594778 0 -59.087625186594778 -87.315613501536518 0 0 0 0 -27.609993104095338 64.15882457731459 0 64.15882457731459 -47.260181065885945 0 0 0 0 4.7025596890414931 -1.9926035230686523 0 -1.9926035230686523 -15.886551761756898 0 0 0 0 7.1155552747513866 -4.1651857447800467 0 -4.1651857447800467 -8.4949419870758902 0 0 0 0 6.8437585922585527 -2.2610953720069915 0 -2.2610953720069915 -5.3456814413283222 0 0 0 0 4.1760745525281919 -3.6514286261853499 0 -3.6514286261853499 -7.3718903955393458 0 0 0 0 8.9435688271478284 -18.183041897568728 0 -18.183041897568728 -36.105576917751023 0 0 0 0 9.9155096259339643 0.1268893877071946 0 0.1268893877071946 -5.382803588785638 0 0 0 0 260.45445648605528 8.8301575918236441 0 8.8301575918236441 0.3164187325499081 0 0 0 0 3.2123404790181667 3.7057723383950361 0 3.7057723383950361 -21.651086372379723 0 0 0 0 14.29681383993011 -3.0606605193565883 0 -3.0606605193565883 -9.6503359110047313 0 0 0 0 221.11497755447635 40.519305593658828 0 40.519305593658828 -78.457231738394967 0 0 0 0 190.07626848370637 96.713517869318167 0 96.713517869318167 -138.95610422738173 0 0 0 0 -109.85900505076279 208.41218296779471 0 208.41218296779471 -25.383082724498308 0 0 0 0 122.64652200363344 146.62206021368638 0 146.62206021368638 -159.81565623679398 0 0 0 0 -437.95039522578008 0.88858858165076526 0 0.88858858165076526 -79.672242227627294 0 0 0 0 -223.68065124854911 -153.98231069352187 0 -153.98231069352187 -134.2797525536007 0 0 0 0 3.4095633349328693 -1.8538961014811264 0 -1.8538961014811264 -8.273457019110138 0 0 0 0 0.97826230753994992 0.20828165455759517 0 0.20828165455759517 -1.1777192933607781 0 0 0 0 -51.050483647049987 -31.458268137202822 0 -31.458268137202822 -14.370431099053349 0 0 0 0 -1.46857260851354 -0.3931093323112691 0 -0.3931093323112691 -1.7970019531030754 0 0 0 0 11.22423205699306 -1.1808422653048183 0 -1.1808422653048183 -4.8346843490944593 0 0 0 0 3.9313520798813215 -6.584437566581812 0 -6.584437566581812 -11.001448189274742 0 0 0 0 -14.390760615235195 -6.2934414702749564 0 -6.2934414702749564 -21.992086358892266 0 0 0 0 -1.3101419490727153 -1.7993204167583627 0 -1.7993204167583627 0.043186880592320787 0 0 0 0 4.3613424436189234 -3.4443217176649341 0 -3.4443217176649341 -3.1268069732304866 0 0 0 0 5.5621618475618106 -5.5439525269570709 0 -5.5439525269570709 -10.89521452068942 0 0 0 0 3.3605765730063126 -9.8882243701851849 0 -9.8882243701851849 -5.9104556630895448 0 0 0 0 -22.110845350776799 -44.946554494027396 0 -44.946554494027396 -52.238000558662407 0 0 0 0 -28.478868772042915 -0.051189893990340352 0 -0.051189893990340352 -13.275184606689436 0 0 0 0 -318.8953104292159 23.094286086170541 0 23.094286086170541 54.245037371657872 0 0 0 0 7.2537683991548079 -11.056683802494575 0 -11.056683802494575 -6.843808401688241 0 0 0 0 -104.81469366875535 -98.493522751196906 0 -98.493522751196906 147.05077777866816 0 0 0 0 -201.38071007336839 55.088300673989011 0 55.088300673989011 -95.217552083743158 0 0 0 0 -58.601910727185896 -230.1902256686738 0 -230.1902256686738 57.497287355838125 0 0 0 0 366.86863749305485 218.15761706599505 0 218.15761706599505 -176.25969971917107 0 0 0 0 14.318135980291117 -10.830925063113227 0 -10.830925063113227 -3.2581070989879208 0 0 0 0 9.0011491252225824 -2.1507117749188183 0 -2.1507117749188183 -4.060689502135574 0 0 0 0 -1.7814673785396735 -16.618708248714711 0 -16.618708248714711 -23.383278833935037 0 0 0 0 5.7344255362590957 -3.4270869811100226 0 -3.4270869811100226 -10.303460202501819 0 0 0 0 11.158384854148608 -15.719774025280458 0 -15.719774025280458 -24.402842116280567 0 0 0 0 15.11523977700017 -7.6505539509437313 0 -7.6505539509437313 -3.7088315868713835 0 0 0 0 7.927252617665431 -3.6388812834607904 0 -3.6388812834607904 -5.1096379218061347 0 0 0 0 15.618813144239539 -9.2308503826892547 0 -9.2308503826892547 -8.2645917395050219 0 0 0 0 14.814290932677977 -16.409324407058712 0 -16.409324407058712 13.235897305924043 0 0 0 0 12.522427717541689 -7.6684703179471647 0 -7.6684703179471647 -1.4503826547145817 0 0 0 0 20.467835774703417 -7.4320718680150648 0 -7.4320718680150648 6.5493042954761158 0 0 0 0 29.22063960500293 -2.8345046353311076 0 -2.8345046353311076 -2.4500092470200054 0 0 0 0 47.57071092769911 5.0689925388928856 0 5.0689925388928856 -266.15222529983259 0 0 0 0 29.971280278139602 0.86678582892786515 0 0.86678582892786515 -53.059032921837058 0 0 0 0 6.082660200379749 -2.2348139284827084 0 -2.2348139284827084 -1.2659515877788492 0 0 0 0 934.5857592842367 -43.614766265934108 0 -43.614766265934108 -91.220926223151039 0 0 0 0 3760.5625895824633 -1276.2176275554029 0 -1276.2176275554029 -271.1836929842741 0 0 0 0 139.97158879402559 -226.87539354658099 0 -226.87539354658099 132.41060561101813 0 0 0 0 188.1837727164384 663.05761177143233 0 663.05761177143233 744.82436582242394 0 0 0 0 13.342781862841548 0.65934894625788587 0 0.65934894625788587 -0.32788607635889622 0 0 0 0 3644.4450224003085 770.28562338379186 0 770.28562338379186 -437.03110324135673 0 0 0 0 2032.159890854382 1357.131640540681 0 1357.131640540681 492.22243284188312 0 0 0 0 2132.8865477427898 56.298009912897669 0 56.298009912897669 -82.862476140359377 0 0 0 0 2147.1623839402164 81.220973456546517 0 81.220973456546517 -327.22493219676949 0 0 0 0 1232.8960508902674 210.94989294940433 0 210.94989294940433 -58.439604124318549 0 0 0 0 329.99129443065613 169.89369669333792 0 169.89369669333792 279.02838745241149 0 0 0 0 1172.1113037042669 -36.669575235182947 0 -36.669575235182947 -134.87667735771356 0 0 0 0 402.60038122220067 -16.344998270352647 0 -16.344998270352647 81.577217162782745 0 0 0 0 760.46335973775422 129.69197102497799 0 129.69197102497799 -179.08514009218834 0 0 0 0 878.02260394589393 -114.5515576835935 0 -114.5515576835935 -3.4101596916807466 0 0 0 0 1727.6123547942261 -325.75133608335955 0 -325.75133608335955 -146.16286636642133 0 0 0 0 197.73498421086697 -50.77600409471188 0 -50.77600409471188 166.80439565773258 0 0 0 0 412.22911408933578 -172.1905396212378 0 -172.1905396212378 -61.34957821626449 0 0 0 0 2698.174285898036 -677.06168331623655 0 -677.06168331623655 -222.57340106414836 0 0 0 0 1725.1329443385812 -301.15129415660783 0 -301.15129415660783 -249.25064249589036 0 0 0 0 3676.8839505678152 -190.73763987410371 0 -190.73763987410371 0.070176221809373884 0 0 0 0 4497.5495336336426 -422.40394032752329 0 -422.40394032752329 -442.1034736426497 0 0 0 0 4002.8293399158865 -364.51474305986596 0 -364.51474305986596 -539.64157308684446 0 0 0 0 3660.087909666523 -691.28068302294173 0 -691.28068302294173 -399.76698223023106 0 0 0 0 3219.9309592237623 -295.82315583922127 0 -295.82315583922127 -297.00099739124158 0 0 0 0 3671.1965602045839 -894.4329319046617 0 -894.4329319046617 178.25469556012092 0 0 0 0 3259.5582866555123 -127.32400764378791 0 -127.32400764378791 691.80481762817999 0 0 0 0 4162.7973611149209 -235.37228402922608 0 -235.37228402922608 -105.19040956811986 0 0 0 0 4500.0685199132504 -713.3140564935693 0 -713.3140564935693 307.92984182211939 0 0 0 0 4298.5013746550248 -332.11947328727967 0 -332.11947328727967 -67.193286986384365 0 0 0 0 4144.0679915876826 -596.17443171817729 0 -596.17443171817729 -208.03451595691615 0 0 0 0 3024.78747636755 -867.67150630980984 0 -867.67150630980984 -324.18995927655061 0 0 0 0 3602.7429802123806 -322.19742834650606 0 -322.19742834650606 -226.29461041253339 0 0 0 0 4010.2930593146884 -885.34251179548926 0 -885.34251179548926 459.92362504374046 0 0 0 0 4680.4210269738978 -885.9287134021414 0 -885.9287134021414 209.53624905191776 0 0 0 0 4262.5605062040649 -664.80672885579895 0 -664.80672885579895 1256.7322949062586 0 0 0 0 4134.3829070129286 -1451.5963887970454 0 -1451.5963887970454 508.08351072239157 0 0 0 0 11.870193056169811 -5.4197661077204771 0 -5.4197661077204771 7.8594466371795342 0 0 0 0 5020.3417644743022 -1603.939542632977 0 -1603.939542632977 531.23775421133121 0 0 0 0 24.525594067626344 4.9605809603268796 0 4.9605809603268796 1.8615480371210689 0 0 0 0 735.48407178583147 1019.8723302844987 0 1019.8723302844987 1066.3284497712332 0 0 0 0 5368.0503762038279 -945.34514055625402 0 -945.34514055625402 214.54124593646287 0 0 0 0 2.0138812968460513 -0.90499084893416892 0 -0.90499084893416892 -0.5298178290239548 0 0 0 0 30.57313739622623 4.3058482980409281 0 4.3058482980409281 1.6566205213839567 0 0 0 0 -0.47402966765619681 -0.75828361463795346 0 -0.75828361463795346 0.20672707590173556 0 0 0 0 -34.0179686381598 -31.697637789096461 0 -31.697637789096461 -87.864390058221744 0 0 0 0 -225.87294596446736 -142.93571782728395 0 -142.93571782728395 -224.38113992080903 0 0 0 0 6.157753473653429 -24.696124055069504 0 -24.696124055069504 -259.14121946232081 0 0 0 0 -20.441536110272864 -424.68978420235453 0 -424.68978420235453 169.00378760411513 0 0 0 0 242.40881044088746 -251.80611979730475 0 -251.80611979730475 199.49095551450762 0 0 0 0 -0.15079598847995612 0.27223904913032548 0 0.27223904913032548 0.0097508987793718527 0 0 0 0 224.37675054742431 -117.88428396810195 0 -117.88428396810195 -2.3584124973626786 0 0 0 0 243.94517481378716 -196.28828357273278 0 -196.28828357273278 9.121771769669067 0 0 0 0 280.28453634702601 -344.09829910472945 0 -344.09829910472945 190.323097924178 0 0 0 0 116.45772662419768 -223.92189008042897 0 -223.92189008042897 78.223975154676509 0 0 0 0 -8.6851663267007098 -135.47692279256626 0 -135.47692279256626 98.138314638827978 0 0 0 0 5.2948795952543151 -124.07712341023534 0 -124.07712341023534 42.243423197952325 0 0 0 0 -26.523826014301449 -51.187367354157232 0 -51.187367354157232 11.137752615317368 0 0 0 0 -67.470555635751225 10.342233643898908 0 10.342233643898908 -48.256690452758676 0 0 0 0 56.162555677132332 -126.30579329685088 0 -126.30579329685088 -1.1579807855277977 0 0 0 0 -94.439165859585046 41.272017688052074 0 41.272017688052074 -11.346307183347562 0 0 0 0 17.214015930265305 -129.68155025123588 0 -129.68155025123588 -126.54452037800638 0 0 0 0 -5.2465374511084519 -10.67231060854192 0 -10.67231060854192 6.3742524164832446 0 0 0 0 0.39525705700239655 -0.93500831836738918 0 -0.93500831836738918 -0.02750310133065037 0 0 0 0 4.4953371468937746 -0.84200493767121287 0 -0.84200493767121287 -1.1658165187381151 0 0 0 0 -5.1014027523506229 -27.878698966414561 0 -27.878698966414561 -96.256230274502741 0 0 0 0 70.8950145572162 -29.257540871115452 0 -29.257540871115452 -257.19418122278603 0 0 0 0 -16.374175481119892 -61.867193126033726 0 -61.867193126033726 -124.5611890184241 0 0 0 0 4.3573641812500057 -0.75145073660809913 0 -0.75145073660809913 -0.49761092611425006 0 0 0 0 21.481879598170053 -6.845331539539302 0 -6.845331539539302 -17.661029041240909 0 0 0 0 -14.123209032111845 -51.963421025059546 0 -51.963421025059546 -116.70837073744997 0 0 0 0 -50.416017123483471 -72.089632791736676 0 -72.089632791736676 -49.584978804087768 0 0 0 0 -11.395583147299476 -15.461902973172755 0 -15.461902973172755 -83.207387639117314 0 0 0 0 -44.462886674926267 -88.843921782185589 0 -88.843921782185589 -4.5779762109568765 0 0 0 0 -29.815755861876823 -69.441489113361285 0 -69.441489113361285 -99.747625686195988 0 0 0 0 -66.128640600378276 -102.14664012175353 0 -102.14664012175353 -102.41455007548869 0 0 0 0 29.820109674219793 -20.206156531293573 0 -20.206156531293573 12.324431169210341 0 0 0 0 85.155326234464155 -31.939360362746584 0 -31.939360362746584 23.655708659704942 0 0 0 0 -58.403514268902654 -98.722202984571595 0 -98.722202984571595 -129.3875275294431 0 0 0 0 3.2085379688523972 -44.928563266041124 0 -44.928563266041124 -177.72883848379388 0 0 0 0 -51.342816152488012 -169.47863460264927 0 -169.47863460264927 -275.44562925493301 0 0 0 0 330.36534802510801 50.786979565264048 0 50.786979565264048 -88.038516613554748 0 0 0 0 332.06444818115415 95.880775231132588 0 95.880775231132588 22.214390957690284 0 0 0 0 19.669292214783525 -12.637401509648832 0 -12.637401509648832 6.1036077612800259 0 0 0 0 195.40955193457194 68.306113442515198 0 68.306113442515198 19.023067416629885 0 0 0 0 45.282843354028842 -30.344873706185595 0 -30.344873706185595 -5.4758272090878206 0 0 0 0 322.02239810059109 8.516035765229617 0 8.516035765229617 -22.432299967134895 0 0 0 0 193.79609093947511 -26.807835461131049 0 -26.807835461131049 -33.597358045780425 0 0 0 0 116.61976216019735 -43.558489374285386 0 -43.558489374285386 -9.5542410012156402 0 0 0 0 113.6114651258622 -10.361622798562259 0 -10.361622798562259 29.794955266094249 0 0 0 0 498.59273164952901 461.75488562830196 0 461.75488562830196 194.05538589497087 0 0 0 0 135.67361715511652 -48.811112675156892 0 -48.811112675156892 -125.09929104114667 0 0 0 0 252.96239252068335 192.76824855360104 0 192.76824855360104 -73.280103212631488 0 0 0 0 114.40136022470648 -28.219504206131433 0 -28.219504206131433 -16.001546019580015 0 0 0 0 122.10000240860245 -66.182279132316921 0 -66.182279132316921 -47.942837960185528 0 0 0 0 193.79938522222074 67.382187697344079 0 67.382187697344079 6.9159795809300704 0 0 0 0 97.47019467944304 -19.368103146843268 0 -19.368103146843268 -22.854063046835414 0 0 0 0 83.825187786584138 -24.12093843236562 0 -24.12093843236562 1.1469801076480053 0 0 0 0 96.611864699298167 -36.937898774446609 0 -36.937898774446609 -61.256170960127974 0 0 0 0 121.76846979011316 0.68118943726472025 0 0.68118943726472025 -18.884883748839457 0 0 0 0 129.18073229779839 1.5754893600558262 0 1.5754893600558262 -24.809645370391877 0 0 0 0 125.87977872752526 9.3544134578230569 0 9.3544134578230569 34.769298458295111 0 0 0 0 98.590989378062659 8.6775486045754633 0 8.6775486045754633 3.9063845835216853 0 0 0 0 10.186628780611755 -37.584495034524267 0 -37.584495034524267 10.401483684997874 0 0 0 0 -66.222860526751901 -405.64663618068607 0 -405.64663618068607 95.651398618721942 0 0 0 0 8.225341502350318 -4.0964225646798411 0 -4.0964225646798411 0.86159340646432092 0 0 0 0 591.08940512960362 -659.55059917066296 0 -659.55059917066296 789.12423551180837 0 0 0 0 98.581106573605211 -538.64384985181368 0 -538.64384985181368 172.15996513147547 0 0 0 0 155.35405929679837 -33.727210826464443 0 -33.727210826464443 11.047855381055797 0 0 0 0 230.84459481693193 13.427858933977006 0 13.427858933977006 -15.55387678906385 0 0 0 0 89.569213351933286 104.44870742706735 0 104.44870742706735 -261.08019814834643 0 0 0 0 1723.6874402226968 -846.54685066303955 0 -846.54685066303955 -409.92753967809222 0 0 0 0 455.20555931782292 -164.25590476605521 0 -164.25590476605521 -571.86055300399994 0 0 0 0 -113.53129202624768 8.1073913997631735 0 8.1073913997631735 -26.643897804247899 0 0 0 0 60.311116840406612 -75.869514701616481 0 -75.869514701616481 1.0043656009611368 0 0 0 0 187.41819164308981 17.023356193786327 0 17.023356193786327 9.541043315771276 0 0 0 0 13.403247594967205 -37.056448201446159 0 -37.056448201446159 17.193704831195639 0 0 0 0 131.74513515918807 5.8345670890435031 0 5.8345670890435031 25.966440366130428 0 0 0 0 19.436608822881595 -34.57128446443393 0 -34.57128446443393 16.201294850099565 0 0 0 0 -17.071706592498231 -16.779524034170208 0 -16.779524034170208 82.179541392109968 0 0 0 0 61.199198793357937 -44.864178159459698 0 -44.864178159459698 5.1371467267708795 0 0 0 0 112.73837367541273 40.638049418279991 0 40.638049418279991 -7.7950946073883642 0 0 0 0 104.85693036241719 45.581045805366784 0 45.581045805366784 17.711607527452998 0 0 0 0 112.49214633193333 10.515607584886766 0 10.515607584886766 38.732656952370689 0 0 0 0 117.77511390366999 24.377322751487327 0 24.377322751487327 25.910492043281465 0 0 0 0 100.12005200576095 17.492471276340666 0 17.492471276340666 37.556675602478265 0 0 0 0 101.22804198251106 22.102841959084344 0 22.102841959084344 51.743627889221443 0 0 0 0 85.646932894960628 40.559815532908488 0 40.559815532908488 29.880972304490513 0 0 0 0 93.17950138739252 55.734698727710111 0 55.734698727710111 58.061914583298858 0 0 0 0 55.855695044476306 48.965786716822549 0 48.965786716822549 56.948521893941688 0 0 0 0 104.14275848327816 58.834881144198221 0 58.834881144198221 13.23126549210383 0 0 0 0 53.78820073249517 -21.467925446582285 0 -21.467925446582285 8.4236286907257636 0 0 0 0 23.956154340973342 -7.4934866000755722 0 -7.4934866000755722 0.24063029601405755 0 0 0 0 -30.048220311815385 58.177642654055489 0 58.177642654055489 203.35775664622633 0 0 0 0 -62.824321036387119 -12.701885575793312 0 -12.701885575793312 117.52720579635388 0 0 0 0 49.8837693798705 72.771168207493247 0 72.771168207493247 125.3694540119468 0 0 0 0 41.061180191551102 66.986208096150676 0 66.986208096150676 99.700023093235359 0 0 0 0 80.377750152547378 113.16000976572832 0 113.16000976572832 140.43716223632146 0 0 0 0 81.275193981622579 88.144326563977074 0 88.144326563977074 105.0440983465196 0 0 0 0 23.162056636996567 64.833606704003614 0 64.833606704003614 140.80885785856321 0 0 0 0 55.717148392883246 35.375665374212304 0 35.375665374212304 85.515404127168949 0 0 0 0 -17.934736199502368 -49.455539486392809 0 -49.455539486392809 52.923853911321203 0 0 0 0 10.870693665463477 4.2311000838530504 0 4.2311000838530504 64.664359715382489 0 0 0 0 73.781331407677499 10.635688521776046 0 10.635688521776046 31.562611918598122 0 0 0 0 53.672447965949686 10.268897320835748 0 10.268897320835748 49.080259724176813 0 0 0 0 79.827927162090418 -24.398136108406874 0 -24.398136108406874 29.208274414439984 0 0 0 0 24.371682322551692 -7.7202214995442464 0 -7.7202214995442464 5.6930493257266965 0 0 0 0 41.934656094059022 -13.380119638058197 0 -13.380119638058197 4.5736905722935344 0 0 0 0 61.093119795641542 5.9335844659410668 0 5.9335844659410668 18.351289604755948 0 0 0 0 60.162294278139598 3.8463453679032682 0 3.8463453679032682 14.393127425995317 0 0 0 0 43.092701724944391 -0.60149507996164431 0 -0.60149507996164431 1.4315566702258322 0 0 0 0 60.681412463716697 6.7843465620551342 0 6.7843465620551342 2.3706599770589492 0 0 0 0 54.301440484505292 13.309896719760843 0 13.309896719760843 12.202053710309656 0 0 0 0 36.117253005679231 -73.600666920090589 0 -73.600666920090589 -56.594230919303072 0 0 0 0 0.22020305355525238 1.0984882127163393 0 1.0984882127163393 -0.37839433945420886 0 0 0 0 -42.888395784975728 -89.921032690684342 0 -89.921032690684342 81.293256919071609 0 0 0 0 20.833543618653493 -77.838752522246978 0 -77.838752522246978 175.27721917901363 0 0 0 0 96.404171352158301 55.007475854695031 0 55.007475854695031 -70.6517942653918 0 0 0 0 -7.5539019604329951 -51.252928986439656 0 -51.252928986439656 -47.851078452458978 0 0 0 0 -27.619009586429456 -36.375992451980892 0 -36.375992451980892 47.131846551244962 0 0 0 0 -4.0960471937896727 -5.1365743880553465 0 -5.1365743880553465 7.0562606419886276 0 0 0 0 1.5076547013189838 -3.0686337978952185 0 -3.0686337978952185 5.3727000809659851 0 0 0 0 -8.9689818138140254 -1.8846290945220971 0 -1.8846290945220971 94.473980004952409 0 0 0 0 5.3150773368543014 -12.152082034590421 0 -12.152082034590421 -0.30844682587326133 0 0 0 0 49.493422469815677 -7.1743021358537504 0 -7.1743021358537504 7.4977414584789059 0 0 0 0 -9.8396121640398633 -42.993963724175046 0 -42.993963724175046 -41.287257068684994 0 0 0 0 -33.258662950305734 -37.057018130029064 0 -37.057018130029064 -10.81065113528166 0 0 0 0 -56.061391385348543 -72.643169721892491 0 -72.643169721892491 -16.676981710916152 0 0 0 0 3.9650824495734156 0.3417883498937897 0 0.3417883498937897 22.488125776736531 0 0 0 0 3.0597370121686254 -50.05523137590535 0 -50.05523137590535 -20.888795317034237 0 0 0 0 14.699497114794212 9.2533305059814666 0 9.2533305059814666 46.84370294130423 0 0 0 0 40.262734432413708 3.839676526061794 0 3.839676526061794 8.2458047975051159 0 0 0 0 -42.587396243528929 -57.485775958724844 0 -57.485775958724844 -15.571333589725327 0 0 0 0 -23.128910702638677 -30.677283851069205 0 -30.677283851069205 10.940796525903352 0 0 0 0 -30.280396452231798 19.147173937253683 0 19.147173937253683 40.396308472019882 0 0 0 0 53.27401454543724 44.67571891670832 0 44.67571891670832 23.929677345673554 0 0 0 0 132.47369078377233 9.3633516832401256 0 9.3633516832401256 -122.00503340764953 0 0 0 0 39.686546476863441 33.762039224336149 0 33.762039224336149 194.87553267941257 0 0 0 0 148.69122295861598 2.1360918846685308 0 2.1360918846685308 128.59846963022301 0 0 0 0 177.62504934011668 -71.52531295319568 0 -71.52531295319568 -16.176818371845002 0 0 0 0 11.360941141087096 -9.2190796794020571 0 -9.2190796794020571 169.09583939597724 0 0 0 0 73.820173107480514 19.514076835852393 0 19.514076835852393 136.58212225236321 0 0 0 0 75.853269357598037 -27.322908623031253 0 -27.322908623031253 165.51829923260811 0 0 0 0 104.8674348145687 -18.331934191200048 0 -18.331934191200048 121.29163311972479 0 0 0 0 103.34746031711984 -31.765206103979835 0 -31.765206103979835 143.90974130891846 0 0 0 0 123.00107704135007 -70.391048265732934 0 -70.391048265732934 69.30517984020662 0 0 0 0 92.523769162129611 -56.626445498274734 0 -56.626445498274734 115.65537209856575 0 0 0 0 110.56648972046969 -76.748481343476669 0 -76.748481343476669 130.20409577410919 0 0 0 0 42.888914792696596 -151.35082735676951 0 -151.35082735676951 185.20422447002647 0 0 0 0 0.55677161465865765 0.23323334078506264 0 0.23323334078506264 -0.12811494280002811 0 0 0 0 114.7839068811154 -87.068030414185159 0 -87.068030414185159 67.256612684957872 0 0 0 0 177.46822966871696 -67.631943233282982 0 -67.631943233282982 42.4881822789539 0 0 0 0 156.92221694834006 -28.196917822665455 0 -28.196917822665455 108.00067179466168 0 0 0 0 115.32229530189943 -94.834253761962827 0 -94.834253761962827 71.457481536632258 0 0 0 0 74.275180028904288 -75.293437099621087 0 -75.293437099621087 67.250191047865883 0 0 0 0 123.97445170620631 -66.049675999718602 0 -66.049675999718602 5.0415871525765397 0 0 0 0 137.05538047516893 -91.947514086546562 0 -91.947514086546562 55.067982385871801 0 0 0 0 134.96571615301946 -78.635665818771486 0 -78.635665818771486 56.794090051002058 0 0 0 0 121.260289344591 -73.46917643456959 0 -73.46917643456959 71.971943971077053 0 0 0 0 103.83375083115243 -95.749934833094358 0 -95.749934833094358 82.027891821842786 0 0 0 0 118.01435959282389 -102.47537224524012 0 -102.47537224524012 84.168359740340748 0 0 0 0 118.90746032669267 -102.26355903386502 0 -102.26355903386502 80.677601568391083 0 0 0 0 127.36915606458206 -109.64891825662517 0 -109.64891825662517 24.053992768527678 0 0 0 0 99.4578004538198 -136.87231792575312 0 -136.87231792575312 54.747411394468145 0 0 0 0 126.6260267104808 -141.82038909166477 0 -141.82038909166477 53.032939989460829 0 0 0 0 86.621893599847681 -160.95030839727224 0 -160.95030839727224 53.134691745768578 0 0 0 0 135.21036481074225 -155.69463154279538 0 -155.69463154279538 -5.7048585682478006 0 0 0 0 274.14702818594378 -117.01006241111463 0 -117.01006241111463 -71.271367625868152 0 0 0 0 170.07684776747192 -93.100857353417268 0 -93.100857353417268 -0.39310581047357118 0 0 0 0 105.67104451119667 -32.492156273081719 0 -32.492156273081719 -51.671537824702682 0 0 0 0 162.26548669445037 -122.5085566235839 0 -122.5085566235839 28.74682495256684 0 0 0 0 83.872567364342103 25.594619324294342 0 25.594619324294342 47.056871767817029 0 0 0 0 126.72724820343137 -58.288366049116121 0 -58.288366049116121 78.772227148804404 0 0 0 0 59.438504799365546 -93.980760948388479 0 -93.980760948388479 70.84953975166718 0 0 0 0 81.974773519119481 -81.305633220015807 0 -81.305633220015807 15.426903369789898 0 0 0 0 24.926705749036046 -119.50626375443881 0 -119.50626375443881 77.952455452767026 0 0 0 0 107.21561498755182 -110.24317896353296 0 -110.24317896353296 78.494082047301617 0 0 0 0 126.61931335629197 -87.874507682634885 0 -87.874507682634885 103.81450323863646 0 0 0 0 79.341506777927862 -107.53503718803904 0 -107.53503718803904 104.73902424072548 0 0 0 0 98.008127614630212 -91.061422442764297 0 -91.061422442764297 139.06010029602658 0 0 0 0 250.44185821514111 -67.653974839990951 0 -67.653974839990951 112.52710613021827 0 0 0 0 178.82127120989753 -37.969646152103451 0 -37.969646152103451 114.43875274167112 0 0 0 0 111.59157983829209 -62.855889397717874 0 -62.855889397717874 110.5075952200641 0 0 0 0 112.90899255911063 -85.22953346432314 0 -85.22953346432314 139.66808945093862 0 0 0 0 177.13391900405622 -70.989833789290742 0 -70.989833789290742 145.59005640363648 0 0 0 0 311.78172140450624 -57.039620531495984 0 -57.039620531495984 136.44520237798315 0 0 0 0 178.12130078357586 -70.313516584964418 0 -70.313516584964418 135.63193614765282 0 0 0 0 108.30048527847975 -75.514135207489744 0 -75.514135207489744 132.46379147672269 0 0 0 0 117.35425697280152 -94.259768393259037 0 -94.259768393259037 170.73121996265218 0 0 0 0 118.684860319976 -66.19525504036028 0 -66.19525504036028 164.58707703606069 0 0 0 0 95.691108103103033 -69.258908378502838 0 -69.258908378502838 164.85169405171473 0 0 0 0 56.787554272799753 -51.318267181281954 0 -51.318267181281954 160.97021843746916 0 0 0 0 110.91224656080885 -119.97527924002225 0 -119.97527924002225 140.88050822914761 0 0 0 0 93.903597681040992 -87.737115309780165 0 -87.737115309780165 179.66553842307076 0 0 0 0 2.0947290743997655 -65.195455100995218 0 -65.195455100995218 186.55408531938519 0 0 0 0 277.87867715211178 -139.76410459743784 0 -139.76410459743784 206.57235091621726 0 0 0 0 169.21728742662162 -112.85393131273395 0 -112.85393131273395 170.31213629566992 0 0 0 0 202.23022920830408 -53.231801005107172 0 -53.231801005107172 164.98744207620166 0 0 0 0 485.53485276976426 -33.049481020145777 0 -33.049481020145777 129.76063574221553 0 0 0 0 454.18795283435611 -45.845033814321141 0 -45.845033814321141 105.80242665634523 0 0 0 0 310.3622834623402 -55.628533300696745 0 -55.628533300696745 143.65173883178977 0 0 0 0 543.70515452911786 71.453083105264113 0 71.453083105264113 70.337858991761095 0 0 0 0 582.80481403865269 -141.77258142694336 0 -141.77258142694336 219.62798530908776 0 0 0 0 506.0994193278384 378.78509479853756 0 378.78509479853756 66.548600856646317 0 0 0 0 842.93382291950184 127.58883051661701 0 127.58883051661701 50.59640808858876 0 0 0 0 247.18757498260675 30.053527056110852 0 30.053527056110852 177.5399702993127 0 0 0 0 568.44798115433878 17.412051171257701 0 17.412051171257701 220.55113113967673 0 0 0 0 406.90169837517169 82.580734186078644 0 82.580734186078644 194.81040044385372 0 0 0 0 528.79906930688503 161.39630203957523 0 161.39630203957523 125.64143334753226 0 0 0 0 511.206197648331 119.8105215614346 0 119.8105215614346 51.030829002392636 0 0 0 0 611.80977858345432 47.285992673092096 0 47.285992673092096 52.047132781392065 0 0 0 0 448.2772538114732 67.35699960549573 0 67.35699960549573 111.0913306688044 0 0 0 0 512.06414056789072 28.521381277627825 0 28.521381277627825 128.21039830801783 0 0 0 0 610.74817597305173 47.91090920298808 0 47.91090920298808 148.99462264990689 0 0 0 0 1008.6580322153022 -20.641986561127851 0 -20.641986561127851 111.42867349315156 0 0 0 0 545.17970246230834 86.229700844516174 0 86.229700844516174 34.845544494426576 0 0 0 0 544.47054477942584 4.049159083320319 0 4.049159083320319 29.640085617355709 0 0 0 0 365.69483845947252 89.297367478771775 0 89.297367478771775 21.847677543510713 0 0 0 0 371.20738070868538 19.481154294904627 0 19.481154294904627 14.564254331203983 0 0 0 0 234.46403998364985 -3.990568745462042 0 -3.990568745462042 49.603145148308613 0 0 0 0 227.09155185503914 -3.5479276864475651 0 -3.5479276864475651 81.892487981667728 0 0 0 0 379.40520264259249 4.4428159865710768 0 4.4428159865710768 73.973752178967516 0 0 0 0 262.10775979051868 -7.8455497357299464 0 -7.8455497357299464 122.37487839007372 0 0 0 0 451.92565591709899 45.67915877969898 0 45.67915877969898 31.088472237152018 0 0 0 0 362.63658436213154 56.6090220798269 0 56.6090220798269 96.059584215489849 0 0 0 0 98.170529393399192 -68.157584696429694 0 -68.157584696429694 -84.538465503996122 0 0 0 0 6.8447265691109322 -6.7989754171579477 0 -6.7989754171579477 5.3924400324650215 0 0 0 0 -3.5580625557049643 -42.747996221369249 0 -42.747996221369249 32.061476814138587 0 0 0 0 -69.972265875527228 -69.894601099951615 0 -69.894601099951615 35.834988920307296 0 0 0 0 788.29418943838573 -78.135518924477651 0 -78.135518924477651 138.75488275538919 0 0 0 0 2.7097031615474805 -2.1116687730871888 0 -2.1116687730871888 1.6274878411798852 0 0 0 0 899.39869619810634 311.65562772975227 0 311.65562772975227 129.94126371789753 0 0 0 0 261.18204839392638 -164.43712954136481 0 -164.43712954136481 182.06248332040377 0 0 0 0 417.15973925462458 260.05243294661159 0 260.05243294661159 209.36652099354205 0 0 0 0 497.972479971555 120.38531737110952 0 120.38531737110952 4.7569200145890136 0 0 0 0 429.05871090930668 -238.63426303261167 0 -238.63426303261167 6.0352836815773117 0 0 0 0 478.4726972060671 -203.78417809199527 0 -203.78417809199527 166.03811004239151 0 0 0 0 530.58043966950936 -115.47452827958477 0 -115.47452827958477 151.86567177782103 0 0 0 0 306.69154113556579 -68.17176851082877 0 -68.17176851082877 141.94374984150818 0 0 0 0 1267.3324846052528 371.23638736055204 0 371.23638736055204 88.217381363350796 0 0 0 0 3.8669575410936403 -2.2946498325865718 0 -2.2946498325865718 -0.97972623734596098 0 0 0 0 691.87447297749895 262.4937907954336 0 262.4937907954336 131.46986633424615 0 0 0 0 858.21478751155519 49.357905233015117 0 49.357905233015117 0.54900500754092718 0 0 0 0 637.16253251331 195.05507103750642 0 195.05507103750642 51.453203741864854 0 0 0 0 7.7103591845612556 -5.5305061819495052 0 -5.5305061819495052 -3.6666662332317266 0 0 0 0 -460.07321329465776 -351.87927257398769 0 -351.87927257398769 62.061107910205465 0 0 0 0 250.68181397276203 0.035977350766643212 0 0.035977350766643212 -194.69066560406191 0 0 0 0 135.02222103157692 78.217292408394314 0 78.217292408394314 127.95855511967238 0 0 0 0 -241.97062949906831 -366.99187506679709 0 -366.99187506679709 -155.30062698559598 0 0 0 0 33.234918611291505 9.3984837873051674 0 9.3984837873051674 -58.056879489448875 0 0 0 0 179.85937253835436 -96.169907329317539 0 -96.169907329317539 -8.8908478727475426 0 0 0 0 246.00798400456551 -5.1130088414847705 0 -5.1130088414847705 -10.657437892270536 0 0 0 0 500.28326671828108 45.780157801094902 0 45.780157801094902 83.353934482737714 0 0 0 0 274.7390600081817 142.63167928791631 0 142.63167928791631 108.84518348772508 0 0 0 0 565.14821734960424 386.27115865712767 0 386.27115865712767 138.91486375792556 0 0 0 0 316.67097803730576 164.28888450695831 0 164.28888450695831 285.36794360241402 0 0 0 0 363.22989915122162 152.95049402968834 0 152.95049402968834 -29.574080359005734 0 0 0 0 152.64138305248343 18.195826129327997 0 18.195826129327997 -494.4260735394796 0 0 0 0 30.994347305459087 24.111579447191616 0 24.111579447191616 -0.18676908063571318 0 0 0 0 33.356453786825057 17.824978401134146 0 17.824978401134146 6.9607170451888454 0 0 0 0 35.013960056090582 45.588908979100211 0 45.588908979100211 -6.3950306624401492 0 0 0 0 147.80245610704151 -126.3175907320491 0 -126.3175907320491 -211.18529376711103 0 0 0 0 193.38939280735212 56.041299153010186 0 56.041299153010186 -80.603107436359551 0 0 0 0 43.516845942212967 -21.038937899790653 0 -21.038937899790653 31.027341511091436 0 0 0 0 -65.619488891970832 -125.34710019727152 0 -125.34710019727152 -206.63907595069531 0 0 0 0 422.35027695135068 35.540518471012547 0 35.540518471012547 4.0689851756087592 0 0 0 0 13.251502128185592 -2.7584005717039304 0 -2.7584005717039304 -6.0623528815011696 0 0 0 0 404.28324873798556 135.35456603005332 0 135.35456603005332 107.0160645910164 0 0 0 0 -0.62832153354875686 1.7493062437878422 0 1.7493062437878422 1.8848988183563957 0 0 0 0 31.751315606932621 103.45637791637637 0 103.45637791637637 292.32875667020471 0 0 0 0 458.7490783934627 80.84388821476341 0 80.84388821476341 152.83738943239769 0 0 0 0 509.19179106186857 213.5352614704957 0 213.5352614704957 48.784967738813975 0 0 0 0 620.67194988987103 64.549919821821049 0 64.549919821821049 -16.829079334353082 0 0 0 0 644.47054787634988 123.13534497156115 0 123.13534497156115 2.7498052939199624 0 0 0 0 558.12360678408004 103.07155715412591 0 103.07155715412591 7.5859335215302508 0 0 0 0 592.48595447858679 67.46197643470191 0 67.46197643470191 -12.808023741197758 0 0 0 0 577.07984982139897 52.361496292977563 0 52.361496292977563 -27.38428196527002 0 0 0 0 584.86284232018261 76.311021379569979 0 76.311021379569979 -11.851251941232476 0 0 0 0 557.17330596339889 87.054797353969661 0 87.054797353969661 -6.3491421120202176 0 0 0 0 626.7990349382635 134.05897397441572 0 134.05897397441572 25.369654236103997 0 0 0 0 549.43190709523333 125.1395005267409 0 125.1395005267409 39.220164321065567 0 0 0 0 643.38097443208972 59.102547994975112 0 59.102547994975112 -51.640523989448411 0 0 0 0 556.45159359741956 3.2227626645981218 0 3.2227626645981218 -54.028281582166642 0 0 0 0 584.36875365012384 58.762417341812579 0 58.762417341812579 -23.989060457219239 0 0 0 0 615.38949178595794 37.259421527410041 0 37.259421527410041 -52.86312035678111 0 0 0 0 602.41740173044673 45.300018971113332 0 45.300018971113332 -40.842538578031053 0 0 0 0 341.86448374879546 -71.351553538518601 0 -71.351553538518601 -14.768565707257039 0 0 0 0 513.89913476401125 -35.010747646757864 0 -35.010747646757864 -42.260505571623469 0 0 0 0 520.13323331718129 -50.2760014043713 0 -50.2760014043713 -60.15704097888738 0 0 0 0 368.26368120126426 -2.4384503469482297 0 -2.4384503469482297 -2.4628838607009129 0 0 0 0 365.14937662146986 -10.451958418254435 0 -10.451958418254435 -0.11913671715046803 0 0 0 0 469.111208781389 -4.5586734169783085 0 -4.5586734169783085 -26.572469107069992 0 0 0 0 484.77536888440227 27.341149349597345 0 27.341149349597345 -7.9216188473310467 0 0 0 0 509.54718929645605 19.513855659961337 0 19.513855659961337 -13.094240575273943 0 0 0 0 534.75455846624391 56.628097944456385 0 56.628097944456385 22.934534148640523 0 0 0 0 491.16405872830364 73.441273444517265 0 73.441273444517265 20.38691713722983 0 0 0 0 464.93595516991627 14.270970094394215 0 14.270970094394215 40.671984151833385 0 0 0 0 490.39205283453157 70.048428029050569 0 70.048428029050569 72.755049542187407 0 0 0 0 485.18615459435387 17.713842561223828 0 17.713842561223828 62.212370864335753 0 0 0 0 453.64091004262445 238.64240138491914 0 238.64240138491914 65.39094174641059 0 0 0 0 321.89873752509084 92.007260880762487 0 92.007260880762487 18.217738077522881 0 0 0 0 109.67455236001115 141.17585162266596 0 141.17585162266596 94.916075391879076 0 0 0 0 339.76985083580075 43.391982569282845 0 43.391982569282845 26.200198855603958 0 0 0 0 476.39833117635135 58.871524645027648 0 58.871524645027648 3.4114634547113383 0 0 0 0 364.8472699392878 67.392873053579933 0 67.392873053579933 17.344919843657408 0 0 0 0 243.88071241925354 44.915626296783557 0 44.915626296783557 34.807170445772499 0 0 0 0 362.97886818523693 -15.315393420611144 0 -15.315393420611144 -10.813040180179087 0 0 0 0 227.90465008048341 -40.873584956992545 0 -40.873584956992545 21.213645292637011 0 0 0 0 368.45817302900832 -4.9344234073178086 0 -4.9344234073178086 -11.756485514953738 0 0 0 0 244.94811500782089 -6.2939850765355914 0 -6.2939850765355914 -7.0656319544759754 0 0 0 0 336.85813034814782 -36.48183449100361 0 -36.48183449100361 -45.031861589363871 0 0 0 0 118.91493855391309 49.857048659648626 0 49.857048659648626 -74.746049823959765 0 0 0 0 125.08939565167384 88.329934468171814 0 88.329934468171814 54.892590758789993 0 0 0 0 283.10665150590648 104.94108763946792 0 104.94108763946792 16.577683865696599 0 0 0 0 46.548237881172099 162.11433424443157 0 162.11433424443157 28.430222309607643 0 0 0 0 101.73665983941925 65.666076313732361 0 65.666076313732361 28.699773036308073 0 0 0 0 123.29593298069085 77.238432710999405 0 77.238432710999405 4.2709007290250156 0 0 0 0 5.0797946193087 30.469521511364874 0 30.469521511364874 19.981935222770197 0 0 0 0 74.685678628826281 95.774604964151877 0 95.774604964151877 59.095250130171507 0 0 0 0 109.54507020648634 141.49086162565681 0 141.49086162565681 119.01793779684522 0 0 0 0 5.3029790911199086 11.023419024335224 0 11.023419024335224 4.1669402701018363 0 0 0 0 -0.19060551609740628 15.377020191539984 0 15.377020191539984 8.0947219936924384 0 0 0 0 17.312943548815383 38.833320682101771 0 38.833320682101771 21.140455409406059 0 0 0 0 73.625017753132852 -87.605230263500516 0 -87.605230263500516 89.774512164860496 0 0 0 0 242.41542779879819 139.21720165120132 0 139.21720165120132 -212.97034831719998 0 0 0 0 0.87054391806572085 0.63940594811378837 0 0.63940594811378837 -0.11889154419103676 0 0 0 0 192.92853479678161 -5.0956989257720124 0 -5.0956989257720124 -12.198609725985079 0 0 0 0 197.79281752977295 126.35751584650401 0 126.35751584650401 -47.80544016226122 0 0 0 0 491.66846613247617 73.867245381098655 0 73.867245381098655 -58.84545894531675 0 0 0 0 435.40100676781731 13.840934383247259 0 13.840934383247259 -132.55317447541347 0 0 0 0 440.2008817619826 -9.1479768161133279 0 -9.1479768161133279 -27.281964767127647 0 0 0 0 658.62144237094617 49.34768340860137 0 49.34768340860137 -39.28639876968009 0 0 0 0 627.66965731245 87.588472384403303 0 87.588472384403303 6.2882785236001837 0 0 0 0 565.5180951464281 14.553881583112343 0 14.553881583112343 -29.784793197282511 0 0 0 0 572.86016518167162 47.817075282572659 0 47.817075282572659 -11.068409247629006 0 0 0 0 611.84596792062803 63.810650210321 0 63.810650210321 -6.4122517106093255 0 0 0 0 548.81779475356598 32.007116448903389 0 32.007116448903389 -37.000734951654067 0 0 0 0 515.34708905417938 -10.041058458463795 0 -10.041058458463795 -18.924060839383401 0 0 0 0 527.94662305133534 21.78490196567941 0 21.78490196567941 30.899667947549005 0 0 0 0 529.12897624417383 56.885340190922761 0 56.885340190922761 11.667521052412212 0 0 0 0 460.77343889381154 80.752484440813305 0 80.752484440813305 79.130491877182067 0 0 0 0 556.96661490827682 87.079788967841068 0 87.079788967841068 44.279229106195089 0 0 0 0 459.15173824055819 85.910693714785339 0 85.910693714785339 63.668644383723176 0 0 0 0 417.82018629246159 36.928157773781322 0 36.928157773781322 77.54540498420306 0 0 0 0 465.57579591591252 -6.2557224710662407 0 -6.2557224710662407 100.54586843936522 0 0 0 0 465.4757672177002 36.068587463120593 0 36.068587463120593 70.149052090224814 0 0 0 0 442.94800954470702 -3.2141111032260596 0 -3.2141111032260596 19.76090784067901 0 0 0 0 476.79505375736335 40.8624662924326 0 40.8624662924326 66.289827371246247 0 0 0 0 520.54662857386757 -162.029725108864 0 -162.029725108864 -37.353842191438162 0 0 0 0 496.42189231819737 65.195322353539822 0 65.195322353539822 -87.031816207992961 0 0 0 0 496.25216619834828 -16.785210207728824 0 -16.785210207728824 39.636076758574291 0 0 0 0 2.4750158162074172 -0.13999668417570632 0 -0.13999668417570632 -0.56286976458086091 0 0 0 0 118.10763435176341 -223.103034525976 0 -223.103034525976 39.59563521047312 0 0 0 0 -38.662418821942993 -73.492378261906197 0 -73.492378261906197 51.316617261523788 0 0 0 0 199.33170349977445 -171.34921279171795 0 -171.34921279171795 4.6860290297203164 0 0 0 0 40.027864346673596 -104.16634581661197 0 -104.16634581661197 18.089102249972257 0 0 0 0 220.28119087840605 -171.43823582752725 0 -171.43823582752725 -33.89007357197147 0 0 0 0 96.320753974352328 -104.47098564088427 0 -104.47098564088427 -48.068545553351214 0 0 0 0 96.47497519963008 -92.424147196585835 0 -92.424147196585835 -48.788776862635132 0 0 0 0 283.9156364620867 -245.92780019167344 0 -245.92780019167344 11.810570651318358 0 0 0 0 165.95438366859707 -134.59296373658282 0 -134.59296373658282 2.8291977646313171 0 0 0 0 177.05362211371721 -23.333056994231185 0 -23.333056994231185 -266.99334857952181 0 0 0 0 189.6725536883896 -238.88637697719417 0 -238.88637697719417 319.03154933815392 0 0 0 0 217.86245013301959 -230.43327162120136 0 -230.43327162120136 60.124769984046679 0 0 0 0 281.57939024395455 -293.18258794497751 0 -293.18258794497751 -86.064484651154089 0 0 0 0 675.13373686984414 605.94519997840962 0 605.94519997840962 957.90855533913464 0 0 0 0 -1251.8280525644077 -215.81817016840466 0 -215.81817016840466 1881.4201860837234 0 0 0 0 303.01166348168044 -401.90307019318999 0 -401.90307019318999 31.835480173422496 0 0 0 0 210.40754800073046 -376.75762868958208 0 -376.75762868958208 763.72255570930656 0 0 0 0 168.44539669484948 -67.420394857009398 0 -67.420394857009398 50.321522852580358 0 0 0 0 174.0631226269179 -171.59450100062628 0 -171.59450100062628 72.883645988172248 0 0 0 0 168.07540045707719 -141.61498291813831 0 -141.61498291813831 128.52168152542799 0 0 0 0 233.0396764495963 -162.15710511116458 0 -162.15710511116458 58.092756336504294 0 0 0 0 255.74865383272845 -76.029039548128196 0 -76.029039548128196 78.542616845362772 0 0 0 0 216.9786256899697 -176.95391814565613 0 -176.95391814565613 47.950043679712962 0 0 0 0 204.63237388733251 -147.44138248259719 0 -147.44138248259719 19.916324492201056 0 0 0 0 343.72925514941744 -147.31887182182277 0 -147.31887182182277 -12.707711186516008 0 0 0 0 345.72313950141768 -41.937926329845112 0 -41.937926329845112 61.247765559032359 0 0 0 0 340.15046664753754 28.390775459993506 0 28.390775459993506 102.82219124922239 0 0 0 0 329.13400212101988 -62.470120733787098 0 -62.470120733787098 43.965876201810033 0 0 0 0 528.27764284779551 155.97568514846103 0 155.97568514846103 113.45056595322512 0 0 0 0 523.74559336532548 101.16079290269977 0 101.16079290269977 96.48946820323556 0 0 0 0 393.77054730092368 114.96206804241839 0 114.96206804241839 167.32743533044004 0 0 0 0 380.75727709936018 26.824220408181546 0 26.824220408181546 72.876010004012414 0 0 0 0 362.3283757033787 39.047923218336109 0 39.047923218336109 25.76642348815335 0 0 0 0 368.76958130947241 10.934903694107845 0 10.934903694107845 122.34281452000846 0 0 0 0 252.17410933911742 -11.550119003250472 0 -11.550119003250472 94.823906385463602 0 0 0 0 278.49429590082582 -22.348095426956803 0 -22.348095426956803 24.300215673165553 0 0 0 0 188.98854393634247 -91.363762300455278 0 -91.363762300455278 75.488264694327199 0 0 0 0 253.36202583219347 10.306473818055196 0 10.306473818055196 -117.69883321796061 0 0 0 0 118.7406114406258 -8.5991248075907265 0 -8.5991248075907265 23.245354855692909 0 0 0 0 380.18647384530414 150.96463304688564 0 150.96463304688564 -148.07401638884912 0 0 0 0 235.56294993656047 -18.446265737184433 0 -18.446265737184433 24.689031055063069 0 0 0 0 14.397608355864293 4.190317866655171 0 4.190317866655171 1.2095629110480721 0 0 0 0 340.5964036255973 319.75947881808872 0 319.75947881808872 -521.29613728016193 0 0 0 0 514.86006754584378 -836.28376156998615 0 -836.28376156998615 619.96901924043664 0 0 0 0 174.34124180691288 -110.29036112225987 0 -110.29036112225987 -262.99500106349603 0 0 0 0 -152.35461672446399 -5.981738467213404 0 -5.981738467213404 -111.07225737024453 0 0 0 0 123.78401214028418 14.578880340276442 0 14.578880340276442 -320.20048661031666 0 0 0 0 119.02733974797593 -40.822724587899643 0 -40.822724587899643 -162.81843118931045 0 0 0 0 126.20381275450927 -123.9452562123351 0 -123.9452562123351 -163.67430745076155 0 0 0 0 90.403042751083547 -23.411536095908204 0 -23.411536095908204 -5.4288384063056698 0 0 0 0 100.4270240492915 -89.272506232309297 0 -89.272506232309297 -153.34245735445268 0 0 0 0 38.447632462630281 -171.80752515094102 0 -171.80752515094102 -65.202879147057274 0 0 0 0 186.80760254422785 -149.80003116988979 0 -149.80003116988979 -155.39761895598897 0 0 0 0 244.42360444822589 -86.981086541979124 0 -86.981086541979124 -117.13764806856116 0 0 0 0 199.19152485654922 -273.25711603547938 0 -273.25711603547938 -196.14171475345108 0 0 0 0 -63.748525936316582 -235.29398357110256 0 -235.29398357110256 -69.898816187669524 0 0 0 0 468.53673861267453 -142.00156618640588 0 -142.00156618640588 -134.75890103949519 0 0 0 0 -79.36746873051743 -766.53007526328327 0 -766.53007526328327 -603.32518957508546 0 0 0 0 308.23028465601965 -73.421415914436096 0 -73.421415914436096 -156.14941526124164 0 0 0 0 1293.2419268184167 55.482337775126155 0 55.482337775126155 -882.88988322505179 0 0 0 0 191.36793246408342 -106.00168865780618 0 -106.00168865780618 -52.638494512027478 0 0 0 0 273.02320555143524 39.769131319502492 0 39.769131319502492 135.60980444536506 0 0 0 0 109.12445543550257 -112.13217213751184 0 -112.13217213751184 17.122081603114793 0 0 0 0 177.80768622583128 -46.702273457722399 0 -46.702273457722399 10.36567377958724 0 0 0 0 185.26255262940685 -117.257807373312 0 -117.257807373312 -122.83863054231935 0 0 0 0 122.48101609729929 66.134881838857837 0 66.134881838857837 17.149536161497053 0 0 0 0 106.21888927234249 65.968089681437505 0 65.968089681437505 35.457601555444853 0 0 0 0 107.03089674148941 63.52014131251326 0 63.52014131251326 35.799681864045851 0 0 0 0 103.93077015812742 59.896028524637586 0 59.896028524637586 31.571705056292558 0 0 0 0 89.370814690035331 87.167509541081472 0 87.167509541081472 40.908068066346459 0 0 0 0 77.795294902607566 224.95848914414319 0 224.95848914414319 -93.677667945397445 0 0 0 0 94.430671444128279 60.307829517494071 0 60.307829517494071 28.960699143949334 0 0 0 0 7.0052642937953351 -89.058276668614894 0 -89.058276668614894 137.53905198181201 0 0 0 0 -34.766539523610845 131.80305363629304 0 131.80305363629304 24.57159396849579 0 0 0 0 222.53525752302085 -215.0247496550578 0 -215.0247496550578 86.163693926754604 0 0 0 0 81.586515216458793 77.086108305052477 0 77.086108305052477 189.40357654980005 0 0 0 0 146.24057240295224 93.685400152450711 0 93.685400152450711 28.709747627709476 0 0 0 0 -24.775757502844613 44.553797531769206 0 44.553797531769206 35.269200743815226 0 0 0 0 257.85286217293469 399.57389139137058 0 399.57389139137058 386.78893951204873 0 0 0 0 901.35942882249219 79.152310153324891 0 79.152310153324891 48.139340428974265 0 0 0 0 656.42330633717938 -240.72974094320352 0 -240.72974094320352 74.243616524574918 0 0 0 0 -10.457027923048258 9.0646736596787463 0 9.0646736596787463 16.628432542741336 0 0 0 0 624.9779126016947 27.923079466893341 0 27.923079466893341 -47.644114662026709 0 0 0 0 612.15633307816461 -152.19540727020876 0 -152.19540727020876 -59.290221761701105 0 0 0 0 648.11761270603165 10.888739053880499 0 10.888739053880499 -39.628962360297919 0 0 0 0 795.90208888573397 97.450599747211527 0 97.450599747211527 -54.645262207029305 0 0 0 0 1113.5624385657793 131.01605703409746 0 131.01605703409746 -18.323758741012171 0 0 0 0 659.71808316399984 310.74037880056858 0 310.74037880056858 424.89697920048161 0 0 0 0 667.43774249330454 238.29669300296132 0 238.29669300296132 147.70998549096021 0 0 0 0 518.0213323127391 121.69411259890671 0 121.69411259890671 180.10254774890785 0 0 0 0 594.40170133463107 -109.97894435860269 0 -109.97894435860269 319.21855901108688 0 0 0 0 563.33739729346416 81.56669883660652 0 81.56669883660652 -8.6514597754614897 0 0 0 0 562.15016279056726 21.193872624790288 0 21.193872624790288 105.13604233938247 0 0 0 0 923.69497688151023 -74.250685196268023 0 -74.250685196268023 -292.88111687075275 0 0 0 0 632.83251709550677 -18.948171168435351 0 -18.948171168435351 -34.088328240041477 0 0 0 0 656.21314526037895 -83.624990805440149 0 -83.624990805440149 56.113082781458914 0 0 0 0 649.42238361366617 -86.645328317806005 0 -86.645328317806005 59.832227027754612 0 0 0 0 235.53907120617805 -91.355356724351068 0 -91.355356724351068 60.080052324010779 0 0 0 0 833.56101306477467 -578.65914070594943 0 -578.65914070594943 407.66865654946105 0 0 0 0 1517.308093822372 519.31553591371733 0 519.31553591371733 -1149.8360912282958 0 0 0 0 1406.3183599736367 -636.90185209389858 0 -636.90185209389858 -560.45131043183483 0 0 0 0 -353.01087687780091 952.68483813823059 0 952.68483813823059 -435.79359558395674 0 0 0 0 -344.47333458033972 -104.56074717804017 0 -104.56074717804017 763.7930095275201 0 0 0 0 -253.72503146029339 571.7986897426465 0 571.7986897426465 -131.9802136608223 0 0 0 0 365.46556428051554 159.94515841815928 0 159.94515841815928 -593.48099308651285 0 0 0 0 370.47206640883815 87.724727034483976 0 87.724727034483976 -116.65323172746946 0 0 0 0 283.84944665767216 298.81415044910909 0 298.81415044910909 -142.59026216420261 0 0 0 0 377.46962191925559 155.66416218863247 0 155.66416218863247 58.196241899712277 0 0 0 0 327.33323189409566 49.923155279917822 0 49.923155279917822 264.03220277885589 0 0 0 0 397.70684991667804 163.60368555425327 0 163.60368555425327 47.756940180507449 0 0 0 0 350.19113327361993 283.53399258928187 0 283.53399258928187 68.490043742390128 0 0 0 0 293.39096421164868 217.06147007263775 0 217.06147007263775 3.1268499577099647 0 0 0 0 294.15491368377843 126.44368069039956 0 126.44368069039956 35.668978809995338 0 0 0 0 -39.767754084472202 45.171664731695543 0 45.171664731695543 25.79073916381051 0 0 0 0 106.18220218986971 170.26191036680189 0 170.26191036680189 -3.4153952455358194 0 0 0 0 93.043797179841931 97.953263326882507 0 97.953263326882507 46.783987260041613 0 0 0 0 91.762930516179381 58.877637909579448 0 58.877637909579448 29.978468668851246 0 0 0 0 81.569595799934177 69.92583781986923 0 69.92583781986923 80.36659136472008 0 0 0 0 200.44593755227106 94.777505650350804 0 94.777505650350804 38.097110163106663 0 0 0 0 -19.838605510775267 53.732482142624363 0 53.732482142624363 17.821868909729893 0 0 0 0 278.35665753344801 120.02684912851646 0 120.02684912851646 15.318437535975136 0 0 0 0 263.48016791476766 87.457681589885965 0 87.457681589885965 -8.9554123955003888 0 0 0 0 261.41962481963128 44.422083119943409 0 44.422083119943409 -25.89347336906394 0 0 0 0 252.77922552736709 29.065418892832895 0 29.065418892832895 -36.841271451510693 0 0 0 0 253.64851499743236 67.254114143379866 0 67.254114143379866 7.833258455347277 0 0 0 0 225.83303770632119 48.925591443680105 0 48.925591443680105 -3.4914293989995713 0 0 0 0 234.28030742271221 27.143015274014033 0 27.143015274014033 11.900708865848173 0 0 0 0 242.33190874967113 29.183533144528042 0 29.183533144528042 -28.594874967401665 0 0 0 0 248.12462924536339 -36.716363789305873 0 -36.716363789305873 -9.6577536658560348 0 0 0 0 320.87160351370403 70.664729418803404 0 70.664729418803404 -73.509541491909658 0 0 0 0 -1.2403707915859457 -4.067636712736558 0 -4.067636712736558 -6.7688614975734929 0 0 0 0 541.23773014126346 -152.48242431345534 0 -152.48242431345534 -103.27620287703212 0 0 0 0 16.932814576677629 -98.982059855973603 0 -98.982059855973603 -13.187991616813406 0 0 0 0 308.9874606365629 -48.979432930065059 0 -48.979432930065059 -74.578271671091898 0 0 0 0 61.073331892860011 -17.249011864106933 0 -17.249011864106933 -28.086496855788177 0 0 0 0 210.16134796890105 -19.202179339522317 0 -19.202179339522317 -9.4198720321598159 0 0 0 0 317.83359195056255 -7.6883628176828722 0 -7.6883628176828722 -155.75274601067161 0 0 0 0 176.67392992323585 116.28706623251081 0 116.28706623251081 -59.106275670819002 0 0 0 0 120.15964455243375 -19.016669220760775 0 -19.016669220760775 -31.308852977334482 0 0 0 0 370.32356816859101 204.93100145471064 0 204.93100145471064 0.79397769305787413 0 0 0 0 665.6286816630236 -300.47798954646191 0 -300.47798954646191 79.675637984678559 0 0 0 0 34.882298897471628 2.0350325801385463 0 2.0350325801385463 0.014829354145895306 0 0 0 0 -0.4510417305835972 1.3656049304522639 0 1.3656049304522639 1.9615640263650151 0 0 0 0 179.37035172712058 -31.144685594363963 0 -31.144685594363963 -0.44653727949463473 0 0 0 0 201.52150954421111 -5.5893510927953258 0 -5.5893510927953258 -1.2124877219753287 0 0 0 0 276.00165162125631 -136.37540489808106 0 -136.37540489808106 -82.039331499839705 0 0 0 0 112.60008285795629 -7.4670015845122952 0 -7.4670015845122952 -4.8327003746551114 0 0 0 0 31.928663793755675 -9.8717908603750004 0 -9.8717908603750004 -2.4598588333285987 0 0 0 0 58.180463264201535 -14.483429148176203 0 -14.483429148176203 -3.3740258164242793 0 0 0 0 68.157514203805476 8.978114503791522 0 8.978114503791522 7.1271464804775526 0 0 0 0 87.398236424516654 4.5852669880047969 0 4.5852669880047969 -0.027461707098179706 0 0 0 0 90.076060897634306 28.840069264173426 0 28.840069264173426 24.297493868900297 0 0 0 0 64.747806570245302 18.193086904385837 0 18.193086904385837 3.0205979202219169 0 0 0 0 75.567879286309392 11.337569563026463 0 11.337569563026463 -1.3063319547760797 0 0 0 0 117.36048599762907 39.163331553807311 0 39.163331553807311 14.800884439881118 0 0 0 0 112.75212483267387 -54.451695223523444 0 -54.451695223523444 -68.265712245908844 0 0 0 0 131.0134361176315 -34.886855863792242 0 -34.886855863792242 -52.276418017010755 0 0 0 0 115.97531733626965 -46.272629451528971 0 -46.272629451528971 -40.762317469456264 0 0 0 0 65.749011558800703 -26.740648989289781 0 -26.740648989289781 -44.074203388292204 0 0 0 0 73.009496918897412 -43.500538929566503 0 -43.500538929566503 -6.2380728616360148 0 0 0 0 119.32547034419622 -36.853755165057009 0 -36.853755165057009 -43.09041094024451 0 0 0 0 49.404553132468067 3.0723601453896094 0 3.0723601453896094 -2.4177876019348439 0 0 0 0 87.375144389711181 -19.302981893508864 0 -19.302981893508864 1.785716111892536 0 0 0 0 97.574632835603552 -29.00897729378039 0 -29.00897729378039 -56.422471336130911 0 0 0 0 103.35327787856548 -5.3784175925375592 0 -5.3784175925375592 0.93140696256419098 0 0 0 0 141.32462607629714 -116.41168099478318 0 -116.41168099478318 39.073758499183668 0 0 0 0 229.21703774719936 -13.849068645028638 0 -13.849068645028638 -17.693745589633181 0 0 0 0 426.20802433013159 -156.31020086200101 0 -156.31020086200101 -208.60116491319036 0 0 0 0 243.44441656699928 -186.95523553458247 0 -186.95523553458247 371.27373975140983 0 0 0 0 146.12977648799642 76.622045283942555 0 76.622045283942555 -188.38343042313954 0 0 0 0 325.59168005787797 -93.264471646199581 0 -93.264471646199581 -104.38759533311259 0 0 0 0 192.08340082229131 -36.745010124549005 0 -36.745010124549005 0.85176934250678749 0 0 0 0 501.11562427216268 -64.701100515195492 0 -64.701100515195492 -151.75854773145051 0 0 0 0 28.237342554889324 15.038357708324128 0 15.038357708324128 -6.6049181958434175 0 0 0 0 194.47772304841783 -186.16409891623297 0 -186.16409891623297 69.999014567162888 0 0 0 0 109.6520258574019 -66.052853745184677 0 -66.052853745184677 2.2559732487399913 0 0 0 0 52.974205607091648 -10.030121232324973 0 -10.030121232324973 -3.6718844534580204 0 0 0 0 142.81821405529627 188.26493553275947 0 188.26493553275947 119.11734584462911 0 0 0 0 340.10082422439882 -144.82977572604838 0 -144.82977572604838 -57.563509902148127 0 0 0 0 -51.638558799109887 190.74096161861411 0 190.74096161861411 -0.22982482669491996 0 0 0 0 -2.9830697949581406 0.015292752554159961 0 0.015292752554159961 -0.031337091979475186 0 0 0 0 305.34026783930312 -123.3509500531576 0 -123.3509500531576 -69.131266837834332 0 0 0 0 175.79146102037339 -42.451603563181173 0 -42.451603563181173 0.13551428355316794 0 0 0 0 297.62886320938196 -104.60692743203138 0 -104.60692743203138 -15.339374532688197 0 0 0 0 156.7682189461957 -69.466010911640637 0 -69.466010911640637 -0.0079293600452814417 0 0 0 0 98.938093620672589 -35.962886902435187 0 -35.962886902435187 -2.0258436018553567 0 0 0 0 116.07584302895702 -42.297024071056569 0 -42.297024071056569 -0.02752502987745083 0 0 0 0 118.84850438075227 -41.780010664516382 0 -41.780010664516382 -11.721063277059301 0 0 0 0 138.72844262071158 -42.227244855906378 0 -42.227244855906378 -10.869069146409473 0 0 0 0 123.09833746740333 -48.921036632894641 0 -48.921036632894641 0.036204319835458451 0 0 0 0 128.72400287703204 -55.956673668823512 0 -55.956673668823512 -40.6142409197098 0 0 0 0 115.81581531601842 -52.390531204144963 0 -52.390531204144963 -3.7800805277038307 0 0 0 0 132.37866249241051 -44.905413052512444 0 -44.905413052512444 -13.049214730328885 0 0 0 0 97.345587255957071 -14.902148046396221 0 -14.902148046396221 -36.185122978157892 0 0 0 0 224.53749558760319 -44.515868194863863 0 -44.515868194863863 -0.058234026956587623 0 0 0 0 317.35702307738393 50.18549304776694 0 50.18549304776694 -25.605881034401719 0 0 0 0 121.25108809274388 -21.836243031123345 0 -21.836243031123345 19.301524342286129 0 0 0 0 240.72657932477887 12.905348338507139 0 12.905348338507139 -13.976327873830314 0 0 0 0 221.51017535983556 33.749995538750625 0 33.749995538750625 -14.83636959236766 0 0 0 0 65.929441518353997 6.203395810362224 0 6.203395810362224 -4.3640656779465274 0 0 0 0 -1.2306663918843697 168.42790238502914 0 168.42790238502914 -169.00901029983663 0 0 0 0 -1.0615843139601111 -0.021196472521694432 0 -0.021196472521694432 0.66360290298185287 0 0 0 0 231.69831186739611 60.099336683348952 0 60.099336683348952 -126.66923102080517 0 0 0 0 12.503486274246825 -7.9584248155540536 0 -7.9584248155540536 -80.515056850718508 0 0 0 0 36.941958267474547 5.9568043586274371 0 5.9568043586274371 -74.875466518299262 0 0 0 0 34.559644899301929 15.127568497669387 0 15.127568497669387 -56.351172732016607 0 0 0 0 92.233605246408843 -26.749353126565779 0 -26.749353126565779 -75.860358845382507 0 0 0 0 115.18444412262761 -1.7870351023539683 0 -1.7870351023539683 -55.021577892637367 0 0 0 0 109.22797119549159 -67.546767131143312 0 -67.546767131143312 -22.99645010155507 0 0 0 0 67.27935944001365 -29.036915625188229 0 -29.036915625188229 -32.960328065491638 0 0 0 0 76.244857126352144 1.0420851296098874 0 1.0420851296098874 -114.43043364110497 0 0 0 0 20.64386997128895 7.1893055994244648 0 7.1893055994244648 -111.90815509807214 0 0 0 0 9.9464959179806556 -8.2474604601322596 0 -8.2474604601322596 2.2419127467948519 0 0 0 0 35.522753132885555 45.365121834054996 0 45.365121834054996 -147.60954021293975 0 0 0 0 35.075573346781312 -70.625044259092192 0 -70.625044259092192 29.460272571758196 0 0 0 0 54.837373468631995 0.55944298914556612 0 0.55944298914556612 -142.61426905148323 0 0 0 0 24.919838860470918 -26.824161738363358 0 -26.824161738363358 9.3951530767369604 0 0 0 0 109.6323093069368 47.219773509267156 0 47.219773509267156 1.3695055464528423 0 0 0 0 8.9409924402330603 -2.6455258799355477 0 -2.6455258799355477 4.685681409172874 0 0 0 0 -51.421367375209229 -199.87554052643026 0 -199.87554052643026 74.464883965100896 0 0 0 0 113.28085031452065 15.698527303940203 0 15.698527303940203 -120.81995288642824 0 0 0 0 164.85083021753235 -41.490306663302192 0 -41.490306663302192 -79.748308421136841 0 0 0 0 189.43933045525046 -87.266445991512541 0 -87.266445991512541 -29.269659675950777 0 0 0 0 97.868324592185672 -44.304380356890988 0 -44.304380356890988 -41.92351186033693 0 0 0 0 83.660705362039153 -80.17173527803422 0 -80.17173527803422 47.849303206006766 0 0 0 0 98.976509408006677 -21.994942109666781 0 -21.994942109666781 -179.44888863545995 0 0 0 0 116.82269857404754 70.165866016358564 0 70.165866016358564 -10.712564458433754 0 0 0 0 70.769613266728527 -20.42572523514518 0 -20.42572523514518 1.8795033862095976 0 0 0 0 62.326755066111218 3.6599493319221779 0 3.6599493319221779 -29.092026179259875 0 0 0 0 128.27066589426249 22.912803837598858 0 22.912803837598858 -153.47092735053204 0 0 0 0 146.65681520619546 -208.02347252156562 0 -208.02347252156562 -1.9060418102321606 0 0 0 0 117.85395648267877 -33.619654225685281 0 -33.619654225685281 -46.477270322458935 0 0 0 0 10.818586876205643 -12.52887735199927 0 -12.52887735199927 2.3396584430520666 0 0 0 0 103.30662403416807 -21.076651083599778 0 -21.076651083599778 4.3967393719766807 0 0 0 0 0.66922713078383822 -119.03885886279745 0 -119.03885886279745 -2.2209551845751889 0 0 0 0 104.87488829281938 -1.5549917079883926 0 -1.5549917079883926 0.23557819255393042 0 0 0 0 106.12112117700781 -43.966670983176201 0 -43.966670983176201 4.9709049676212684 0 0 0 0 -228.95096076143909 -214.34324970888488 0 -214.34324970888488 -7.2630195286732544 0 0 0 0 117.56557511577557 -272.62623797405831 0 -272.62623797405831 33.313564289176611 0 0 0 0 -24.392670514131169 -157.70922739491692 0 -157.70922739491692 8.3364156935216158 0 0 0 0 119.60244377367781 -104.42756642705513 0 -104.42756642705513 -277.30638994644642 0 0 0 0 20.795536677815278 -24.55251670458064 0 -24.55251670458064 -5.300471987154487 0 0 0 0 126.19418945745565 -585.17124320591074 0 -585.17124320591074 -440.60078180183359 0 0 0 0 74.519859273554175 -66.001000125152359 0 -66.001000125152359 38.063236853679655 0 0 0 0 93.827437832114811 -30.549348718661463 0 -30.549348718661463 214.45672102957724 0 0 0 0 65.386600342618863 -49.281529264672187 0 -49.281529264672187 33.936653828658407 0 0 0 0 2.2315476637046459 -43.389824090419467 0 -43.389824090419467 -23.387566601775752 0 0 0 0 57.636911248002434 -72.134119730280702 0 -72.134119730280702 36.022928542826889 0 0 0 0 45.108090302333579 -16.590129604630491 0 -16.590129604630491 -13.525964125635316 0 0 0 0 100.93264967543655 -57.148915605759157 0 -57.148915605759157 -11.987037197212885 0 0 0 0 -25.84384002618026 42.044436955943127 0 42.044436955943127 31.697756563007118 0 0 0 0 35.996073123817837 -25.266524576164009 0 -25.266524576164009 8.849373124663952 0 0 0 0 68.718355863282341 -45.674086785639929 0 -45.674086785639929 46.614769342872023 0 0 0 0 1.0550109409908828 -4.6819777665380116 0 -4.6819777665380116 5.7153662289180263 0 0 0 0 -9.7065854808024596 9.467106775694333 0 9.467106775694333 26.27233814530814 0 0 0 0 19.044310296129538 -4.7290891096804444 0 -4.7290891096804444 4.9737641460109421 0 0 0 0 48.39864635959384 59.45809523257401 0 59.45809523257401 -164.81164824541361 0 0 0 0 -40.909908094443381 66.061803614058078 0 66.061803614058078 -5.9357679959942553 0 0 0 0 -10.594964067044202 23.086664977615158 0 23.086664977615158 -6.7285041480956806 0 0 0 0 -71.517655972544162 63.98970761614801 0 63.98970761614801 199.00653730442656 0 0 0 0 -94.149197060978622 -174.53850411667599 0 -174.53850411667599 947.19406768243357 0 0 0 0 -79.135818385715538 -258.45688341002256 0 -258.45688341002256 -106.85241671092638 0 0 0 0 -243.8075031220651 -100.70214695969003 0 -100.70214695969003 199.20338378874192 0 0 0 0 140.78995668691283 -41.059670057761736 0 -41.059670057761736 -17.282707960267523 0 0 0 0 311.04125448092236 -1028.4285717393659 0 -1028.4285717393659 -407.0720264462833 0 0 0 0 -68.879216544133669 52.832631249116048 0 52.832631249116048 -173.39411596034415 0 0 0 0 169.5138127398356 -52.037162492184692 0 -52.037162492184692 -16.133057575290742 0 0 0 0 286.98936321605288 0.26104999361018599 0 0.26104999361018599 33.326231471400206 0 0 0 0 -11.119349243119359 -489.71929215974001 0 -489.71929215974001 -868.99915972792633 0 0 0 0 196.70290057989951 46.81271957953291 0 46.81271957953291 48.291677690671349 0 0 0 0 203.8393610611929 11.676367021833585 0 11.676367021833585 16.550104019900573 0 0 0 0 -31.252031433905358 -137.00937648057447 0 -137.00937648057447 -89.352520785500474 0 0 0 0 31.304890938856943 -31.058018837353899 0 -31.058018837353899 18.240111764194978 0 0 0 0 -79.787562067242106 -164.81301406830971 0 -164.81301406830971 -55.200942958402493 0 0 0 0 40.152993227371553 -102.01166153827799 0 -102.01166153827799 -38.955848281038016 0 0 0 0 -59.303590726762195 -109.05892995996578 0 -109.05892995996578 12.256378896694969 0 0 0 0 2.8858916154706833 -7.5863740824508881 0 -7.5863740824508881 25.057557585874058 0 0 0 0 -81.403689833892713 -143.88189721357008 0 -143.88189721357008 -251.29676532367193 0 0 0 0 -170.64535758606507 -42.996727333500075 0 -42.996727333500075 -42.359475024147741 0 0 0 0 -0.82438199966404113 -2.4129588905142896 0 -2.4129588905142896 5.9627811883328405 0 0 0 0 161.51256437704433 -235.27152013620744 0 -235.27152013620744 28.051276902802215 0 0 0 0 -51.88638177595567 -44.704113871701338 0 -44.704113871701338 16.636200665926481 0 0 0 0 222.02432705427782 177.95201572181904 0 177.95201572181904 964.61162714056218 0 0 0 0 -3.5517395060128081 -1.7689848091881117 0 -1.7689848091881117 15.051958991353132 0 0 0 0 -191.69554081937531 697.56864247788189 0 697.56864247788189 1429.7726506998022 0 0 0 0 -375.62452764093177 -728.89667630690656 0 -728.89667630690656 -147.15047266158615 0 0 0 0 41.536592611402739 -63.303876754724115 0 -63.303876754724115 41.169997122090535 0 0 0 0 57.043798327737022 9.1825857685498704 0 9.1825857685498704 88.268999018878276 0 0 0 0 109.81862672453281 -21.357826155206567 0 -21.357826155206567 41.098616783833677 0 0 0 0 104.25597213764559 47.95277783948768 0 47.95277783948768 89.457935247685782 0 0 0 0 169.16605396999512 204.82220505624014 0 204.82220505624014 -336.80410099973813 0 0 0 0 101.54351157438941 -122.10826911038254 0 -122.10826911038254 -560.00892038127836 0 0 0 0 39.123581206215874 -6.2880738010986903 0 -6.2880738010986903 -1.1270063604475107 0 0 0 0 25.950493761451071 40.816275970125673 0 40.816275970125673 -139.53027291012245 0 0 0 0 75.5690894300933 33.688770019743515 0 33.688770019743515 -202.49556387867869 0 0 0 0 189.06175567248283 58.924024793925 0 58.924024793925 116.54070698399369 0 0 0 0 59.004652529918189 -14.431860084773916 0 -14.431860084773916 1.6124237177532321 0 0 0 0 134.31804935357286 139.12493839620109 0 139.12493839620109 175.74280236545621 0 0 0 0 201.28854099583987 364.19605933057733 0 364.19605933057733 429.08192723569982 0 0 0 0 529.29281165628345 101.42141628929267 0 101.42141628929267 -4.973505930353781 0 0 0 0 444.70826038068481 -402.14969259763114 0 -402.14969259763114 -578.69242496347704 0 0 0 0 -44.00659209836158 -22.002923947069377 0 -22.002923947069377 98.960567749309575 0 0 0 0 1084.5117791338416 377.35445151761587 0 377.35445151761587 -817.03790916079129 0 0 0 0 -561.98472277034307 -666.47067485703633 0 -666.47067485703633 -647.09544093217039 0 0 0 0 47.910635812245019 -0.97059067404990174 0 -0.97059067404990174 -4.3181792010202784 0 0 0 0 -698.54057550683501 -149.02979351565773 0 -149.02979351565773 91.018340183016335 0 0 0 0 1877.3607301936427 -419.5306291062293 0 -419.5306291062293 -8.5032375919463448 0 0 0 0 515.60403223952744 -724.39668813899232 0 -724.39668813899232 -509.58932688549669 0 0 0 0 13.577183780009761 -2.0586249494089799 0 -2.0586249494089799 0.14284766449368203 0 0 0 0 655.22412890585838 1356.6281605555932 0 1356.6281605555932 960.88228236120221 0 0 0 0 265.62598971894477 317.15426356288708 0 317.15426356288708 731.09269150538012 0 0 0 0 980.17622225207742 -674.49518136078632 0 -674.49518136078632 -17.535269211040884 0 0 0 0 765.4705243240096 190.68892358143151 0 190.68892358143151 92.716591650430701 0 0 0 0 -172.50661344176478 -78.09313020435917 0 -78.09313020435917 18.92041830922426 0 0 0 0 902.57972972511197 -380.54445303526086 0 -380.54445303526086 -300.9198523638957 0 0 0 0 733.93444652453763 167.76415259020291 0 167.76415259020291 210.14103796719985 0 0 0 0 378.30109060616815 -475.00645307315102 0 -475.00645307315102 302.65400450989205 0 0 0 0 7.500460966660512 -2.3429225807935339 0 -2.3429225807935339 0.82421351463201209 0 0 0 0 720.28072454195353 388.09448057547809 0 388.09448057547809 140.47069283124961 0 0 0 0 -19.975099907052936 226.02292178062226 0 226.02292178062226 41.878348143968424 0 0 0 0 962.35102897597244 -315.79914694029281 0 -315.79914694029281 157.41846289455128 0 0 0 0 1157.5783365588431 37.655773443598548 0 37.655773443598548 -64.963479342434084 0 0 0 0 191.57345439210621 91.454330632337332 0 91.454330632337332 179.32695033509893 0 0 0 0 231.5099971491727 -158.16809662511031 0 -158.16809662511031 676.69161746183477 0 0 0 0 -6.176467733210302 181.69229903259304 0 181.69229903259304 107.27676823464662 0 0 0 0 56.069608405005056 116.36657364024802 0 116.36657364024802 49.40555709877583 0 0 0 0 47.876853702662629 26.895056574045498 0 26.895056574045498 165.127321837175 0 0 0 0 88.981260252345237 132.70541794662506 0 132.70541794662506 -158.330671109587 0 0 0 0 65.197705656481048 -107.48073233841367 0 -107.48073233841367 95.497729274324797 0 0 0 0 49.745689848743496 20.93003697509414 0 20.93003697509414 120.60580402254834 0 0 0 0 80.713355847081402 -59.306196727285197 0 -59.306196727285197 295.64200925821683 0 0 0 0 398.99465805295767 4.5415067623542882 0 4.5415067623542882 49.753264465920552 0 0 0 0 335.70183860423276 -121.97647226494672 0 -121.97647226494672 124.42514338915137 0 0 0 0 484.00761523161782 -63.022821145271848 0 -63.022821145271848 11.227626972041435 0 0 0 0 486.64202625431062 50.906696925052614 0 50.906696925052614 -90.228950486582903 0 0 0 0 262.0257749435259 25.251212990199633 0 25.251212990199633 11.337052546788868 0 0 0 0 263.85004795962595 -69.062527425496967 0 -69.062527425496967 -58.023089447876771 0 0 0 0 94.645875072630588 5.7955278747473358 0 5.7955278747473358 71.635675524618932 0 0 0 0 23.442893431893026 -38.61464785717483 0 -38.61464785717483 103.70371727083682 0 0 0 0 736.6975571156072 32.649767224199479 0 32.649767224199479 -8.7102868265027666 0 0 0 0 717.41413271048805 171.13980487228875 0 171.13980487228875 -43.689579086398908 0 0 0 0 1.0635039423690387 1.119227868005936 0 1.119227868005936 1.2164287815885242 0 0 0 0 733.08779201816651 161.7774969276056 0 161.7774969276056 -92.435894971281414 0 0 0 0 593.62329795237747 -178.40532571707098 0 -178.40532571707098 108.28482486529859 0 0 0 0 787.3362533168256 97.541665284111843 0 97.541665284111843 -57.976598679882954 0 0 0 0 581.14890461068717 69.034364006677976 0 69.034364006677976 -54.456904962119211 0 0 0 0 511.025429573172 10.222673424781362 0 10.222673424781362 -50.916743618671305 0 0 0 0 612.0876630517887 49.628729278610024 0 49.628729278610024 -63.366867369814528 0 0 0 0 631.05512593093954 147.48473736381334 0 147.48473736381334 70.939603200434021 0 0 0 0 604.61314464028692 106.70001391724691 0 106.70001391724691 -133.41218174030578 0 0 0 0 801.27052995201666 7.4510966499455833 0 7.4510966499455833 -85.912449472998702 0 0 0 0 163.51043282871251 102.11212293862621 0 102.11212293862621 -28.356434515368278 0 0 0 0 517.39983385978849 362.34542199078828 0 362.34542199078828 -59.242050695017042 0 0 0 0 222.64005958708003 182.02794242602687 0 182.02794242602687 -43.275584298596414 0 0 0 0 481.86592449768796 108.38676131536971 0 108.38676131536971 -73.92388674747535 0 0 0 0 483.12662000337423 72.493260186946628 0 72.493260186946628 -122.60986422135386 0 0 0 0 586.67087903086212 43.632697870595905 0 43.632697870595905 -145.30687701842589 0 0 0 0 637.06457420668448 54.353054823762733 0 54.353054823762733 -166.19326724593793 0 0 0 0 597.84974235750269 130.24032717033549 0 130.24032717033549 -135.74859410923011 0 0 0 0 634.94116337184096 61.460664425044087 0 61.460664425044087 -168.29060735142625 0 0 0 0 681.61366175013245 25.205701156418357 0 25.205701156418357 -147.76524096858714 0 0 0 0 609.71936167805688 207.46411667914049 0 207.46411667914049 -84.408773026632673 0 0 0 0 451.82265570387972 -58.12531530737602 0 -58.12531530737602 0.3268962550675949 0 0 0 0 3.7581162682312197 -1.9967222232775299 0 -1.9967222232775299 0.6956267437411916 0 0 0 0 5.1913058870704845 -29.289430807773584 0 -29.289430807773584 -13.004538059072237 0 0 0 0 71.387697668316832 -171.60235187643258 0 -171.60235187643258 -182.93683647914668 0 0 0 0 -26.534921670492622 -73.892104356780891 0 -73.892104356780891 43.96265164224846 0 0 0 0 326.88885133358417 169.43805921122288 0 169.43805921122288 -88.595286422097416 0 0 0 0 304.11287036311114 61.855715571818223 0 61.855715571818223 -85.124438541906471 0 0 0 0 131.89841328223702 156.05349856845228 0 156.05349856845228 -19.105831116024888 0 0 0 0 2.5918973242210086 -0.628374635775657 0 -0.628374635775657 0.088448476414825089 0 0 0 0 -9.6699863985995762 -7.616951857879223 0 -7.616951857879223 -0.019267868661440628 0 0 0 0 -7.623761160466529 -5.0931929076907263 0 -5.0931929076907263 -7.1193011097809968 0 0 0 0 0.82678584044333547 -12.900926634213972 0 -12.900926634213972 0.017652284912818634 0 0 0 0 -11.049960867723712 5.5550462914528076 0 5.5550462914528076 14.421146773635179 0 0 0 0 98.998838971543591 -13.501284768137788 0 -13.501284768137788 0.0044390643573522671 0 0 0 0 60.146196143410634 17.126624550055528 0 17.126624550055528 -0.76006745799524833 0 0 0 0 186.96614725983818 1.5247551448560022 0 1.5247551448560022 0.011311646536857499 0 0 0 0 144.78027390064381 0.69915576567059645 0 0.69915576567059645 25.261911571196293 0 0 0 0 178.65301714678935 27.593205228918215 0 27.593205228918215 38.053046788432738 0 0 0 0 156.17451226516278 15.405070498524708 0 15.405070498524708 38.663308118377024 0 0 0 0 127.4494441698771 -37.061516321342047 0 -37.061516321342047 24.484415756000629 0 0 0 0 137.28100491520308 16.514510209051775 0 16.514510209051775 4.2355169838202009 0 0 0 0 98.130253445910057 -30.09753006401516 0 -30.09753006401516 120.20861670009177 0 0 0 0 113.08910154826299 -44.734960400480546 0 -44.734960400480546 64.520186731754222 0 0 0 0 115.3832811496959 23.910625317746263 0 23.910625317746263 77.634542861818503 0 0 0 0 109.19537338515511 -16.951079565351783 0 -16.951079565351783 67.911435834878148 0 0 0 0 77.955949018854881 11.952423438221871 0 11.952423438221871 100.31027708960835 0 0 0 0 133.08486029523192 21.570165045608384 0 21.570165045608384 70.310879732539576 0 0 0 0 92.579070697684074 -16.985817741260547 0 -16.985817741260547 2.6341272708733925 0 0 0 0 65.138207155338023 19.92894258394459 0 19.92894258394459 114.13914517422248 0 0 0 0 167.00068863705383 38.809474033807419 0 38.809474033807419 -94.958369514627734 0 0 0 0 -95.488237432058668 -185.98619130212006 0 -185.98619130212006 64.213916541037705 0 0 0 0 31.371869709575549 -47.792917691731844 0 -47.792917691731844 -27.587868554311981 0 0 0 0 -87.094150201684783 -134.23753889454653 0 -134.23753889454653 90.536727497152185 0 0 0 0 -88.436590645447723 1.7703956971134431 0 1.7703956971134431 22.066977225549806 0 0 0 0 1.5221231173854903 -1.0870250408467825 0 -1.0870250408467825 0.63282889983345458 0 0 0 0 110.32296699048311 -14.650320160198319 0 -14.650320160198319 -21.016296906058258 0 0 0 0 291.80687409848179 -8.8712084350515994 0 -8.8712084350515994 -2.7458743929451419 0 0 0 0 279.43811575953441 5.1513608656793828 0 5.1513608656793828 -0.01444812767631564 0 0 0 0 262.56271558073058 -3.0439168033627331 0 -3.0439168033627331 -1.8245174451551422 0 0 0 0 269.52856869441166 14.794135405436579 0 14.794135405436579 -7.9791714576543313 0 0 0 0 302.0619740546972 15.03631207714705 0 15.03631207714705 -9.8371924957867449 0 0 0 0 276.14214175712186 26.823126541298585 0 26.823126541298585 -11.254632038642956 0 0 0 0 280.55126383357856 42.038092017563216 0 42.038092017563216 14.152187080545378 0 0 0 0 264.13454225521127 9.794454684610356 0 9.794454684610356 -0.0087370375596796217 0 0 0 0 214.64400147108245 27.067965292804583 0 27.067965292804583 11.608054001030826 0 0 0 0 214.73777786173741 20.231650763313667 0 20.231650763313667 5.1178039595821421 0 0 0 0 197.48618415955571 54.541259610238178 0 54.541259610238178 61.200980658024676 0 0 0 0 122.72301631790469 36.844017640319393 0 36.844017640319393 88.312544922549819 0 0 0 0 171.54102961625904 88.082787687955673 0 88.082787687955673 120.81412146785208 0 0 0 0 271.74249513387622 88.718798423174135 0 88.718798423174135 49.757057095976009 0 0 0 0 268.05571124902053 76.808317669085042 0 76.808317669085042 53.966206238918971 0 0 0 0 200.34255218760154 48.970311886053004 0 48.970311886053004 43.591709458054673 0 0 0 0 375.70824957749574 57.925650464506695 0 57.925650464506695 -1.5712668099017399 0 0 0 0 379.28944650510675 127.72907522287221 0 127.72907522287221 63.906347411089769 0 0 0 0 355.25373840752582 62.177128223248374 0 62.177128223248374 50.245562201108712 0 0 0 0 169.95835366321262 -105.24776400528236 0 -105.24776400528236 64.777422856189531 0 0 0 0 481.07430055081204 44.49232460930827 0 44.49232460930827 -13.199040919189271 0 0 0 0 0.41108181799725685 -0.087998937057250259 0 -0.087998937057250259 -0.087205931321978292 0 0 0 0 294.23949206162069 -15.041302331778008 0 -15.041302331778008 -9.7485719171173422 0 0 0 0 329.04014995924081 -10.74319115572713 0 -10.74319115572713 -31.398236981659917 0 0 0 0 349.67654122911335 144.73314322041051 0 144.73314322041051 12.819281770706311 0 0 0 0 742.56899551436072 320.4908938909507 0 320.4908938909507 91.425882184794972 0 0 0 0 232.07878664332384 278.71991370817545 0 278.71991370817545 400.20138532206829 0 0 0 0 306.01868859038223 -180.42109986716082 0 -180.42109986716082 105.25137911785674 0 0 0 0 6.4492711350043237 1.6685486370555296 0 1.6685486370555296 0.62383071330483231 0 0 0 0 749.14663588817348 -166.85326926565003 0 -166.85326926565003 -29.607818764085351 0 0 0 0 284.33962923430954 82.526873808395905 0 82.526873808395905 557.57491060198709 0 0 0 0 761.43442068388822 309.87728184155532 0 309.87728184155532 187.45026074780407 0 0 0 0 288.48153518405525 104.14983899050479 0 104.14983899050479 175.14762663867083 0 0 0 0 374.03298718418228 128.03254220503425 0 128.03254220503425 22.949667106975085 0 0 0 0 733.78362731841776 -144.86014253182071 0 -144.86014253182071 229.25504435144595 0 0 0 0 196.67350249798619 -85.009056736438851 0 -85.009056736438851 266.05135139038026 0 0 0 0 133.23419019972789 35.986087473416717 0 35.986087473416717 41.371201596243623 0 0 0 0 159.29538136774499 30.739608930094363 0 30.739608930094363 104.85314429664611 0 0 0 0 174.88888836532715 119.21689295531665 0 119.21689295531665 255.21861061220685 0 0 0 0 66.182020206437301 -50.833112294192709 0 -50.833112294192709 43.597715940625449 0 0 0 0 83.805397857053322 41.073231565726189 0 41.073231565726189 167.92508022229757 0 0 0 0 18.695242884175968 -100.8032855167408 0 -100.8032855167408 110.55600230962395 0 0 0 0 50.190178504330106 -76.65183275127572 0 -76.65183275127572 -21.256487598382591 0 0 0 0 80.438497513016046 -121.31861864932907 0 -121.31861864932907 -328.37620776908193 0 0 0 0 -62.897506453358801 -18.598777644686038 0 -18.598777644686038 -31.028544704663432 0 0 0 0 88.499524989034398 -77.499068351653932 0 -77.499068351653932 -271.15451205487233 0 0 0 0 8.1744873488833036 -1.2819566073006818 0 -1.2819566073006818 -0.39938473167807609 0 0 0 0 -61.557550657718821 -67.248226892187517 0 -67.248226892187517 1.0720608112374066 0 0 0 0 -45.58337746145844 -142.57295171184228 0 -142.57295171184228 -3.6037578482585957 0 0 0 0 127.95533045886259 183.89988356458994 0 183.89988356458994 -101.9716395611124 0 0 0 0 452.32824980386067 25.689012921862513 0 25.689012921862513 -38.002012475899335 0 0 0 0 4.3956653365509055 -0.15822128173746819 0 -0.15822128173746819 -0.31164917583394147 0 0 0 0 456.54911383040599 152.05021762665456 0 152.05021762665456 -263.735735835377 0 0 0 0 120.99260986079753 -209.95874012696709 0 -209.95874012696709 6.4223522624053544 0 0 0 0 502.10564945731312 77.677613221452077 0 77.677613221452077 -142.32084290487603 0 0 0 0 519.37621538883104 197.52835781875234 0 197.52835781875234 -90.938865565571064 0 0 0 0 172.97430917498241 70.879155287655365 0 70.879155287655365 -35.022715104119015 0 0 0 0 131.81895273423288 51.839249042434176 0 51.839249042434176 23.903274363407888 0 0 0 0 -1.0253452737388749 -0.41563418533650065 0 -0.41563418533650065 -6.199804541485463 0 0 0 0 39.897715609666193 -27.10042658637775 0 -27.10042658637775 -24.239372635737595 0 0 0 0 49.857746835012222 90.750191118361272 0 90.750191118361272 32.970778775335589 0 0 0 0 74.145220961145242 109.63834843854795 0 109.63834843854795 -30.650473533789636 0 0 0 0 30.516573279950535 40.11406321196894 0 40.11406321196894 22.575423109047463 0 0 0 0 -2.5367062737059314 -17.324669840072573 0 -17.324669840072573 110.93112069034976 0 0 0 0 40.848549019894563 74.069025529402822 0 74.069025529402822 134.13486200202348 0 0 0 0 0.10520731377708259 0.13072131116231844 0 0.13072131116231844 -1.9861987999017994 0 0 0 0 -115.26506284031348 -78.70730349514578 0 -78.70730349514578 -3.3361838913482416 0 0 0 0 77.848810349893029 11.692990171417174 0 11.692990171417174 36.278542674101004 0 0 0 0 50.196170278413774 -38.893166375852118 0 -38.893166375852118 41.231792638352772 0 0 0 0 58.099002680392005 -125.83237173341988 0 -125.83237173341988 -87.631733762655529 0 0 0 0 59.945443774267915 -90.986497696125468 0 -90.986497696125468 -30.351467343606203 0 0 0 0 67.172224286434357 -62.325360672572202 0 -62.325360672572202 67.032549511992215 0 0 0 0 6.5961785533290822 -135.80632599234377 0 -135.80632599234377 25.23630761950875 0 0 0 0 69.150309620803455 -146.71593873892499 0 -146.71593873892499 8.3349255576226824 0 0 0 0 66.80623866377573 -104.87126295056157 0 -104.87126295056157 -6.3651234095192422 0 0 0 0 97.134119593014475 -59.475522516628075 0 -59.475522516628075 -31.517450991566477 0 0 0 0 71.359335840417771 -139.86632616990175 0 -139.86632616990175 -37.617342632570399 0 0 0 0 372.20762653833663 187.09605259092058 0 187.09605259092058 -185.64205017586482 0 0 0 0 236.06226565653924 -183.05947169892076 0 -183.05947169892076 -30.945272471454928 0 0 0 0 275.90931681471557 -254.12008937638808 0 -254.12008937638808 168.81664959284944 0 0 0 0 54.58311137095734 -182.61835147588135 0 -182.61835147588135 18.545971091701006 0 0 0 0 4.0180646356872103 -0.34647105220958707 0 -0.34647105220958707 -0.27029435048080996 0 0 0 0 -66.247877605230315 -128.99566452012283 0 -128.99566452012283 24.625266753024107 0 0 0 0 31.613184960850049 130.03426183819352 0 130.03426183819352 -95.932022776300073 0 0 0 0 241.59724596931483 36.332914326279251 0 36.332914326279251 -275.60894796337664 0 0 0 0 243.36533991378747 -28.374045318087639 0 -28.374045318087639 -114.68351937669013 0 0 0 0 236.95743174024392 24.358592789831619 0 24.358592789831619 -149.52789791556961 0 0 0 0 212.43002927898488 24.535948689647284 0 24.535948689647284 -31.010669301045709 0 0 0 0 241.04517372572445 -56.365893120524788 0 -56.365893120524788 40.11987763349498 0 0 0 0 16.26330189134649 1.6449870035653475 0 1.6449870035653475 -12.014037301418757 0 0 0 0 86.593474869082399 -12.84571303043424 0 -12.84571303043424 0.18981923978468718 0 0 0 0 17.409165331497775 9.8117265866837897 0 9.8117265866837897 -6.4150849795911364 0 0 0 0 225.07484238359029 -25.272950831844014 0 -25.272950831844014 -20.390532011547748 0 0 0 0 135.76545999858354 -59.359480529573602 0 -59.359480529573602 -8.8488137806225495 0 0 0 0 -0.72866200876887888 39.400643273577771 0 39.400643273577771 8.8808112767692364 0 0 0 0 270.44617379660485 -67.516175852191964 0 -67.516175852191964 -79.962498785195606 0 0 0 0 274.3968658663216 -2.6707493703539171 0 -2.6707493703539171 -80.451465721874683 0 0 0 0 244.51427254773444 -11.735900852903796 0 -11.735900852903796 -33.940451052032586 0 0 0 0 223.92645040944626 42.796227027147609 0 42.796227027147609 -110.14537960796633 0 0 0 0 139.1387759597128 91.135297443227614 0 91.135297443227614 -33.525897867568347 0 0 0 0 160.39213252087939 51.678225111222446 0 51.678225111222446 3.0100597402441736 0 0 0 0 118.30682375701144 53.620112389478891 0 53.620112389478891 -55.883095050595841 0 0 0 0 50.284766725468216 80.44117526082232 0 80.44117526082232 -56.378432938340666 0 0 0 0 58.83793308143504 -66.811965472936436 0 -66.811965472936436 -230.38147316412113 0 0 0 0 124.90264385691262 108.30508494356184 0 108.30508494356184 -52.507454615295956 0 0 0 0 1.7776584493694827 -41.333894603904582 0 -41.333894603904582 -86.193815428828032 0 0 0 0 137.19724354855134 58.203900894240178 0 58.203900894240178 49.44195487576107 0 0 0 0 137.53074550110614 52.064220777115224 0 52.064220777115224 49.399554768980579 0 0 0 0 137.68713349953759 54.128836634371169 0 54.128836634371169 42.101287277800111 0 0 0 0 137.11595857268549 57.268506360821448 0 57.268506360821448 43.019541886056686 0 0 0 0 127.3256421975594 16.718878007562324 0 16.718878007562324 -9.6751672024254542 0 0 0 0 18.822115696792324 39.889955704469315 0 39.889955704469315 6.7518220835543694 0 0 0 0 148.53613387795576 46.750203523514244 0 46.750203523514244 22.427763521744055 0 0 0 0 130.41758910039061 46.337170952487213 0 46.337170952487213 29.095255457569692 0 0 0 0 146.14367389354447 27.755808884037833 0 27.755808884037833 -9.8303783844207828 0 0 0 0 146.31000030308496 63.331854797229425 0 63.331854797229425 39.938669976441815 0 0 0 0 78.998977362200094 -30.580086891574524 0 -30.580086891574524 -73.164803497682897 0 0 0 0 86.431834742777426 -4.7495126475550222 0 -4.7495126475550222 -27.307911067482706 0 0 0 0 70.411741269868799 -18.101415211099493 0 -18.101415211099493 -26.842799462797188 0 0 0 0 110.06523321850182 -6.9349277825597255 0 -6.9349277825597255 -60.578717296631112 0 0 0 0 3.1768092925739495 -1.7129956483520488 0 -1.7129956483520488 1.3010997004324354 0 0 0 0 80.492971824045526 -91.318956154261741 0 -91.318956154261741 -67.618726786712614 0 0 0 0 23.466721402073745 -21.295528636875133 0 -21.295528636875133 -87.942255121846756 0 0 0 0 649.92400570781319 432.09748643684065 0 432.09748643684065 87.20576132989973 0 0 0 0 -0.66696677488406664 42.340696497676447 0 42.340696497676447 35.539335842704588 0 0 0 0 266.64112304177979 77.78860336185312 0 77.78860336185312 399.97889580997889 0 0 0 0 263.35136331051763 -179.74016427195579 0 -179.74016427195579 -49.943484198637179 0 0 0 0 638.32362151434063 11.244701506814181 0 11.244701506814181 -171.16547276321717 0 0 0 0 123.63056230734219 -120.74788217623473 0 -120.74788217623473 -55.897063955721023 0 0 0 0 119.59392526253941 -64.772742574940821 0 -64.772742574940821 -91.999072901283398 0 0 0 0 8.2267395478265826 -26.064295526408387 0 -26.064295526408387 -97.183615146580451 0 0 0 0 86.319018939655507 -87.097562696368186 0 -87.097562696368186 -65.768436137802837 0 0 0 0 108.82535483434185 -83.005737762816011 0 -83.005737762816011 -123.36482102412992 0 0 0 0 -82.836581358336844 -32.60695196371762 0 -32.60695196371762 -111.28376314010256 0 0 0 0 66.015967108613722 -18.610427296865609 0 -18.610427296865609 12.794949610507246 0 0 0 0 184.0364679344857 -110.05833414697258 0 -110.05833414697258 -166.00550910946185 0 0 0 0 107.44865789930918 75.709025763659724 0 75.709025763659724 83.301474840276796 0 0 0 0 337.81504327167931 -92.440402863295276 0 -92.440402863295276 -173.10703361197011 0 0 0 0 184.48977203389222 -119.9696708215024 0 -119.9696708215024 -134.14413346432889 0 0 0 0 147.98938268085476 2.4538229319241509 0 2.4538229319241509 -53.925283652049075 0 0 0 0 333.04836631868238 47.231646667456403 0 47.231646667456403 -115.46450215283949 0 0 0 0 282.22866356524173 -22.025532084099723 0 -22.025532084099723 -147.20881811784693 0 0 0 0 308.13591703728889 -3.7493130509224102 0 -3.7493130509224102 -136.02542771964454 0 0 0 0 244.15405936719617 95.817713910900693 0 95.817713910900693 4.2326037667189667 0 0 0 0 230.30509358379641 92.022943696520997 0 92.022943696520997 -58.204117514597783 0 0 0 0 205.16862214865978 105.66913369552231 0 105.66913369552231 8.1596466881412653 0 0 0 0 104.38106984044595 -17.352481325865718 0 -17.352481325865718 0.94173972188828436 0 0 0 0 84.05354791160363 -4.9338282552905071 0 -4.9338282552905071 -8.9779334028502547 0 0 0 0 45.907208167976933 4.7864452474699988 0 4.7864452474699988 3.8408670807375529 0 0 0 0 58.025251317754737 102.22014786055888 0 102.22014786055888 150.208337314353 0 0 0 0 93.945911187181537 -18.90899765206656 0 -18.90899765206656 -4.3409331508058324 0 0 0 0 197.92735235753571 -15.678490907375107 0 -15.678490907375107 23.877554708809839 0 0 0 0 172.4434995171323 -2.1964302599506027 0 -2.1964302599506027 -21.273320842160274 0 0 0 0 105.41278963209334 -74.814020169894775 0 -74.814020169894775 9.448684334380232 0 0 0 0 -36.45596136648237 -45.510954526477349 0 -45.510954526477349 3.9289106947062464 0 0 0 0 147.59663573902799 224.88528084101563 0 224.88528084101563 71.902504404744292 0 0 0 0 112.23400551622569 -13.148573619404928 0 -13.148573619404928 -7.6851386854701014 0 0 0 0 164.63707814906957 -42.028408424554755 0 -42.028408424554755 112.77631361906595 0 0 0 0 16.709981788633741 7.889023409186052 0 7.889023409186052 149.19661522737761 0 0 0 0 371.70336592770764 -120.67037718485665 0 -120.67037718485665 -108.26214009466798 0 0 0 0 123.43017189012102 -13.751167885825332 0 -13.751167885825332 -6.7865242036736948 0 0 0 0 171.61451371332805 -43.103918707497769 0 -43.103918707497769 12.344392980548037 0 0 0 0 116.30211571213749 33.815849523447497 0 33.815849523447497 -1.7894748675325731 0 0 0 0 170.10760047384247 -21.287002685733114 0 -21.287002685733114 -154.50795189202654 0 0 0 0 44.79440826640348 154.30352239419835 0 154.30352239419835 -15.338527559191107 0 0 0 0 8.955061446833156 16.02237027721165 0 16.02237027721165 -2.1057008251615836 0 0 0 0 310.13114564871648 -116.23260638784143 0 -116.23260638784143 -603.03857222782904 0 0 0 0 -211.41426434034656 231.28052721400729 0 231.28052721400729 290.10791956243315 0 0 0 0 109.47339241171721 -50.129413747967192 0 -50.129413747967192 -85.318878505419889 0 0 0 0 -46.822906345740194 359.01623241128561 0 359.01623241128561 -110.64444006537178 0 0 0 0 24.783666217577036 -12.949267064635293 0 -12.949267064635293 -17.020062800100902 0 0 0 0 152.21399036566436 -82.069230368543913 0 -82.069230368543913 -351.85033599543715 0 0 0 0 -44.517377432421199 -286.52702416511943 0 -286.52702416511943 -344.53955899059019 0 0 0 0 21.210619798696484 -8.7187887998540958 0 -8.7187887998540958 2.6510000717088253 0 0 0 0 298.4865831586867 650.36477551525957 0 650.36477551525957 111.13240369164146 0 0 0 0 131.49144780290953 402.50285617660893 0 402.50285617660893 611.35565792439957 0 0 0 0 517.806801011684 143.49769460347056 0 143.49769460347056 -522.45942748592245 0 0 0 0 -57.811605587999111 -202.66223280522672 0 -202.66223280522672 -205.17952252321584 0 0 0 0 16.743622693378711 -112.0802071596803 0 -112.0802071596803 -250.90463639318978 0 0 0 0 35.782635260638415 -18.697463358832763 0 -18.697463358832763 6.2419475987171973 0 0 0 0 -40.730635845073266 -95.227250114568506 0 -95.227250114568506 -134.02865818782243 0 0 0 0 384.47645172306511 -245.03492082041805 0 -245.03492082041805 52.331045699096876 0 0 0 0 -0.55044025424285792 -28.817256386590543 0 -28.817256386590543 -225.5697772654521 0 0 0 0 -110.39121448887454 -66.156887134080762 0 -66.156887134080762 -161.65119019676922 0 0 0 0 63.262008941383101 -9.1498170334143651 0 -9.1498170334143651 -172.83375778857777 0 0 0 0 12.602787573414389 21.871506946181171 0 21.871506946181171 -70.310131502113791 0 0 0 0 17.076318635954522 -82.441220864949173 0 -82.441220864949173 -188.18630487845576 0 0 0 0 70.507938995535369 -1.9599323935960911 0 -1.9599323935960911 -128.3992743206145 0 0 0 0 0.57597329106647521 45.138695629289032 0 45.138695629289032 10.542372148188861 0 0 0 0 -6.2631743746533175 6.1510452461962473 0 6.1510452461962473 -121.70686010328973 0 0 0 0 17.971514237200608 -73.389712656628944 0 -73.389712656628944 -173.01674505731398 0 0 0 0 11.406679959822213 -11.451821629425922 0 -11.451821629425922 -98.667192879230583 0 0 0 0 16.058918619655742 -33.76933011726311 0 -33.76933011726311 -63.01356600188592 0 0 0 0 473.31155678406139 -338.11784353877101 0 -338.11784353877101 -454.79058141436781 0 0 0 0 86.057554855113267 109.06549552549808 0 109.06549552549808 -19.413576151775857 0 0 0 0 6.3372021923297552 -5.0412393095992059 0 -5.0412393095992059 3.8421453936694521 0 0 0 0 1192.3732587102859 382.99547812819833 0 382.99547812819833 -561.79515541603564 0 0 0 0 143.39505500928499 6.8360098011851846 0 6.8360098011851846 -73.7754554627017 0 0 0 0 35.126405433293257 -52.954958107933692 0 -52.954958107933692 3.1151036072251372 0 0 0 0 2.08747613257583 -3.0873027040939292 0 -3.0873027040939292 -32.747493316052669 0 0 0 0 1.5239441827036444 -3.33571829712848 0 -3.33571829712848 4.7959364012982686 0 0 0 0 258.05378677346016 136.4008836243317 0 136.4008836243317 84.594944137475153 0 0 0 0 -395.46916267774213 -149.38226234954698 0 -149.38226234954698 502.48295082538903 0 0 0 0 759.58803365747735 -428.04902848194979 0 -428.04902848194979 269.90150627875164 0 0 0 0 -373.87285928985511 174.82962528538843 0 174.82962528538843 1112.8161680548665 0 0 0 0 481.84300458540383 -316.5254588063508 0 -316.5254588063508 752.66954045930538 0 0 0 0 389.3422692543827 345.03949796399456 0 345.03949796399456 678.15384144220025 0 0 0 0 -65.564432448898515 -433.37509939551757 0 -433.37509939551757 42.763906871857557 0 0 0 0 5.234743498134776 -3.1523636807502129 0 -3.1523636807502129 2.3101657155561561 0 0 0 0 -155.19274422666786 -42.964107705253767 0 -42.964107705253767 -19.761817929176686 0 0 0 0 271.95007486717077 -276.29385361955593 0 -276.29385361955593 102.8987086643167 0 0 0 0 34.218741593387676 -206.32326585295777 0 -206.32326585295777 385.28735149239799 0 0 0 0 126.0837879360306 -299.9227138466905 0 -299.9227138466905 98.317035250029221 0 0 0 0 135.17555142868537 133.96796811569953 0 133.96796811569953 173.98289424644531 0 0 0 0 159.90639938232198 -87.226940430660761 0 -87.226940430660761 -150.56812496710199 0 0 0 0 92.784100849059996 -13.580520254454619 0 -13.580520254454619 -3.5837020643757782 0 0 0 0 14.487056659420627 4.012341679721942 0 4.012341679721942 11.568948120262394 0 0 0 0 863.07500101400001 -354.50776312620849 0 -354.50776312620849 -63.042387755804157 0 0 0 0 -81.751244677248906 115.49091540456811 0 115.49091540456811 209.95339352997598 0 0 0 0 -82.837937321775826 52.995921260169098 0 52.995921260169098 3.764557266303882 0 0 0 0 846.69145286819548 -245.5826794730815 0 -245.5826794730815 -516.33066397151197 0 0 0 0 943.64372565690428 -89.596885386402391 0 -89.596885386402391 -838.8260657402061 0 0 0 0 908.51895389080164 0.77723487473122077 0 0.77723487473122077 -581.14953994524876 0 0 0 0 942.21887663478265 -76.792446624379409 0 -76.792446624379409 -608.87705642155561 0 0 0 0 942.25099080655491 -52.796968039590411 0 -52.796968039590411 -503.65656447249603 0 0 0 0 848.17702720488887 -260.42171209214348 0 -260.42171209214348 -369.62460762014416 0 0 0 0 802.84432113707589 -257.03779740382242 0 -257.03779740382242 -75.004538072260402 0 0 0 0 671.08242213731864 -253.30386179910624 0 -253.30386179910624 -74.531330431680544 0 0 0 0 -29.50453957656282 -195.41576143349312 0 -195.41576143349312 476.35349778344653 0 0 0 0 174.84268056548899 -279.69478250461179 0 -279.69478250461179 -81.545040121206512 0 0 0 0 -79.615927176962941 81.727011633514536 0 81.727011633514536 43.509971900611163 0 0 0 0 135.05860362297972 -129.50157208469818 0 -129.50157208469818 -279.59843143134458 0 0 0 0 105.28686432410905 26.758910110844226 0 26.758910110844226 -6.8668856523017894 0 0 0 0 78.751349657990687 -6.1160769365994767 0 -6.1160769365994767 -1.4838515153094285 0 0 0 0 84.841767585341586 32.646717216153775 0 32.646717216153775 8.8064012000286311 0 0 0 0 81.536436946011236 38.209010294109703 0 38.209010294109703 18.607636711069063 0 0 0 0 1009.3464629398222 367.79454320399941 0 367.79454320399941 -281.57095894710756 0 0 0 0 683.48253231134731 -163.53083338751821 0 -163.53083338751821 3491.9989765765167 0 0 0 0 10.846474274647747 36.897331497476557 0 36.897331497476557 42.41934175085369 0 0 0 0 968.9223898355267 171.59586740052418 0 171.59586740052418 -678.33084185649182 0 0 0 0 963.57783692557859 214.94819450270575 0 214.94819450270575 -367.44169723127561 0 0 0 0 961.9049947221647 147.34139035662429 0 147.34139035662429 -759.93210813010819 0 0 0 0 844.3747024848708 201.71122305579593 0 201.71122305579593 -251.03523839111972 0 0 0 0 950.47851561775315 416.82266370412117 0 416.82266370412117 -190.20233781318348 0 0 0 0 993.57434747152729 489.46124435585762 0 489.46124435585762 -69.523367696628156 0 0 0 0 25.276021843433028 -10.017750578447011 0 -10.017750578447011 4.767142414218668 0 0 0 0 542.10196758490929 520.50048313556704 0 520.50048313556704 510.58922152046193 0 0 0 0 952.20065830892418 528.46644972418244 0 528.46644972418244 -2.4350267354802781 0 0 0 0 695.13846807921254 132.13107256227852 0 132.13107256227852 18.350450975710828 0 0 0 0 206.47356118471362 186.59546630768386 0 186.59546630768386 281.49787771009824 0 0 0 0 696.5677803477156 124.43925657980799 0 124.43925657980799 -192.22439327558641 0 0 0 0 868.6973561840714 321.64236170981985 0 321.64236170981985 6.6336128463740351 0 0 0 0 878.92504412705603 470.75570016698225 0 470.75570016698225 51.179496938108969 0 0 0 0 903.78592770754767 34.380143153824292 0 34.380143153824292 -253.15915128344932 0 0 0 0 755.63342017808463 -157.81487772313221 0 -157.81487772313221 -260.00561488682854 0 0 0 0 437.81739838173962 28.500078275254168 0 28.500078275254168 -10.396705938220748 0 0 0 0 646.12932615479804 -293.04927175575313 0 -293.04927175575313 133.12302922663105 0 0 0 0 599.4797299253114 -180.9991126575394 0 -180.9991126575394 11.970724004485419 0 0 0 0 79.805161739803907 31.387264487535006 0 31.387264487535006 148.02972039986071 0 0 0 0 79.926806992647471 37.408344706144362 0 37.408344706144362 176.13272124200876 0 0 0 0 336.48089010205877 -48.711197652682131 0 -48.711197652682131 126.69929280538895 0 0 0 0 193.9779335988278 -34.439280134976343 0 -34.439280134976343 169.79488609178088 0 0 0 0 184.70172812000965 38.843876937855384 0 38.843876937855384 138.3257251974801 0 0 0 0 241.78405247058254 60.994059699241916 0 60.994059699241916 152.76486851366917 0 0 0 0 93.640649529697839 57.85026123632133 0 57.85026123632133 190.47813580352067 0 0 0 0 93.013155896714579 8.8790567439995378 0 8.8790567439995378 143.79061158370223 0 0 0 0 102.83240275889693 -29.063552133716712 0 -29.063552133716712 80.082784556619117 0 0 0 0 81.412265755498083 -25.19087904497087 0 -25.19087904497087 154.50646272190352 0 0 0 0 76.785635773071078 -19.463094715462972 0 -19.463094715462972 0.50989175772771267 0 0 0 0 309.95497285157035 -5.855364057452789 0 -5.855364057452789 -340.88866361624673 0 0 0 0 88.47918875303003 3.4844326833813284 0 3.4844326833813284 40.437042703698808 0 0 0 0 127.14827551220515 27.02944450939674 0 27.02944450939674 54.245465525704276 0 0 0 0 25.70955717696566 -0.92827798567763864 0 -0.92827798567763864 -4.6716663193623749 0 0 0 0 -352.98079428907658 929.27030111416752 0 929.27030111416752 118.35596012761198 0 0 0 0 54.649016075380302 -3.4785990453576083 0 -3.4785990453576083 -1.999280893759213 0 0 0 0 247.17509057116695 -206.49099409486689 0 -206.49099409486689 -77.457955945224739 0 0 0 0 59.443043047576793 4.3577480918118852 0 4.3577480918118852 -3.1496367520773703 0 0 0 0 -36.424496212257509 56.946211337926059 0 56.946211337926059 19.187023954497818 0 0 0 0 8.1725583052259196 0.072084974965764603 0 0.072084974965764603 0.13139051596519713 0 0 0 0 162.65352593670832 131.84583211935933 0 131.84583211935933 231.30392804895985 0 0 0 0 22.954046386294067 86.322936881619171 0 86.322936881619171 217.7247116127719 0 0 0 0 86.637378501152853 130.19719731778878 0 130.19719731778878 199.35233299675747 0 0 0 0 112.96574658324244 142.41011355280898 0 142.41011355280898 204.35656499850847 0 0 0 0 127.00143632257823 103.39547375455777 0 103.39547375455777 133.32050201247694 0 0 0 0 205.46407932965667 96.960668861778686 0 96.960668861778686 126.13393220889702 0 0 0 0 189.31060463795438 151.89092096850163 0 151.89092096850163 170.95475287669888 0 0 0 0 463.16139471379574 153.39556848740722 0 153.39556848740722 165.38320627730536 0 0 0 0 299.08542543684598 159.12107564007783 0 159.12107564007783 165.94311050978467 0 0 0 0 814.4561508607585 -48.046507760178429 0 -48.046507760178429 58.754537368404272 0 0 0 0 413.30650318491098 -69.410707517232368 0 -69.410707517232368 58.114671068196913 0 0 0 0 236.51098774021375 -30.834838444267007 0 -30.834838444267007 96.629721105634417 0 0 0 0 199.035064282245 -20.785553401042876 0 -20.785553401042876 106.03116452078302 0 0 0 0 239.45477433467022 91.793886735639148 0 91.793886735639148 81.210773719278222 0 0 0 0 164.67810021521291 94.328611773592456 0 94.328611773592456 126.10440652275625 0 0 0 0 168.23625828418881 121.96241977110549 0 121.96241977110549 122.28750231047525 0 0 0 0 147.54338589208783 60.605697013261306 0 60.605697013261306 71.171004984528736 0 0 0 0 137.38043915460003 108.76122687601037 0 108.76122687601037 89.455579660142121 0 0 0 0 105.96769886094262 86.857418483965603 0 86.857418483965603 104.76879012047357 0 0 0 0 37.328371278563282 49.266505240840615 0 49.266505240840615 114.63284902520149 0 0 0 0 -21.172441431641346 63.293940975795522 0 63.293940975795522 152.49412521395084 0 0 0 0 33.434778013786854 34.736938338615801 0 34.736938338615801 145.63212664241019 0 0 0 0 -62.083077156887157 147.27817254025103 0 147.27817254025103 13.058859411363073 0 0 0 0 293.36319778597681 -617.80764631856891 0 -617.80764631856891 489.24081945607236 0 0 0 0 -438.13377086591208 -42.98129545928532 0 -42.98129545928532 318.52765977329273 0 0 0 0 135.30447162466589 -176.12442266116796 0 -176.12442266116796 284.92306115065912 0 0 0 0 -65.700543277685938 -20.862555020030641 0 -20.862555020030641 187.53548849877734 0 0 0 0 118.9286596000311 26.720864797137438 0 26.720864797137438 86.011008313504135 0 0 0 0 32.62196132641111 17.806590936791508 0 17.806590936791508 140.66099109024617 0 0 0 0 95.264391573524335 -41.857347347795894 0 -41.857347347795894 171.20895084080803 0 0 0 0 22.804939992143773 30.556047120816402 0 30.556047120816402 169.42448800265538 0 0 0 0 24.095725635968847 46.207081018070767 0 46.207081018070767 172.41122613780567 0 0 0 0 35.184623234345054 52.775557005535234 0 52.775557005535234 118.9536228789957 0 0 0 0 44.386815841702628 41.025608133537162 0 41.025608133537162 91.783613723720009 0 0 0 0 91.636982005842583 68.383973120104457 0 68.383973120104457 33.974858072251664 0 0 0 0 95.941601432539755 40.41714724586177 0 40.41714724586177 56.995703310490171 0 0 0 0 46.46998878037266 106.33519405200536 0 106.33519405200536 -6.6995576693848307 0 0 0 0 18.654871804668801 61.528476847007482 0 61.528476847007482 93.398180025475995 0 0 0 0 117.03402596103842 53.723457802645271 0 53.723457802645271 24.331268309981624 0 0 0 0 100.39689452339371 71.776455353019173 0 71.776455353019173 52.690034546153584 0 0 0 0 118.3752106212487 82.023813033543547 0 82.023813033543547 45.739653123617131 0 0 0 0 134.67118202536949 79.519216506559587 0 79.519216506559587 50.86250968901868 0 0 0 0 145.12747139774729 22.396284310835654 0 22.396284310835654 72.36738960426328 0 0 0 0 137.12195960393001 58.834941896043347 0 58.834941896043347 -15.333505084956414 0 0 0 0 119.67610510464874 44.016207883283755 0 44.016207883283755 -50.897852129158537 0 0 0 0 99.972718859731685 44.295672295673853 0 44.295672295673853 -11.742304327092199 0 0 0 0 97.340467895264737 87.782665483728124 0 87.782665483728124 -213.4823889893446 0 0 0 0 10.808015209491714 -86.702080591986714 0 -86.702080591986714 -110.36989807915984 0 0 0 0 103.45891208589092 24.329957929532526 0 24.329957929532526 -73.985406634336414 0 0 0 0 -4.9090183249572874 56.709862119436991 0 56.709862119436991 -294.02068963173497 0 0 0 0 18.030687932757324 8.4423504970181682 0 8.4423504970181682 -0.049218781111365573 0 0 0 0 10.232435779993239 7.9504004458722477 0 7.9504004458722477 5.0291971241543294 0 0 0 0 101.57595567440148 -40.909510538003701 0 -40.909510538003701 -281.62413614931756 0 0 0 0 -79.849054957405315 65.880071661433476 0 65.880071661433476 -2.9105717082761657 0 0 0 0 49.425165233813459 -57.677252978690376 0 -57.677252978690376 -231.96776609023959 0 0 0 0 138.10741919657448 85.485505524938162 0 85.485505524938162 -4.0379424990424013 0 0 0 0 443.25923942575173 436.09647628020093 0 436.09647628020093 87.591527024441859 0 0 0 0 130.50928764264972 81.259270237443388 0 81.259270237443388 86.44662552529735 0 0 0 0 416.89237519080052 142.45121961443238 0 142.45121961443238 37.778356330956967 0 0 0 0 251.47066923363309 -7.7466748836880015 0 -7.7466748836880015 -279.28799049837886 0 0 0 0 336.49591585444432 205.0622002105199 0 205.0622002105199 136.44508670517325 0 0 0 0 367.92030432522006 -63.691301423793448 0 -63.691301423793448 204.56658349810834 0 0 0 0 325.47976433137956 -117.23618480797768 0 -117.23618480797768 147.64799975955702 0 0 0 0 169.9870863189426 17.224018372851106 0 17.224018372851106 85.929548949794935 0 0 0 0 164.02934763286612 22.575131511557629 0 22.575131511557629 144.03996551976127 0 0 0 0 64.907512965350179 8.9398129047062866 0 8.9398129047062866 137.29489896699624 0 0 0 0 42.496273187862244 59.147983658333942 0 59.147983658333942 153.57814833581273 0 0 0 0 78.627319927370991 57.156438980152416 0 57.156438980152416 -2.4794337382218146 0 0 0 0 10.813265569959185 9.9660820371572072 0 9.9660820371572072 97.550338688194188 0 0 0 0 3.5729343392740702 30.499588068896173 0 30.499588068896173 39.026651909828161 0 0 0 0 -9.458682940719882 2.5835326331434771 0 2.5835326331434771 34.814528712020547 0 0 0 0 123.17437339869502 -73.338231996220657 0 -73.338231996220657 -3.1152888221884041 0 0 0 0 208.38621613981377 62.568584799726253 0 62.568584799726253 30.054859285913039 0 0 0 0 240.9217456853512 -76.704367859188565 0 -76.704367859188565 -13.456331231497984 0 0 0 0 5.3569163692490065 0.37747136775116985 0 0.37747136775116985 1.6014624891722979 0 0 0 0 47.842156904430567 -55.599292718520431 0 -55.599292718520431 221.10555677004334 0 0 0 0 37.085101688175456 -3.5819162465395209 0 -3.5819162465395209 -2.8653510935287887 0 0 0 0 48.005329045030862 -36.638738281282734 0 -36.638738281282734 153.73115359956262 0 0 0 0 14.193158085247887 28.765342128064184 0 28.765342128064184 274.49179262671288 0 0 0 0 16.738681504302804 49.831433581809719 0 49.831433581809719 152.12269408439903 0 0 0 0 140.31642535014544 142.91871605248593 0 142.91871605248593 60.587288270548015 0 0 0 0 -65.337182661503903 86.960903423754374 0 86.960903423754374 137.75491614623883 0 0 0 0 80.719184220477473 -266.05311045759538 0 -266.05311045759538 31.626512269085083 0 0 0 0 0.71013766925372579 -2.4120469086376488 0 -2.4120469086376488 4.9220082735286708 0 0 0 0 223.27321908611339 -58.797482238809152 0 -58.797482238809152 -67.056476135509115 0 0 0 0 429.4892848154559 -107.23500425073757 0 -107.23500425073757 -55.682406379642998 0 0 0 0 268.82056442592875 -184.84117292767928 0 -184.84117292767928 39.584128271972077 0 0 0 0 204.76071972741374 343.92405134411138 0 343.92405134411138 104.75574322494322 0 0 0 0 280.8895163902489 -317.98678017917985 0 -317.98678017917985 89.955633932545879 0 0 0 0 42.980938283784781 -483.29499856652092 0 -483.29499856652092 188.55150999721502 0 0 0 0 -237.44444239833683 -69.508898736663241 0 -69.508898736663241 292.87393257554913 0 0 0 0 -236.08676699610078 -8.9603023138474782 0 -8.9603023138474782 140.71601817257215 0 0 0 0 53.404328491931665 -215.5271181645769 0 -215.5271181645769 -312.95897977336062 0 0 0 0 319.62534289143514 -135.8248150938681 0 -135.8248150938681 -293.6361215518391 0 0 0 0 93.644966534156652 -9.0342651876620508 0 -9.0342651876620508 -0.17609552909319923 0 0 0 0 267.68223865233813 27.899032670648467 0 27.899032670648467 -494.59102833509428 0 0 0 0 -29.599487491774198 -68.974407545006898 0 -68.974407545006898 -119.82236683892097 0 0 0 0 11.539040880888933 -92.181945773374537 0 -92.181945773374537 162.90382789780597 0 0 0 0 235.62735069644987 -179.46874957339332 0 -179.46874957339332 -90.960949957539924 0 0 0 0 98.047070586762857 -34.362962487492496 0 -34.362962487492496 -60.256479734257482 0 0 0 0 408.74831531397649 -128.59712092531481 0 -128.59712092531481 -36.940241993222116 0 0 0 0 -39.912471624389582 232.12769629511877 0 232.12769629511877 -44.024430448643216 0 0 0 0 149.45193836978979 241.89816939457353 0 241.89816939457353 -87.464356478350055 0 0 0 0 99.492051835010898 -5.7721977710778942 0 -5.7721977710778942 -1.48497937354627 0 0 0 0 48.286293586686952 136.95662747833671 0 136.95662747833671 -191.16167945591815 0 0 0 0 115.55768887826707 -15.513384832237534 0 -15.513384832237534 -50.463593340789885 0 0 0 0 86.497188437497243 25.434288102020219 0 25.434288102020219 33.752408031252344 0 0 0 0 -38.286188700039929 142.42809151138954 0 142.42809151138954 -20.587463876874153 0 0 0 0 17.264224656046537 7.7393535048103672 0 7.7393535048103672 -0.18113989913064543 0 0 0 0 94.260707395595091 30.717594500537416 0 30.717594500537416 -36.27582764387499 0 0 0 0 100.433194153361 1.3134599077312714 0 1.3134599077312714 -75.415150054168407 0 0 0 0 64.307060085704123 49.227191306778892 0 49.227191306778892 7.5861857271451054 0 0 0 0 41.802787756794714 105.95935634951491 0 105.95935634951491 32.732282731048144 0 0 0 0 115.92380536620476 52.503407019281894 0 52.503407019281894 -35.734082542634496 0 0 0 0 70.43295447469427 138.40041713418725 0 138.40041713418725 145.79046585408946 0 0 0 0 32.647565597493667 56.921075925356945 0 56.921075925356945 14.05750513245215 0 0 0 0 104.07833316507458 10.983035072190091 0 10.983035072190091 19.053356592422915 0 0 0 0 23.492688169272128 10.555356644437552 0 10.555356644437552 0.66246243745943989 0 0 0 0 103.76218757877484 30.530637622473016 0 30.530637622473016 23.135843928406757 0 0 0 0 74.959069389599236 40.637195777948605 0 40.637195777948605 2.5876088741913099 0 0 0 0 155.68168288553716 58.971840575956321 0 58.971840575956321 -57.195452273245792 0 0 0 0 115.33264746668283 49.316077288871838 0 49.316077288871838 -51.841494776159379 0 0 0 0 205.97208872307237 98.965878495997799 0 98.965878495997799 -28.128398746054017 0 0 0 0 180.83483794940548 0.79735663887322517 0 0.79735663887322517 35.725558793537175 0 0 0 0 448.17578984399006 19.722168322232676 0 19.722168322232676 24.397091049859768 0 0 0 0 195.39150105398221 -298.37221799430461 0 -298.37221799430461 90.058057664736907 0 0 0 0 163.54033361970505 99.431107925408185 0 99.431107925408185 444.33476922473938 0 0 0 0 421.19115967034304 -327.75732745800042 0 -327.75732745800042 235.2100122065446 0 0 0 0 81.968542766597238 25.681461212072833 0 25.681461212072833 24.403752921865205 0 0 0 0 80.667396745368023 7.5903807026874688 0 7.5903807026874688 19.893963142483749 0 0 0 0 97.878875366746797 13.479681127772324 0 13.479681127772324 20.520353337941287 0 0 0 0 123.3808721043024 -31.682746874880252 0 -31.682746874880252 48.759541308436496 0 0 0 0 40.663549331486138 73.34163079951864 0 73.34163079951864 144.45236596139262 0 0 0 0 35.052214245122741 20.366867865537756 0 20.366867865537756 83.28927333217689 0 0 0 0 35.359774430951802 -5.7790662977196234 0 -5.7790662977196234 207.36106594351725 0 0 0 0 115.17111998403561 -11.274700755924641 0 -11.274700755924641 -38.63543156916694 0 0 0 0 89.015559084811684 -61.352824205962577 0 -61.352824205962577 -51.34625683291506 0 0 0 0 188.61154525903112 -105.46293467804958 0 -105.46293467804958 61.573063741112492 0 0 0 0 199.72110286467796 -48.433942630331558 0 -48.433942630331558 -33.154470275341737 0 0 0 0 121.36960539910797 -62.086196829903542 0 -62.086196829903542 -180.760946572183 0 0 0 0 136.02824332867749 -112.69091464806252 0 -112.69091464806252 -58.936939466845331 0 0 0 0 623.06175680102751 -99.55295965399074 0 -99.55295965399074 -461.47716304634423 0 0 0 0 204.08569655139945 -86.52976235293761 0 -86.52976235293761 -32.449517360016216 0 0 0 0 442.85485008129035 96.937237392454335 0 96.937237392454335 -17.090097718775269 0 0 0 0 277.64976938137261 -94.534531978287305 0 -94.534531978287305 -38.047857749078958 0 0 0 0 -2.1849946505460025 -2.0870812732080992 0 -2.0870812732080992 1.5363374103556264 0 0 0 0 29.299528423973243 101.76097949638324 0 101.76097949638324 133.54529088468917 0 0 0 0 260.80164962785784 255.85799120293223 0 255.85799120293223 233.91879218924691 0 0 0 0 264.15117289946647 -14.943021387985254 0 -14.943021387985254 -79.651822128412277 0 0 0 0 197.39324748031504 -64.449268281242098 0 -64.449268281242098 -20.385159754649976 0 0 0 0 156.2471913248155 66.073768610488514 0 66.073768610488514 -121.8323069575199 0 0 0 0 166.93854614031443 138.51238337402242 0 138.51238337402242 -234.12208704209274 0 0 0 0 169.22941871532385 194.50236336264078 0 194.50236336264078 68.50016177079533 0 0 0 0 105.8364440271028 33.151059256653014 0 33.151059256653014 -3.2101792565262848 0 0 0 0 175.02532377421085 -70.005978323956072 0 -70.005978323956072 39.848858904350891 0 0 0 0 83.254907045513391 -26.280980975575858 0 -26.280980975575858 19.341107424311303 0 0 0 0 201.65442355886626 -66.615399405690368 0 -66.615399405690368 -33.403254939302116 0 0 0 0 180.63513405503181 -59.082548381401466 0 -59.082548381401466 -18.752161558633816 0 0 0 0 203.67854927324515 -58.573642387116251 0 -58.573642387116251 -28.050578572990162 0 0 0 0 211.18689025679487 -40.773767589199451 0 -40.773767589199451 9.6173683825236367 0 0 0 0 94.771491100458661 21.029563986490757 0 21.029563986490757 31.901460996875358 0 0 0 0 90.989079380822204 33.357675202693969 0 33.357675202693969 -9.8191943726472832 0 0 0 0 225.85649490568903 -53.597442617670822 0 -53.597442617670822 -18.878041491101612 0 0 0 0 205.16470526321791 -45.113341898819272 0 -45.113341898819272 51.831801352464026 0 0 0 0 216.05425568361534 -62.916961935564359 0 -62.916961935564359 12.118391077779961 0 0 0 0 214.73615693006741 -22.406330138272097 0 -22.406330138272097 -17.298349447668443 0 0 0 0 150.61059827436111 -30.314849076237806 0 -30.314849076237806 9.5188643342680734 0 0 0 0 117.99117161537288 38.401210263987878 0 38.401210263987878 -19.931305573061763 0 0 0 0 -60.684018328392995 61.736402140942118 0 61.736402140942118 -36.438054604534045 0 0 0 0 56.141165577733773 17.70083862989668 0 17.70083862989668 -1.2613687891987411 0 0 0 0 3.7041075567249209 -15.405563007796445 0 -15.405563007796445 22.14122052294897 0 0 0 0 -141.0448652326595 -48.175682133204646 0 -48.175682133204646 43.901785993206431 0 0 0 0 -15.314455745770829 -42.450748284568903 0 -42.450748284568903 69.513150185276459 0 0 0 0 7.3342904776468174 -11.162221836391637 0 -11.162221836391637 17.560359272100406 0 0 0 0 57.54182421537007 -30.394174933104356 0 -30.394174933104356 54.085242547775408 0 0 0 0 53.99054514177169 14.004861607253414 0 14.004861607253414 5.2989898448206532 0 0 0 0 -4.8269166349824957 1.0360479844575536 0 1.0360479844575536 5.6266992496356032 0 0 0 0 -2.788402908394346 32.872283891631113 0 32.872283891631113 63.247328598795377 0 0 0 0 3.2307223112899379 -9.475825425363297 0 -9.475825425363297 15.985544100566063 0 0 0 0 -7.0472614275640808 -10.22222226776131 0 -10.22222226776131 5.9608857098219232 0 0 0 0 -64.484577533738047 2.5310744779008019 0 2.5310744779008019 48.503606163186305 0 0 0 0 10.379669187037507 0.46176962649099096 0 0.46176962649099096 -15.013076020143046 0 0 0 0 33.895757400547154 46.386672324349604 0 46.386672324349604 5.6667257494856358 0 0 0 0 4.8884093840460991 -29.863235849556986 0 -29.863235849556986 91.563580230929347 0 0 0 0 -29.223779044739786 -19.024379757649967 0 -19.024379757649967 91.041248550742239 0 0 0 0 -17.378781924431678 -27.160692392766123 0 -27.160692392766123 -21.195061903976693 0 0 0 0 -2.738053863693267 0.52991492251541672 0 0.52991492251541672 2.5395488713850138 0 0 0 0 -7.8087808475538623 55.853191523151054 0 55.853191523151054 53.598490555058788 0 0 0 0 -0.92742519678017743 -2.1092863551755876 0 -2.1092863551755876 2.1026276290777126 0 0 0 0 -15.339923741441453 3.2847578908472315 0 3.2847578908472315 -90.997030103588713 0 0 0 0 -15.330669409836219 3.2063385742862494 0 3.2063385742862494 2.8123052473562975 0 0 0 0 -75.725901275203796 -29.44083100067337 0 -29.44083100067337 42.699884609241053 0 0 0 0 -10.615165390936909 -6.5207120427551715 0 -6.5207120427551715 20.63805995689745 0 0 0 0 -107.26518714535632 -198.84297484412321 0 -198.84297484412321 -140.71742152665138 0 0 0 0 4.1095522755668981 -8.9306996861511436 0 -8.9306996861511436 12.473375183739899 0 0 0 0 -24.912816923606442 92.737457656415302 0 92.737457656415302 125.93740041548745 0 0 0 0 -1.741938389207732 1.3085202073263815 0 1.3085202073263815 1.6110436498886309 0 0 0 0 -313.22451389327762 -192.08118343639569 0 -192.08118343639569 35.356408556225006 0 0 0 0 158.26830930786673 -65.553646510029012 0 -65.553646510029012 -153.19708121514986 0 0 0 0 69.010161433747271 61.345824629015397 0 61.345824629015397 26.243883296878721 0 0 0 0 6.369348922802601 -35.390086890061184 0 -35.390086890061184 -33.457498448958972 0 0 0 0 23.124191790629993 6.8580013606058401 0 6.8580013606058401 52.31051321876663 0 0 0 0 96.278240026898857 -132.28976883254018 0 -132.28976883254018 268.08044075770817 0 0 0 0 -44.994240373212961 -110.53103141889176 0 -110.53103141889176 -15.048550191655977 0 0 0 0 4.4670177092903316 -6.9512945810023723 0 -6.9512945810023723 9.5701897630568986 0 0 0 0 -38.093149292821181 -25.516400128976443 0 -25.516400128976443 85.726147589741458 0 0 0 0 111.94715659265057 17.499452084645782 0 17.499452084645782 -61.732286402002046 0 0 0 0 -16.339855773709132 -8.2952443805199891 0 -8.2952443805199891 85.644597197574171 0 0 0 0 3.1836223478312604 -19.754670425488627 0 -19.754670425488627 78.020443656850262 0 0 0 0 -1.8641771629627328 -30.140484250300688 0 -30.140484250300688 -10.330171025740128 0 0 0 0 1.7960899354261528 -2.8061535764896419 0 -2.8061535764896419 2.6100754331263811 0 0 0 0 -4.9638755318883341 -5.6653582617278175 0 -5.6653582617278175 13.20186528256113 0 0 0 0 -34.803945827821735 -34.492019584769878 0 -34.492019584769878 62.147295793388253 0 0 0 0 0.91287539200618539 -0.90616679395401434 0 -0.90616679395401434 0.43638681592561357 0 0 0 0 141.41141260328004 -8.7244862970244412 0 -8.7244862970244412 -53.998277807866998 0 0 0 0 -13.729390100488672 21.077678599123431 0 21.077678599123431 74.578474938212381 0 0 0 0 30.757717963555478 44.096374080058965 0 44.096374080058965 29.25000417390471 0 0 0 0 -19.107553684574668 -0.26405926035934613 0 -0.26405926035934613 17.651629531989101 0 0 0 0 -0.16874624288175255 22.690518930091415 0 22.690518930091415 26.684462163779429 0 0 0 0 0.54651268822635757 17.171586769492606 0 17.171586769492606 30.707011462369792 0 0 0 0 11.445377323669277 -4.4574772311393218 0 -4.4574772311393218 1.8566215686305445 0 0 0 0 7.1296824332384858 -12.87158492005284 0 -12.87158492005284 9.812894565767202 0 0 0 0 10.202496457066445 19.63591911836307 0 19.63591911836307 6.2955685558418111 0 0 0 0 -1.8293856797972694 18.611705164538023 0 18.611705164538023 13.842000077186754 0 0 0 0 168.34220739781813 86.357769174328467 0 86.357769174328467 63.745203431220489 0 0 0 0 128.88307607112802 136.73764022029297 0 136.73764022029297 189.7243243506831 0 0 0 0 127.31475793647405 60.130724842616132 0 60.130724842616132 62.890333864422622 0 0 0 0 141.4373702346129 52.097020276931744 0 52.097020276931744 4.8247452179837182 0 0 0 0 94.079192641016562 76.014920967040325 0 76.014920967040325 83.89430813130457 0 0 0 0 54.846093405460124 40.040865094468359 0 40.040865094468359 16.75639506938478 0 0 0 0 91.843608829542063 65.306946621199359 0 65.306946621199359 32.606832897275581 0 0 0 0 44.337626441469183 82.553798992019722 0 82.553798992019722 85.760744974794306 0 0 0 0 88.265450131351827 45.038970742990273 0 45.038970742990273 89.376135002621965 0 0 0 0 113.84793745761999 78.146155814893973 0 78.146155814893973 83.304155524917178 0 0 0 0 18.344661891355202 -7.254683266839308 0 -7.254683266839308 3.2057385578968969 0 0 0 0 47.499957382911816 -15.570980509483718 0 -15.570980509483718 -4.8383235376660139 0 0 0 0 57.302925452793716 114.39231552237288 0 114.39231552237288 104.15044377011532 0 0 0 0 14.368602302274667 -5.4357427529940878 0 -5.4357427529940878 13.084558856329522 0 0 0 0 2.3363549038622295 -14.756013440460038 0 -14.756013440460038 4.620047278455786 0 0 0 0 13.346765502732012 -11.952646814411239 0 -11.952646814411239 12.064071566112393 0 0 0 0 -264.05084689758951 -229.03211357812233 0 -229.03211357812233 146.61688576060533 0 0 0 0 54.156259426388715 -48.775188131214009 0 -48.775188131214009 -116.3495571540625 0 0 0 0 59.449441647215281 -76.1895945881015 0 -76.1895945881015 -5.982154253690851 0 0 0 0 12.340172096890456 -2.6645683511729317 0 -2.6645683511729317 3.3650541301301722 0 0 0 0 110.50899627400213 79.003540352482901 0 79.003540352482901 117.33564710636642 0 0 0 0 15.143131487884943 -15.261934662367153 0 -15.261934662367153 16.447305627682823 0 0 0 0 102.81720093166223 -19.407448642029976 0 -19.407448642029976 -39.798737270918082 0 0 0 0 8.439953851409939 -1.7647527434818358 0 -1.7647527434818358 -1.6874035265349558 0 0 0 0 12.630347569873265 46.357046129551406 0 46.357046129551406 55.999766442914506 0 0 0 0 98.570143891469343 64.149176371463568 0 64.149176371463568 116.45235069479133 0 0 0 0 -1.911674603570674 -0.63149454947478034 0 -0.63149454947478034 -0.55947380102504329 0 0 0 0 135.60291783345747 14.709583267014295 0 14.709583267014295 -13.810158290139498 0 0 0 0 104.71379237488145 17.371813554780715 0 17.371813554780715 0.089827933149990713 0 0 0 0 97.350842102430761 8.8261077457891588 0 8.8261077457891588 -2.1889333264950892 0 0 0 0 16.628968861781686 3.5406347077899056 0 3.5406347077899056 -1.0333300397027347 0 0 0 0 78.168717026030038 14.2924707752831 0 14.2924707752831 0.071821839566665921 0 0 0 0 86.927836809198197 44.460399012013227 0 44.460399012013227 -22.954037766661031 0 0 0 0 88.987240040740289 37.479975747532308 0 37.479975747532308 -15.080078031033736 0 0 0 0 74.518812273512594 25.648004713797718 0 25.648004713797718 -20.792065656798073 0 0 0 0 96.173505894817936 47.04062115964382 0 47.04062115964382 4.904971736491234 0 0 0 0 98.232759366044775 40.069423502487666 0 40.069423502487666 -19.839116560128105 0 0 0 0 84.956480702545377 51.596703487056175 0 51.596703487056175 6.3645533349310881 0 0 0 0 131.62565004501084 122.93938802673392 0 122.93938802673392 37.065659234493069 0 0 0 0 305.78785067573335 -67.038215021482586 0 -67.038215021482586 34.48317052916218 0 0 0 0 -11.318642675847514 218.27098633526492 0 218.27098633526492 -25.432055134578377 0 0 0 0 38.684192219479883 51.680297682971968 0 51.680297682971968 0.16795171485455285 0 0 0 0 63.721418309287401 60.223790409368007 0 60.223790409368007 60.314982680084611 0 0 0 0 -46.240461323752243 75.16052991710076 0 75.16052991710076 37.114741684360467 0 0 0 0 31.501728402578188 43.871695970948423 0 43.871695970948423 -16.419849838553063 0 0 0 0 19.024863208319957 1.6983761715256662 0 1.6983761715256662 -1.0958020531126813 0 0 0 0 252.44153098727111 -119.58173224293205 0 -119.58173224293205 86.554696584787507 0 0 0 0 -8.6421232884283086 9.394656185280823 0 9.394656185280823 3.6218855535727084 0 0 0 0 472.34235442016507 -244.31365055577771 0 -244.31365055577771 131.06446639492776 0 0 0 0 241.50057090719929 -126.04877895422578 0 -126.04877895422578 123.06829580821613 0 0 0 0 304.46861397236353 -74.628521232891217 0 -74.628521232891217 -21.776095869598976 0 0 0 0 141.34802954552288 35.915075534479456 0 35.915075534479456 81.607784217239896 0 0 0 0 -296.79440399128725 72.692480196954648 0 72.692480196954648 462.19388420711039 0 0 0 0 594.28029147938651 184.80139607171077 0 184.80139607171077 76.546695169134182 0 0 0 0 286.11495074594859 -18.171724612602702 0 -18.171724612602702 58.415744555131823 0 0 0 0 -56.786661551508587 340.69250805406591 0 340.69250805406591 507.12180043650915 0 0 0 0 68.439804745175934 97.096897218734512 0 97.096897218734512 22.840812365386682 0 0 0 0 27.769439001131104 -10.353879146899033 0 -10.353879146899033 113.63511151420494 0 0 0 0 48.840648460070383 -23.284211168598134 0 -23.284211168598134 17.561115594247731 0 0 0 0 340.82996240625653 -214.26895921198275 0 -214.26895921198275 -328.49387583142698 0 0 0 0 122.32590879662348 54.930944894881122 0 54.930944894881122 24.681433024962189 0 0 0 0 81.845379317601328 29.931924749029349 0 29.931924749029349 9.3977467779945982 0 0 0 0 23.260141544285545 20.10433782267296 0 20.10433782267296 9.6162936975251299 0 0 0 0 26.556281570636202 44.766026315454639 0 44.766026315454639 -40.782646759151831 0 0 0 0 -177.67467044491787 157.41461546517121 0 157.41461546517121 112.55194171045923 0 0 0 0 67.188466487608821 10.507967690577786 0 10.507967690577786 9.6008227595392555 0 0 0 0 25.331473201407107 8.7592028222121314 0 8.7592028222121314 3.374054742611122 0 0 0 0 -21.515280719910152 32.961850797719123 0 32.961850797719123 -21.893958737024207 0 0 0 0 15.881773464846447 7.0169763442486897 0 7.0169763442486897 -4.0478858106932565 0 0 0 0 -11.4011256218364 34.332652962220052 0 34.332652962220052 -10.797199538897843 0 0 0 0 -86.788673051501974 -18.073901819741238 0 -18.073901819741238 16.274407603382997 0 0 0 0 26.845586373892729 98.024225798251763 0 98.024225798251763 62.69831629578141 0 0 0 0 35.518104239265085 64.021361436932906 0 64.021361436932906 123.87420984995423 0 0 0 0 18.37614135039621 20.735010779716333 0 20.735010779716333 20.942367153448686 0 0 0 0 -65.865489869640442 63.802881658789929 0 63.802881658789929 18.425386976853133 0 0 0 0 286.53975630695641 -39.887294194384992 0 -39.887294194384992 -313.95358435906235 0 0 0 0 59.016692346951459 55.382414129980987 0 55.382414129980987 -134.06727981785085 0 0 0 0 17.064157568962173 2.8108935378422295 0 2.8108935378422295 0.32051341067216155 0 0 0 0 48.977732244980871 -46.630273791313869 0 -46.630273791313869 37.253592130050606 0 0 0 0 23.25192560692085 -19.070199990465198 0 -19.070199990465198 -78.00681006667827 0 0 0 0 -25.19454603898339 -5.4567283668934863 0 -5.4567283668934863 -38.845566686145219 0 0 0 0 29.781733607291244 -46.821372326573851 0 -46.821372326573851 42.413514115243643 0 0 0 0 -40.656841597839957 93.318549373293422 0 93.318549373293422 -23.267144289837034 0 0 0 0 -38.325057467009174 -176.36425900158687 0 -176.36425900158687 155.1759834318409 0 0 0 0 1.0138836269325111 46.92363565770377 0 46.92363565770377 179.87299280571051 0 0 0 0 147.33482643697062 72.869152990207425 0 72.869152990207425 49.436032727562804 0 0 0 0 273.56475611866335 244.50113046412812 0 244.50113046412812 178.50518076250677 0 0 0 0 195.05545951881504 -57.912913750781598 0 -57.912913750781598 15.644591061743125 0 0 0 0 103.73538816446671 -34.416546740736713 0 -34.416546740736713 53.996675004643841 0 0 0 0 0.45771959567692022 -0.36719241698054361 0 -0.36719241698054361 -0.14815608269709771 0 0 0 0 181.38431069999933 -15.332764915822413 0 -15.332764915822413 17.175084294338205 0 0 0 0 373.34374228955312 -170.27003764002313 0 -170.27003764002313 -18.433078071464507 0 0 0 0 42.904954649595311 -33.385550245428441 0 -33.385550245428441 59.192813616585624 0 0 0 0 34.347474822265212 30.729402919768727 0 30.729402919768727 -48.798526038122986 0 0 0 0 6.6935661906609312 13.343276968231223 0 13.343276968231223 13.102997811511102 0 0 0 0 26.908118430816103 8.1356852761664129 0 8.1356852761664129 -39.201109695419007 0 0 0 0 17.145894702669466 15.544262411532372 0 15.544262411532372 18.063570981901904 0 0 0 0 51.739942550106207 -22.392902978588445 0 -22.392902978588445 25.507102482955705 0 0 0 0 64.797264840628486 -10.362881112643276 0 -10.362881112643276 22.216605556793866 0 0 0 0 61.482954163860995 -10.691467133790315 0 -10.691467133790315 35.619557241476038 0 0 0 0 92.047762648682692 -6.8927907506594224 0 -6.8927907506594224 16.204467984644097 0 0 0 0 44.805368881148752 18.954808307316569 0 18.954808307316569 4.4956387453256248 0 0 0 0 32.158559235249413 22.782990559061119 0 22.782990559061119 11.493164225696574 0 0 0 0 35.494445033516968 27.864276826379857 0 27.864276826379857 -6.9817448986077295 0 0 0 0 21.07754065055633 27.702782991803645 0 27.702782991803645 -6.6406972836354612 0 0 0 0 3.334860003538779 44.91324672163109 0 44.91324672163109 -19.592938245605069 0 0 0 0 26.082229615632968 48.531808659310514 0 48.531808659310514 -17.757766652038754 0 0 0 0 47.031555290537653 33.091231282494292 0 33.091231282494292 -11.909406354727281 0 0 0 0 41.837591086325119 51.296187051627903 0 51.296187051627903 -5.5158036458625759 0 0 0 0 103.2587575460675 27.29496253034236 0 27.29496253034236 1.8126173218544039 0 0 0 0 35.61793953034794 33.90219106239951 0 33.90219106239951 -35.024105109780407 0 0 0 0 24.029539597919211 37.331681405825599 0 37.331681405825599 -14.923467244785158 0 0 0 0 18.019280973483063 2.8727729910089863 0 2.8727729910089863 -1.7379654422115856 0 0 0 0 89.382520862622187 31.291776479905778 0 31.291776479905778 -19.829176830371811 0 0 0 0 64.450864922910114 -3.2518322683338852 0 -3.2518322683338852 -40.299140238778641 0 0 0 0 47.634699383925181 -6.1574859063119121 0 -6.1574859063119121 6.2766007292536994 0 0 0 0 66.143223598002805 4.2116882035181904 0 4.2116882035181904 -18.79546881456017 0 0 0 0 43.50041635055095 -18.421935104318305 0 -18.421935104318305 -16.341023553226371 0 0 0 0 58.380163658643141 -16.694600827081821 0 -16.694600827081821 4.5673736543031467 0 0 0 0 71.738007577252574 -8.9985280094271101 0 -8.9985280094271101 0.0038495754151773361 0 0 0 0 68.893664278002689 -5.96216200894892 0 -5.96216200894892 17.735053307808958 0 0 0 0 105.5800283698045 -36.568996240228692 0 -36.568996240228692 26.262727222604546 0 0 0 0 74.842745071771787 -4.493263681856333 0 -4.493263681856333 7.7793488929238155 0 0 0 0 95.740627382678213 -28.553025389549074 0 -28.553025389549074 6.0918242489045991 0 0 0 0 110.42927191375929 -12.366691301310485 0 -12.366691301310485 0.01426324266090705 0 0 0 0 139.46988920077274 -29.781679267897175 0 -29.781679267897175 3.8939687277671631 0 0 0 0 0.39230910779231465 -0.17239238155971748 0 -0.17239238155971748 -0.078113561893513442 0 0 0 0 124.76239831908606 -11.55349056848307 0 -11.55349056848307 10.357230711173177 0 0 0 0 85.576626657624729 12.333721865202616 0 12.333721865202616 1.1724993141056315 0 0 0 0 54.754482417803956 38.189321728485616 0 38.189321728485616 26.467065663519804 0 0 0 0 215.89449508220423 193.43124574312986 0 193.43124574312986 37.850803026063488 0 0 0 0 755.69212456763489 -501.22804007282912 0 -501.22804007282912 -41.86435896016782 0 0 0 0 85.772975423648518 12.567572174620111 0 12.567572174620111 1.7956799127860896 0 0 0 0 105.74704426014796 26.687151252887702 0 26.687151252887702 -73.272581632484616 0 0 0 0 331.25750643148058 64.234952571663996 0 64.234952571663996 -432.46039510826586 0 0 0 0 -51.197137008886784 -46.81192610383242 0 -46.81192610383242 28.885771517315462 0 0 0 0 84.160188969043361 11.336836985606368 0 11.336836985606368 1.0571183510616819 0 0 0 0 56.686720084544504 -59.546266668964563 0 -59.546266668964563 -106.84874246749419 0 0 0 0 17.888632789437651 3.7951323610998031 0 3.7951323610998031 0.085489595553526643 0 0 0 0 96.979647159503656 40.762135758324263 0 40.762135758324263 -11.698126814968049 0 0 0 0 52.884156390377029 -36.225924693797268 0 -36.225924693797268 -42.116749880884754 0 0 0 0 51.598184441230842 -26.432667526221927 0 -26.432667526221927 -47.745622932969582 0 0 0 0 36.878826780266536 -5.5562165287547192 0 -5.5562165287547192 20.913019014799197 0 0 0 0 38.165322662040126 -0.14165516343685614 0 -0.14165516343685614 -1.4904117122023086 0 0 0 0 59.851378864404978 -1.2776557184465074 0 -1.2776557184465074 -1.5950542307876232 0 0 0 0 48.385987295550876 -6.1149123233874931 0 -6.1149123233874931 0.010668318046724933 0 0 0 0 62.872097102233965 -7.1681449931790979 0 -7.1681449931790979 -0.0055895847290658952 0 0 0 0 119.45414687084303 36.116205448758755 0 36.116205448758755 19.100615146362856 0 0 0 0 116.72284223942552 14.813096657463827 0 14.813096657463827 -7.520715083031547 0 0 0 0 194.95081411252613 63.826890530932104 0 63.826890530932104 3.6157232967100033 0 0 0 0 210.79060340303113 31.863316264488976 0 31.863316264488976 -28.616532570056624 0 0 0 0 189.5711889401864 -2.6347426450862059 0 -2.6347426450862059 0.15038206586121458 0 0 0 0 260.84138813367463 19.900479268800861 0 19.900479268800861 -27.200386087388921 0 0 0 0 262.53629420754442 36.88349195204227 0 36.88349195204227 -31.943799054992652 0 0 0 0 155.44997711922042 88.680059315467446 0 88.680059315467446 72.590099981370145 0 0 0 0 0.47047745014833708 -0.38254423956612982 0 -0.38254423956612982 -0.0061382738629718386 0 0 0 0 -10.603713140910259 -2.9368112085667963 0 -2.9368112085667963 0.011696845386779607 0 0 0 0 104.39416941645322 -57.22410010279841 0 -57.22410010279841 6.5812568539937502 0 0 0 0 0.16519709497515578 2.0428832487546504 0 2.0428832487546504 47.880126121872181 0 0 0 0 -18.515155026834691 40.062386180087685 0 40.062386180087685 36.467967311282806 0 0 0 0 273.89009056490613 18.516035389199658 0 18.516035389199658 -32.184334222743111 0 0 0 0 256.00721235873061 43.996025025648024 0 43.996025025648024 -59.927362447646182 0 0 0 0 4.9191165503763159 3.832221389889213 0 3.832221389889213 3.0048739277352876 0 0 0 0 410.03049457559246 47.818605256949823 0 47.818605256949823 -60.51034256823899 0 0 0 0 283.45746302554471 -75.231754811584665 0 -75.231754811584665 6.152593909457309 0 0 0 0 -13.323337824898772 -105.59202729770624 0 -105.59202729770624 244.12756108426126 0 0 0 0 112.45610940142069 176.66448355566362 0 176.66448355566362 -94.909218598844973 0 0 0 0 98.424086033264757 -0.029144416101985371 0 -0.029144416101985371 -53.244177809505516 0 0 0 0 78.13693753530265 13.969256556330869 0 13.969256556330869 -0.94693758909550674 0 0 0 0 131.58414277079282 184.78770929452332 0 184.78770929452332 -274.63677849852382 0 0 0 0 -495.05021000679699 413.16730090191197 0 413.16730090191197 266.9125794729942 0 0 0 0 61.488630867687789 -1.4617795890368832 0 -1.4617795890368832 -4.9712419383154653 0 0 0 0 61.309355668810895 49.010816380359074 0 49.010816380359074 -72.459194544327033 0 0 0 0 -173.62472881298163 53.264823128351054 0 53.264823128351054 38.409032113205967 0 0 0 0 80.195756496133981 -16.545718863162051 0 -16.545718863162051 -56.216979607342637 0 0 0 0 23.083297551867496 -1.752253142935956 0 -1.752253142935956 -1.350909186593616 0 0 0 0 -136.18384670309024 74.881956375409914 0 74.881956375409914 -133.0363802507934 0 0 0 0 88.690744732739404 12.781016750874983 0 12.781016750874983 -72.144219466353547 0 0 0 0 83.208769267905154 13.791888220356611 0 13.791888220356611 -32.066611662586638 0 0 0 0 70.684343652668758 -5.8108079652156448 0 -5.8108079652156448 -30.93723319190218 0 0 0 0 57.680969499968342 2.7282312768553538 0 2.7282312768553538 -35.607637391408559 0 0 0 0 21.312117591894093 3.9161597540665412 0 3.9161597540665412 -4.5265612578710268 0 0 0 0 23.583057862488204 11.554756918956571 0 11.554756918956571 -3.4990191479959094 0 0 0 0 51.988750132150017 31.353650761051199 0 31.353650761051199 -6.223680301910008 0 0 0 0 53.052702157932799 41.505957209309145 0 41.505957209309145 -44.84536415099592 0 0 0 0 16.883768238007292 2.9790221809604702 0 2.9790221809604702 -0.55652435383327414 0 0 0 0 5.5279497962328605 -21.66981555293296 0 -21.66981555293296 31.176902725478215 0 0 0 0 -7.5850961230098619 21.845796031754322 0 21.845796031754322 2.6426379284343824 0 0 0 0 -8.8096450843659113 44.586877507647053 0 44.586877507647053 2.0652255872921188 0 0 0 0 4.2694168884181636 2.6108442657900355 0 2.6108442657900355 1.245805873880635 0 0 0 0 17.914364720748267 10.189238259843535 0 10.189238259843535 4.6438403980382184 0 0 0 0 42.425275852583582 -15.959043903009539 0 -15.959043903009539 -10.2782655581789 0 0 0 0 9.0320196245738771 12.23478984764199 0 12.23478984764199 4.9510949753110882 0 0 0 0 6.6562428439210635 -2.1247749671156839 0 -2.1247749671156839 1.223373048694989 0 0 0 0 12.850129599806678 25.451838052084071 0 25.451838052084071 8.1952187651771808 0 0 0 0 1.4226801162655534 1.3132410329128703 0 1.3132410329128703 -0.041966129313763048 0 0 0 0 42.406062097710674 1.9419260160027938 0 1.9419260160027938 -0.0099368571736529136 0 0 0 0 7.5340860745745886 1.3262737359117966 0 1.3262737359117966 -3.2819936098316123 0 0 0 0 0.85156250897665586 -1.823638196478953 0 -1.823638196478953 -0.6650874100816464 0 0 0 0 18.724744032020681 -23.998624016064412 0 -23.998624016064412 -8.5692667570970542 0 0 0 0 -57.315010994352633 -41.72467772995067 0 -41.72467772995067 37.761483266000766 0 0 0 0 -0.4967270532532666 0.029160998076378064 0 0.029160998076378064 0.19079281364505857 0 0 0 0 -0.66775596651132219 0.4803855080211169 0 0.4803855080211169 0.0047037965293556736 0 0 0 0 13.489105837859825 -10.250146131976845 0 -10.250146131976845 -16.87270607255806 0 0 0 0 -25.018902139097918 -44.719292043488906 0 -44.719292043488906 -43.334499215969942 0 0 0 0 25.386178675577696 -4.769664650291574 0 -4.769664650291574 -0.74637635577479966 0 0 0 0 22.064937871004759 -0.90883776054131715 0 -0.90883776054131715 -1.4348004743508926 0 0 0 0 35.685315348935546 -1.9405900144967063 0 -1.9405900144967063 -20.028438140564191 0 0 0 0 7.3236179777886719 -132.06091351259377 0 -132.06091351259377 0.11856477966618888 0 0 0 0 -57.848766579348535 -86.74350033617695 0 -86.74350033617695 -29.7017138302148 0 0 0 0 -9.8342732852106565 -64.144234430896603 0 -64.144234430896603 -35.674364149518084 0 0 0 0 70.437802166183246 -80.674780189650846 0 -80.674780189650846 -113.95791880658044 0 0 0 0 14.659367312349787 -7.4902324472811017 0 -7.4902324472811017 -3.2407545296298395 0 0 0 0 32.781606687210115 -3.4083178174826685 0 -3.4083178174826685 -1.8071796561759776 0 0 0 0 39.044538439397002 37.530177027326772 0 37.530177027326772 -22.769374465684905 0 0 0 0 6.5948101229720351 6.6981478838890069 0 6.6981478838890069 -5.62664978997016 0 0 0 0 14.198985414026538 -22.504256844933821 0 -22.504256844933821 3.9842192184205487 0 0 0 0 21.311502460745885 -5.8945834028213717 0 -5.8945834028213717 0.25178995426714978 0 0 0 0 20.456378427421441 -10.140425237284376 0 -10.140425237284376 -2.5261140076795527 0 0 0 0 81.984398818560294 -82.896485161152668 0 -82.896485161152668 -174.65677501453501 0 0 0 0 23.872791819026475 -9.8811458141873629 0 -9.8811458141873629 2.9155862495992224 0 0 0 0 -21.304428142531833 -44.163887866392372 0 -44.163887866392372 -26.812798999506072 0 0 0 0 15.397117481059638 -9.8628728469640947 0 -9.8628728469640947 5.944054827125262 0 0 0 0 31.738782250205986 -6.9651256654947726 0 -6.9651256654947726 -32.368865191821101 0 0 0 0 35.969897718945674 -9.4915810094811981 0 -9.4915810094811981 -0.92862550820441703 0 0 0 0 41.370735350414179 8.2409019156661998 0 8.2409019156661998 -15.245108819655798 0 0 0 0 55.095483394165058 -17.589507471468892 0 -17.589507471468892 -33.677994440826296 0 0 0 0 29.754299218643837 0.13615157898583163 0 0.13615157898583163 -7.5281108623786936 0 0 0 0 22.228012740320992 13.692366550065117 0 13.692366550065117 10.503476648604874 0 0 0 0 90.029468601947883 13.620705006730532 0 13.620705006730532 -134.69799802821939 0 0 0 0 29.736078106616333 -28.935767609048071 0 -28.935767609048071 -84.344041941045361 0 0 0 0 43.09722749638604 10.78604506394413 0 10.78604506394413 -70.233891374081395 0 0 0 0 144.01242804941285 38.200141896948878 0 38.200141896948878 -62.806406806262203 0 0 0 0 100.09059387839807 -32.15857683488241 0 -32.15857683488241 -7.897661580453132 0 0 0 0 126.00254920203588 -4.2933372554016387 0 -4.2933372554016387 -80.059371893268803 0 0 0 0 198.24332030072401 -11.035915016524086 0 -11.035915016524086 -11.207182903192177 0 0 0 0 61.64076694205869 55.366783609320748 0 55.366783609320748 0.97712572309978896 0 0 0 0 3.231764919650459 -176.94806145626262 0 -176.94806145626262 -8.0788767655285483 0 0 0 0 84.956358902418287 -107.88427489946196 0 -107.88427489946196 26.233261796777469 0 0 0 0 11.305165897778352 2.9624386680000043 0 2.9624386680000043 -69.706136196953594 0 0 0 0 52.690171759677469 -91.872177019625781 0 -91.872177019625781 42.518600346623316 0 0 0 0 134.82783111356548 -153.34424148657243 0 -153.34424148657243 126.21712500432136 0 0 0 0 103.07331000154954 -95.263331922682539 0 -95.263331922682539 39.196850767416635 0 0 0 0 63.449841407014901 -227.06740480071318 0 -227.06740480071318 283.39507065442626 0 0 0 0 -8.6584679588995641 -252.9305573105726 0 -252.9305573105726 275.41987074398509 0 0 0 0 53.115615544207685 -330.13294511982701 0 -330.13294511982701 335.3094534399836 0 0 0 0 47.12993082072353 -413.90858958847912 0 -413.90858958847912 215.86835791027943 0 0 0 0 115.68724907805881 -426.38493637237093 0 -426.38493637237093 357.52043938593556 0 0 0 0 406.25289689804777 -223.014265408471 0 -223.014265408471 109.67045543315237 0 0 0 0 149.54142014626996 -465.03067953401819 0 -465.03067953401819 733.35346744688979 0 0 0 0 24.971003697166452 -123.24505226876568 0 -123.24505226876568 59.129109763990868 0 0 0 0 25.35819994196936 -218.13942866604793 0 -218.13942866604793 369.1499016095924 0 0 0 0 225.74584147054702 -105.38459112229044 0 -105.38459112229044 97.634162429974424 0 0 0 0 274.83466144998238 25.383536610039059 0 25.383536610039059 -40.691273971705414 0 0 0 0 229.07436789268831 -90.563092076070916 0 -90.563092076070916 118.30883332811035 0 0 0 0 884.06766290981614 -255.06556074783066 0 -255.06556074783066 130.77113306843097 0 0 0 0 -135.62987540892209 -69.181793132028702 0 -69.181793132028702 171.1437616250559 0 0 0 0 114.79825314608752 140.20788313312823 0 140.20788313312823 15.490107771409328 0 0 0 0 -0.033220545857858497 0.72315794286981827 0 0.72315794286981827 -3.2172918820075518 0 0 0 0 -55.619714718101022 -66.106904665575712 0 -66.106904665575712 54.967774356996529 0 0 0 0 177.5242265292909 74.55168741542343 0 74.55168741542343 38.116189368562004 0 0 0 0 149.68418603402097 62.008303278439143 0 62.008303278439143 59.186557562146731 0 0 0 0 152.16061435741358 30.42338071384097 0 30.42338071384097 -21.721322840160383 0 0 0 0 178.96332968499337 -17.795342413784624 0 -17.795342413784624 -44.526858076384315 0 0 0 0 116.3604017069265 -4.8416845460770048 0 -4.8416845460770048 -36.292628093634903 0 0 0 0 104.86008609972487 12.90466468025329 0 12.90466468025329 -17.346669267184865 0 0 0 0 127.69017533033912 18.023621149399503 0 18.023621149399503 -35.641779085633516 0 0 0 0 80.204883409300237 22.131310739732839 0 22.131310739732839 -35.905181303696281 0 0 0 0 15.350583036042593 4.1939780303427199 0 4.1939780303427199 -22.320598801078724 0 0 0 0 82.929982951696729 -2.7564648643264036 0 -2.7564648643264036 -36.182866175174695 0 0 0 0 36.289405281429936 43.380208076940221 0 43.380208076940221 -42.078633785760303 0 0 0 0 61.033723783926689 49.475968728165867 0 49.475968728165867 -40.978085920748242 0 0 0 0 -120.09894509035803 71.702986588023279 0 71.702986588023279 54.365776195369108 0 0 0 0 35.881949026777875 -44.555714395591053 0 -44.555714395591053 -22.877067998316818 0 0 0 0 -2.2389010147717272 2.0844805466690843 0 2.0844805466690843 -11.623512745051663 0 0 0 0 4488.7011997843947 847.29156594535641 0 847.29156594535641 51.020484302407205 0 0 0 0 2924.4211442985252 -23.103096366660683 0 -23.103096366660683 0.79736227999185139 0 0 0 0 1783.6672739620062 2033.1303226124287 0 2033.1303226124287 876.15675998734514 0 0 0 0 2384.6102307216352 -375.03444332237689 0 -375.03444332237689 956.99604637978905 0 0 0 0 2410.475256933074 153.29878691732711 0 153.29878691732711 858.93277695051961 0 0 0 0 3389.8720624028356 -617.20033252182816 0 -617.20033252182816 220.72195840932318 0 0 0 0 1966.4277890114317 -111.75908902090146 0 -111.75908902090146 701.83878629382718 0 0 0 0 953.30590341094648 296.05096731038839 0 296.05096731038839 387.94354942759946 0 0 0 0 2481.3834275458248 307.85663532556435 0 307.85663532556435 328.0761963688509 0 0 0 0 2038.3984140682951 -880.71899182875904 0 -880.71899182875904 171.08572372574076 0 0 0 0 2382.3152493216767 -230.17805474979076 0 -230.17805474979076 112.52800129473985 0 0 0 0 1755.3690551602194 -1176.8791543350828 0 -1176.8791543350828 325.87725627512515 0 0 0 0 1880.5773017728643 -737.20880012857424 0 -737.20880012857424 42.886000871524629 0 0 0 0 1399.9925777467433 -530.20332170470965 0 -530.20332170470965 -17.111242087288929 0 0 0 0 370.48882288638561 -668.22669721675993 0 -668.22669721675993 704.1189565156983 0 0 0 0 580.18056227406851 -167.87148692919396 0 -167.87148692919396 -90.358590034645204 0 0 0 0 17.408707686247851 -1.6538420046299258 0 -1.6538420046299258 0.084852215754508298 0 0 0 0 1905.6194695218874 -1832.1711609919421 0 -1832.1711609919421 1465.744880746463 0 0 0 0 1522.3661136556475 1088.98847255328 0 1088.98847255328 -380.34948570566212 0 0 0 0 393.48934158052725 -290.63731474942074 0 -290.63731474942074 -0.18535817441396663 0 0 0 0 121.90964306709066 -99.785383180639258 0 -99.785383180639258 -130.01230745751312 0 0 0 0 72.279682883658097 -12.267798562487371 0 -12.267798562487371 -241.07924780881694 0 0 0 0 55.36634473263257 -30.423704044438466 0 -30.423704044438466 -191.90033403527713 0 0 0 0 38.629288661963074 96.308941260175061 0 96.308941260175061 -108.72407356276096 0 0 0 0 46.488568711113032 -1.6288260032972559 0 -1.6288260032972559 -1.7903252474560287 0 0 0 0 47.829926749516744 21.150939161288079 0 21.150939161288079 -137.90416481503212 0 0 0 0 8.365836835000664 28.561536640224517 0 28.561536640224517 31.86562582415263 0 0 0 0 39.33482935128103 -1.6618154540850689 0 -1.6618154540850689 -1.1407076253424491 0 0 0 0 287.4254887963034 -233.15937119554769 0 -233.15937119554769 238.90854942433975 0 0 0 0 129.97528760870773 212.42447071742788 0 212.42447071742788 38.77067839705569 0 0 0 0 -118.61129689287918 -24.458287378618706 0 -24.458287378618706 46.506980014498424 0 0 0 0 -129.4720777507755 82.237027054809346 0 82.237027054809346 268.57593439089612 0 0 0 0 837.41976342594717 94.146240431742513 0 94.146240431742513 -34.787398940835033 0 0 0 0 6.2727693015079922 -4.1369871965138998 0 -4.1369871965138998 2.8697029478328404 0 0 0 0 335.05662370278878 -612.64311299309111 0 -612.64311299309111 770.08876102421164 0 0 0 0 1.9916599757416407 -312.08042372871648 0 -312.08042372871648 552.03899618539174 0 0 0 0 34.840251457251725 -92.553411849289574 0 -92.553411849289574 344.62186238186882 0 0 0 0 370.12683782661043 -442.40719955996485 0 -442.40719955996485 320.53962259731787 0 0 0 0 1.4357089167642698 -259.10091000227942 0 -259.10091000227942 229.82009771538083 0 0 0 0 -54.321530613960931 -503.15133001213439 0 -503.15133001213439 29.729090923711624 0 0 0 0 176.16730031186307 -295.48464011043961 0 -295.48464011043961 -345.61882610839803 0 0 0 0 -215.72620452231786 52.408614187782177 0 52.408614187782177 297.91908125484775 0 0 0 0 449.62627679094749 202.26104589550297 0 202.26104589550297 295.72124048539263 0 0 0 0 1135.0169738851837 -14.952191393902581 0 -14.952191393902581 -26.26317405483293 0 0 0 0 1866.7848754273582 384.47740484006385 0 384.47740484006385 -414.02166532486353 0 0 0 0 13.915240309238584 -1.9226819829290962 0 -1.9226819829290962 0.076819490516417566 0 0 0 0 2884.2164618044917 290.1814732412148 0 290.1814732412148 -420.73667518815 0 0 0 0 1240.6942106730567 788.62095487648594 0 788.62095487648594 -63.157220102566498 0 0 0 0 1846.5479421878554 -1151.2902766484517 0 -1151.2902766484517 596.10847441121109 0 0 0 0 3215.5833401285199 -738.19215427782569 0 -738.19215427782569 -277.28682359350978 0 0 0 0 2030.7924917693417 -298.50446494649043 0 -298.50446494649043 -421.08175846478048 0 0 0 0 2127.6726886295073 -725.40258524987166 0 -725.40258524987166 -139.46293277103496 0 0 0 0 1889.9730878445553 -168.76627864383829 0 -168.76627864383829 -378.42773935677963 0 0 0 0 2301.829257692676 -246.19860867788191 0 -246.19860867788191 -439.91039206071446 0 0 0 0 1690.8507433950144 -473.41161703204648 0 -473.41161703204648 -291.07008339759022 0 0 0 0 1713.3660479563696 -301.47037432509296 0 -301.47037432509296 -367.11260066212139 0 0 0 0 1720.2600328469416 -288.57272900254088 0 -288.57272900254088 -411.46575521837525 0 0 0 0 1558.7833210827957 -590.17520208378539 0 -590.17520208378539 -253.25638632776145 0 0 0 0 1582.2635309674879 -176.06222257747771 0 -176.06222257747771 92.478655765814551 0 0 0 0 1503.6153391289699 -77.907971560896385 0 -77.907971560896385 -19.574741814675804 0 0 0 0 1547.9420379492221 -665.19701780157141 0 -665.19701780157141 383.61555620297344 0 0 0 0 1155.3448415360508 -875.23106402173198 0 -875.23106402173198 279.57253398014655 0 0 0 0 1562.2091140414159 -584.94442199521291 0 -584.94442199521291 -247.32300616522343 0 0 0 0 1555.9319221490005 -582.96237897609353 0 -582.96237897609353 -239.04276958724859 0 0 0 0 1273.7130140165682 -412.86521411203489 0 -412.86521411203489 -327.45950987835329 0 0 0 0 1735.8560347261664 -868.39833407299034 0 -868.39833407299034 -47.31923469028095 0 0 0 0 1523.0429060666065 -494.90684278532638 0 -494.90684278532638 37.010840464810713 0 0 0 0 1739.2202225066217 -495.58602340846176 0 -495.58602340846176 -326.46560086669842 0 0 0 0 1760.138295531855 -6.5910154275544528 0 -6.5910154275544528 -269.8708267456625 0 0 0 0 1120.7838154782439 297.68684635484084 0 297.68684635484084 -383.37897785564428 0 0 0 0 1285.7535526816209 -426.09615455868254 0 -426.09615455868254 -535.33430888991643 0 0 0 0 868.60108712036163 -278.07477203047875 0 -278.07477203047875 -325.6299417410346 0 0 0 0 1052.4728592142928 -30.326275493473304 0 -30.326275493473304 -482.14828070501858 0 0 0 0 603.83919670281466 66.537929970881123 0 66.537929970881123 -691.11550750982417 0 0 0 0 967.90365664268029 -256.8678502807802 0 -256.8678502807802 -779.44437814953426 0 0 0 0 813.86467780655039 219.8198597958293 0 219.8198597958293 -866.9989222906479 0 0 0 0 837.98874421603978 -208.10150148698926 0 -208.10150148698926 -622.97525616908069 0 0 0 0 159.18707520820317 385.10486918017273 0 385.10486918017273 -736.29837048614081 0 0 0 0 -62.247788090346148 46.721504105541726 0 46.721504105541726 -718.43039359313923 0 0 0 0 588.0598618532531 45.365453616155037 0 45.365453616155037 -719.52364061749631 0 0 0 0 398.16722035835846 -289.57858254470148 0 -289.57858254470148 -1003.6548476790043 0 0 0 0 912.92784380330704 -61.463190189972465 0 -61.463190189972465 -914.20991395125293 0 0 0 0 1120.2961174175143 247.00378695197423 0 247.00378695197423 -845.82512548703926 0 0 0 0 1293.8720799171133 -292.17805787616021 0 -292.17805787616021 -677.58861685458123 0 0 0 0 1594.3146382099949 -179.98897944181499 0 -179.98897944181499 -840.49394454626542 0 0 0 0 1295.893683522474 -258.09983651697473 0 -258.09983651697473 -504.06893524476914 0 0 0 0 1291.3754799772287 -291.05342320244165 0 -291.05342320244165 -676.26030352646148 0 0 0 0 1283.4872603332042 -426.99844435689602 0 -426.99844435689602 -719.95870781167605 0 0 0 0 1297.8229836500541 -367.04006914392647 0 -367.04006914392647 -482.2208285048755 0 0 0 0 978.94387967756484 -419.4227558984785 0 -419.4227558984785 -588.92081708000569 0 0 0 0 776.03467365895631 -189.71214312948109 0 -189.71214312948109 -594.8946167811755 0 0 0 0 1135.3447940950864 -221.27492721758563 0 -221.27492721758563 -691.2034331134455 0 0 0 0 1345.4347349616 -329.15484028750006 0 -329.15484028750006 -480.94481694587375 0 0 0 0 911.59349514148198 -226.66484195681642 0 -226.66484195681642 -614.58330254563589 0 0 0 0 1360.1835024253814 -373.19248415355332 0 -373.19248415355332 -679.2367294104605 0 0 0 0 1581.7101959937427 -556.25412972805236 0 -556.25412972805236 -569.58123164479866 0 0 0 0 1551.8245945061208 -588.5405611757526 0 -588.5405611757526 -243.52121172605189 0 0 0 0 1551.6732349884114 -444.75556021202351 0 -444.75556021202351 -456.40189167407152 0 0 0 0 1548.3086153699551 -360.96337545160691 0 -360.96337545160691 -613.26979128436233 0 0 0 0 1461.4920670199208 -298.74667878907576 0 -298.74667878907576 -394.24254918872231 0 0 0 0 1517.8579777657287 -259.04184336443984 0 -259.04184336443984 -447.68808999160501 0 0 0 0 1462.9806731218705 -273.43551397018871 0 -273.43551397018871 -539.67078632004268 0 0 0 0 1388.3313431471179 -379.06107017339292 0 -379.06107017339292 -233.75770623391182 0 0 0 0 626.64112792219385 86.542386361895836 0 86.542386361895836 -303.00162433784709 0 0 0 0 1109.631998114055 120.59436123724095 0 120.59436123724095 -895.21709431483464 0 0 0 0 1177.6979241400404 -144.37013292219427 0 -144.37013292219427 -475.00680791111836 0 0 0 0 1162.340774303826 -191.14957765351826 0 -191.14957765351826 -388.94833517940924 0 0 0 0 1149.2527054665261 -116.02979377224636 0 -116.02979377224636 -496.78025120114455 0 0 0 0 819.25226047995966 -125.06782274677505 0 -125.06782274677505 -83.937363038119912 0 0 0 0 974.01645607926912 -233.60379209386952 0 -233.60379209386952 -49.748753295196167 0 0 0 0 981.25053183126875 -279.31596999499106 0 -279.31596999499106 -95.508681498368276 0 0 0 0 1373.8280582979787 -516.31206672997951 0 -516.31206672997951 46.540967791389221 0 0 0 0 1412.5582434263779 -388.00131357440614 0 -388.00131357440614 -248.69005067453583 0 0 0 0 725.48649640984513 -164.77180764960974 0 -164.77180764960974 120.62158887045916 0 0 0 0 31.027017552111886 23.614346717461913 0 23.614346717461913 12.724544294457772 0 0 0 0 639.95032587627065 -342.44876318299271 0 -342.44876318299271 306.47164925264462 0 0 0 0 984.6665832134895 -765.92094460034991 0 -765.92094460034991 438.59598378816645 0 0 0 0 16.024486867012456 -88.976207819860974 0 -88.976207819860974 -171.13820976055035 0 0 0 0 15.605550544220023 -63.744888550813357 0 -63.744888550813357 -113.71905860934021 0 0 0 0 14.904193304368675 25.03835443327452 0 25.03835443327452 23.559672345787781 0 0 0 0 14.708924045931781 7.9386698237885867 0 7.9386698237885867 -129.45285501044418 0 0 0 0 45.956427545657789 113.05861120367535 0 113.05861120367535 -70.352927272102534 0 0 0 0 38.537572460394586 77.579283644743555 0 77.579283644743555 73.857173225018414 0 0 0 0 32.624016019871647 23.464595503507041 0 23.464595503507041 -20.735266562412917 0 0 0 0 47.043685543447282 19.666864483777175 0 19.666864483777175 -10.756673217916614 0 0 0 0 43.69364200455334 21.538392153185413 0 21.538392153185413 -7.1248850544436557 0 0 0 0 47.2974536390102 23.527196721128348 0 23.527196721128348 -9.1021521299153392 0 0 0 0 42.800912975333631 20.931751429736778 0 20.931751429736778 -9.2651263663080812 0 0 0 0 36.988381555563194 18.886379383330819 0 18.886379383330819 -3.213290833355873 0 0 0 0 41.64874070379301 15.486508662405981 0 15.486508662405981 -13.682689568236128 0 0 0 0 728.45279556600144 -250.89801868298463 0 -250.89801868298463 103.8305536318519 0 0 0 0 667.36918701656396 -161.53368587235946 0 -161.53368587235946 21.803849118168273 0 0 0 0 312.12152355187573 255.47501198196414 0 255.47501198196414 73.609594760783239 0 0 0 0 13.061466895436865 8.3317329070051471 0 8.3317329070051471 1.2524699995227424 0 0 0 0 9.3608343015982314 6.3223015883780249 0 6.3223015883780249 0.5229621530916182 0 0 0 0 128.14265874354169 90.919954471396522 0 90.919954471396522 159.97494281257786 0 0 0 0 93.213327939767623 132.46206765916691 0 132.46206765916691 190.81443023067504 0 0 0 0 41.307317182184988 25.036977445850667 0 25.036977445850667 -1.9248773697680863 0 0 0 0 30.471087703142246 6.6056142201044565 0 6.6056142201044565 -0.098010267850591332 0 0 0 0 67.841216917739075 -23.561120438013035 0 -23.561120438013035 -79.8193273765188 0 0 0 0 24.797538830387964 14.485203638261794 0 14.485203638261794 -2.8406059772501804 0 0 0 0 29.82989953289507 7.8539471662866163 0 7.8539471662866163 -7.481664423946313 0 0 0 0 187.35378070292063 197.18519847752421 0 197.18519847752421 121.29956380687167 0 0 0 0 1447.1923095145321 218.97125911397868 0 218.97125911397868 69.422789591158576 0 0 0 0 32.815547924766463 -6.8418891902525445 0 -6.8418891902525445 1.6183237255434528 0 0 0 0 15.245533598013196 14.878557476603589 0 14.878557476603589 -44.449137060005292 0 0 0 0 66.509892174479319 90.613968889425195 0 90.613968889425195 -90.17058021357046 0 0 0 0 4493.7405688106592 1622.5740131387449 0 1622.5740131387449 -1.1786986878769588 0 0 0 0 1378.5316656030773 -1461.5835095574428 0 -1461.5835095574428 385.68275736371072 0 0 0 0 12.670198811363434 -3.719674868595078 0 -3.719674868595078 2.0833821679019726 0 0 0 0 1581.3771608079733 -146.60548720484857 0 -146.60548720484857 -145.4668878616223 0 0 0 0 1770.0644480885821 8.6462352171357608 0 8.6462352171357608 -75.005490526692483 0 0 0 0 2012.2560178888962 9.9316581707406399 0 9.9316581707406399 -102.91739244603309 0 0 0 0 4496.6311684221873 -1720.0149260478058 0 -1720.0149260478058 171.08311327209157 0 0 0 0 1284.5474453265342 -438.76222102515311 0 -438.76222102515311 -2.9871950175942317 0 0 0 0 1979.0248331878274 -411.33276971379439 0 -411.33276971379439 -2.6339622897836108 0 0 0 0 -36.233333421214411 308.60324452446417 0 308.60324452446417 -634.94895478126182 0 0 0 0 77.390916677424684 331.86191952375293 0 331.86191952375293 -654.80672395146144 0 0 0 0 -738.85008561763971 1181.1766742125594 0 1181.1766742125594 -912.35204150559912 0 0 0 0 28.157419463699512 20.439363547533844 0 20.439363547533844 11.348272308211305 0 0 0 0 11.297615253848278 -1.8065178432252367 0 -1.8065178432252367 -7.008388250662172 0 0 0 0 110.8220623654779 125.14020983758019 0 125.14020983758019 -537.82771030525601 0 0 0 0 -857.66948293778114 1204.2730020041572 0 1204.2730020041572 -438.508898049972 0 0 0 0 850.49516838853015 765.4007025019655 0 765.4007025019655 -482.80263836067934 0 0 0 0 395.1800995709782 87.375115171151265 0 87.375115171151265 -439.13047191996452 0 0 0 0 864.53597682234249 558.35672067001155 0 558.35672067001155 -1202.5495084398153 0 0 0 0 667.82887906205724 -106.46945131810548 0 -106.46945131810548 -5.8401813528503226 0 0 0 0 -723.65288918852457 1243.8493556275496 0 1243.8493556275496 1418.4503717500581 0 0 0 0 13.317427747262002 6.37856349163701 0 6.37856349163701 5.1689481342854222 0 0 0 0 1430.4435117877001 1103.4463049632984 0 1103.4463049632984 -183.89604217168505 0 0 0 0 4488.411102948623 1683.9625919674454 0 1683.9625919674454 -1305.2320711052291 0 0 0 0 689.2647518008016 963.79904837317713 0 963.79904837317713 -322.56578816777676 0 0 0 0 1658.8410108940443 1507.5080798296701 0 1507.5080798296701 -157.84999298879754 0 0 0 0 316.33682483868324 -204.01068942980214 0 -204.01068942980214 -1094.7655537156743 0 0 0 0 1568.3200184282214 1017.8618277468657 0 1017.8618277468657 -1612.7436790191914 0 0 0 0 1718.7075024353371 -453.6559708018865 0 -453.6559708018865 -2951.3192558137416 0 0 0 0 -678.93357463979919 -1788.9501860905084 0 -1788.9501860905084 -2274.8399740251671 0 0 0 0 10.917847409734605 -2.2363184636514575 0 -2.2363184636514575 -13.95305578582612 0 0 0 0 4499.0906999450817 1499.6980433602328 0 1499.6980433602328 -10.360040299634781 0 0 0 0 1944.3882060997857 820.85662562093466 0 820.85662562093466 -187.09570343630929 0 0 0 0 4491.0419501032748 -357.25037708596676 0 -357.25037708596676 -870.1753430391135 0 0 0 0 1559.3100047841363 -598.17446626634683 0 -598.17446626634683 377.53776470750421 0 0 0 0 88.518411086559354 -150.58098677076487 0 -150.58098677076487 -639.25794960921303 0 0 0 0 11.593396169181375 0.60881767096984163 0 0.60881767096984163 -30.696472575644371 0 0 0 0 397.66716897623701 447.33664664512912 0 447.33664664512912 -75.490689052231062 0 0 0 0 309.40118569530023 89.02823886450642 0 89.02823886450642 -760.07697862621671 0 0 0 0 275.30236725424766 296.28468651810681 0 296.28468651810681 -545.60752117914626 0 0 0 0 53.297355046714074 45.580632032485482 0 45.580632032485482 -71.709126648931488 0 0 0 0 -186.73188814472087 357.40871007962505 0 357.40871007962505 -476.06795882988627 0 0 0 0 9.0018474062998166 14.968245314352629 0 14.968245314352629 22.649594531833888 0 0 0 0 174.48821783984386 470.25471694744675 0 470.25471694744675 347.71642760420309 0 0 0 0 175.03895296847622 365.1070013906342 0 365.1070013906342 406.33602147746751 0 0 0 0 -2.9395672039536294 -204.53599937149875 0 -204.53599937149875 29.896517305962334 0 0 0 0 3222.4740157356573 467.06000734478607 0 467.06000734478607 -124.04607594441404 0 0 0 0 533.62029594655178 -90.004580305564104 0 -90.004580305564104 -35.327670457022577 0 0 0 0 4.4315353972757521 6.4238397181135554 0 6.4238397181135554 9.1112610337225064 0 0 0 0 -648.74961074379098 1389.5154577947765 0 1389.5154577947765 268.37766473529882 0 0 0 0 20.759583837396349 525.45727358788974 0 525.45727358788974 -719.07287031342184 0 0 0 0 703.82419516060327 1166.8268140680239 0 1166.8268140680239 -118.88215901978947 0 0 0 0 402.27182641954278 1080.2293716986323 0 1080.2293716986323 10.622347055661976 0 0 0 0 382.61607947661832 1167.0769574189064 0 1167.0769574189064 76.297093439025673 0 0 0 0 1550.0180370173621 1014.6714928749648 0 1014.6714928749648 -689.39047522944281 0 0 0 0 621.26618630242592 1587.0845334352812 0 1587.0845334352812 61.653111491841926 0 0 0 0 1193.5058391140628 -25.609995194626663 0 -25.609995194626663 -141.83005030023742 0 0 0 0 914.86475367407547 515.12457077889849 0 515.12457077889849 -1088.4226873507973 0 0 0 0 294.70495187473716 519.90337245997716 0 519.90337245997716 -1867.3178222458757 0 0 0 0 752.82296865718672 -364.23507940316858 0 -364.23507940316858 -2348.8239566804032 0 0 0 0 -384.30307257999084 236.40817299205673 0 236.40817299205673 -2077.3159980966975 0 0 0 0 -375.37248623301275 78.746098789975804 0 78.746098789975804 -444.43262636755071 0 0 0 0 -218.24693182832561 -386.0983441775154 0 -386.0983441775154 -936.54390001416232 0 0 0 0 883.26475103458506 -267.31396337067144 0 -267.31396337067144 -893.36547942887682 0 0 0 0 423.8875267929543 -36.590942278438888 0 -36.590942278438888 262.6840403081751 0 0 0 0 324.32450983662966 509.33657519498263 0 509.33657519498263 -133.06519603682045 0 0 0 0 350.37902700863924 -353.07670968484985 0 -353.07670968484985 -188.01978124019661 0 0 0 0 1442.6738428091339 -8.2867985296979896 0 -8.2867985296979896 -52.328011144432821 0 0 0 0 458.99533931931364 -110.92585434146122 0 -110.92585434146122 411.14243140408462 0 0 0 0 2962.4085947720159 949.16464641074435 0 949.16464641074435 -60.269869221950103 0 0 0 0 1138.9878162191162 1132.154578302242 0 1132.154578302242 543.88451006864489 0 0 0 0 1729.248822776688 460.22480858730796 0 460.22480858730796 -47.094813817630893 0 0 0 0 3936.8922277524107 -294.74616335887549 0 -294.74616335887549 211.08841717297491 0 0 0 0 3925.1371883055835 -487.06469861163805 0 -487.06469861163805 753.95378356479034 0 0 0 0 2436.884572161609 1384.0132023547721 0 1384.0132023547721 512.19908624574509 0 0 0 0 14.030680568320747 7.8100202344679701 0 7.8100202344679701 5.6238278302279223 0 0 0 0 3440.5690490270863 436.27736069692878 0 436.27736069692878 900.88273719754216 0 0 0 0 310.03537809679983 -783.35583910593459 0 -783.35583910593459 1024.2239928340352 0 0 0 0 1614.7063751452661 -572.30500015460643 0 -572.30500015460643 657.54312515244737 0 0 0 0 1747.18986525535 -372.31389336609118 0 -372.31389336609118 1350.6226550626438 0 0 0 0 1974.8292738548771 -450.82611287782584 0 -450.82611287782584 681.44444526058624 0 0 0 0 634.02615476591745 -513.06730434060182 0 -513.06730434060182 869.41687951154154 0 0 0 0 2011.2067502574682 -230.16996376744771 0 -230.16996376744771 373.74957564041051 0 0 0 0 2.7418998890207149 -474.50180000533487 0 -474.50180000533487 731.01672831817223 0 0 0 0 671.38965079373884 -766.93031931910639 0 -766.93031931910639 771.20707564369332 0 0 0 0 -466.77153634646675 -351.43221410134072 0 -351.43221410134072 1001.4530993265969 0 0 0 0 -447.29513618138208 35.819668371406095 0 35.819668371406095 534.67328396171615 0 0 0 0 23.602415388871634 -2.8412578896273768 0 -2.8412578896273768 -0.74131933952498297 0 0 0 0 388.64391526265536 -218.67220400366 0 -218.67220400366 -285.08008857599748 0 0 0 0 -18.663190666484297 166.55778441088239 0 166.55778441088239 119.84696063657816 0 0 0 0 252.78263580502971 -163.85898057349198 0 -163.85898057349198 244.03856587276323 0 0 0 0 -11.944008950114949 -552.01642962770416 0 -552.01642962770416 558.80385713320379 0 0 0 0 -17.340034421926248 -387.96747365680744 0 -387.96747365680744 775.07771235067446 0 0 0 0 299.97691284969915 -502.88445525502891 0 -502.88445525502891 356.90024617826111 0 0 0 0 73.385351493401686 -748.90251476721824 0 -748.90251476721824 131.00363021542898 0 0 0 0 161.31392563867848 -777.63024377227271 0 -777.63024377227271 442.48936566206294 0 0 0 0 182.43272819684353 -495.20740498556097 0 -495.20740498556097 -44.60986284484261 0 0 0 0 247.63938660775602 -550.78589822951335 0 -550.78589822951335 -619.59361985199303 0 0 0 0 -286.31638169154758 -562.58212829422519 0 -562.58212829422519 -53.217621554105449 0 0 0 0 -25.481178097099473 -695.05981510018682 0 -695.05981510018682 -755.64546420865736 0 0 0 0 -1007.1806146022282 -482.04683135592859 0 -482.04683135592859 -752.39606545445088 0 0 0 0 103.33399070916494 -485.23975916928794 0 -485.23975916928794 -1777.1870267901577 0 0 0 0 64.373477016284596 196.42251038579798 0 196.42251038579798 -1823.4039908814316 0 0 0 0 134.19964668336615 -186.39555088711768 0 -186.39555088711768 -508.13248356385611 0 0 0 0 87.097115923155798 -452.80600095257648 0 -452.80600095257648 -1237.3078570304151 0 0 0 0 60.653381213662215 243.97344972522296 0 243.97344972522296 -881.52872607624295 0 0 0 0 293.14086820193916 -89.791782292272273 0 -89.791782292272273 -781.23733864772657 0 0 0 0 460.85936566276359 -403.89854832164224 0 -403.89854832164224 -351.22589200359744 0 0 0 0 269.98058906675578 -165.80777128507043 0 -165.80777128507043 -117.67630409329468 0 0 0 0 254.57017742408789 -375.3498379643861 0 -375.3498379643861 13.394688858744985 0 0 0 0 16.319903726049233 142.50147114381798 0 142.50147114381798 -354.23367913252832 0 0 0 0 219.78862109800684 99.000755706434575 0 99.000755706434575 -377.93697838865182 0 0 0 0 186.83807288999742 -6.4430611525519907 0 -6.4430611525519907 -332.31098968498372 0 0 0 0 105.31968701687583 44.370516272449549 0 44.370516272449549 -327.33262308613303 0 0 0 0 418.00346241127409 -7.530581431346036 0 -7.530581431346036 -438.28389442318348 0 0 0 0 127.77727681712713 91.807137080657412 0 91.807137080657412 -446.08802906054734 0 0 0 0 107.62404194180272 213.2892324986824 0 213.2892324986824 -478.09699901677959 0 0 0 0 -259.55506226322905 204.17520525454984 0 204.17520525454984 -51.75819079210487 0 0 0 0 -140.91835673936293 362.79321548023927 0 362.79321548023927 -512.03065640358909 0 0 0 0 145.42827569621295 120.90990764110143 0 120.90990764110143 -751.35610402725797 0 0 0 0 -180.27646069164621 255.42148380434992 0 255.42148380434992 -466.7266785703323 0 0 0 0 -209.72332545969402 556.13183741258899 0 556.13183741258899 -946.9471388152233 0 0 0 0 -353.5021927923226 388.94624109930828 0 388.94624109930828 -162.98607980618181 0 0 0 0 25.834072859899607 169.40127280014622 0 169.40127280014622 -326.90608030035685 0 0 0 0 21.69376424101938 184.12419819909292 0 184.12419819909292 -325.8714815725416 0 0 0 0 194.89294305327348 -81.52924443345546 0 -81.52924443345546 -162.13819976817922 0 0 0 0 194.89294305280782 -81.52924443349184 0 -81.52924443349184 -162.13819976816012 0 0 0 0 95.717008016494219 -78.982912681110975 0 -78.982912681110975 -337.09936800714593 0 0 0 0 194.89294305298245 -81.529244433462736 0 -81.529244433462736 -162.13819976817831 0 0 0 0 180.79549921791477 -19.859873621124279 0 -19.859873621124279 -296.46047428036945 0 0 0 0 55.251828840700284 12.119989617378224 0 12.119989617378224 -3.0417918445359851 0 0 0 0 56.324749007732919 11.613095644295889 0 11.613095644295889 -2.3254975006271721 0 0 0 0 -15.451795426517492 -247.451693462408 0 -247.451693462408 -333.22887094257021 0 0 0 0 -164.68492546951165 -196.12141608996899 0 -196.12141608996899 80.126159764069371 0 0 0 0 27.640373184110757 15.472227207146489 0 15.472227207146489 8.0871014444862261 0 0 0 0 -326.60975887769018 -245.80716651455623 0 -245.80716651455623 131.36333495837607 0 0 0 0 42.38390508267787 4.1114286986245077 0 4.1114286986245077 -0.066465595409010092 0 0 0 0 -33.229853655735496 -43.395540066867397 0 -43.395540066867397 -250.89788641004634 0 0 0 0 -92.544182882389578 298.77830397377966 0 298.77830397377966 177.85123898178608 0 0 0 0 150.23858416842995 245.86895507128611 0 245.86895507128611 -461.64119775913787 0 0 0 0 11.950718006031821 300.14515770447542 0 300.14515770447542 -166.27471715916181 0 0 0 0 181.11504244018579 62.445081855685203 0 62.445081855685203 -331.19341552515471 0 0 0 0 223.68039104917261 174.11480304134511 0 174.11480304134511 -77.67664355132365 0 0 0 0 155.31621620415899 13.92191098021749 0 13.92191098021749 -29.229572808897501 0 0 0 0 92.880591355002252 84.620586351425573 0 84.620586351425573 -82.499589938564895 0 0 0 0 147.62371779182467 71.944024201148068 0 71.944024201148068 -99.037642778715963 0 0 0 0 -33.996332384791458 42.025283067650889 0 42.025283067650889 64.824361117337503 0 0 0 0 203.11400587970275 31.858133384702796 0 31.858133384702796 20.941634607909918 0 0 0 0 154.31578341985005 111.41781383890293 0 111.41781383890293 84.157564236710186 0 0 0 0 125.46739731299022 84.84838570729562 0 84.84838570729562 74.734291719388693 0 0 0 0 246.56484405764786 58.373078791254557 0 58.373078791254557 44.882044140758808 0 0 0 0 250.99295729503501 65.854791801234114 0 65.854791801234114 22.500965839250966 0 0 0 0 261.94392496615183 81.958376285849226 0 81.958376285849226 5.1857648909958698 0 0 0 0 240.17146911189775 104.84785656253916 0 104.84785656253916 110.86091802625742 0 0 0 0 6.1191346877768069 -3.1550561269095283 0 -3.1550561269095283 -3.5369886812751403 0 0 0 0 484.62006786071288 284.6336715606858 0 284.6336715606858 -28.55774928102619 0 0 0 0 -268.15341186779551 -353.68718296099269 0 -353.68718296099269 -142.52542730610003 0 0 0 0 493.03243095977814 36.402845264247844 0 36.402845264247844 -249.23656859172661 0 0 0 0 48.469845162374071 -49.112351194949028 0 -49.112351194949028 -42.684299312338773 0 0 0 0 -84.023400303092785 -76.450781175777593 0 -76.450781175777593 15.767321257270851 0 0 0 0 155.02771925484194 -63.911324639408576 0 -63.911324639408576 -166.96064779584958 0 0 0 0 78.433728395044454 -215.74252678500034 0 -215.74252678500034 -75.300982547464628 0 0 0 0 -179.60145722289235 -65.867303652000601 0 -65.867303652000601 -113.95324493750013 0 0 0 0 8.8467899931389411 -6.2007249444534125 0 -6.2007249444534125 -2.467299000722786 0 0 0 0 238.00952480336127 20.352849050915665 0 20.352849050915665 -2.6608614996866891 0 0 0 0 62.506144133614725 -113.98442310495921 0 -113.98442310495921 -176.55254716224226 0 0 0 0 66.654437229721225 -87.357687838886477 0 -87.357687838886477 -191.08832082879246 0 0 0 0 -36.139461504819337 -156.96071222453793 0 -156.96071222453793 69.948015601061343 0 0 0 0 56.630133278405992 9.7918813459070861 0 9.7918813459070861 -14.873524875421765 0 0 0 0 29.85946104736324 -15.042783334006216 0 -15.042783334006216 -12.498659039706528 0 0 0 0 67.343919165068655 -96.793731467193311 0 -96.793731467193311 -330.98987850110416 0 0 0 0 17.825827192885129 -16.085347839086545 0 -16.085347839086545 -15.828609763161257 0 0 0 0 79.045193733017356 17.816865597406256 0 17.816865597406256 -2.7978949309047447 0 0 0 0 57.393268582338351 9.2094513102375117 0 9.2094513102375117 -14.456983649086169 0 0 0 0 169.11207402258879 28.535637587825704 0 28.535637587825704 -80.997444684278889 0 0 0 0 153.28251473985438 14.937622433046045 0 14.937622433046045 -45.3701777510787 0 0 0 0 159.1037045289122 -3.7553085065942469 0 -3.7553085065942469 -24.048354219894691 0 0 0 0 178.65823147201445 6.7773819143194487 0 6.7773819143194487 -66.194132926205384 0 0 0 0 144.36120844042853 16.287327517360566 0 16.287327517360566 200.57397347757916 0 0 0 0 228.16903895663563 64.966699474366365 0 64.966699474366365 -10.234451363742004 0 0 0 0 218.64281222636055 90.13763374093287 0 90.13763374093287 -187.94024721909773 0 0 0 0 51.007912215970379 -46.589152326698965 0 -46.589152326698965 -46.981476818382475 0 0 0 0 186.33752924004511 -58.600703632709539 0 -58.600703632709539 29.663894086536629 0 0 0 0 187.48927544662729 109.74510799071413 0 109.74510799071413 -73.822532189797812 0 0 0 0 456.06057537771994 42.777565180552756 0 42.777565180552756 127.28660384684372 0 0 0 0 658.2376228061039 517.05003413693532 0 517.05003413693532 -57.769330473285208 0 0 0 0 23.336755910425666 9.8022777654108779 0 9.8022777654108779 -10.06226301169313 0 0 0 0 -260.93127626648493 477.44096530204229 0 477.44096530204229 -458.11787226163142 0 0 0 0 -169.4618604342686 -399.90162837346747 0 -399.90162837346747 -545.21532930595458 0 0 0 0 3.9790430265451278 -7.9095532840355673 0 -7.9095532840355673 -4.9296608586355513 0 0 0 0 581.38499999139458 102.18624803629223 0 102.18624803629223 -233.94082561179766 0 0 0 0 -32.897423681337386 36.518234744676647 0 36.518234744676647 373.01175181858707 0 0 0 0 -14.079201288055629 115.73704581000084 0 115.73704581000084 679.63471574401524 0 0 0 0 251.99568515148712 -59.9332300763283 0 -59.9332300763283 -142.3719215989031 0 0 0 0 56.666199141182005 -143.91903167244891 0 -143.91903167244891 -149.72836484257647 0 0 0 0 528.08191947545856 215.76599487029171 0 215.76599487029171 132.16824461653641 0 0 0 0 123.28702299718861 165.56390477943319 0 165.56390477943319 201.46428004701193 0 0 0 0 -229.79595906552277 18.934500920549453 0 18.934500920549453 224.49568569549047 0 0 0 0 -136.04856819845736 183.43250712401823 0 183.43250712401823 220.07817991038428 0 0 0 0 29.097398200321607 -25.536710450345765 0 -25.536710450345765 -26.908529957176526 0 0 0 0 -122.25329615341616 -87.597705589130328 0 -87.597705589130328 -34.138482441859196 0 0 0 0 949.50137102225563 338.70754011243775 0 338.70754011243775 -902.05229950875037 0 0 0 0 1.8233425517983051 1.5876440720355447 0 1.5876440720355447 -10.58594587726844 0 0 0 0 -96.882333565561567 -649.75460987782981 0 -649.75460987782981 -875.40931654869951 0 0 0 0 392.50086302205455 -976.02616036655581 0 -976.02616036655581 -1840.8702164885458 0 0 0 0 327.34949977346696 258.63061550830298 0 258.63061550830298 262.16844185342279 0 0 0 0 101.14041049444313 391.68719559857902 0 391.68719559857902 -322.35322630774044 0 0 0 0 331.16871796355554 600.65362550431905 0 600.65362550431905 -180.63224187241758 0 0 0 0 41.234859465155751 213.87354462950861 0 213.87354462950861 160.2341850462717 0 0 0 0 212.60953510573017 390.1817429806506 0 390.1817429806506 -501.75620700197476 0 0 0 0 137.07684744626749 650.18255359828072 0 650.18255359828072 409.7585351874568 0 0 0 0 220.68434702705417 786.48771685942529 0 786.48771685942529 627.58714253833568 0 0 0 0 159.90587902771949 108.10639653290173 0 108.10639653290173 -72.01390263356916 0 0 0 0 156.87105095831794 130.04284160128509 0 130.04284160128509 -191.59327829345057 0 0 0 0 -45.717325835415977 32.961573699634755 0 32.961573699634755 -23.392306895847469 0 0 0 0 -5.3625455102956039 77.452994033220193 0 77.452994033220193 573.3885142369154 0 0 0 0 157.5074613840552 257.98984079941056 0 257.98984079941056 -469.43366430561218 0 0 0 0 26.243063327143318 -109.11205797271941 0 -109.11205797271941 -276.88227344436882 0 0 0 0 11.545860268730507 17.564393102468514 0 17.564393102468514 -17.620069804109072 0 0 0 0 153.49032238806012 75.630488750659083 0 75.630488750659083 11.634217357435318 0 0 0 0 56.886539371967956 92.642706245941667 0 92.642706245941667 9.0881178548888784 0 0 0 0 59.332429079015668 25.105741823593306 0 25.105741823593306 5.4962288858935935 0 0 0 0 57.928550551354419 9.9483441169136881 0 9.9483441169136881 -15.276464383802704 0 0 0 0 42.212109865609818 29.763087408369699 0 29.763087408369699 -0.34417247295812103 0 0 0 0 48.728652299789246 36.899439566984427 0 36.899439566984427 -11.583290104513708 0 0 0 0 109.38309753606154 258.39920113298126 0 258.39920113298126 -340.85069861743034 0 0 0 0 36.240209314465005 19.27493919168748 0 19.27493919168748 1.1970723623188819 0 0 0 0 -47.297734076888446 -217.18452357251437 0 -217.18452357251437 -133.29209815530544 0 0 0 0 58.219646912343649 36.033755344503227 0 36.033755344503227 12.294946015501925 0 0 0 0 3.7249606170298648 129.4451605436555 0 129.4451605436555 -50.658959318057015 0 0 0 0 10.836792285366499 27.42417862648108 0 27.42417862648108 5.0330870656687035 0 0 0 0 18.050459482368183 5.1780803873414953 0 5.1780803873414953 -2.4702087372671842 0 0 0 0 1224.0829618023126 13.115693169430472 0 13.115693169430472 8.1826626722515812 0 0 0 0 -246.97433025744976 59.108217429568413 0 59.108217429568413 346.46080164328816 0 0 0 0 792.60420318983233 -741.66162717542443 0 -741.66162717542443 474.5134074306319 0 0 0 0 1931.6550202853332 -896.35945740567797 0 -896.35945740567797 205.01209042921181 0 0 0 0 1938.4042179350217 -279.93545112587117 0 -279.93545112587117 -10.357759113838256 0 0 0 0 7.8641439097507941 4.987327681983146 0 4.987327681983146 -1.0813398017574096 0 0 0 0 4498.9838949692494 -428.98985791918142 0 -428.98985791918142 -1032.6487002227504 0 0 0 0 2473.0024988784717 -588.45099505431881 0 -588.45099505431881 -433.85236293229252 0 0 0 0 3835.2574292216741 -854.62294634942236 0 -854.62294634942236 -385.30559999968511 0 0 0 0 4773.1375807687291 -1595.2998354160352 0 -1595.2998354160352 145.32027391098944 0 0 0 0 1921.9757848326408 -1871.9770507946887 0 -1871.9770507946887 1175.1179102142748 0 0 0 0 3811.8500865564274 -2550.9558902404169 0 -2550.9558902404169 1358.8681707082437 0 0 0 0 12.053157737935635 -0.30117625424877303 0 -0.30117625424877303 -2.4796752829562978 0 0 0 0 582.87250585734728 1213.2012585950843 0 1213.2012585950843 3814.9212122302288 0 0 0 0 4495.1430662970479 -570.59184234373663 0 -570.59184234373663 924.33728972492554 0 0 0 0 4420.1694441150321 -972.66080254845383 0 -972.66080254845383 -114.47764696901203 0 0 0 0 22.232110805292393 12.565158932941138 0 12.565158932941138 11.685956309201851 0 0 0 0 283.97308232213254 -531.92557783547386 0 -531.92557783547386 488.35771851254157 0 0 0 0 -229.00316790145735 -270.12600590919976 0 -270.12600590919976 1496.9423913934061 0 0 0 0 64.430256864783587 -180.76312587921166 0 -180.76312587921166 -69.877719050548194 0 0 0 0 -64.386834864126286 202.64426272222693 0 202.64426272222693 2284.2837925257095 0 0 0 0 260.64657100802287 1269.5519220593437 0 1269.5519220593437 1462.2621007396203 0 0 0 0 268.71512590124007 1718.8523607784819 0 1718.8523607784819 3151.5012279027292 0 0 0 0 3.2509887424312183 875.57556383206531 0 875.57556383206531 883.51478484544225 0 0 0 0 489.20059217090966 1445.8342814298264 0 1445.8342814298264 945.28833746944247 0 0 0 0 2955.5528854575532 2021.3951373188506 0 2021.3951373188506 283.63153334891263 0 0 0 0 4493.4722340227972 3627.1991476452558 0 3627.1991476452558 1870.9292129656546 0 0 0 0 194.63344790734118 -18.614559234324588 0 -18.614559234324588 175.49047990976544 0 0 0 0 188.85282078669115 -42.462783072371394 0 -42.462783072371394 103.53985694897172 0 0 0 0 219.2341690452522 -83.373261401594107 0 -83.373261401594107 156.57440404359863 0 0 0 0 292.55479180740076 -38.605296327836641 0 -38.605296327836641 -69.066552681372968 0 0 0 0 295.89326863024326 -4.3853452576272502 0 -4.3853452576272502 14.291402363814086 0 0 0 0 223.72573376791843 -5.3706960933672576 0 -5.3706960933672576 82.053664131841515 0 0 0 0 209.6423133318458 12.29394010354531 0 12.29394010354531 92.076979961883012 0 0 0 0 258.09816160720948 34.018278291548427 0 34.018278291548427 122.70891528280094 0 0 0 0 229.99360023943882 -52.59288471592356 0 -52.59288471592356 80.749424506986202 0 0 0 0 312.06151140708243 -126.34900316768869 0 -126.34900316768869 135.08642429040947 0 0 0 0 268.50635494380549 -178.54034167801149 0 -178.54034167801149 31.981369900918025 0 0 0 0 362.51303791155806 -152.8234864597739 0 -152.8234864597739 64.059190506235552 0 0 0 0 245.57625405352883 -175.43288649810239 0 -175.43288649810239 102.79900711375626 0 0 0 0 425.72155757399014 124.23441520066834 0 124.23441520066834 257.77391722474397 0 0 0 0 44.053607335891684 -77.40209700233828 0 -77.40209700233828 154.13146936805578 0 0 0 0 3.965295318167307 -1.4915267720935503 0 -1.4915267720935503 0.99210317995766795 0 0 0 0 370.52918390876584 259.4923787611981 0 259.4923787611981 216.12488392805284 0 0 0 0 328.95285760919342 -77.140518561933419 0 -77.140518561933419 23.858535052401066 0 0 0 0 -11.080196328170132 -20.506491367264175 0 -20.506491367264175 351.66907576679671 0 0 0 0 250.55848277804034 -225.4841791251132 0 -225.4841791251132 195.11611437980696 0 0 0 0 174.70689328062872 -46.782152408178831 0 -46.782152408178831 27.548783387320668 0 0 0 0 -61.364580681727602 -279.73509462007473 0 -279.73509462007473 294.52543319884808 0 0 0 0 165.54086016679321 -44.719062395644357 0 -44.719062395644357 582.05380419513358 0 0 0 0 620.54792005567288 -434.99494351991768 0 -434.99494351991768 165.9213334096645 0 0 0 0 562.20450242042989 79.668635924393897 0 79.668635924393897 -106.04650804663083 0 0 0 0 251.70764135933132 -197.43077857776166 0 -197.43077857776166 18.402819559885415 0 0 0 0 -291.54764531584806 38.974874028357021 0 38.974874028357021 133.03959913201948 0 0 0 0 9.7861190599078327 -1.7987773402034213 0 -1.7987773402034213 0.15348018619530734 0 0 0 0 88.371119562434615 239.1376950943536 0 239.1376950943536 -117.00729430662678 0 0 0 0 26.617299324541818 -5.4240516022649672 0 -5.4240516022649672 4.2965903404875689 0 0 0 0 653.71619959894451 -536.71839281767848 0 -536.71839281767848 310.67515955640511 0 0 0 0 2.7723956362007982 1.9609560795292111 0 1.9609560795292111 0.97045276864340035 0 0 0 0 -23.300314426844125 69.268306353605794 0 69.268306353605794 116.37899995473344 0 0 0 0 303.33395949975784 -488.33604750095776 0 -488.33604750095776 402.04933955144224 0 0 0 0 883.0901275229262 -355.52939560129289 0 -355.52939560129289 52.459307045900459 0 0 0 0 161.07625310181174 62.097285395374684 0 62.097285395374684 -30.011733133091127 0 0 0 0 7.9501489565751626 7.1704553667253492 0 7.1704553667253492 4.277447174749458 0 0 0 0 673.02507683329168 -431.07348802179422 0 -431.07348802179422 371.15041647700582 0 0 0 0 1060.9055358532787 -721.22303006403968 0 -721.22303006403968 143.47624446052305 0 0 0 0 438.66393627537764 -393.97620003452994 0 -393.97620003452994 163.99403856176468 0 0 0 0 719.60990283681895 -312.58368393020737 0 -312.58368393020737 -201.20634350580622 0 0 0 0 257.03929908681312 -90.463977313839791 0 -90.463977313839791 19.273202165143346 0 0 0 0 263.74225092484994 -107.73710912434376 0 -107.73710912434376 50.692721386269568 0 0 0 0 291.11097412087838 -100.04909791956572 0 -100.04909791956572 -0.63390774712001985 0 0 0 0 273.83532269325224 -70.663178289160783 0 -70.663178289160783 -25.222610645601435 0 0 0 0 268.3163891715958 -90.246839465834682 0 -90.246839465834682 19.043052036279732 0 0 0 0 442.93963847738632 -36.605057333154946 0 -36.605057333154946 -70.071724914425886 0 0 0 0 308.36965856608003 -136.78473407048477 0 -136.78473407048477 -120.41592771491776 0 0 0 0 147.965003458914 -87.935833731996809 0 -87.935833731996809 -25.41588748000845 0 0 0 0 310.23745240307562 -159.37040158287044 0 -159.37040158287044 -123.85801849867585 0 0 0 0 13.806905266147908 15.141671873532914 0 15.141671873532914 12.169728979199403 0 0 0 0 402.35023771282249 1250.0694472587052 0 1250.0694472587052 1452.2652524781461 0 0 0 0 322.45558535060263 -155.5987259483868 0 -155.5987259483868 -128.59566346435372 0 0 0 0 10.392553628881501 18.708258104676929 0 18.708258104676929 18.274882365158767 0 0 0 0 -786.72085867646092 -69.403907468370562 0 -69.403907468370562 587.01029812377783 0 0 0 0 892.6097257152469 -1312.0911597425034 0 -1312.0911597425034 -118.70169485162478 0 0 0 0 1696.3661103316117 -668.53044339075905 0 -668.53044339075905 -67.056126874028905 0 0 0 0 272.62410428363364 -315.70385846681575 0 -315.70385846681575 -150.47765416585594 0 0 0 0 693.619209648788 -205.55123026088228 0 -205.55123026088228 -180.1816903164372 0 0 0 0 342.52647436354891 -126.91096280975125 0 -126.91096280975125 -118.69887102521977 0 0 0 0 248.23393579383264 -95.068351464313309 0 -95.068351464313309 -101.56117414831397 0 0 0 0 390.48110679718593 -121.248523910404 0 -121.248523910404 -29.597468835187101 0 0 0 0 680.90193105349317 -238.91575209857865 0 -238.91575209857865 -164.96423157502431 0 0 0 0 738.61583565849287 -125.0433527166806 0 -125.0433527166806 59.452767400862285 0 0 0 0 1056.4383581664442 -337.05733002482179 0 -337.05733002482179 -373.22244810306893 0 0 0 0 16.602899045678555 1.4417923843372158 0 1.4417923843372158 0.24506002323324338 0 0 0 0 458.40119571490504 -1066.0047564262122 0 -1066.0047564262122 634.5296220669461 0 0 0 0 892.69324199930998 -658.12828321900088 0 -658.12828321900088 -534.61146434380316 0 0 0 0 1009.1613415148749 437.60651436512489 0 437.60651436512489 -112.66074799234593 0 0 0 0 533.13512161465769 -490.75575538090925 0 -490.75575538090925 279.84974106489608 0 0 0 0 378.19003144612361 131.54775916580002 0 131.54775916580002 -489.31682973865281 0 0 0 0 148.42817771449336 101.78728751857943 0 101.78728751857943 -199.6862873108347 0 0 0 0 -108.25869302393403 -319.52510915519815 0 -319.52510915519815 -188.32869532640348 0 0 0 0 -240.389696613056 -64.765872658998887 0 -64.765872658998887 -22.636122243886348 0 0 0 0 45.893592158041429 -74.288368593410269 0 -74.288368593410269 -432.58447551866811 0 0 0 0 -416.55783730945404 70.578667866305295 0 70.578667866305295 303.35618186970896 0 0 0 0 -188.94157631887356 232.72605538222979 0 232.72605538222979 175.96209703772729 0 0 0 0 944.48198126096395 4.6046254923085144 0 4.6046254923085144 305.60028563554431 0 0 0 0 190.64056824018189 488.52099569140864 0 488.52099569140864 207.67028346114057 0 0 0 0 9.2176804151705483 6.1323928426969871 0 6.1323928426969871 3.7498235214428188 0 0 0 0 1798.8818071535643 376.32392180886836 0 376.32392180886836 -143.19008660582085 0 0 0 0 842.64434087950212 678.52601613516026 0 678.52601613516026 96.291009700320501 0 0 0 0 435.40739172173198 378.50376725049 0 378.50376725049 28.496294239881081 0 0 0 0 369.66138844276429 370.77590744388544 0 370.77590744388544 27.751465930428822 0 0 0 0 -1.4430996064038482 220.24897589603916 0 220.24897589603916 118.32395930574785 0 0 0 0 236.878896484297 442.8038247769291 0 442.8038247769291 204.34461586125951 0 0 0 0 208.38252044547698 284.31635931405117 0 284.31635931405117 131.87619439306445 0 0 0 0 299.91837385970575 244.00043465632643 0 244.00043465632643 32.96083623756931 0 0 0 0 95.601683769898955 149.88362198350478 0 149.88362198350478 89.763610168178275 0 0 0 0 61.467737801722251 172.07751835674117 0 172.07751835674117 116.13787304495236 0 0 0 0 -191.2740573051924 -1437.5448665563167 0 -1437.5448665563167 1258.5541377874924 0 0 0 0 1509.4939804043679 284.81468777980444 0 284.81468777980444 -710.93833099310177 0 0 0 0 1684.4374017152004 613.87526231463244 0 613.87526231463244 -525.5517947966473 0 0 0 0 562.87076424725819 -824.99020641331163 0 -824.99020641331163 -585.85461266856998 0 0 0 0 646.90985256287968 -203.94401916119114 0 -203.94401916119114 745.44639813794629 0 0 0 0 1742.3453643175671 -42.468859132717853 0 -42.468859132717853 -282.59823333464556 0 0 0 0 636.30514354625484 -85.152837369787107 0 -85.152837369787107 -277.01421832473557 0 0 0 0 28.451716703706438 1.6789556227892604 0 1.6789556227892604 -6.9276560796311024 0 0 0 0 -515.48815024659416 -89.850845859491301 0 -89.850845859491301 143.90682835566849 0 0 0 0 437.60868023081275 1009.0166835867167 0 1009.0166835867167 -344.36054222800294 0 0 0 0 1289.6536695977957 -169.03248185191114 0 -169.03248185191114 -116.93262298725404 0 0 0 0 18.654438936354836 1.7809467390984537 0 1.7809467390984537 4.097883433752024 0 0 0 0 684.58231507146775 -47.566834974862104 0 -47.566834974862104 30.005724128281145 0 0 0 0 52.242526426634868 -211.25264380983117 0 -211.25264380983117 186.77967220805658 0 0 0 0 365.5259821455038 -381.27703240321557 0 -381.27703240321557 243.71556165433776 0 0 0 0 -0.26264278881444625 -124.44602834257381 0 -124.44602834257381 -373.74971504420023 0 0 0 0 -248.47409541775414 -87.310751404474786 0 -87.310751404474786 271.92852962388315 0 0 0 0 381.04751738979394 -1029.0981061745274 0 -1029.0981061745274 690.02220043112629 0 0 0 0 115.981284284906 288.75281747878489 0 288.75281747878489 -14.663338584484336 0 0 0 0 907.07180388970301 -231.49991913468693 0 -231.49991913468693 451.86167214018792 0 0 0 0 603.49565831426298 330.54356236457488 0 330.54356236457488 -79.527857307541581 0 0 0 0 21.579488251591386 -4.449365006687759 0 -4.449365006687759 0.41673721875998881 0 0 0 0 124.72841229870392 -719.57926737585058 0 -719.57926737585058 409.3881333975703 0 0 0 0 1281.0815044197734 243.16059448178089 0 243.16059448178089 -201.17158632348128 0 0 0 0 599.60703799707699 134.08244176731432 0 134.08244176731432 -142.38547657795561 0 0 0 0 486.60799425028381 94.267076018978742 0 94.267076018978742 -118.92215847773014 0 0 0 0 681.58427969315881 162.76228656299546 0 162.76228656299546 -164.74745517415795 0 0 0 0 577.53094770618918 347.13450294184929 0 347.13450294184929 -42.334080906297459 0 0 0 0 182.43348672936554 177.74820145626018 0 177.74820145626018 -37.273847080207815 0 0 0 0 -43.193141034644214 228.32242239565221 0 228.32242239565221 76.188817988680967 0 0 0 0 21.212037019839045 24.343913932428563 0 24.343913932428563 -17.794553102180089 0 0 0 0 275.26453266112367 211.57133108088101 0 211.57133108088101 -39.091224098511901 0 0 0 0 231.51453561969538 59.981680715075299 0 59.981680715075299 -14.499990226460795 0 0 0 0 233.93602375577029 56.138170823951555 0 56.138170823951555 -9.1086753862527985 0 0 0 0 322.17401534222881 61.568646547983008 0 61.568646547983008 -113.33769963240698 0 0 0 0 79.434517897781916 -186.14276176633439 0 -186.14276176633439 53.368634586258167 0 0 0 0 119.69166547316127 -30.996200459149804 0 -30.996200459149804 -11.271741755850144 0 0 0 0 201.18958907619526 -97.481838474034816 0 -97.481838474034816 26.770155241668363 0 0 0 0 133.31531296089815 45.471195432444119 0 45.471195432444119 62.927974642077174 0 0 0 0 114.56865535383258 103.78246006597499 0 103.78246006597499 -161.88903512923002 0 0 0 0 -78.727638152078725 -40.738355414986472 0 -40.738355414986472 17.573256003772258 0 0 0 0 240.76019401718804 -56.034678642836298 0 -56.034678642836298 -538.87888160756802 0 0 0 0 134.57195627779583 -122.60368928907735 0 -122.60368928907735 -303.92974283784952 0 0 0 0 79.514979902759137 -7.4026740758398528 0 -7.4026740758398528 -0.52162329066872026 0 0 0 0 68.659277542377822 -25.324928974110207 0 -25.324928974110207 -129.1205615056619 0 0 0 0 56.327267839917681 -6.2035657764457497 0 -6.2035657764457497 -0.1564985206873819 0 0 0 0 105.5269827087468 -127.24587289282135 0 -127.24587289282135 56.311089698685464 0 0 0 0 15.199210317587131 -113.82926561312524 0 -113.82926561312524 77.947305950413465 0 0 0 0 16.712864300890942 -27.177413672653984 0 -27.177413672653984 -38.660146784383869 0 0 0 0 50.678941255275276 -149.56858647857734 0 -149.56858647857734 52.254936155105497 0 0 0 0 100.3094034568785 -105.51929053388085 0 -105.51929053388085 168.46343127411274 0 0 0 0 23.217463165623485 -133.96269582887771 0 -133.96269582887771 161.89704929651271 0 0 0 0 150.80248602687061 -96.220072484337152 0 -96.220072484337152 104.75815365316521 0 0 0 0 57.940096501384687 -61.014981265359893 0 -61.014981265359893 133.99749206877459 0 0 0 0 136.07869646660401 -46.953357949956626 0 -46.953357949956626 110.57533733820128 0 0 0 0 158.36329988944635 -35.041126299902317 0 -35.041126299902317 63.200797254270583 0 0 0 0 141.40878958340357 7.2775237953821943 0 7.2775237953821943 -28.834230158740965 0 0 0 0 145.79302841717436 -75.310770919631977 0 -75.310770919631977 97.935777988606333 0 0 0 0 188.33120982183755 -45.535420986664121 0 -45.535420986664121 35.153013336414006 0 0 0 0 148.65921762354265 -41.849924401158205 0 -41.849924401158205 11.865832833766945 0 0 0 0 141.58661007824776 -8.4469849767938285 0 -8.4469849767938285 -33.455435964842763 0 0 0 0 163.70455229106301 -50.195816943154568 0 -50.195816943154568 69.510014199163379 0 0 0 0 149.08067392975499 -1.8604770333149645 0 -1.8604770333149645 -27.920006077052676 0 0 0 0 141.4244995657485 -12.335797174676465 0 -12.335797174676465 -18.133877226582392 0 0 0 0 250.62416529276379 48.721952869170309 0 48.721952869170309 -236.00431080975613 0 0 0 0 219.78422707648133 -105.81232016839022 0 -105.81232016839022 53.355393228004687 0 0 0 0 198.35382230815594 -23.624919081889857 0 -23.624919081889857 -139.18229980943806 0 0 0 0 252.36379050875257 -30.793235926168563 0 -30.793235926168563 -145.9334070688401 0 0 0 0 130.9587272341887 42.879082959216248 0 42.879082959216248 -48.870134471119854 0 0 0 0 150.55355326291465 -31.558948106889147 0 -31.558948106889147 -55.08509472534206 0 0 0 0 218.07285768643487 -36.168605086864773 0 -36.168605086864773 -59.839413888756553 0 0 0 0 191.86355222096608 40.765349980797509 0 40.765349980797509 -55.931356712720117 0 0 0 0 30.334612387166899 -4.2259501451447079 0 -4.2259501451447079 -3.0542209336532942 0 0 0 0 144.30778062443278 -23.626152636941242 0 -23.626152636941242 94.576586288851104 0 0 0 0 150.8742691664811 8.741330692538213 0 8.741330692538213 17.684006051535903 0 0 0 0 7.1400922118700123 12.039591911210005 0 12.039591911210005 -1.9183857368141686 0 0 0 0 123.8822912050091 -93.812786541428068 0 -93.812786541428068 234.63510059662258 0 0 0 0 336.81080584692245 -329.83480532908698 0 -329.83480532908698 296.01990776623325 0 0 0 0 281.71740702801617 -215.31919630520042 0 -215.31919630520042 76.085379599770022 0 0 0 0 269.60847077846847 -33.764266027177655 0 -33.764266027177655 16.346760894180989 0 0 0 0 -27.545735577863525 97.132300299244889 0 97.132300299244889 112.91906668712272 0 0 0 0 83.755011737815209 44.02723969267889 0 44.02723969267889 -37.819392722456371 0 0 0 0 283.29812282386411 -94.39184516484147 0 -94.39184516484147 49.091413121743244 0 0 0 0 170.05686238178168 -145.76904694184918 0 -145.76904694184918 62.165897036486058 0 0 0 0 390.35128812369658 -217.04112718786109 0 -217.04112718786109 84.861400877067354 0 0 0 0 86.042431240304566 62.995502346305003 0 62.995502346305003 -21.76766096458676 0 0 0 0 362.83824990763424 -38.053291215158822 0 -38.053291215158822 35.298486856667296 0 0 0 0 272.46221824473469 -53.378477495678453 0 -53.378477495678453 41.047028388893523 0 0 0 0 15.34101252903929 -160.87587799675566 0 -160.87587799675566 -73.264612023648397 0 0 0 0 86.540864776468879 -66.489331491721273 0 -66.489331491721273 -26.623873523933121 0 0 0 0 351.89990143221803 -224.05352599816482 0 -224.05352599816482 -88.335944768791336 0 0 0 0 390.83839644217551 18.914350561951849 0 18.914350561951849 -181.99151367584182 0 0 0 0 508.25094942173746 -36.344005501761387 0 -36.344005501761387 -210.46576554682701 0 0 0 0 235.94099265239493 156.60167836479513 0 156.60167836479513 -270.30841528886049 0 0 0 0 539.83679954907711 -303.85917502083271 0 -303.85917502083271 0.99294962715248403 0 0 0 0 894.55956302632694 -8.6196058630766856 0 -8.6196058630766856 -429.69476943597829 0 0 0 0 288.36182382264451 196.74275314763963 0 196.74275314763963 -80.321239306897951 0 0 0 0 703.64517124924168 -541.82637017716661 0 -541.82637017716661 -381.71128799926919 0 0 0 0 240.55414031268447 104.31682850807942 0 104.31682850807942 33.970570026281621 0 0 0 0 229.98009792641824 170.59767976495505 0 170.59767976495505 90.814017155487818 0 0 0 0 259.35030337383796 161.9725092354355 0 161.9725092354355 12.053881692134496 0 0 0 0 342.65683901730517 247.87725472961824 0 247.87725472961824 33.114165373222932 0 0 0 0 302.89940971852047 127.35709583337621 0 127.35709583337621 15.23549641165846 0 0 0 0 377.00957730899972 74.230538468105124 0 74.230538468105124 -28.51351392043216 0 0 0 0 388.83008843689458 66.821271213004366 0 66.821271213004366 -126.36651087250721 0 0 0 0 499.99473463711183 158.61345912133316 0 158.61345912133316 -160.26165692363088 0 0 0 0 788.17657470481936 264.76988505017499 0 264.76988505017499 -137.34691886349015 0 0 0 0 518.5078581017151 -6.2140440659148339 0 -6.2140440659148339 -137.96255049329011 0 0 0 0 343.57815385537106 -78.94627053838758 0 -78.94627053838758 -158.44447772103126 0 0 0 0 502.34932915482204 -240.48843124685209 0 -240.48843124685209 1.0513736476568738 0 0 0 0 344.79419491866429 -55.635020126044765 0 -55.635020126044765 -2.7987377523040777 0 0 0 0 303.66612882280606 49.845006449622815 0 49.845006449622815 -35.112356983759582 0 0 0 0 260.27333515444479 12.960763713117103 0 12.960763713117103 -8.364907323092666 0 0 0 0 185.04035688542353 52.599716040952899 0 52.599716040952899 55.719710184959695 0 0 0 0 240.90018022779259 21.257830285167984 0 21.257830285167984 21.25534612814954 0 0 0 0 246.52613661042415 78.899104874727755 0 78.899104874727755 40.407127018404026 0 0 0 0 218.87157098590978 71.366347434511226 0 71.366347434511226 48.976042905062968 0 0 0 0 207.8245287258178 27.485446518783647 0 27.485446518783647 -58.190120504423248 0 0 0 0 197.60911667694199 0.25764925335101907 0 0.25764925335101907 -14.655449832544036 0 0 0 0 192.43391365531716 34.489063470156907 0 34.489063470156907 17.6453830467035 0 0 0 0 216.65967417966385 -47.259102350299599 0 -47.259102350299599 10.880962533738057 0 0 0 0 209.0522962396717 24.999448163010129 0 24.999448163010129 -75.125996434238914 0 0 0 0 117.32508848392172 79.438585544852685 0 79.438585544852685 -99.835149073876892 0 0 0 0 35.73740915231707 22.204102458225776 0 22.204102458225776 -4.3784705970312512 0 0 0 0 423.67163185041863 -254.00514547667353 0 -254.00514547667353 77.796762311532802 0 0 0 0 283.15206633944763 393.3494890832535 0 393.3494890832535 87.42253090862323 0 0 0 0 203.56940664674039 -135.52097877469942 0 -135.52097877469942 47.78969257031531 0 0 0 0 102.28306058807357 -12.617950019507589 0 -12.617950019507589 24.390801077785 0 0 0 0 64.873501273192232 23.345066338957622 0 23.345066338957622 -9.3705415373151482 0 0 0 0 205.21156641683774 -54.126585554326084 0 -54.126585554326084 22.712921177716396 0 0 0 0 194.53745204479856 -104.84213332489207 0 -104.84213332489207 -9.5823262643898488 0 0 0 0 277.50336596030252 28.522583494276898 0 28.522583494276898 -14.40807758050369 0 0 0 0 610.21677357142289 143.21264404326303 0 143.21264404326303 -110.07396874586993 0 0 0 0 79.168576847057793 0.82484075678424373 0 0.82484075678424373 -18.940477976941693 0 0 0 0 605.88165973324703 -237.7029823662815 0 -237.7029823662815 9.0491190954217018 0 0 0 0 507.8508321073914 -244.72089099912046 0 -244.72089099912046 298.40436382998359 0 0 0 0 365.264862976313 -128.26768287812683 0 -128.26768287812683 501.17778526677648 0 0 0 0 326.59246968563821 502.87117561010382 0 502.87117561010382 954.75725207962387 0 0 0 0 536.44260240430549 113.0755211986243 0 113.0755211986243 320.32204384723445 0 0 0 0 509.66610997177463 -72.4140583731064 0 -72.4140583731064 112.49201192002511 0 0 0 0 108.49897808311407 -12.722590779819619 0 -12.722590779819619 -5.9515286139694297 0 0 0 0 219.81115542544558 154.84684135900261 0 154.84684135900261 421.35792863007646 0 0 0 0 265.61313946499183 -33.306382333886006 0 -33.306382333886006 -9.9632218872532476 0 0 0 0 -436.76063369776602 -967.91612227691348 0 -967.91612227691348 158.55991211681976 0 0 0 0 240.07008135912474 -0.64704284000072221 0 -0.64704284000072221 -200.69160756649944 0 0 0 0 -19.665944072275259 -63.291625990789981 0 -63.291625990789981 7.5116984727509468 0 0 0 0 177.98828564898758 45.704968538077992 0 45.704968538077992 361.3621612648576 0 0 0 0 237.85879001542344 -36.351600819347368 0 -36.351600819347368 -66.932103552020862 0 0 0 0 269.81802525026069 -64.495825897507018 0 -64.495825897507018 -64.028106534449762 0 0 0 0 358.79039006902894 -186.57518616982088 0 -186.57518616982088 66.571303416430965 0 0 0 0 531.82684494930436 110.28396501601492 0 110.28396501601492 -154.93135548092687 0 0 0 0 708.49358139268588 -234.94499191451359 0 -234.94499191451359 17.032875584096473 0 0 0 0 844.37821150194213 -27.369779665655187 0 -27.369779665655187 -96.55929683994691 0 0 0 0 311.32661640821607 1033.3965723895558 0 1033.3965723895558 648.03241944625142 0 0 0 0 -183.66803533288839 -4.2337880415236668 0 -4.2337880415236668 109.59264626014465 0 0 0 0 654.21941537270322 -328.50139776710057 0 -328.50139776710057 343.11732582328841 0 0 0 0 106.88486831940016 -41.210198018155324 0 -41.210198018155324 -50.258736794239397 0 0 0 0 172.59166812366672 -20.157892869150736 0 -20.157892869150736 -24.47458566113599 0 0 0 0 169.42433267530089 -161.93395216462341 0 -161.93395216462341 153.62154056960298 0 0 0 0 208.28728257421153 -6.8549138979906274 0 -6.8549138979906274 555.88524362703356 0 0 0 0 244.66647540189297 128.36241461390637 0 128.36241461390637 -239.40132174809605 0 0 0 0 204.17063279761351 14.14821547633619 0 14.14821547633619 -264.99942927149368 0 0 0 0 178.49086709671246 82.004820252728678 0 82.004820252728678 -84.964462243760863 0 0 0 0 249.29620430051 -122.31545088393887 0 -122.31545088393887 -166.93140343934283 0 0 0 0 106.37975383063895 201.27916611279034 0 201.27916611279034 -493.3489590311583 0 0 0 0 53.984806688586602 -7.4381913427963866 0 -7.4381913427963866 -7.7797364241302134 0 0 0 0 301.67143876275941 -213.50738491809994 0 -213.50738491809994 173.04330420778206 0 0 0 0 105.35065706791306 -406.06033952853977 0 -406.06033952853977 18.142738351757089 0 0 0 0 276.70369744197296 -371.78095267758863 0 -371.78095267758863 296.06059290642679 0 0 0 0 165.54373803765566 -222.06019637234249 0 -222.06019637234249 126.00343700747953 0 0 0 0 -48.277552600560227 -207.78272891481038 0 -207.78272891481038 -72.037428313587725 0 0 0 0 93.044484778710284 -341.41810346757848 0 -341.41810346757848 47.136367357598374 0 0 0 0 249.73470010169467 -189.491585010883 0 -189.491585010883 -162.0602166446788 0 0 0 0 23.150497622074909 -131.24271168413065 0 -131.24271168413065 -176.85071013574472 0 0 0 0 33.441741532007654 -275.62669575206507 0 -275.62669575206507 -218.76398107743512 0 0 0 0 -333.72895298610592 -192.59751090587895 0 -192.59751090587895 -97.25033551257718 0 0 0 0 7.0509329246325372 -5.585524116494307 0 -5.585524116494307 5.0101350797725583 0 0 0 0 -206.86205233317173 -625.94802018729899 0 -625.94802018729899 49.788314549518418 0 0 0 0 395.06073111448131 -801.11654262878369 0 -801.11654262878369 63.685601331334055 0 0 0 0 4.1394268326375823 -422.90117067752999 0 -422.90117067752999 34.330023054831599 0 0 0 0 -26.365169155692001 -422.5482096214597 0 -422.5482096214597 56.579501836031341 0 0 0 0 69.494191787906857 132.01894464684869 0 132.01894464684869 421.87796202996924 0 0 0 0 273.26929252295395 20.017301632847648 0 20.017301632847648 133.40285880093325 0 0 0 0 237.72344191708635 97.147492929909276 0 97.147492929909276 464.83200246069828 0 0 0 0 570.19891724730041 -69.283804839228651 0 -69.283804839228651 59.675617366509755 0 0 0 0 136.79214090247569 -107.07288819336304 0 -107.07288819336304 61.553605890921929 0 0 0 0 58.484053007954572 -47.029868994398072 0 -47.029868994398072 -195.28605055869866 0 0 0 0 271.5177393582444 -79.178568110201695 0 -79.178568110201695 -190.91742259652938 0 0 0 0 202.42815315280086 120.56171326498691 0 120.56171326498691 -146.64557848681488 0 0 0 0 65.423606009231662 31.752590645362034 0 31.752590645362034 134.75199249698079 0 0 0 0 69.222212717523689 -189.64428048461778 0 -189.64428048461778 -444.63964234532864 0 0 0 0 -98.760860322047392 85.938022369347095 0 85.938022369347095 -150.61593652589431 0 0 0 0 127.00034537844226 -61.408488535661036 0 -61.408488535661036 -601.10864111212254 0 0 0 0 152.68812476277139 -163.70081752070269 0 -163.70081752070269 -391.37506358364851 0 0 0 0 -17.243322823714841 -14.506489101601431 0 -14.506489101601431 -1.4262944079982529 0 0 0 0 -16.164750084891239 21.964427591604931 0 21.964427591604931 14.819112788552047 0 0 0 0 32.615946756542542 -14.875315083277101 0 -14.875315083277101 -3.2015519950573572 0 0 0 0 -45.606962003568697 -82.788790400145899 0 -82.788790400145899 24.770922240698923 0 0 0 0 8.979383007497745 -9.5396542241389284 0 -9.5396542241389284 9.8656830662197308 0 0 0 0 419.15375877015504 116.41521931963007 0 116.41521931963007 -51.768224826579626 0 0 0 0 1082.8001686703274 481.64817031647613 0 481.64817031647613 42.488948883165278 0 0 0 0 280.98679847043059 42.172910987748537 0 42.172910987748537 22.546281200282465 0 0 0 0 581.98113923574147 96.852176311925405 0 96.852176311925405 -98.714123996176113 0 0 0 0 -31.625458824467842 -128.97137296294071 0 -128.97137296294071 -432.43944615791128 0 0 0 0 -94.042114815772493 -92.051376791788243 0 -92.051376791788243 -406.12377894041458 0 0 0 0 309.6174756733526 -72.907113886446041 0 -72.907113886446041 17.676569623611613 0 0 0 0 13.476949448529245 -19.752782999984653 0 -19.752782999984653 10.655350272080772 0 0 0 0 -75.558137613685176 -293.54569382560544 0 -293.54569382560544 -466.11770897667333 0 0 0 0 -23.683145755683654 -6.554349363662368 0 -6.554349363662368 6.7562266332211038 0 0 0 0 37.518612417165059 -21.887293230796047 0 -21.887293230796047 3.2582282950760373 0 0 0 0 -16.497037423437316 -11.499313316769431 0 -11.499313316769431 3.5520879300990327 0 0 0 0 90.299127898098959 -211.09194954947088 0 -211.09194954947088 -217.5021931362744 0 0 0 0 15.862234790511792 -11.525257166514168 0 -11.525257166514168 5.776789921272675 0 0 0 0 53.050803572124096 350.05318317908257 0 350.05318317908257 -240.01146548377437 0 0 0 0 153.33713037635516 -167.93113662358019 0 -167.93113662358019 -172.17579510235828 0 0 0 0 -45.338059560102238 -141.11468866823816 0 -141.11468866823816 -82.214431051077554 0 0 0 0 406.61176500557303 -84.324878089965296 0 -84.324878089965296 -226.51093033470806 0 0 0 0 517.43935542190593 -65.447768889343934 0 -65.447768889343934 -236.50324535591972 0 0 0 0 312.23717695438972 22.950080495701513 0 22.950080495701513 -220.91738806251306 0 0 0 0 431.8410701135399 -43.260934043863017 0 -43.260934043863017 -209.25590451174662 0 0 0 0 422.94404428186681 -37.485800600496532 0 -37.485800600496532 -138.24840129701261 0 0 0 0 465.88533459601058 -55.411331596118089 0 -55.411331596118089 67.799676252035169 0 0 0 0 753.74619859044469 -101.5843022093386 0 -101.5843022093386 -142.39065904555815 0 0 0 0 682.44347213453875 96.165132476271538 0 96.165132476271538 31.583128237228266 0 0 0 0 0.83783980989604601 -2.5404018700943971 0 -2.5404018700943971 0.82675613194853526 0 0 0 0 -3.3496807938255628 -1.0986036887402779 0 -1.0986036887402779 3.8502876133558237 0 0 0 0 454.79731646481559 5.2876527714677195 0 5.2876527714677195 -153.83571526078049 0 0 0 0 505.08140913924581 -71.812691583787682 0 -71.812691583787682 -164.01159877877762 0 0 0 0 567.33620998958031 -62.522008634826761 0 -62.522008634826761 -252.47672983914572 0 0 0 0 639.71502308220443 -8.570127068722968 0 -8.570127068722968 -250.0725893145102 0 0 0 0 553.86062105181736 -111.40568579820592 0 -111.40568579820592 -315.83570828633856 0 0 0 0 358.10280871928353 -241.93676216199879 0 -241.93676216199879 -105.19148621090335 0 0 0 0 152.84642229209203 84.138533338835714 0 84.138533338835714 57.607301461910424 0 0 0 0 318.33162352237196 -267.78614346135828 0 -267.78614346135828 161.97245607546529 0 0 0 0 336.23830731553244 -41.819921828379847 0 -41.819921828379847 62.104333442657889 0 0 0 0 -95.38979696628985 210.48053455280092 0 210.48053455280092 -176.10324451971792 0 0 0 0 649.55505467641615 -315.64580816597993 0 -315.64580816597993 43.687317825569551 0 0 0 0 1.5482826820494449 -3.0849107697339555 0 -3.0849107697339555 -13.280440842947682 0 0 0 0 288.10268843758149 -98.884033478851961 0 -98.884033478851961 89.570515392545985 0 0 0 0 453.3556375490507 -87.535192733837846 0 -87.535192733837846 37.222595795797986 0 0 0 0 340.34370273660261 -28.032711238099523 0 -28.032711238099523 3.6376306218471655 0 0 0 0 235.12937576060045 121.24084105358827 0 121.24084105358827 23.949041722240509 0 0 0 0 269.95467752849481 -1.4079938582410705 0 -1.4079938582410705 -188.65626406816682 0 0 0 0 124.94895687490089 62.444583186897944 0 62.444583186897944 -14.223171799982538 0 0 0 0 157.29911030112044 54.521768412299025 0 54.521768412299025 -127.49939869749687 0 0 0 0 432.87740659652991 -108.57481486415645 0 -108.57481486415645 -12.954043384487704 0 0 0 0 204.91417039864882 -24.868964827387117 0 -24.868964827387117 46.517140518048791 0 0 0 0 92.048751573811842 187.75542808260434 0 187.75542808260434 -365.82519444928812 0 0 0 0 350.94887259671168 -96.073640873295062 0 -96.073640873295062 -232.9026935023021 0 0 0 0 124.37004031220528 -70.605782431245842 0 -70.605782431245842 -151.09300334193631 0 0 0 0 178.25956739690582 118.75390397038882 0 118.75390397038882 -574.32934956239114 0 0 0 0 110.8758328638387 86.856871893797688 0 86.856871893797688 -270.2236198736482 0 0 0 0 13.16713470217519 47.230038293799225 0 47.230038293799225 -126.85295735926138 0 0 0 0 118.00429730263704 -33.833389642405564 0 -33.833389642405564 -192.14152382800694 0 0 0 0 -6.4830103755484743 279.17600337799377 0 279.17600337799377 -686.96394019640866 0 0 0 0 29.608230171092032 -51.013609681034723 0 -51.013609681034723 -447.4094517515332 0 0 0 0 132.77206379993135 4.849725228631625 0 4.849725228631625 -4.3463442458429231 0 0 0 0 143.25865948445426 -14.28291361517222 0 -14.28291361517222 -3.5794116909364675 0 0 0 0 139.88847424920095 -3.8463814101655771 0 -3.8463814101655771 -13.760457214932103 0 0 0 0 172.62066559298546 -6.7377181303390898 0 -6.7377181303390898 -91.991244510403703 0 0 0 0 265.13294436119759 131.02972475117986 0 131.02972475117986 -427.19877628758513 0 0 0 0 153.46373349439858 15.620081784292196 0 15.620081784292196 -3.7904244951639248 0 0 0 0 93.304273636063499 -0.96836019042257249 0 -0.96836019042257249 -0.96685890224671311 0 0 0 0 172.00179391804008 24.096477628553657 0 24.096477628553657 -10.534971962057938 0 0 0 0 252.99567739992153 57.513530470498296 0 57.513530470498296 -327.94797474106008 0 0 0 0 29.587380366410013 -23.048311608067589 0 -23.048311608067589 -39.898857783591566 0 0 0 0 418.24947007503761 -60.982349536933725 0 -60.982349536933725 -174.41564473592553 0 0 0 0 296.20864226954109 -126.28593504756373 0 -126.28593504756373 -199.95536233386838 0 0 0 0 788.36861094312007 -1246.6144054890251 0 -1246.6144054890251 785.97441279104169 0 0 0 0 -2.674632033247585 -5.2980043214540125 0 -5.2980043214540125 -24.056607102986824 0 0 0 0 2092.6516673713995 -71.142828322376317 0 -71.142828322376317 -839.66914098330108 0 0 0 0 461.05869156272411 -307.71191526100051 0 -307.71191526100051 5.9683527936094833 0 0 0 0 167.82723605542742 27.115381807543145 0 27.115381807543145 1.4521442291761559 0 0 0 0 4501.5809947797898 -345.15434937577623 0 -345.15434937577623 -710.28290004324708 0 0 0 0 421.14540501261945 -239.33301922594802 0 -239.33301922594802 440.49542667435526 0 0 0 0 2490.5279142288637 -253.17495977312493 0 -253.17495977312493 -27.216166771229524 0 0 0 0 1894.9001465319961 -1506.2604839626881 0 -1506.2604839626881 268.61475438390983 0 0 0 0 122.76534779185386 197.1710314860311 0 197.1710314860311 174.64747643633285 0 0 0 0 21.155127182137676 -1.2551873036964807 0 -1.2551873036964807 0.56387785128565604 0 0 0 0 3448.9887844761397 2119.5469658758102 0 2119.5469658758102 1104.1077086399278 0 0 0 0 5306.8485276793654 964.16960308969283 0 964.16960308969283 809.6815883263705 0 0 0 0 6063.7689956118993 -933.74278237557633 0 -933.74278237557633 1813.261974367756 0 0 0 0 4106.1349067522824 274.3082128030311 0 274.3082128030311 -664.30523825039722 0 0 0 0 4500.0427401634151 774.47939228110624 0 774.47939228110624 -39.537335454840758 0 0 0 0 2134.6172737137676 49.742709011111174 0 49.742709011111174 -682.90775609953175 0 0 0 0 2032.107012899517 446.11244775269171 0 446.11244775269171 -82.497180630218736 0 0 0 0 472.58470402172316 -75.24015819820815 0 -75.24015819820815 131.100989839048 0 0 0 0 1306.9260924184418 1427.4916500763666 0 1427.4916500763666 911.27810451615585 0 0 0 0 47.562093710270062 -5.0770233516304053 0 -5.0770233516304053 -0.19925232213297583 0 0 0 0 355.09852362309903 64.809961130648617 0 64.809961130648617 7.218004501497802 0 0 0 0 119.14780578341015 -172.12162016522967 0 -172.12162016522967 47.120546721927383 0 0 0 0 449.62133973087475 -353.44011894843186 0 -353.44011894843186 -158.92940231943038 0 0 0 0 497.27135826108861 126.60917557913393 0 126.60917557913393 -360.64846652094332 0 0 0 0 -98.447747531499772 47.54417890859861 0 47.54417890859861 149.88859472689865 0 0 0 0 -28.053409761767398 417.38372058834466 0 417.38372058834466 -568.4972803089338 0 0 0 0 37.11627783113201 14.659996960335278 0 14.659996960335278 0.25282565074949326 0 0 0 0 56.967244379891781 10.582328718636461 0 10.582328718636461 -15.654624282071552 0 0 0 0 59.623306965949553 -3.8863350424335863 0 -3.8863350424335863 1.4835632566315131 0 0 0 0 -119.16988515277626 -86.482787245677116 0 -86.482787245677116 328.09632024111022 0 0 0 0 -12.359001944878827 8.9369730022964404 0 8.9369730022964404 17.158633041326112 0 0 0 0 -42.644135630165692 -103.7886396359595 0 -103.7886396359595 -20.315716031163447 0 0 0 0 26.632142595432924 118.65677195918482 0 118.65677195918482 -31.291043463512324 0 0 0 0 226.46601171088696 -7.4532269706442094 0 -7.4532269706442094 -187.3331482514302 0 0 0 0 298.43277858766669 114.53374509371133 0 114.53374509371133 -477.69882208634237 0 0 0 0 30.794925266607606 131.66595144976509 0 131.66595144976509 -5.8199966195542139 0 0 0 0 179.92477383765436 210.29249579444411 0 210.29249579444411 15.189631143840518 0 0 0 0 -40.307292783384582 -481.10464703419871 0 -481.10464703419871 498.97185267459281 0 0 0 0 -12.624075804456126 -6.0520417158301996 0 -6.0520417158301996 38.579311656715333 0 0 0 0 78.864214886918489 -258.47641339648351 0 -258.47641339648351 520.10217601132001 0 0 0 0 267.62535135419603 542.50436769855514 0 542.50436769855514 -2.9294929118532309 0 0 0 0 48.591386174919535 288.01807834011197 0 288.01807834011197 779.35779607766926 0 0 0 0 198.06842446174414 151.3791016495552 0 151.3791016495552 112.02084482993087 0 0 0 0 99.353665047106915 278.56637537616371 0 278.56637537616371 134.33873426448258 0 0 0 0 19.374047490019677 -3.912601229650603 0 -3.912601229650603 -0.21186119709647855 0 0 0 0 226.19767829745979 150.93431155254257 0 150.93431155254257 132.76874794942705 0 0 0 0 129.36777345668088 193.87856959250075 0 193.87856959250075 291.79188563459684 0 0 0 0 201.03632379117744 181.30175078170467 0 181.30175078170467 104.97424130468789 0 0 0 0 261.25236214771576 99.120674709804007 0 99.120674709804007 98.301735829141762 0 0 0 0 203.11306916946251 145.6957260601493 0 145.6957260601493 60.994856119533324 0 0 0 0 208.11722560388444 106.77639187895284 0 106.77639187895284 19.071309162309262 0 0 0 0 171.0796950453805 198.03070733582626 0 198.03070733582626 52.783440613706262 0 0 0 0 476.8086980519729 -319.73386737458577 0 -319.73386737458577 -413.3585144937457 0 0 0 0 27.612462400333243 132.69991102115637 0 132.69991102115637 92.995317077694381 0 0 0 0 -113.19416524108237 -299.98286328501126 0 -299.98286328501126 258.49048726604906 0 0 0 0 17.554567621874696 -6.4182023621979027 0 -6.4182023621979027 1.925579695192424 0 0 0 0 -311.86719655597699 463.30040746125587 0 463.30040746125587 -543.73491002658034 0 0 0 0 -345.87530400737887 481.16199536527256 0 481.16199536527256 -667.77510627220909 0 0 0 0 7.6781975299980445 -4.8159538111709423 0 -4.8159538111709423 -3.2121982593316636 0 0 0 0 -322.9584498576005 238.77874540118569 0 238.77874540118569 -112.24339825435345 0 0 0 0 308.76468711299094 80.632308472919931 0 80.632308472919931 -36.071956824428071 0 0 0 0 195.42578453925671 151.90860778158731 0 151.90860778158731 83.312772753477475 0 0 0 0 56.931850107284845 -32.336798166680524 0 -32.336798166680524 49.989184407535049 0 0 0 0 4.8718481957009203 6.3414099868728577 0 6.3414099868728577 0.97005735618000211 0 0 0 0 319.63145749791875 106.94539308074081 0 106.94539308074081 54.90937975387078 0 0 0 0 242.223702199728 85.449414924203211 0 85.449414924203211 70.035949205263933 0 0 0 0 311.36766093385722 39.896436001350992 0 39.896436001350992 99.411481319091763 0 0 0 0 192.11780640757934 67.582112378824604 0 67.582112378824604 109.94577347417135 0 0 0 0 214.62276770459357 97.388766903649753 0 97.388766903649753 92.876498924594671 0 0 0 0 218.85074888612144 82.043582774619722 0 82.043582774619722 147.75927742519571 0 0 0 0 281.62652186091873 134.48432805313814 0 134.48432805313814 86.543843456540117 0 0 0 0 239.83412620628951 82.907387668797583 0 82.907387668797583 22.921409631815095 0 0 0 0 171.31549567684124 119.51946965479718 0 119.51946965479718 75.112038493029033 0 0 0 0 197.72291103802854 100.13856644105788 0 100.13856644105788 75.27376976004301 0 0 0 0 204.17756149271008 108.59252055433672 0 108.59252055433672 86.344042631384781 0 0 0 0 197.82369093087618 89.649269033865039 0 89.649269033865039 92.986734554442933 0 0 0 0 216.54771420444013 105.6811135519215 0 105.6811135519215 74.514375380110707 0 0 0 0 196.73671203735285 76.622867545372173 0 76.622867545372173 86.382875473379954 0 0 0 0 194.98811631882563 96.03091597375942 0 96.03091597375942 78.67633931112141 0 0 0 0 196.08737179658783 65.371228175626129 0 65.371228175626129 65.563312334224975 0 0 0 0 204.20209610635357 65.721335586986243 0 65.721335586986243 60.262213422050081 0 0 0 0 201.44731541467809 19.006483784438956 0 19.006483784438956 7.7670525323555921 0 0 0 0 141.86765830944933 19.76366111218158 0 19.76366111218158 60.48305912833257 0 0 0 0 93.192451955808792 28.878021531483682 0 28.878021531483682 71.429379033038458 0 0 0 0 247.31877787795383 77.394523955653312 0 77.394523955653312 67.814995544129943 0 0 0 0 195.20201910258038 87.272548963466761 0 87.272548963466761 81.024673047826582 0 0 0 0 100.54309082155217 -2.48265836124527 0 -2.48265836124527 -4.6457871716748755 0 0 0 0 87.10263022154686 -3.5930915467215527 0 -3.5930915467215527 15.140068938127115 0 0 0 0 131.38705782792749 5.3263820157026203 0 5.3263820157026203 -20.399438719357931 0 0 0 0 19.677827987119912 -0.1050124719091059 0 -0.1050124719091059 -3.7849733125498233 0 0 0 0 120.78564240077125 -27.268432348918541 0 -27.268432348918541 -2.1701239310297433 0 0 0 0 61.665767390237306 -72.398455260063201 0 -72.398455260063201 -38.318140986292747 0 0 0 0 203.25762063192087 -52.0205553078913 0 -52.0205553078913 -66.114814452268547 0 0 0 0 136.4979216881693 18.190774963693002 0 18.190774963693002 -58.704202364051525 0 0 0 0 125.86552182395826 -55.231947650368966 0 -55.231947650368966 -7.6730484191025425 0 0 0 0 82.606858380080666 -43.554364249638866 0 -43.554364249638866 177.62153773878504 0 0 0 0 121.22567659273045 338.67045689471888 0 338.67045689471888 430.21087320411607 0 0 0 0 84.175008276481094 -35.973357479002516 0 -35.973357479002516 -7.5670685178847634 0 0 0 0 107.2271961268998 -42.871285235276446 0 -42.871285235276446 -53.325326257654524 0 0 0 0 88.502051522110747 -18.673487544400025 0 -18.673487544400025 -9.6175655282887664 0 0 0 0 451.39991041952908 307.32854108254401 0 307.32854108254401 -211.28837335179014 0 0 0 0 109.17254452842099 -43.381429289858488 0 -43.381429289858488 50.461537397640768 0 0 0 0 -264.27646400219055 67.357020927816563 0 67.357020927816563 21.533487992627101 0 0 0 0 154.53615130653816 9.3557844395305949 0 9.3557844395305949 -745.29944303675734 0 0 0 0 -5.8364928144058936 -5.9151015635954609 0 -5.9151015635954609 -2.5480554318912967 0 0 0 0 2.4127075025626255 -54.197842032590529 0 -54.197842032590529 74.652991005331955 0 0 0 0 -47.106202916123948 -36.815014285272014 0 -36.815014285272014 144.41081473300051 0 0 0 0 17.259596719930414 -20.07292812240803 0 -20.07292812240803 123.00995571993678 0 0 0 0 -21.935313041869449 442.56957648325613 0 442.56957648325613 -245.46723659021518 0 0 0 0 -0.097902129733107301 -2.5402792279183215 0 -2.5402792279183215 -1.0637107346614703 0 0 0 0 447.73875862803106 231.15869698748065 0 231.15869698748065 -705.42127047602628 0 0 0 0 109.21361202071239 -133.43839055031907 0 -133.43839055031907 252.10016028605855 0 0 0 0 168.76073406183605 -155.5615949554749 0 -155.5615949554749 5.6494885498241274 0 0 0 0 361.11110661673956 -84.449703254732754 0 -84.449703254732754 69.64669839361278 0 0 0 0 116.06493700500323 -48.22547490615591 0 -48.22547490615591 64.389917497226151 0 0 0 0 394.02175257252657 90.045273181160113 0 90.045273181160113 51.264247165313691 0 0 0 0 18.338297749465276 -4.3867321982447756 0 -4.3867321982447756 -3.2709869538671343 0 0 0 0 121.28838482084211 40.45748128976129 0 40.45748128976129 -4.6790349736710581 0 0 0 0 394.62494873218839 102.10247063490806 0 102.10247063490806 22.946688409278863 0 0 0 0 -0.39845807858528559 -10.824164194768318 0 -10.824164194768318 -1.3331414546424474 0 0 0 0 728.91391856636619 274.43042768801024 0 274.43042768801024 52.191316716362053 0 0 0 0 46.495148145639391 -24.659952717208007 0 -24.659952717208007 -7.3107880973404367 0 0 0 0 21.548997081164998 -86.004709716638899 0 -86.004709716638899 23.400184232978063 0 0 0 0 126.51920788064308 -102.2952667342779 0 -102.2952667342779 -115.91769177118658 0 0 0 0 72.293137792989668 -7.9095530853423277 0 -7.9095530853423277 -10.908080926157208 0 0 0 0 27.441491725869128 -20.521865379534574 0 -20.521865379534574 -14.680381109520567 0 0 0 0 82.584181440514215 -2.0925428801870467 0 -2.0925428801870467 -10.537984522787829 0 0 0 0 502.37822768651677 28.951016774602067 0 28.951016774602067 -10.198433375298606 0 0 0 0 237.47302127049988 411.9962613562202 0 411.9962613562202 232.51634121481243 0 0 0 0 513.72220326993875 8.6161145080123447 0 8.6161145080123447 -72.430168316412164 0 0 0 0 80.3574295343291 -20.422085290844731 0 -20.422085290844731 -17.519906762395799 0 0 0 0 100.7123466803605 -10.410553375286327 0 -10.410553375286327 -20.348607399901084 0 0 0 0 54.18752754278151 -9.6911965061235605 0 -9.6911965061235605 -12.46984514899669 0 0 0 0 132.03565532567882 23.966994325091036 0 23.966994325091036 -10.480410925854812 0 0 0 0 0.76779110790448613 -21.4832182831301 0 -21.4832182831301 16.500017164971723 0 0 0 0 41.697107705967625 -18.898917803719222 0 -18.898917803719222 -10.435369581834067 0 0 0 0 32.667618429171853 -18.903643719246247 0 -18.903643719246247 -7.7841519957728451 0 0 0 0 97.428080878100445 -148.09062241187576 0 -148.09062241187576 217.9130719524328 0 0 0 0 8.0617828197408414 3.3918935910325985 0 3.3918935910325985 -0.78192483774980559 0 0 0 0 511.15410709961725 -116.81122816068455 0 -116.81122816068455 -72.548528252220422 0 0 0 0 430.36978729715338 315.3564759401379 0 315.3564759401379 -29.282461043669173 0 0 0 0 2.8141954538295977 199.94310803281769 0 199.94310803281769 -33.241862979375583 0 0 0 0 280.68704508493101 59.298120973520781 0 59.298120973520781 -152.56080962788656 0 0 0 0 113.52112123528514 -5.3797118991906245 0 -5.3797118991906245 -103.34283436841361 0 0 0 0 68.597621856453799 24.222576950934066 0 24.222576950934066 -6.477244081110638 0 0 0 0 52.931917635988171 -12.248884100343464 0 -12.248884100343464 12.394257330603878 0 0 0 0 32.199188506725477 7.2289981514910764 0 7.2289981514910764 75.250739878234171 0 0 0 0 139.40992182837817 -29.757992549015654 0 -29.757992549015654 -60.41630066032485 0 0 0 0 128.01708137342575 60.293640097540447 0 60.293640097540447 19.066971560358525 0 0 0 0 5.0674630907806204 -103.81127192388533 0 -103.81127192388533 55.881782619457454 0 0 0 0 -0.25925880978854821 -6.9294182757946325 0 -6.9294182757946325 1.6336458853613942 0 0 0 0 -71.411373823240865 86.801933944746011 0 86.801933944746011 24.604120703907356 0 0 0 0 39.764675129842999 78.182784335342774 0 78.182784335342774 -8.2868453615770505 0 0 0 0 58.96044864098198 34.178520752067911 0 34.178520752067911 1.7780507429834262 0 0 0 0 9.8777266467513982 171.05741737742892 0 171.05741737742892 -110.08651601653735 0 0 0 0 13.742785511232796 343.37905869714876 0 343.37905869714876 89.047623920119094 0 0 0 0 3.0294250960029672 4.339810310023438 0 4.339810310023438 3.237640080355682 0 0 0 0 135.62299294091645 404.32188527215658 0 404.32188527215658 -1152.1608426586899 0 0 0 0 49.780014014490007 386.68111768278482 0 386.68111768278482 576.08063135444934 0 0 0 0 -469.25776415673317 240.51409598124792 0 240.51409598124792 344.20906333813548 0 0 0 0 659.62294807939907 -77.820559986341237 0 -77.820559986341237 401.49683552195211 0 0 0 0 -125.7295450251986 95.643563394518708 0 95.643563394518708 120.61061282497315 0 0 0 0 39.386014974999696 -16.76180892968619 0 -16.76180892968619 4.7904287759804722 0 0 0 0 -166.10286790736427 -277.16232330798658 0 -277.16232330798658 62.628244264763055 0 0 0 0 -298.16439195475323 -240.39148869499309 0 -240.39148869499309 613.09512848767542 0 0 0 0 6.7240509641638369 -2.9104299438222911 0 -2.9104299438222911 2.0746373704551262 0 0 0 0 1583.6576210067287 1031.3436446605801 0 1031.3436446605801 416.70465207445233 0 0 0 0 3118.3001363861331 946.5001015825037 0 946.5001015825037 -211.50681961912352 0 0 0 0 2393.852971656248 -328.40978881209691 0 -328.40978881209691 85.34966483459101 0 0 0 0 62.244285193402902 471.41768966021976 0 471.41768966021976 723.61404694029193 0 0 0 0 2089.0193244083202 -1166.4130295504576 0 -1166.4130295504576 385.38757575047111 0 0 0 0 17.181164406253231 5.5056546385227936 0 5.5056546385227936 15.053784597393475 0 0 0 0 45.482286004127673 -14.887341658342052 0 -14.887341658342052 559.03382872740758 0 0 0 0 4483.7314484734889 -499.74492156186341 0 -499.74492156186341 -817.39083997587204 0 0 0 0 -37.833248234906932 -444.21946411525471 0 -444.21946411525471 555.33512120787771 0 0 0 0 404.28216086003522 -661.46380619319166 0 -661.46380619319166 585.98454787184721 0 0 0 0 4491.4416384968681 995.70981963324004 0 995.70981963324004 -548.90136803189296 0 0 0 0 1551.6484094123516 2188.7259066586898 0 2188.7259066586898 1636.9493901826875 0 0 0 0 -78.139821997063336 82.238203626166069 0 82.238203626166069 75.433133263464697 0 0 0 0 1394.5846261989427 -23.891013406480141 0 -23.891013406480141 144.24800795655204 0 0 0 0 -2.7477039496841229 -6.2029438559210064 0 -6.2029438559210064 48.903155644378302 0 0 0 0 662.40767390959809 796.71460252946349 0 796.71460252946349 -28.011857686709163 0 0 0 0 2510.89694808996 582.196374029862 0 582.196374029862 -588.53797227680764 0 0 0 0 4500.5905292697335 609.04901063348439 0 609.04901063348439 -1099.7786141970876 0 0 0 0 2872.0284543097591 1284.7918992856755 0 1284.7918992856755 -294.67329893768465 0 0 0 0 628.43623608207963 193.54346890167614 0 193.54346890167614 -77.57642553974739 0 0 0 0 2865.6031684615009 690.51375673283712 0 690.51375673283712 -257.83279545825019 0 0 0 0 2292.6151745766224 44.507137501585447 0 44.507137501585447 -285.02112120499783 0 0 0 0 2490.6787545088682 -405.80351333799285 0 -405.80351333799285 -849.31446259998938 0 0 0 0 4490.1274998413983 -1285.176667258278 0 -1285.176667258278 -685.75400936899257 0 0 0 0 867.45272140063025 -1749.1994112824602 0 -1749.1994112824602 1208.7921024630909 0 0 0 0 12.144612872477992 -5.8038280811208303 0 -5.8038280811208303 3.9904996765740481 0 0 0 0 4457.9734298888943 -50.646360450080074 0 -50.646360450080074 12.004918120015608 0 0 0 0 617.90142078355575 318.19606263879336 0 318.19606263879336 -8.2161710537729959 0 0 0 0 92.87514745199951 -4.1418083168225053 0 -4.1418083168225053 478.83924353148603 0 0 0 0 12.338620629822913 -13.229892336062601 0 -13.229892336062601 4.4879457633783453 0 0 0 0 75.238658969128664 -86.224356441129089 0 -86.224356441129089 97.638035510490056 0 0 0 0 377.26833033538423 30.840577317082023 0 30.840577317082023 -347.14256927614133 0 0 0 0 33.629770406296302 84.68698104860843 0 84.68698104860843 108.56815718493715 0 0 0 0 9.2216749931047879 -10.520603248003702 0 -10.520603248003702 -0.097073373484653835 0 0 0 0 64.488541248363617 133.91811574297571 0 133.91811574297571 -31.074309427361868 0 0 0 0 264.92586803795257 107.75664635009764 0 107.75664635009764 19.877013410258542 0 0 0 0 168.77398285613435 33.409215256853344 0 33.409215256853344 47.764323649249718 0 0 0 0 224.68515760679202 93.097742600167351 0 93.097742600167351 9.0641747454274082 0 0 0 0 147.37952106157536 1.1053899973497892 0 1.1053899973497892 32.809648652462755 0 0 0 0 11.982485616023951 -14.229842843757876 0 -14.229842843757876 5.8041210927548921 0 0 0 0 124.97813600322479 35.22604910952316 0 35.22604910952316 25.041060862225777 0 0 0 0 191.5519760627667 53.328508513628208 0 53.328508513628208 -10.065644337159256 0 0 0 0 142.96615027317966 8.9883095056419506 0 8.9883095056419506 -14.529441797619256 0 0 0 0 138.7314939693606 25.806569495599263 0 25.806569495599263 -14.467063424153935 0 0 0 0 95.918503030788997 -32.731293404612302 0 -32.731293404612302 -18.593642020613785 0 0 0 0 95.470772349764047 -27.16530546448837 0 -27.16530546448837 -33.295100626781505 0 0 0 0 72.786433075685636 -61.242207927674258 0 -61.242207927674258 -85.74932761495802 0 0 0 0 65.428051873004733 -35.477103405747016 0 -35.477103405747016 -73.711899401505036 0 0 0 0 61.67106098671502 -34.265836903466834 0 -34.265836903466834 -35.004631889095549 0 0 0 0 64.822461947533156 -67.228665501877458 0 -67.228665501877458 -48.284761876841117 0 0 0 0 10.227572722322293 -132.26060568436944 0 -132.26060568436944 -108.87933928634322 0 0 0 0 593.31997699938802 -251.95878262722908 0 -251.95878262722908 442.00348951963497 0 0 0 0 52.727751224140576 -26.256594751638758 0 -26.256594751638758 4.9744111050256157 0 0 0 0 -74.343888994650115 190.8559143425714 0 190.8559143425714 111.00310189507763 0 0 0 0 -82.798577803016087 237.39046469023378 0 237.39046469023378 89.254906755278171 0 0 0 0 -25.414761697042195 -80.869996190298991 0 -80.869996190298991 -48.935721467687927 0 0 0 0 25.871080476255884 -67.317751601271993 0 -67.317751601271993 -132.27612840617849 0 0 0 0 54.93253726421608 -82.374887502637534 0 -82.374887502637534 -127.3902708915607 0 0 0 0 41.790378002859143 -72.820074982523465 0 -72.820074982523465 -58.152143998195697 0 0 0 0 130.06213822500695 -33.970724366974608 0 -33.970724366974608 -59.627752112479584 0 0 0 0 99.537577015091301 -45.890236680889529 0 -45.890236680889529 -78.930077659290589 0 0 0 0 79.734888430331921 -18.080047183770318 0 -18.080047183770318 2.9309590574832782 0 0 0 0 185.77300900111004 37.609201616993914 0 37.609201616993914 -38.99417190545671 0 0 0 0 144.94250977484262 -38.704201887003649 0 -38.704201887003649 -31.256173708599817 0 0 0 0 206.81844487819399 53.047983343127157 0 53.047983343127157 44.006973520189547 0 0 0 0 93.628143615522276 -19.423546971186624 0 -19.423546971186624 14.11286693375888 0 0 0 0 268.53061607603013 6.9282403983964969 0 6.9282403983964969 -1.1968705087431317 0 0 0 0 41.289964341980522 -72.965577726230947 0 -72.965577726230947 -47.391284270730921 0 0 0 0 139.41831202481808 -27.003257956406685 0 -27.003257956406685 -43.20573303710546 0 0 0 0 125.5840574390204 -12.364940700907198 0 -12.364940700907198 -63.4495078765774 0 0 0 0 18.516829238527862 -51.054125006480376 0 -51.054125006480376 -68.462325762202994 0 0 0 0 31.82664501553154 -130.99873862162235 0 -130.99873862162235 -108.18720932241672 0 0 0 0 -4.845987369059003 -104.10202576857012 0 -104.10202576857012 -44.915218215080131 0 0 0 0 35.920354013160249 -71.539038993162421 0 -71.539038993162421 16.131054773226651 0 0 0 0 45.678073305316047 -99.021581938307662 0 -99.021581938307662 -65.945491351021474 0 0 0 0 52.417084654032806 -98.243449948529019 0 -98.243449948529019 59.318818652072082 0 0 0 0 -5.7147119070068584 -51.846381385367863 0 -51.846381385367863 22.303906255375523 0 0 0 0 116.83960695062069 -40.137353684558548 0 -40.137353684558548 7.7463158398550149 0 0 0 0 -21.634742216287123 -36.489563275130308 0 -36.489563275130308 63.437827276630173 0 0 0 0 -8.6042885685928923 -100.68953165603625 0 -100.68953165603625 -26.020599453476734 0 0 0 0 -72.876521220841823 -67.040446425376103 0 -67.040446425376103 -42.054045504243618 0 0 0 0 161.01206831935087 112.12418778586743 0 112.12418778586743 19.964086356530515 0 0 0 0 -30.006290946630543 -179.996931164616 0 -179.996931164616 -126.36759577264638 0 0 0 0 8.0996910675807392 -5.2219048084531785 0 -5.2219048084531785 3.2607025214415284 0 0 0 0 47.708962755875362 -23.331219038620951 0 -23.331219038620951 3.5574235193677692 0 0 0 0 12.683091950581002 -98.980680311292275 0 -98.980680311292275 -163.19184961738915 0 0 0 0 -93.884735006748997 -82.814762922757382 0 -82.814762922757382 0.93985103947215975 0 0 0 0 -20.637914679227833 -21.106059791731241 0 -21.106059791731241 45.608332113800316 0 0 0 0 151.5049562658005 34.118879315503818 0 34.118879315503818 281.12417115958488 0 0 0 0 -47.57654323445081 71.098856719697437 0 71.098856719697437 96.224894776059955 0 0 0 0 -168.06692500694771 462.95456570491478 0 462.95456570491478 -125.38597733546703 0 0 0 0 -79.936452906851628 -123.10519440138194 0 -123.10519440138194 -67.698098308996123 0 0 0 0 2.8087650112747333 -1.4737808476556591 0 -1.4737808476556591 1.0263745669060311 0 0 0 0 -0.89879679652949562 -94.852069798599359 0 -94.852069798599359 -68.078220320856417 0 0 0 0 -50.470173033460014 -56.047070853167497 0 -56.047070853167497 -94.814223668947534 0 0 0 0 8.8066196336341918 -4.2079194172987204 0 -4.2079194172987204 1.2387760395447689 0 0 0 0 -114.72564386015802 24.249332614350351 0 24.249332614350351 110.47214884481423 0 0 0 0 464.59821114074475 -192.44974878509538 0 -192.44974878509538 -205.31023053549688 0 0 0 0 -1.58981141539698 -308.61877116796177 0 -308.61877116796177 -208.04581884404189 0 0 0 0 -179.46442886747718 -67.564656398506941 0 -67.564656398506941 71.093315638776971 0 0 0 0 -42.925083509506749 -47.2925049342183 0 -47.2925049342183 -68.205114675595723 0 0 0 0 88.530260979967352 8.6139837641946997 0 8.6139837641946997 -62.032625988807013 0 0 0 0 43.213882450192614 -119.31081649183216 0 -119.31081649183216 -212.38330907087811 0 0 0 0 12.303848797953833 -4.4521026902261838 0 -4.4521026902261838 -139.79593754324651 0 0 0 0 0.74161752087820787 -88.685114285537111 0 -88.685114285537111 -15.408203994922133 0 0 0 0 121.89047384484911 -48.103096051920147 0 -48.103096051920147 -3.5645001280137194 0 0 0 0 21.962612369818089 -160.76936158841977 0 -160.76936158841977 104.20043070924294 0 0 0 0 379.67892713960191 -82.24782176024064 0 -82.24782176024064 75.702326334439022 0 0 0 0 64.265869079755248 -14.873819609231077 0 -14.873819609231077 63.405622809184024 0 0 0 0 78.828317411953321 -40.33824929731054 0 -40.33824929731054 499.60756821569612 0 0 0 0 84.299942424672736 -70.755710479157273 0 -70.755710479157273 139.72951266761174 0 0 0 0 -35.819828034091188 -74.742542076453219 0 -74.742542076453219 218.20786304162039 0 0 0 0 -1.7360700605731694 0.10346517598549432 0 0.10346517598549432 -0.27649482173012707 0 0 0 0 -29.639273675883487 -72.344608560905726 0 -72.344608560905726 124.39501486234099 0 0 0 0 -81.605641899502189 -46.146182098560303 0 -46.146182098560303 415.02992796990338 0 0 0 0 -14.846486071172876 -2.3703345282019654 0 -2.3703345282019654 168.31284134861517 0 0 0 0 44.046473676481583 -63.772775723102541 0 -63.772775723102541 75.840496715001791 0 0 0 0 41.328644247527336 -49.999729389827735 0 -49.999729389827735 16.910882756082174 0 0 0 0 98.956681177711289 -86.474806322073619 0 -86.474806322073619 24.992952310884903 0 0 0 0 170.99283946115247 -132.41830094509987 0 -132.41830094509987 -6.477352346023963 0 0 0 0 259.86701748727319 -8.9023100768527001 0 -8.9023100768527001 1.3039008476280287 0 0 0 0 54.392483943574916 -121.9947561667168 0 -121.9947561667168 3.5283543265977642 0 0 0 0 19.798964795992106 -119.18324863313842 0 -119.18324863313842 66.967382612982874 0 0 0 0 -26.20683626560276 -83.56830678046299 0 -83.56830678046299 18.787380424982075 0 0 0 0 3.1927162560532452 -144.14296385923353 0 -144.14296385923353 29.45399250293849 0 0 0 0 114.30708479824261 8.1835824770444106 0 8.1835824770444106 -334.91438580395379 0 0 0 0 -75.485421731391398 -119.07690443339288 0 -119.07690443339288 29.294939332792747 0 0 0 0 -96.884027269963553 -65.978264874383967 0 -65.978264874383967 27.201670611928648 0 0 0 0 309.14623423392186 -160.99250397089781 0 -160.99250397089781 -194.43004208902857 0 0 0 0 23.648595352678967 -151.00709265234309 0 -151.00709265234309 -8.0442856171175663 0 0 0 0 55.765058315974201 -29.206312412367005 0 -29.206312412367005 6.8266003093536183 0 0 0 0 4.5357086798396189 -1.7603392482787648 0 -1.7603392482787648 0.29160625720553135 0 0 0 0 39.484119318389276 -96.661597475930648 0 -96.661597475930648 -60.675848347372835 0 0 0 0 87.175182643666631 -36.915879551082071 0 -36.915879551082071 -26.264690263146633 0 0 0 0 91.993449690460466 -22.040700922770974 0 -22.040700922770974 -25.451343352914137 0 0 0 0 93.056868072322686 -31.004934959430557 0 -31.004934959430557 -38.521202581713169 0 0 0 0 78.694365839142847 -28.839967368749512 0 -28.839967368749512 -30.31204800040905 0 0 0 0 50.135604266484734 -24.221735232506489 0 -24.221735232506489 -28.634088968761489 0 0 0 0 20.471958522648492 -29.980304299392401 0 -29.980304299392401 -16.535976409440991 0 0 0 0 10.176103186611726 -47.668041033566169 0 -47.668041033566169 -10.089829502376233 0 0 0 0 35.989773345871072 -54.057223844883083 0 -54.057223844883083 -22.933620967419756 0 0 0 0 64.995832236822025 -49.989424415369285 0 -49.989424415369285 -25.924274261978098 0 0 0 0 106.5096056040129 -28.64594622734171 0 -28.64594622734171 -26.271894851713853 0 0 0 0 99.999613337442497 -12.686770157312026 0 -12.686770157312026 -11.262919546142939 0 0 0 0 109.13379273772807 5.7843610862719288 0 5.7843610862719288 15.694563450040903 0 0 0 0 84.992623573446508 -7.5662735902869827 0 -7.5662735902869827 -6.4355319710880394 0 0 0 0 95.109793569112753 -31.391924760385621 0 -31.391924760385621 -26.16207880795946 0 0 0 0 33.417795731537808 53.486169993989279 0 53.486169993989279 -94.286064744128453 0 0 0 0 90.652723151451028 -9.9802014921535545 0 -9.9802014921535545 -3.9040848366216778 0 0 0 0 69.32022933827102 -24.800037731340126 0 -24.800037731340126 -13.281255258171996 0 0 0 0 70.175942507940363 -32.710054605002398 0 -32.710054605002398 -9.6563822802445429 0 0 0 0 59.715533562773494 -28.42655207575817 0 -28.42655207575817 7.0614510345115562 0 0 0 0 1.7894075061449257 -88.796536130023924 0 -88.796536130023924 13.509475493272475 0 0 0 0 -105.46567179056365 -99.133818455609799 0 -99.133818455609799 54.733467187730639 0 0 0 0 78.638698823753657 -37.245904403395571 0 -37.245904403395571 -23.658857957891996 0 0 0 0 -211.57495606371594 487.64987425158688 0 487.64987425158688 174.56265995903505 0 0 0 0 -36.81092728094518 -12.490536805051306 0 -12.490536805051306 2.40684137590722 0 0 0 0 0.13366946246329903 -7.7618858224068017 0 -7.7618858224068017 0.03193336747946951 0 0 0 0 101.57594749708551 161.44478352607075 0 161.44478352607075 4.8575822429024811 0 0 0 0 20.59317952663514 -71.169024077132235 0 -71.169024077132235 7.1887462357240111 0 0 0 0 -39.449758262448995 25.919090956399941 0 25.919090956399941 626.0206096779973 0 0 0 0 -10.755001679377074 -81.953589851963898 0 -81.953589851963898 150.1152296535065 0 0 0 0 78.85856792465438 1.2939602182250383 0 1.2939602182250383 309.88452791914915 0 0 0 0 17.748011971805454 -142.32019865680684 0 -142.32019865680684 657.68494517114141 0 0 0 0 79.330287848037699 -97.668231385406784 0 -97.668231385406784 -186.82385350422464 0 0 0 0 -1.6548729634178017 -26.46719265738102 0 -26.46719265738102 -262.1109410394165 0 0 0 0 35.977753967321405 251.50314141706349 0 251.50314141706349 278.57006341863456 0 0 0 0 12.168477402858894 3.3961868682500178 0 3.3961868682500178 -9.0115377578479325 0 0 0 0 13.208108562931102 -219.59998355907737 0 -219.59998355907737 -235.79152913859457 0 0 0 0 137.0274562358095 8.8691252400872145 0 8.8691252400872145 -225.09538334270906 0 0 0 0 251.90976790751256 -109.0945735739283 0 -109.0945735739283 -290.27127038255003 0 0 0 0 391.04661104099887 313.87246451293777 0 313.87246451293777 253.24005752554694 0 0 0 0 640.16448826362284 -730.98231097555322 0 -730.98231097555322 1445.0174935599853 0 0 0 0 174.61022928520288 433.47409453182718 0 433.47409453182718 476.46012208129741 0 0 0 0 245.76184289040521 39.420441195750982 0 39.420441195750982 801.00523215715441 0 0 0 0 -381.365235041495 -721.75626087474802 0 -721.75626087474802 1365.9560937242329 0 0 0 0 8.8785653018347954 -7.3867512522118535 0 -7.3867512522118535 9.8282218206856644 0 0 0 0 4497.5326049742835 1539.0501506540031 0 1539.0501506540031 -171.65717256461556 0 0 0 0 2564.0651818918213 628.81999392305556 0 628.81999392305556 -83.957055871274719 0 0 0 0 26.754514263096592 -19.869691699435478 0 -19.869691699435478 19.336710192520492 0 0 0 0 4500.6614132757431 829.70215989136261 0 829.70215989136261 2384.7263745751097 0 0 0 0 2234.6319493145838 -851.24032325102303 0 -851.24032325102303 355.29331689079993 0 0 0 0 3826.2051821841269 -980.0390655934533 0 -980.0390655934533 150.23850404048014 0 0 0 0 4798.946601573105 0.85383290645387433 0 0.85383290645387433 -296.23073823691999 0 0 0 0 19.04915600933932 -0.39302585456241879 0 -0.39302585456241879 4.5416513167639536 0 0 0 0 62.717875026485189 -3.2390594040410212 0 -3.2390594040410212 -5.9553845414948956 0 0 0 0 109.50595885241273 3.098701822470332 0 3.098701822470332 -7.8643367790220964 0 0 0 0 268.7902950426469 35.727106346818751 0 35.727106346818751 683.25252415354987 0 0 0 0 21.29861966707152 -9.7112882329599266 0 -9.7112882329599266 -1.8511604954097212 0 0 0 0 1687.1228340078142 2046.799618549938 0 2046.799618549938 1697.4191323813434 0 0 0 0 4911.954212791512 1512.2801838276823 0 1512.2801838276823 -278.18997783705578 0 0 0 0 736.96556307045739 -154.09707716810999 0 -154.09707716810999 -21.162858486668483 0 0 0 0 1371.5289519610815 -458.27556342422349 0 -458.27556342422349 77.630577191621342 0 0 0 0 -92.981295201755074 32.543146345930893 0 32.543146345930893 290.39174284433784 0 0 0 0 2.1441065470589757 -3.6228156385549788 0 -3.6228156385549788 5.2486121980522 0 0 0 0 3.0069322059358923 -7.5132983158823805 0 -7.5132983158823805 15.022283736719565 0 0 0 0 311.17878377032412 -371.70104762993606 0 -371.70104762993606 261.99582617050874 0 0 0 0 852.32739449591008 -111.77057091621009 0 -111.77057091621009 -18.915960364042803 0 0 0 0 1013.1824800420309 -157.2996378136977 0 -157.2996378136977 -56.973758884198105 0 0 0 0 300.1497597713842 402.71883785629507 0 402.71883785629507 436.73553938366058 0 0 0 0 315.33454642504785 178.00938774604219 0 178.00938774604219 266.04159686031016 0 0 0 0 526.76380751005217 147.80834966502289 0 147.80834966502289 48.710345543489439 0 0 0 0 1251.8760552880067 313.32752081094532 0 313.32752081094532 79.712656093475744 0 0 0 0 272.83216540644116 202.9256777477076 0 202.9256777477076 245.53328960150793 0 0 0 0 317.43922058082171 181.0951704269637 0 181.0951704269637 246.50196037658907 0 0 0 0 9.3880309609174937 -9.8335716824287633 0 -9.8335716824287633 -2.9593511279423641 0 0 0 0 296.41358170694548 238.78861432425765 0 238.78861432425765 321.66873382812355 0 0 0 0 291.64157351761969 271.94811048957763 0 271.94811048957763 211.38557593103178 0 0 0 0 254.11808118776571 213.45190748886307 0 213.45190748886307 120.60560125427764 0 0 0 0 333.32878021273518 299.16994282048836 0 299.16994282048836 174.62024502546046 0 0 0 0 160.94222662543041 256.26170459085665 0 256.26170459085665 206.24762854586879 0 0 0 0 353.68111725756125 310.21299047607772 0 310.21299047607772 159.13207980373227 0 0 0 0 420.18392500273558 161.25722169436267 0 161.25722169436267 228.37013261039817 0 0 0 0 318.79527564065211 311.40669094715122 0 311.40669094715122 166.35136065535517 0 0 0 0 320.44433518535061 327.44698536004307 0 327.44698536004307 216.49081718929847 0 0 0 0 794.49778704700805 60.556184865802891 0 60.556184865802891 73.037247903554089 0 0 0 0 83.487511822027955 -89.58697042881704 0 -89.58697042881704 53.346902778606363 0 0 0 0 425.77126454188237 267.14954620002084 0 267.14954620002084 -118.25179706578047 0 0 0 0 543.40568153567551 94.397807201059209 0 94.397807201059209 -39.262523865604635 0 0 0 0 428.73273963588298 -10.477864673414132 0 -10.477864673414132 69.620749459259514 0 0 0 0 -0.63074936468174414 -1.4191595306084785 0 -1.4191595306084785 -2.8620493566513607 0 0 0 0 -556.91811270567041 431.56808948431808 0 431.56808948431808 -77.625821190277293 0 0 0 0 777.24772234235138 -296.50650212776037 0 -296.50650212776037 117.19660868972102 0 0 0 0 545.29525521696996 136.5052258424123 0 136.5052258424123 -364.54806029908536 0 0 0 0 275.34317378473042 188.32199175722576 0 188.32199175722576 385.37294088100316 0 0 0 0 599.74270328104922 334.33545775773086 0 334.33545775773086 -375.40243106662228 0 0 0 0 1014.9062120859899 -282.28497013931144 0 -282.28497013931144 -181.0240043962749 0 0 0 0 400.58949229506879 -103.53583234285179 0 -103.53583234285179 -230.92106294974201 0 0 0 0 518.26451897895822 -63.97475520938815 0 -63.97475520938815 -235.66574504921073 0 0 0 0 510.32459164288048 -99.945523141759168 0 -99.945523141759168 -276.98678932161283 0 0 0 0 592.42319025507641 -156.31791684702102 0 -156.31791684702102 -246.72958112786205 0 0 0 0 247.252592662393 -94.172969782346172 0 -94.172969782346172 -124.3372956614877 0 0 0 0 396.56344284138686 -259.08461920498803 0 -259.08461920498803 55.161105872109147 0 0 0 0 494.53303886985486 -77.20725912692842 0 -77.20725912692842 -240.56130628667233 0 0 0 0 292.32895380159425 -166.16145808095234 0 -166.16145808095234 -117.86163156329349 0 0 0 0 230.27050562385739 -91.847579608392834 0 -91.847579608392834 -191.29868826427082 0 0 0 0 61.823572557809712 -48.944132569165049 0 -48.944132569165049 -285.31852889765014 0 0 0 0 100.42764644282943 -136.45803227414581 0 -136.45803227414581 -106.14082646263614 0 0 0 0 228.37557943112915 -152.3942940777838 0 -152.3942940777838 -120.42623788893388 0 0 0 0 207.33196947361921 -131.18158571570825 0 -131.18158571570825 47.333894146147031 0 0 0 0 11.125534972299647 -63.373889243365284 0 -63.373889243365284 33.594135116754387 0 0 0 0 296.0953508931716 -219.2929206263841 0 -219.2929206263841 401.10912397497646 0 0 0 0 225.836819885757 -51.952854883287955 0 -51.952854883287955 57.16961527575392 0 0 0 0 -10.314924665257081 -95.035783475658832 0 -95.035783475658832 -80.574430274778933 0 0 0 0 -63.654469859233132 -154.08941203675784 0 -154.08941203675784 -65.135952483877645 0 0 0 0 41.784376327373899 -18.759044071713546 0 -18.759044071713546 0.46179657188587742 0 0 0 0 10.576147165507791 55.922197412596233 0 55.922197412596233 94.376548517778247 0 0 0 0 13.903504871147341 -8.6210943099759376 0 -8.6210943099759376 4.6682135653279859 0 0 0 0 129.16160050479539 -22.334654833137392 0 -22.334654833137392 25.998074932992893 0 0 0 0 -115.71563084406671 -254.11414430112143 0 -254.11414430112143 -144.08301279015996 0 0 0 0 -199.38147545071115 -100.3132286987252 0 -100.3132286987252 -34.858016929856603 0 0 0 0 -94.121831466020012 -149.58830394330448 0 -149.58830394330448 53.767514986292554 0 0 0 0 44.085630524970838 -116.97745682694085 0 -116.97745682694085 -70.665068009444894 0 0 0 0 -51.153377190629726 -101.19793855263879 0 -101.19793855263879 -161.88010069139455 0 0 0 0 -116.45143916366032 -105.70539291120622 0 -105.70539291120622 -1.3759140853726421 0 0 0 0 -130.33293536624114 -50.87190911600419 0 -50.87190911600419 -2.3936680930223702 0 0 0 0 -42.1147425878371 -83.72516767038087 0 -83.72516767038087 0.44535969528010355 0 0 0 0 -92.384887453644296 -94.498648580233407 0 -94.498648580233407 26.440101855911962 0 0 0 0 -14.376712398984637 17.182386572462747 0 17.182386572462747 54.807970835048948 0 0 0 0 -127.94965028801607 -119.45212011617002 0 -119.45212011617002 18.627389133942415 0 0 0 0 69.593409776330191 -13.901541132694547 0 -13.901541132694547 -168.84215494263526 0 0 0 0 6.5828821926798398 -3.4993143003663096 0 -3.4993143003663096 1.4545746566730418 0 0 0 0 180.17169948239825 -108.77512368118596 0 -108.77512368118596 7.3598016309028935 0 0 0 0 2.2568189970806323 -1.0945209077282385 0 -1.0945209077282385 0.6654636183938436 0 0 0 0 -35.029979912716954 -21.526145843859013 0 -21.526145843859013 275.81130670516723 0 0 0 0 180.06608759750543 45.669587110084649 0 45.669587110084649 -65.76139220433879 0 0 0 0 68.571659130882836 56.877509003869591 0 56.877509003869591 -39.050130420386949 0 0 0 0 2.7815582530638494 -52.368469273275878 0 -52.368469273275878 -9.2070488365714027 0 0 0 0 35.964493313846106 -3.5632132978344089 0 -3.5632132978344089 1.079592887371291 0 0 0 0 4.3832050940649028 -8.6310021258044074 0 -8.6310021258044074 21.003268917830454 0 0 0 0 98.829310990778936 -14.927385892568054 0 -14.927385892568054 -7.2867214087727916 0 0 0 0 103.97461909273636 24.518627011719445 0 24.518627011719445 -11.51928511249389 0 0 0 0 53.029457556830494 43.403132360429254 0 43.403132360429254 -0.033529383383665845 0 0 0 0 55.740265883636312 27.930151409642122 0 27.930151409642122 49.242822539956251 0 0 0 0 8.5346000673665401 -3.1693820932293217 0 -3.1693820932293217 6.0553646924898761 0 0 0 0 19.419708532532695 6.1294256870604613 0 6.1294256870604613 -35.134108026600188 0 0 0 0 93.952898384999571 59.19651282930954 0 59.19651282930954 -38.118398629621453 0 0 0 0 53.101488382812022 48.521992389720026 0 48.521992389720026 58.885132366214748 0 0 0 0 91.288101321452814 93.183424830594959 0 93.183424830594959 48.187320155788711 0 0 0 0 127.5413303751593 -34.576265959838111 0 -34.576265959838111 -19.65416406675331 0 0 0 0 71.705872976370301 56.747409692040037 0 56.747409692040037 77.525005422377035 0 0 0 0 202.98232722789544 172.07493231435762 0 172.07493231435762 178.53439867671204 0 0 0 0 116.39837347640605 -81.883154724881933 0 -81.883154724881933 -14.967935589471381 0 0 0 0 7.0235123734290887 -2.6318725603306969 0 -2.6318725603306969 0.69024505214566823 0 0 0 0 62.235121497089722 82.503763864261316 0 82.503763864261316 89.438612315800128 0 0 0 0 -38.25634974493687 54.585482402802256 0 54.585482402802256 319.89047558338461 0 0 0 0 2.4782045253593878 -1.2722092556819362 0 -1.2722092556819362 1.0976651273937836 0 0 0 0 28.592963309751212 -166.25885690214864 0 -166.25885690214864 397.59783226128138 0 0 0 0 0.93373789535742979 -1.2328709686573269 0 -1.2328709686573269 17.244044309585345 0 0 0 0 -21.898185789546915 28.624495288824164 0 28.624495288824164 3.6332984506821049 0 0 0 0 156.36440939106251 157.2579028003538 0 157.2579028003538 187.39418195948565 0 0 0 0 65.217158569192179 -178.40692286579338 0 -178.40692286579338 223.6978185469402 0 0 0 0 55.507766103116865 69.151239892367244 0 69.151239892367244 4.2319030392218338 0 0 0 0 564.58910872321758 297.50356945931662 0 297.50356945931662 109.15729244288832 0 0 0 0 567.00514043841395 255.14882048153959 0 255.14882048153959 319.0718735538677 0 0 0 0 618.4556899061572 168.48158862747869 0 168.48158862747869 56.739176589881026 0 0 0 0 718.79944089352239 203.37612408371137 0 203.37612408371137 21.170473267417037 0 0 0 0 566.68394054849887 474.4580263374537 0 474.4580263374537 307.50217032689397 0 0 0 0 -100.15713159821462 66.37637153241576 0 66.37637153241576 -10.405810997717708 0 0 0 0 -291.135656275972 -158.96163455966871 0 -158.96163455966871 70.908729047928318 0 0 0 0 2.6997456378760347 -1.3329656479967795 0 -1.3329656479967795 7.5879070323330193 0 0 0 0 2327.5182633900531 604.20645437299663 0 604.20645437299663 -0.54491895784394728 0 0 0 0 2953.8171789338194 -522.34312521949141 0 -522.34312521949141 -44.061979957130461 0 0 0 0 366.22492067174153 1033.2559655019872 0 1033.2559655019872 791.92973325621278 0 0 0 0 5.1260322044677409 -0.59564427423786981 0 -0.59564427423786981 -0.44558282610583788 0 0 0 0 2403.4640803284601 -125.16833788184704 0 -125.16833788184704 -57.034313980481294 0 0 0 0 207.83776824641609 -368.0505178810854 0 -368.0505178810854 596.35549256115701 0 0 0 0 712.56075405643423 -739.22027733167215 0 -739.22027733167215 459.44801194368119 0 0 0 0 501.55906894286454 -170.33880460867658 0 -170.33880460867658 31.99809213885419 0 0 0 0 -34.761319598052069 193.48466377143632 0 193.48466377143632 197.77522210505413 0 0 0 0 40.316783475680488 -23.373680118166263 0 -23.373680118166263 10.800558590215065 0 0 0 0 47.176882974603359 -74.323863736086423 0 -74.323863736086423 -126.9864574076928 0 0 0 0 131.64285689955432 -17.084427295234491 0 -17.084427295234491 -131.45595393146505 0 0 0 0 15.612437519913158 -7.8047386512510641 0 -7.8047386512510641 5.1988082987518638 0 0 0 0 1131.5955677475927 829.21838203435846 0 829.21838203435846 578.31336067603843 0 0 0 0 2424.2505975272225 727.46123680428582 0 727.46123680428582 570.57128513866337 0 0 0 0 150.68066244805959 -444.40843016267991 0 -444.40843016267991 444.38789149555305 0 0 0 0 1164.4981800312962 -794.374108005788 0 -794.374108005788 306.82950498220271 0 0 0 0 -23.867963989672717 136.42796193153561 0 136.42796193153561 110.16222158367054 0 0 0 0 142.7898420456695 -187.79498503232207 0 -187.79498503232207 290.66811102348402 0 0 0 0 367.61137998051163 -306.32994822091132 0 -306.32994822091132 217.0656189307806 0 0 0 0 468.8245871594936 -194.26375260786608 0 -194.26375260786608 152.46597243959422 0 0 0 0 759.730026300178 -86.493942752426847 0 -86.493942752426847 143.96927274639984 0 0 0 0 234.5643696279285 -95.909508128588186 0 -95.909508128588186 153.36082660929969 0 0 0 0 201.7853137814127 -232.94892166233058 0 -232.94892166233058 118.89733752057145 0 0 0 0 192.98333563703966 -81.247119915940345 0 -81.247119915940345 6.3128409692344576 0 0 0 0 104.33543672279848 -82.704680692078455 0 -82.704680692078455 -17.515376025205114 0 0 0 0 1.8736695027573731 -0.051392426970087612 0 -0.051392426970087612 -1.7551361158052181 0 0 0 0 113.46828824625845 -36.310024154550774 0 -36.310024154550774 121.20121897663361 0 0 0 0 207.13172821316584 -224.37586053543328 0 -224.37586053543328 145.02158945423253 0 0 0 0 71.168624877715047 -26.797490773582467 0 -26.797490773582467 5.6925190826764265 0 0 0 0 -32.360543105747638 18.820219976994849 0 18.820219976994849 79.033415039843931 0 0 0 0 1.0211397093822328 0.7381598292215763 0 0.7381598292215763 -1.6741577752595589 0 0 0 0 80.655589579966545 -26.448810769924648 0 -26.448810769924648 1.1276484981854082 0 0 0 0 50.36069529656379 -18.168296373934936 0 -18.168296373934936 6.5527293011659822 0 0 0 0 60.172587408138497 -17.915688489868444 0 -17.915688489868444 -10.242498521825837 0 0 0 0 43.595022334395992 -1.3754395426017996 0 -1.3754395426017996 -10.047235210360267 0 0 0 0 58.59082288013451 1.1968609212221963 0 1.1968609212221963 -23.448454957133436 0 0 0 0 38.672549013450407 -16.733557036591264 0 -16.733557036591264 5.509292373635617 0 0 0 0 78.087700933454471 -21.113822496963621 0 -21.113822496963621 -3.1707148864243209 0 0 0 0 51.832409192156774 1.8165765668791209 0 1.8165765668791209 -10.397318338031027 0 0 0 0 64.406385035210405 -28.477149113063206 0 -28.477149113063206 -3.4983470633442266 0 0 0 0 67.443242018987803 -43.457604503703806 0 -43.457604503703806 47.442552651131336 0 0 0 0 28.248648416426477 -12.823153122248186 0 -12.823153122248186 144.51691860665233 0 0 0 0 75.352424000520841 9.6465204157739208 0 9.6465204157739208 -54.994013255387472 0 0 0 0 -54.034355297273578 31.565372791960726 0 31.565372791960726 70.917013469035737 0 0 0 0 0.88257821240186729 0.89572605598447907 0 0.89572605598447907 -4.1920631070858434 0 0 0 0 1.168237014377155 49.444366448476103 0 49.444366448476103 -5.8946498055520351 0 0 0 0 60.434911444775935 -15.388687406401004 0 -15.388687406401004 -1.6799252500186412 0 0 0 0 49.618665690104535 0.30024381531620747 0 0.30024381531620747 -20.914186326624531 0 0 0 0 38.924098084632575 -3.0212571502100003 0 -3.0212571502100003 -12.860065185432573 0 0 0 0 8.8855520270161961 -5.1905459307658788 0 -5.1905459307658788 -4.1239636189299347 0 0 0 0 35.152963222903054 2.400340823251554 0 2.400340823251554 -58.440847638848936 0 0 0 0 72.454205560854462 54.900996291358751 0 54.900996291358751 -0.36539548780910991 0 0 0 0 67.481383113961783 1.1490748747310136 0 1.1490748747310136 -62.401099748309207 0 0 0 0 37.346212587097398 -13.382330415273827 0 -13.382330415273827 -5.8353411933594543 0 0 0 0 35.547922637925254 -9.5245739572509898 0 -9.5245739572509898 -9.5543699213789957 0 0 0 0 24.617318417070226 -10.268361525137724 0 -10.268361525137724 -9.6029533118547583 0 0 0 0 293.23513884299729 87.758062493734428 0 87.758062493734428 26.008873745859091 0 0 0 0 35.128462714062024 -10.663182994719101 0 -10.663182994719101 -3.3197214700408857 0 0 0 0 140.6322296700427 4.9832668795927475 0 4.9832668795927475 54.994179629196879 0 0 0 0 9.7978168349410684 -2.1999312520419463 0 -2.1999312520419463 1.928013299402771 0 0 0 0 38.829157890783108 120.75396582257463 0 120.75396582257463 314.72046888920249 0 0 0 0 555.78372538342387 177.73346845800734 0 177.73346845800734 56.337641064362742 0 0 0 0 90.2493362020532 8.921530602699022 0 8.921530602699022 64.184923710162366 0 0 0 0 -18.303033107247757 -41.512044014078128 0 -41.512044014078128 -17.654422241396787 0 0 0 0 38.297132573828804 -12.388821484469057 0 -12.388821484469057 -2.3278239654925095 0 0 0 0 -59.565833786040457 15.987645612759479 0 15.987645612759479 33.36164087574798 0 0 0 0 60.429474836269947 18.915986915299072 0 18.915986915299072 -6.1010361440821725 0 0 0 0 30.860471564338695 -13.520320586882235 0 -13.520320586882235 -13.619028776620326 0 0 0 0 16.985182548723969 -0.87949328844069896 0 -0.87949328844069896 -10.271852523310372 0 0 0 0 50.354735040267769 2.4590133601125217 0 2.4590133601125217 -15.301078775738461 0 0 0 0 66.044831196024461 -9.9103818883459098 0 -9.9103818883459098 -7.135050369446617 0 0 0 0 65.907109608764586 -35.508604534609276 0 -35.508604534609276 3.4283877423022204 0 0 0 0 61.085445458783852 -34.376777110626449 0 -34.376777110626449 9.5768874847090046 0 0 0 0 14.956976267902411 -1.0091425345050578 0 -1.0091425345050578 -18.027380677038426 0 0 0 0 40.606006947698916 -20.797053535869964 0 -20.797053535869964 37.70132215195099 0 0 0 0 20.436818081177989 4.670241727771355 0 4.670241727771355 -21.802538198472348 0 0 0 0 77.783472926810646 -48.565800682249574 0 -48.565800682249574 10.666913393342838 0 0 0 0 228.93225656242794 -121.15322635506345 0 -121.15322635506345 -43.592777698712837 0 0 0 0 208.68972002007649 -25.898446433215213 0 -25.898446433215213 -35.979468811796323 0 0 0 0 94.591238765777234 -85.304438862568986 0 -85.304438862568986 50.122587171943451 0 0 0 0 44.233857096187421 -52.045796109508046 0 -52.045796109508046 68.945902240172472 0 0 0 0 61.099963954331542 140.09863911824004 0 140.09863911824004 -12.179533794509553 0 0 0 0 49.96894015294891 -19.280703160722286 0 -19.280703160722286 0.49347409990862801 0 0 0 0 95.371011266981441 7.6919543167805386 0 7.6919543167805386 32.821393660460217 0 0 0 0 -2.486621149979328 25.23149051746077 0 25.23149051746077 -13.538329562779836 0 0 0 0 10.450444208382031 1.3868931570145868 0 1.3868931570145868 -8.5085919494352353 0 0 0 0 53.955875388286422 -0.8387703031601188 0 -0.8387703031601188 -13.591559533064089 0 0 0 0 112.87059894139838 48.353201936600044 0 48.353201936600044 46.277880347432074 0 0 0 0 51.449853938478554 60.498796763558744 0 60.498796763558744 53.933878166165414 0 0 0 0 15.350986198259685 -2.8348269011289879 0 -2.8348269011289879 -3.4681845629505883 0 0 0 0 130.54873380234858 52.44659093432665 0 52.44659093432665 40.12909361581228 0 0 0 0 20.358354873461955 -1.925783904633954 0 -1.925783904633954 -12.861846498097092 0 0 0 0 30.038688217706522 -0.12814080140189787 0 -0.12814080140189787 -3.8126029812493698 0 0 0 0 29.04477769742789 -8.423673696840126 0 -8.423673696840126 -22.216928910901174 0 0 0 0 103.95764707149283 26.777881128343097 0 26.777881128343097 -7.235768714949586 0 0 0 0 74.539220836046297 19.253407893318126 0 19.253407893318126 -45.492309770164411 0 0 0 0 33.068267754260454 -5.031624052781428 0 -5.031624052781428 -6.6258737229378601 0 0 0 0 73.502425360009283 -1.8986570794698991 0 -1.8986570794698991 4.5364385112568471 0 0 0 0 103.20206518602754 24.532685200907338 0 24.532685200907338 3.7712913696508394 0 0 0 0 123.64213231948338 63.167359563989748 0 63.167359563989748 50.488466990910183 0 0 0 0 110.79398594115082 32.871411233723734 0 32.871411233723734 23.443110542789782 0 0 0 0 144.11139106529117 58.888965033160275 0 58.888965033160275 20.190807924505457 0 0 0 0 148.56802138001149 56.439878988307072 0 56.439878988307072 6.6120284219146015 0 0 0 0 237.53869181979667 83.201649008000913 0 83.201649008000913 24.735362982371157 0 0 0 0 181.0735193035448 91.220943592940273 0 91.220943592940273 42.795084720094565 0 0 0 0 183.43398341318016 87.268806500915844 0 87.268806500915844 28.536124030776591 0 0 0 0 238.11450566119811 118.86829777396429 0 118.86829777396429 41.336351132228174 0 0 0 0 306.06906151823682 143.82836709817781 0 143.82836709817781 27.133460313607202 0 0 0 0 273.48526931669926 91.583908303611025 0 91.583908303611025 14.53784201849453 0 0 0 0 258.37677913965899 126.90051716024163 0 126.90051716024163 36.338629676672554 0 0 0 0 464.27391963393802 216.06894101523403 0 216.06894101523403 54.754325103182964 0 0 0 0 251.8281911114683 150.04448033563528 0 150.04448033563528 71.168655062232574 0 0 0 0 108.19966235502852 128.38194267605377 0 128.38194267605377 153.57712897198098 0 0 0 0 53.459801040934053 45.117867997415033 0 45.117867997415033 102.34889528249005 0 0 0 0 172.69883294621377 91.998584166547971 0 91.998584166547971 61.615878494255412 0 0 0 0 165.85113426919361 104.48113511157317 0 104.48113511157317 55.315760870924805 0 0 0 0 42.089344358165192 -4.5235334026609451 0 -4.5235334026609451 6.044877208159761 0 0 0 0 63.555290584249406 -10.043321167406731 0 -10.043321167406731 -13.799087484330361 0 0 0 0 -6.0578720979247009 26.547053979896447 0 26.547053979896447 28.129958914161477 0 0 0 0 37.486861720798515 -4.5011934001299778 0 -4.5011934001299778 -5.8208031304156975 0 0 0 0 464.29322116257663 701.18340153788631 0 701.18340153788631 117.03690428064601 0 0 0 0 -2.2107647505754198 -0.93515054313107404 0 -0.93515054313107404 2.5637654347281931 0 0 0 0 53.330735268716921 -9.7497198355270029 0 -9.7497198355270029 -7.1576127495945912 0 0 0 0 52.137214857149843 -6.3593980188506976 0 -6.3593980188506976 -14.193415681970635 0 0 0 0 54.417817606847279 -3.0769190145483662 0 -3.0769190145483662 -15.090621168229973 0 0 0 0 -8.194518706432973 -3.0332061103750902 0 -3.0332061103750902 60.365154205249837 0 0 0 0 27.734428285194099 -4.6503255628456941 0 -4.6503255628456941 -11.00576768908553 0 0 0 0 44.24776866361708 -0.48014627132221221 0 -0.48014627132221221 -10.50526265185897 0 0 0 0 43.646095444659295 1.7439512236269366 0 1.7439512236269366 -15.936803450846242 0 0 0 0 50.808752813175886 7.7490894612415673 0 7.7490894612415673 -13.383260764388297 0 0 0 0 25.163140977884268 -3.7098555053970586 0 -3.7098555053970586 -10.233104176315351 0 0 0 0 42.976650468944172 1.5508562499107938 0 1.5508562499107938 -13.802441789331397 0 0 0 0 12.924992873161932 6.3932267882865244 0 6.3932267882865244 -10.446649459205819 0 0 0 0 72.930740943697401 -51.488898126992012 0 -51.488898126992012 22.726484496106423 0 0 0 0 52.159019229557089 -4.7673685634636058 0 -4.7673685634636058 -1.7961378889490334 0 0 0 0 42.150141353556592 1.2768716768866852 0 1.2768716768866852 -5.4304966377567325 0 0 0 0 70.461389519070508 4.5117151607614687 0 4.5117151607614687 -14.17665495112783 0 0 0 0 -0.0025218535849999002 -0.47682477809913459 0 -0.47682477809913459 -0.76963251204925065 0 0 0 0 -6.6975946923491279 -10.021116536894851 0 -10.021116536894851 30.624269091315 0 0 0 0 44.957665794367131 14.197920112964482 0 14.197920112964482 -17.423471295544147 0 0 0 0 36.784507975343104 8.1369199660761424 0 8.1369199660761424 1.2251101256474897 0 0 0 0 80.378209403382016 -20.071373786219965 0 -20.071373786219965 -15.735742564651446 0 0 0 0 151.08063351012515 97.038001209516338 0 97.038001209516338 48.687741768866431 0 0 0 0 72.661233222399687 51.059381593269222 0 51.059381593269222 -11.616900251478455 0 0 0 0 207.59102173055612 -20.708528286441833 0 -20.708528286441833 -18.003306244166197 0 0 0 0 60.815410002694364 12.231927952170281 0 12.231927952170281 17.052024191048758 0 0 0 0 205.94824002563428 -84.214899142652939 0 -84.214899142652939 51.278684433871604 0 0 0 0 23.876855373896465 0.41100540305273192 0 0.41100540305273192 -3.7036058561607703 0 0 0 0 60.096301041799734 21.314391455982332 0 21.314391455982332 -17.371188367608283 0 0 0 0 8.0019956682662041 7.7375099901364592 0 7.7375099901364592 23.778768775879144 0 0 0 0 87.533620887337406 20.688666611898416 0 20.688666611898416 -8.5208890771194579 0 0 0 0 118.01112187475974 -11.319569858636441 0 -11.319569858636441 27.309683359813789 0 0 0 0 -5.8724347097502232 113.68823866225648 0 113.68823866225648 -32.333382576891154 0 0 0 0 -25.701480691670554 -5.1244514164745851 0 -5.1244514164745851 52.812794424036838 0 0 0 0 130.23728223166609 51.369872712250071 0 51.369872712250071 42.082096833369178 0 0 0 0 51.652560427020944 -30.349624339200091 0 -30.349624339200091 27.587556897509558 0 0 0 0 87.327889295280329 -45.096861738798452 0 -45.096861738798452 24.030116706910121 0 0 0 0 42.692348703612879 -29.151667981898754 0 -29.151667981898754 35.089213326975369 0 0 0 0 71.160441615300897 2.4738934617553241 0 2.4738934617553241 0.40131150441766295 0 0 0 0 90.979730344826748 -7.6239169578211659 0 -7.6239169578211659 -0.50550949597891304 0 0 0 0 23.283963895254796 8.4981098752257189 0 8.4981098752257189 -1.4790662189416288 0 0 0 0 105.19972927721392 -25.57830495062899 0 -25.57830495062899 27.338958528529474 0 0 0 0 -3.4816199118056801 0.85831432999603585 0 0.85831432999603585 4.7917229962337231 0 0 0 0 75.626616777257368 -16.907878315220387 0 -16.907878315220387 11.316484111532191 0 0 0 0 39.009924365453116 -14.855200137872998 0 -14.855200137872998 6.2249080825713463 0 0 0 0 20.410707148661281 -11.163735519524231 0 -11.163735519524231 9.425306562458676 0 0 0 0 43.272425346236602 5.6399749622676261 0 5.6399749622676261 -5.6274225283690349 0 0 0 0 73.561612651621573 -20.702701180953426 0 -20.702701180953426 11.96392025601159 0 0 0 0 66.532244794543658 -37.862634100397372 0 -37.862634100397372 25.973616000372203 0 0 0 0 80.242299850549898 -40.46339443227771 0 -40.46339443227771 14.215931193961296 0 0 0 0 30.844305549550967 -30.521570975567986 0 -30.521570975567986 17.869753421057283 0 0 0 0 112.95435085326244 -36.948841143011123 0 -36.948841143011123 18.618729329616599 0 0 0 0 49.365505909804952 -1.8012161701144476 0 -1.8012161701144476 -7.908476765515891 0 0 0 0 53.384554163596476 14.217442494818897 0 14.217442494818897 -18.219474653891666 0 0 0 0 48.087942938531341 12.164253265456864 0 12.164253265456864 -7.2192126968275261 0 0 0 0 50.381174159785587 2.7184492266451343 0 2.7184492266451343 0.41028664943587501 0 0 0 0 10.45739021416648 -1.8683251432718606 0 -1.8683251432718606 -0.2409351337971799 0 0 0 0 97.295682228635997 14.266031235104947 0 14.266031235104947 17.38588629396736 0 0 0 0 54.86204026660198 5.3762235091057846 0 5.3762235091057846 -11.111941223992289 0 0 0 0 6.6308069842020103 -6.680585905660605 0 -6.680585905660605 -3.3477238933345372 0 0 0 0 111.46180722695317 -0.24511483673632029 0 -0.24511483673632029 5.9981105891420157 0 0 0 0 135.0282075475443 35.239693816549334 0 35.239693816549334 -2.278189608374305 0 0 0 0 91.224980245085135 13.620933519724986 0 13.620933519724986 -0.015146081155762658 0 0 0 0 173.83534854367485 228.90585866876154 0 228.90585866876154 -161.74898441924506 0 0 0 0 93.283879686399331 29.538778853540272 0 29.538778853540272 -5.8370656108705283 0 0 0 0 57.068670573745095 47.49996898347645 0 47.49996898347645 22.901238807527989 0 0 0 0 144.93541855851072 61.18806090014823 0 61.18806090014823 71.859159673292197 0 0 0 0 78.619576884776507 -15.312443906456735 0 -15.312443906456735 -0.16926170449551137 0 0 0 0 308.03961336682551 -36.257174050708272 0 -36.257174050708272 -42.575385338654087 0 0 0 0 18.10790889910308 -6.3427086065612492 0 -6.3427086065612492 2.0752810699040225 0 0 0 0 55.824648277797678 -35.308766779370671 0 -35.308766779370671 175.94901454399951 0 0 0 0 233.63132347736246 -54.013161079008569 0 -54.013161079008569 13.717305813584971 0 0 0 0 133.24891792115523 -1.8727435719220011 0 -1.8727435719220011 -13.277478756132041 0 0 0 0 122.52769205107779 -18.703835548173856 0 -18.703835548173856 30.137815441234125 0 0 0 0 107.74586159229511 4.5256176222956128 0 4.5256176222956128 -0.71772722167315806 0 0 0 0 216.21345079003004 -0.88065259427276033 0 -0.88065259427276033 -104.40559578372631 0 0 0 0 108.47796735532323 28.937509435140313 0 28.937509435140313 -6.0679488634483203 0 0 0 0 108.60807948332695 10.300450727413022 0 10.300450727413022 -2.1277001959460904 0 0 0 0 62.188886863891639 37.093510864589007 0 37.093510864589007 6.5374500356665521 0 0 0 0 299.47927109217653 -113.95480904092165 0 -113.95480904092165 -52.707138372714326 0 0 0 0 104.2731315573692 -95.23904224215039 0 -95.23904224215039 34.886609855525421 0 0 0 0 190.87300696811144 -46.365834849427301 0 -46.365834849427301 -58.470943553066718 0 0 0 0 28.258351104253315 -64.442850540612966 0 -64.442850540612966 15.940865787859959 0 0 0 0 113.12823021264194 -79.000845961035793 0 -79.000845961035793 44.59340498459278 0 0 0 0 24.413543961764564 -61.463112251994282 0 -61.463112251994282 7.9753414479861959 0 0 0 0 128.35409163530767 -69.786965970256915 0 -69.786965970256915 18.257363680029812 0 0 0 0 23.355611508109178 -13.483188089129065 0 -13.483188089129065 -8.1441589321586996 0 0 0 0 163.46311289048026 -79.126181362087664 0 -79.126181362087664 17.708887555794718 0 0 0 0 121.82113196548198 -3.4685683707680255 0 -3.4685683707680255 55.543089547612908 0 0 0 0 -36.420443038299709 -8.7405093849702098 0 -8.7405093849702098 85.902610967817964 0 0 0 0 8.2993184500228381 -44.845823285508231 0 -44.845823285508231 58.79997478063342 0 0 0 0 8.6994985634710247 -39.744956388491403 0 -39.744956388491403 106.1374385131021 0 0 0 0 -56.154256451758556 -64.202967450988581 0 -64.202967450988581 98.006748964657163 0 0 0 0 46.680667993328825 -46.742274612342499 0 -46.742274612342499 135.33697387356369 0 0 0 0 38.417499916409724 16.308478863738856 0 16.308478863738856 119.46368486252504 0 0 0 0 -210.97385583417781 -194.99422438016973 0 -194.99422438016973 210.36303264979932 0 0 0 0 -95.237856306675894 53.82368472986127 0 53.82368472986127 291.19032293121199 0 0 0 0 -33.371721371077001 5.4269798578543487 0 5.4269798578543487 195.98379110607129 0 0 0 0 -98.906260646610463 -264.78656028071782 0 -264.78656028071782 -35.987811162679463 0 0 0 0 27.284006320340268 -115.79450016735427 0 -115.79450016735427 28.915888664558224 0 0 0 0 27.704243118263548 -95.694104105397855 0 -95.694104105397855 99.631873232581711 0 0 0 0 104.62939231226119 -175.57119681101995 0 -175.57119681101995 -223.24704139770074 0 0 0 0 181.06379817461311 -8.5603186594455565 0 -8.5603186594455565 -60.71823181136233 0 0 0 0 143.73713670370029 -17.873306018529938 0 -17.873306018529938 -1.8576903288879518 0 0 0 0 115.05487610306591 -4.4235252199360957 0 -4.4235252199360957 3.2672275541838189 0 0 0 0 228.53067532758268 -70.559755642425102 0 -70.559755642425102 14.352253257720093 0 0 0 0 151.76537994753608 17.268253496874536 0 17.268253496874536 -0.72263741485335231 0 0 0 0 197.66716875676457 20.714183400755019 0 20.714183400755019 21.495775164738916 0 0 0 0 115.86315310158216 -9.616804893873109 0 -9.616804893873109 -13.542625877655382 0 0 0 0 17.310724675940392 -3.1739623170539577 0 -3.1739623170539577 -7.0171648478563515 0 0 0 0 336.51727798668799 -3.6627455690293118 0 -3.6627455690293118 -65.125362629052916 0 0 0 0 229.62039538999306 6.6186417769788477 0 6.6186417769788477 -26.284729634801806 0 0 0 0 312.22317287602743 -252.9481757941868 0 -252.9481757941868 153.43082629404216 0 0 0 0 381.79824147759984 144.53828510304663 0 144.53828510304663 63.944589470916981 0 0 0 0 141.17691587058613 -65.996069206986306 0 -65.996069206986306 332.98839157828843 0 0 0 0 466.14972827592646 -122.98021293757301 0 -122.98021293757301 42.335670062654572 0 0 0 0 516.12200688325174 156.55182603076992 0 156.55182603076992 14.230333280488594 0 0 0 0 3.6058030526763005 -14.630898705960975 0 -14.630898705960975 4.6605243921614417 0 0 0 0 64.920783765843225 1.7608573149818767 0 1.7608573149818767 -20.585010341063935 0 0 0 0 67.376827961603738 1.075182058597143 0 1.075182058597143 -18.827533484861831 0 0 0 0 91.980323494110053 0.21095712429814739 0 0.21095712429814739 -30.947926186770019 0 0 0 0 51.918112443992868 8.8309019171501859 0 8.8309019171501859 -14.545267565814356 0 0 0 0 79.070981482226685 36.964308264638454 0 36.964308264638454 -18.564092018338616 0 0 0 0 40.221604893049239 14.524708055588924 0 14.524708055588924 -9.3016788847120431 0 0 0 0 59.127020529704168 56.105245152684802 0 56.105245152684802 -443.99271690492969 0 0 0 0 7.5025669415772427 49.871020311387838 0 49.871020311387838 -287.45308803736953 0 0 0 0 62.825623828422977 73.227907018919723 0 73.227907018919723 -281.16669054921795 0 0 0 0 27.528913602367538 -12.57189157808034 0 -12.57189157808034 -385.97242791654571 0 0 0 0 53.400862953687465 198.59530560364374 0 198.59530560364374 -616.13880904093458 0 0 0 0 4.824750234828862 -0.078634315736579197 0 -0.078634315736579197 -0.31284857418356182 0 0 0 0 72.047968610015232 2.3032951882523776 0 2.3032951882523776 -490.39609979190391 0 0 0 0 21.450549090703134 31.140446005372723 0 31.140446005372723 -434.76067009076905 0 0 0 0 107.75105303871533 24.163887030028491 0 24.163887030028491 -437.52336887831552 0 0 0 0 74.620396814185369 46.859788931433286 0 46.859788931433286 -351.80063354165031 0 0 0 0 23.734075315216614 28.250990439702946 0 28.250990439702946 -276.7804177260914 0 0 0 0 105.30369190244892 -24.097348343671911 0 -24.097348343671911 -265.33192884630262 0 0 0 0 -47.974161759171693 15.314381471938759 0 15.314381471938759 -141.20318498550296 0 0 0 0 158.59274669075603 -183.74163809390348 0 -183.74163809390348 -88.973008781396857 0 0 0 0 -29.003502377978293 107.02265748871741 0 107.02265748871741 -339.76972514667068 0 0 0 0 65.943114483005047 -39.113496441194002 0 -39.113496441194002 -640.96840038889786 0 0 0 0 3.9557649088680904 5.3747947777895249 0 5.3747947777895249 0.086688455311222157 0 0 0 0 68.932625174129498 48.51834577032605 0 48.51834577032605 -450.44785677824984 0 0 0 0 29.625767649391463 13.663312429093418 0 13.663312429093418 -2.5336125596603365 0 0 0 0 14.647680199978396 18.526219022463629 0 18.526219022463629 -4.847635198838141 0 0 0 0 36.265322672230468 18.17370620359452 0 18.17370620359452 -4.8500697446652339 0 0 0 0 60.133891529512766 -15.760170200168432 0 -15.760170200168432 -87.347774427425975 0 0 0 0 293.17181353962224 195.17087945277126 0 195.17087945277126 -0.90569330633843492 0 0 0 0 290.75899552286728 -62.130898742266048 0 -62.130898742266048 126.5447322629625 0 0 0 0 -212.2136712205247 509.58064423207179 0 509.58064423207179 -53.984527657154558 0 0 0 0 -573.23330608698598 411.91285818728284 0 411.91285818728284 599.44745404716286 0 0 0 0 -436.47399961218616 82.62147743002879 0 82.62147743002879 737.23374838589916 0 0 0 0 37.929693996287824 -18.251819699657062 0 -18.251819699657062 56.111979063939543 0 0 0 0 13.566364190626842 3.0503517002882443 0 3.0503517002882443 0.98416703105527414 0 0 0 0 769.82412657102395 -229.7532582817139 0 -229.7532582817139 -230.07802580422776 0 0 0 0 740.84965164351161 -69.773784353765222 0 -69.773784353765222 -116.19148099936228 0 0 0 0 117.42981336784396 -257.90086979502462 0 -257.90086979502462 -127.79151074810397 0 0 0 0 455.53330198180629 -304.52829720409682 0 -304.52829720409682 -101.82035654050947 0 0 0 0 964.67007224742702 -35.705077361433723 0 -35.705077361433723 -236.66672815576152 0 0 0 0 818.59829568547866 -142.73966589592692 0 -142.73966589592692 -230.62126359649119 0 0 0 0 445.56096405388598 282.54074891099845 0 282.54074891099845 250.27937122089133 0 0 0 0 154.77309176644167 -11.90950953064892 0 -11.90950953064892 -1.6323796393440713 0 0 0 0 1243.0062693929031 -246.92301330135979 0 -246.92301330135979 -821.80189723947569 0 0 0 0 203.890893279382 -31.545254091399329 0 -31.545254091399329 -53.67123478714484 0 0 0 0 170.83315615774609 -98.421310058371432 0 -98.421310058371432 91.670803277201145 0 0 0 0 121.76892755310109 -9.75753111853669 0 -9.75753111853669 82.5308849174844 0 0 0 0 154.57772953935773 -33.007083525593998 0 -33.007083525593998 18.784719166760624 0 0 0 0 301.07505332065921 225.20036685797822 0 225.20036685797822 -431.8022742524945 0 0 0 0 149.32437668157294 3.1342164371660957 0 3.1342164371660957 1.2622592952144966 0 0 0 0 82.602338203781798 31.389603882711477 0 31.389603882711477 21.32985627765057 0 0 0 0 172.36733003425979 -31.510183072770815 0 -31.510183072770815 -92.325652917397406 0 0 0 0 224.21634497599007 76.167826693532334 0 76.167826693532334 -56.936029898623019 0 0 0 0 41.284074874986793 -23.702951842468806 0 -23.702951842468806 -17.655260587744237 0 0 0 0 267.39515432885673 70.49470285098505 0 70.49470285098505 -70.888898220257033 0 0 0 0 134.85263623339597 3.6865422575774573 0 3.6865422575774573 -4.7021003321915487 0 0 0 0 148.38336183330102 -21.676444561471726 0 -21.676444561471726 55.15710725763347 0 0 0 0 59.299095627574417 -3.7178776040759658 0 -3.7178776040759658 -40.369829700087394 0 0 0 0 72.733520559872275 0.69283777991092865 0 0.69283777991092865 -8.4138372835317128 0 0 0 0 74.120671287861114 109.26988852383965 0 109.26988852383965 -28.104648516891757 0 0 0 0 114.85881323865439 39.451061033579023 0 39.451061033579023 -16.864586964526392 0 0 0 0 157.86004169506586 15.047564536178712 0 15.047564536178712 -22.048850373403191 0 0 0 0 118.20876374566248 29.105812480563188 0 29.105812480563188 -11.263264091748066 0 0 0 0 29.78219178173822 18.285623111034511 0 18.285623111034511 -26.091426941515692 0 0 0 0 62.863861512814331 -9.6999042556634105 0 -9.6999042556634105 -11.192932041534291 0 0 0 0 42.489050223567347 -8.8578789866405714 0 -8.8578789866405714 -26.290714726077567 0 0 0 0 175.80976010217637 -79.697284401957745 0 -79.697284401957745 -24.144096285717637 0 0 0 0 300.37060437167656 9.7306405505802331 0 9.7306405505802331 -98.921568075440518 0 0 0 0 9.8074989214277561 -31.679022207273785 0 -31.679022207273785 -11.884803778241645 0 0 0 0 185.58599981368752 17.837991303928902 0 17.837991303928902 35.694935847964189 0 0 0 0 206.34492111615691 -109.98393453495464 0 -109.98393453495464 -180.82201015643517 0 0 0 0 53.736233369908923 36.737297740153757 0 36.737297740153757 19.448841945436371 0 0 0 0 104.27663670690436 112.5919014054582 0 112.5919014054582 -323.76982604778095 0 0 0 0 63.68307364762768 67.617073722156647 0 67.617073722156647 -91.809610853863887 0 0 0 0 54.408025938886567 -11.964839345395376 0 -11.964839345395376 -170.42804543418333 0 0 0 0 304.73965119822969 -372.42850676248793 0 -372.42850676248793 426.27437800087819 0 0 0 0 237.98984753605328 -6.2798003179927946 0 -6.2798003179927946 195.09216752777718 0 0 0 0 167.14981353304393 -210.02402716954236 0 -210.02402716954236 198.50515798614629 0 0 0 0 146.49002146387284 20.273732869393712 0 20.273732869393712 -216.84548567753473 0 0 0 0 317.7473812142598 -202.81721056191986 0 -202.81721056191986 -194.94010987761339 0 0 0 0 184.34655187862882 -95.566874000490543 0 -95.566874000490543 -69.293850656956238 0 0 0 0 180.13391366699943 -168.53796816512704 0 -168.53796816512704 -56.585566416168007 0 0 0 0 117.73653821324115 -148.15697237932858 0 -148.15697237932858 105.79316493050442 0 0 0 0 4.2784461240808014 -77.093072810896047 0 -77.093072810896047 67.463535847349249 0 0 0 0 100.58832810965032 -78.384312732830722 0 -78.384312732830722 -13.676152801414389 0 0 0 0 163.07170042526104 -83.562220084979828 0 -83.562220084979828 -14.858272393561492 0 0 0 0 285.54877972698796 -118.53039703265968 0 -118.53039703265968 114.66797999551413 0 0 0 0 309.05760606731235 -96.188753449945523 0 -96.188753449945523 87.614113614072195 0 0 0 0 -1.9599901323927913 -0.71788866979306398 0 -0.71788866979306398 -1.8332678102114914 0 0 0 0 363.6628786283909 49.538097168832792 0 49.538097168832792 -62.658531518532072 0 0 0 0 230.56670428793268 43.259181086354886 0 43.259181086354886 -61.841080813806002 0 0 0 0 336.34323703587381 -0.14731286555651479 0 -0.14731286555651479 -35.068117648172574 0 0 0 0 187.65273556470902 10.94027863538015 0 10.94027863538015 3.8808007341175639 0 0 0 0 291.82073447020048 -91.778229639989263 0 -91.778229639989263 35.577462167141334 0 0 0 0 158.22261995851716 -39.043598032431461 0 -39.043598032431461 119.46780935462698 0 0 0 0 123.17256451042454 403.55098826420164 0 403.55098826420164 -646.23163163676236 0 0 0 0 226.65897455262075 -145.83153362687307 0 -145.83153362687307 150.53217462066874 0 0 0 0 47.493569366943142 29.00141976797218 0 29.00141976797218 14.605688088210682 0 0 0 0 227.92629838887359 -72.443172985179814 0 -72.443172985179814 143.52466081667262 0 0 0 0 233.06035632807925 -117.12719284840274 0 -117.12719284840274 240.83073479203694 0 0 0 0 348.9188942985802 -345.12291658828508 0 -345.12291658828508 196.73128610463527 0 0 0 0 -104.27776042994037 993.44051029866148 0 993.44051029866148 -529.40363662331811 0 0 0 0 30.622766105314724 21.068906198143161 0 21.068906198143161 12.45127242829269 0 0 0 0 -303.86715649403777 64.420286303286446 0 64.420286303286446 -271.31741678153338 0 0 0 0 879.31179006833918 235.2028843655238 0 235.2028843655238 -394.87304470967968 0 0 0 0 -89.555295300620855 22.93203821239058 0 22.93203821239058 -471.38193261039578 0 0 0 0 -185.40488676683526 222.10504915462366 0 222.10504915462366 762.64546358591224 0 0 0 0 -416.20864345017981 732.95551907337176 0 732.95551907337176 -212.43464392420537 0 0 0 0 -580.47992624140988 525.93362881876806 0 525.93362881876806 -5.243045614820403 0 0 0 0 469.75454686198282 -24.294274895089728 0 -24.294274895089728 79.400459816369903 0 0 0 0 576.23649598291922 -39.791720942618781 0 -39.791720942618781 38.606166421864941 0 0 0 0 554.66964034056218 -73.141215126740917 0 -73.141215126740917 87.920120519199529 0 0 0 0 -0.099502182890113033 -0.28329513553173769 0 -0.28329513553173769 1.9829941729488527 0 0 0 0 638.91672630035373 -92.696333167327509 0 -92.696333167327509 47.80226123366333 0 0 0 0 8.3339425681273589 8.1256522604446797 0 8.1256522604446797 7.931429525440941 0 0 0 0 959.18293364382407 -693.92860551823537 0 -693.92860551823537 218.50388432145638 0 0 0 0 1127.404633010276 -238.44194046044413 0 -238.44194046044413 -535.51770758757993 0 0 0 0 -14.263199037595768 585.45342318060216 0 585.45342318060216 -238.05484209168026 0 0 0 0 75.840153822737193 47.553401804349051 0 47.553401804349051 -3.8180906738552949 0 0 0 0 114.70271144349681 85.037624161243912 0 85.037624161243912 27.566738833746058 0 0 0 0 201.77627109889727 -175.93220536456283 0 -175.93220536456283 135.76498942306898 0 0 0 0 163.10253196764097 -151.41415196622802 0 -151.41415196622802 120.41109432035364 0 0 0 0 28.863325858187004 15.394229242370431 0 15.394229242370431 7.4128361524793576 0 0 0 0 -362.15996604321481 381.90333446291402 0 381.90333446291402 65.425372673535094 0 0 0 0 7.7934959831521553 6.052632798367414 0 6.052632798367414 4.3344580806131763 0 0 0 0 491.70817698297469 -380.5408759326092 0 -380.5408759326092 364.52866910493617 0 0 0 0 702.92041427766071 257.14044204327359 0 257.14044204327359 225.21410174564153 0 0 0 0 193.38335749109683 -233.18588484040174 0 -233.18588484040174 130.82763303605861 0 0 0 0 165.19269991645797 -138.87224702729077 0 -138.87224702729077 185.70197119740351 0 0 0 0 126.06935624879043 -34.659831907453736 0 -34.659831907453736 -34.966499813428527 0 0 0 0 274.64410736805712 -94.772305163287001 0 -94.772305163287001 -194.55744521063571 0 0 0 0 163.53410424154981 146.11270742331976 0 146.11270742331976 -309.90861717954431 0 0 0 0 -139.76601348740223 142.04674133551453 0 142.04674133551453 -72.148501955076426 0 0 0 0 148.89091151192406 64.986636316961267 0 64.986636316961267 -159.64695323870001 0 0 0 0 126.72313367760853 -12.018722253685155 0 -12.018722253685155 2.7661660222256614 0 0 0 0 107.88724951422046 107.19923146831343 0 107.19923146831343 28.755051266723967 0 0 0 0 151.23591976305033 93.14777339887587 0 93.14777339887587 -178.52893281590877 0 0 0 0 204.96633799265692 75.897005761096807 0 75.897005761096807 -173.08758937537732 0 0 0 0 206.38401429133592 232.78792051399705 0 232.78792051399705 425.16398666406531 0 0 0 0 189.33752733112124 -302.84385985466633 0 -302.84385985466633 -563.13008101914602 0 0 0 0 -52.450950285550789 -312.75067164103166 0 -312.75067164103166 -424.62556418176246 0 0 0 0 3.5213640537966597 -20.97369594024531 0 -20.97369594024531 -1.4173935599347045 0 0 0 0 76.020705523136712 -271.9090067101879 0 -271.9090067101879 -944.32030424150798 0 0 0 0 26.395468468892432 -460.3177292534192 0 -460.3177292534192 255.33692871953826 0 0 0 0 595.45853011045256 115.39569658049277 0 115.39569658049277 -356.3629299504446 0 0 0 0 -72.152739174194721 150.71195781769256 0 150.71195781769256 850.61320316700221 0 0 0 0 2.8972723445086643 -2.5647438442153145 0 -2.5647438442153145 3.4851956872581553 0 0 0 0 56.473858488849146 52.449371151997184 0 52.449371151997184 68.365291359277762 0 0 0 0 413.05626110054072 1.7586293599651981 0 1.7586293599651981 35.69099832378015 0 0 0 0 173.67809227253747 -132.67839061068344 0 -132.67839061068344 166.65609375279018 0 0 0 0 179.38817116066639 -125.91511345077924 0 -125.91511345077924 153.89575113210867 0 0 0 0 327.22893862913861 -362.3319659429435 0 -362.3319659429435 509.30871098307034 0 0 0 0 130.7869821110362 -124.10369885604177 0 -124.10369885604177 -53.901316864777982 0 0 0 0 6.9497043492851276 -2.3303416259109611 0 -2.3303416259109611 6.0496130713674043 0 0 0 0 -47.015130089707782 -49.699270375508078 0 -49.699270375508078 127.43861395197746 0 0 0 0 -8.9466276646999177 27.496146540348036 0 27.496146540348036 15.494244447244455 0 0 0 0 15.731327313857037 -35.458285395503822 0 -35.458285395503822 65.548612644702189 0 0 0 0 53.353416106430359 -124.27129379128486 0 -124.27129379128486 118.11373474434185 0 0 0 0 54.929681498098944 -60.243125183979828 0 -60.243125183979828 60.122084198902485 0 0 0 0 -49.46299007115158 8.7712577438646804 0 8.7712577438646804 88.170904079115644 0 0 0 0 146.58253549948131 -76.021529918727083 0 -76.021529918727083 57.273392312043597 0 0 0 0 155.97421269793631 -99.856032178741543 0 -99.856032178741543 117.45788662662926 0 0 0 0 373.66480393842721 23.408995246222048 0 23.408995246222048 77.894065678618063 0 0 0 0 -48.52382944548026 92.529736497511294 0 92.529736497511294 114.51537182882748 0 0 0 0 531.22299695458059 -85.694964655852345 0 -85.694964655852345 61.593468344162176 0 0 0 0 127.94071541152152 -153.74235413698898 0 -153.74235413698898 62.695050904456366 0 0 0 0 754.4525968316666 215.77065709662293 0 215.77065709662293 2.1937340582371689 0 0 0 0 478.97863595443778 178.01124254337537 0 178.01124254337537 50.637978359001863 0 0 0 0 457.58075905419128 297.07462569481544 0 297.07462569481544 84.891564128034588 0 0 0 0 286.132440660469 101.77517493326241 0 101.77517493326241 108.44650418390256 0 0 0 0 179.71649749452263 16.776975776664813 0 16.776975776664813 249.57948234638206 0 0 0 0 332.70687678002469 200.67093304212358 0 200.67093304212358 313.52149898169591 0 0 0 0 228.57748677889322 167.3785656681157 0 167.3785656681157 705.77974613817719 0 0 0 0 340.19929548943037 81.744469603607286 0 81.744469603607286 142.73472017172116 0 0 0 0 340.86325959532405 308.32683692425917 0 308.32683692425917 153.64665529876584 0 0 0 0 241.16287810628273 333.4878558510959 0 333.4878558510959 -68.479024632530127 0 0 0 0 -39.508992616993055 108.16436384573717 0 108.16436384573717 153.29854095000383 0 0 0 0 317.79623624102533 26.444057064020853 0 26.444057064020853 -300.38698681540609 0 0 0 0 221.82480230144938 -115.9927480527831 0 -115.9927480527831 -159.72119501269844 0 0 0 0 213.11487433862931 -132.79256506467755 0 -132.79256506467755 -76.842594937243121 0 0 0 0 -1.0266870452060424 -2.4406505389338164 0 -2.4406505389338164 -3.6430783142757619 0 0 0 0 -53.33821933681611 -51.537523131571106 0 -51.537523131571106 -38.670127467627026 0 0 0 0 195.91537589491054 -79.171983028250907 0 -79.171983028250907 -102.4896080913677 0 0 0 0 236.81696718400235 -79.823228769185789 0 -79.823228769185789 -144.91518469750008 0 0 0 0 164.08243006224802 156.62326467710682 0 156.62326467710682 98.687329346572369 0 0 0 0 568.32409854690923 287.44427458180417 0 287.44427458180417 94.406743368224852 0 0 0 0 312.01419122016159 109.6800629833142 0 109.6800629833142 168.30798202692131 0 0 0 0 322.09014740157727 138.57877898846255 0 138.57877898846255 85.46385045470015 0 0 0 0 516.5407903641244 407.29535884801908 0 407.29535884801908 123.21107055379252 0 0 0 0 296.09685814181285 234.20248979345706 0 234.20248979345706 110.86782492193288 0 0 0 0 -1.3681777139043731 2.4534028360808406 0 2.4534028360808406 2.5797486720477423 0 0 0 0 649.35070733966131 907.34445570131174 0 907.34445570131174 -131.14158901271185 0 0 0 0 798.62643039153772 90.835687624407001 0 90.835687624407001 5.5368308047927712 0 0 0 0 -1.6983270352756961 2.7771120298039307 0 2.7771120298039307 3.2197452863148257 0 0 0 0 -185.56581373927111 563.15312672575601 0 563.15312672575601 -232.59023506255744 0 0 0 0 1.2427987965119485 4.6357250126336922 0 4.6357250126336922 8.1766594950588676 0 0 0 0 1528.2563092431028 -382.41338306406556 0 -382.41338306406556 -235.22348990552564 0 0 0 0 707.25335110524247 541.17263823222265 0 541.17263823222265 472.65703755963477 0 0 0 0 -72.696889804959937 -246.01355918396166 0 -246.01355918396166 87.235881411821538 0 0 0 0 -496.24101541677737 -238.19346360855479 0 -238.19346360855479 506.75341073904019 0 0 0 0 -86.691849214432295 -309.19518667580451 0 -309.19518667580451 -236.28484357811703 0 0 0 0 -3356.7821807561413 576.16900122108018 0 576.16900122108018 -164.25586782940809 0 0 0 0 -17.486352360550583 4.8126772548483565 0 4.8126772548483565 15.946396962035887 0 0 0 0 674.10220332648896 -1502.1354146297963 0 -1502.1354146297963 395.58588253226299 0 0 0 0 279.25522479331175 -523.01070048101371 0 -523.01070048101371 -139.05949899604093 0 0 0 0 296.10241973806114 -658.20756753786191 0 -658.20756753786191 219.76237980552924 0 0 0 0 623.78555851523561 96.579567302144824 0 96.579567302144824 -160.95802596159956 0 0 0 0 -782.68492975827394 19.999105608712853 0 19.999105608712853 190.00224169895046 0 0 0 0 1027.4244783760951 -261.88078735849194 0 -261.88078735849194 -229.62449419390487 0 0 0 0 528.89464507053162 -427.38727825377072 0 -427.38727825377072 -43.044820101884397 0 0 0 0 519.45284366532451 27.576007076335145 0 27.576007076335145 -47.311723838931357 0 0 0 0 797.2562560830047 469.00889867506976 0 469.00889867506976 292.28001723472971 0 0 0 0 28.041813146650981 -1.3173648174666326 0 -1.3173648174666326 4.5270128141871933 0 0 0 0 246.22170707635814 -514.15691260335007 0 -514.15691260335007 1006.6329921562963 0 0 0 0 1651.8915445098537 373.3362884551243 0 373.3362884551243 54.532265442142489 0 0 0 0 2456.3534858458588 -908.08326472453518 0 -908.08326472453518 -268.1561219538562 0 0 0 0 -125.81484173646459 144.47481700099706 0 144.47481700099706 -19.757508591137594 0 0 0 0 504.06668414375122 347.09752913264867 0 347.09752913264867 257.86012833847781 0 0 0 0 22.338082355858973 11.930393791464468 0 11.930393791464468 17.310136558710759 0 0 0 0 -52.294257541820116 -240.77258304246038 0 -240.77258304246038 58.298328083641536 0 0 0 0 93.613687012228183 111.25525812085471 0 111.25525812085471 -226.28244965981503 0 0 0 0 145.8717041940472 -44.243787881882781 0 -44.243787881882781 -287.66752717059717 0 0 0 0 133.68289299515163 -31.270637537287257 0 -31.270637537287257 -67.690935466906012 0 0 0 0 73.684538250216974 -0.64447058387690959 0 -0.64447058387690959 -52.414175280235213 0 0 0 0 256.84809328529809 33.733938702726846 0 33.733938702726846 -49.912220889713353 0 0 0 0 217.51248114126429 -37.86944522963131 0 -37.86944522963131 -180.86069816951203 0 0 0 0 246.2070308877428 35.731029172071885 0 35.731029172071885 -32.08039095094864 0 0 0 0 79.796038108557696 12.666919897288608 0 12.666919897288608 101.53268116532854 0 0 0 0 461.76788345754903 53.407356804906158 0 53.407356804906158 -86.209484790670103 0 0 0 0 113.03291446639238 9.0615240850155097 0 9.0615240850155097 -5.3940011212823729 0 0 0 0 297.55348499668798 160.41562362793093 0 160.41562362793093 96.793197022459935 0 0 0 0 358.64173487561493 41.07962877218597 0 41.07962877218597 -79.80326306164352 0 0 0 0 -2.6003185433603448 -6.3940525796703795 0 -6.3940525796703795 -3.4835359405008006 0 0 0 0 -30.487575594299415 -9.2156486649182625 0 -9.2156486649182625 -93.44266356031585 0 0 0 0 26.280446944175921 2.4865738779249114 0 2.4865738779249114 -8.0983196957796366 0 0 0 0 356.27564326484571 -74.83715894694501 0 -74.83715894694501 -96.614137629098877 0 0 0 0 18.801784104842227 132.82912464308811 0 132.82912464308811 -47.242317742300656 0 0 0 0 -32.261391854452086 67.850028307527282 0 67.850028307527282 74.567734544863924 0 0 0 0 185.26035512724775 -15.258050911623286 0 -15.258050911623286 72.365640527707001 0 0 0 0 205.36550262934998 186.75546975687982 0 186.75546975687982 -377.03462567950282 0 0 0 0 319.04685696774686 101.92601175421828 0 101.92601175421828 -318.10203038570535 0 0 0 0 -39.845783330107224 -1219.0552909279438 0 -1219.0552909279438 1488.1969438993124 0 0 0 0 223.24103107832161 364.91900168088654 0 364.91900168088654 -1075.8275384211202 0 0 0 0 457.96859242086066 -594.36196911653087 0 -594.36196911653087 554.32172058252399 0 0 0 0 689.55924368439446 -112.01032770025085 0 -112.01032770025085 -2027.1662863025015 0 0 0 0 924.39467720247194 -700.15246995854045 0 -700.15246995854045 -572.97675632712344 0 0 0 0 323.13441335700918 -412.57051056970431 0 -412.57051056970431 200.75118989696784 0 0 0 0 162.49460003853164 -226.76740613930892 0 -226.76740613930892 109.8543675548576 0 0 0 0 335.84044944759808 -7.8462403820507234 0 -7.8462403820507234 -348.01102411530246 0 0 0 0 283.25618319341811 -251.57415849014762 0 -251.57415849014762 130.13486678828122 0 0 0 0 297.14407808219403 -300.5421392161511 0 -300.5421392161511 305.30759666109407 0 0 0 0 391.54826788046921 -446.88563943430518 0 -446.88563943430518 244.78840086387481 0 0 0 0 255.81047800459419 -266.39099021232232 0 -266.39099021232232 690.9268552935464 0 0 0 0 1030.0978787433596 -231.89072635106197 0 -231.89072635106197 -381.95556517742534 0 0 0 0 1268.4234558103963 -548.94742103497026 0 -548.94742103497026 -44.55240141971899 0 0 0 0 719.76135183870792 -764.67638177720801 0 -764.67638177720801 633.6157921135673 0 0 0 0 333.12119807538693 -394.37854060662858 0 -394.37854060662858 514.57097089823606 0 0 0 0 -172.12129656984325 223.92620401302588 0 223.92620401302588 -251.07948010330756 0 0 0 0 405.57012280171602 221.54804459102078 0 221.54804459102078 -462.967159826846 0 0 0 0 536.13492127419886 -295.47050731944933 0 -295.47050731944933 -93.366505938644423 0 0 0 0 33.913289004581486 21.543304622392782 0 21.543304622392782 -8.0810321720891238 0 0 0 0 -718.89962951033522 1631.7943878254994 0 1631.7943878254994 810.2727677147991 0 0 0 0 19.037698345406106 34.160679342324435 0 34.160679342324435 23.967765227806673 0 0 0 0 -1167.9466373076793 256.83274634281338 0 256.83274634281338 6.746263504189983 0 0 0 0 116.09591634530807 128.4803842464903 0 128.4803842464903 151.62264797290482 0 0 0 0 331.95308200606814 44.062397210833296 0 44.062397210833296 -85.600618140704682 0 0 0 0 85.773253384286363 51.271563718551079 0 51.271563718551079 43.534613579327925 0 0 0 0 78.506733296359016 53.387252852462098 0 53.387252852462098 82.444278649036278 0 0 0 0 96.655921613660524 -16.234914484406168 0 -16.234914484406168 -0.38436562701906496 0 0 0 0 114.98253956743429 23.079290176584436 0 23.079290176584436 -39.097976034083331 0 0 0 0 106.25866598892026 73.137658902128351 0 73.137658902128351 28.494109624866724 0 0 0 0 174.32218505811761 -23.934833258914296 0 -23.934833258914296 -362.43146019455162 0 0 0 0 152.01089026323189 -88.686130300667514 0 -88.686130300667514 -147.77547271235017 0 0 0 0 85.935646064876508 -15.654798990132754 0 -15.654798990132754 -1.0155644266174413 0 0 0 0 78.212904043852177 25.088651440601097 0 25.088651440601097 -161.66323612310123 0 0 0 0 68.242278544214059 11.463616910295059 0 11.463616910295059 -99.124444333432621 0 0 0 0 11.225568914034231 -3.7184923588511154 0 -3.7184923588511154 -10.767418149019541 0 0 0 0 46.639985214682383 18.546086761843071 0 18.546086761843071 -66.307974342111265 0 0 0 0 71.306727232902631 36.298788338905069 0 36.298788338905069 -80.46166550198177 0 0 0 0 56.993502250115853 47.836594721318761 0 47.836594721318761 -29.311411497825247 0 0 0 0 72.204277411168505 -15.442668201731472 0 -15.442668201731472 -9.1805830446950871 0 0 0 0 60.952617376373382 -88.803182419836958 0 -88.803182419836958 -94.670698499314312 0 0 0 0 2.003583327823435 -55.826136027315442 0 -55.826136027315442 58.358733466857302 0 0 0 0 6.3804076953389028 -1.220511919687759 0 -1.220511919687759 -0.46512936920774117 0 0 0 0 59.965067199314433 -26.599375527624673 0 -26.599375527624673 -30.002386077306198 0 0 0 0 38.176110397122102 4.7127108871827659 0 4.7127108871827659 -26.186791480309694 0 0 0 0 2.1786499015929621 -0.29398859901771779 0 -0.29398859901771779 0.12223503197021346 0 0 0 0 14.815397979080444 -110.52592188585822 0 -110.52592188585822 172.24566163066993 0 0 0 0 27.77629809328937 -109.05289935415203 0 -109.05289935415203 -27.204206333060938 0 0 0 0 83.925237533250765 131.13375102378814 0 131.13375102378814 149.93980167250771 0 0 0 0 43.863982344948454 33.934670303724488 0 33.934670303724488 44.049868570131366 0 0 0 0 -152.83251345624012 289.58033217175381 0 289.58033217175381 -289.4525120323533 0 0 0 0 41.327354895918688 33.670875829792749 0 33.670875829792749 41.035240983837866 0 0 0 0 23.880296540641474 36.793548835029085 0 36.793548835029085 14.53970504091275 0 0 0 0 51.05891522942693 34.033397578768927 0 34.033397578768927 21.779977787271491 0 0 0 0 46.335798554304347 27.12576093940288 0 27.12576093940288 47.652915081478568 0 0 0 0 53.881766752901967 49.210905073136701 0 49.210905073136701 58.630632924257952 0 0 0 0 72.340525119896483 37.192633393756068 0 37.192633393756068 30.072439491006662 0 0 0 0 84.072929107307573 45.366759480009478 0 45.366759480009478 34.273404493680573 0 0 0 0 90.126050061226124 41.344490544848668 0 41.344490544848668 11.432123426537146 0 0 0 0 1652.9936741943529 -3555.3539318877633 0 -3555.3539318877633 -1502.8363203011172 0 0 0 0 126.77678268301679 39.698738625009355 0 39.698738625009355 -3.0629059077707552 0 0 0 0 112.91314474469254 63.655461707734503 0 63.655461707734503 27.606434357465332 0 0 0 0 78.889531717910359 64.874421842504262 0 64.874421842504262 53.921549931186746 0 0 0 0 89.693481180827803 18.485750304575049 0 18.485750304575049 12.63051320352497 0 0 0 0 289.58117094327099 5.4626179363931442 0 5.4626179363931442 12.229189223560752 0 0 0 0 102.2210712688975 -36.59008510192416 0 -36.59008510192416 199.8674974025098 0 0 0 0 86.550200979207148 15.364994573707918 0 15.364994573707918 32.113777282265801 0 0 0 0 66.413720332231605 3.0912794737569129 0 3.0912794737569129 39.654441550858792 0 0 0 0 159.79483133034228 -41.605792062532828 0 -41.605792062532828 -59.216266056395398 0 0 0 0 106.05154711284678 -15.170473935971948 0 -15.170473935971948 -4.2710229249227591 0 0 0 0 83.462483784154756 -20.480917338717518 0 -20.480917338717518 -140.27085273851071 0 0 0 0 160.68730855963076 3.4546938766293351 0 3.4546938766293351 -112.41603291559659 0 0 0 0 113.11056275504234 43.240993091381824 0 43.240993091381824 -41.51422518759955 0 0 0 0 53.97843428721535 148.0667822058108 0 148.0667822058108 -44.81936667537957 0 0 0 0 -106.35732140003529 154.71673160815953 0 154.71673160815953 252.73916561863916 0 0 0 0 32.904249229934067 30.76677934858435 0 30.76677934858435 92.353830703619678 0 0 0 0 39.370809602856752 14.549019266536561 0 14.549019266536561 62.678765267197377 0 0 0 0 62.703306321527634 19.847011354046117 0 19.847011354046117 37.406087291128642 0 0 0 0 73.709750620226259 -9.4593152384632049 0 -9.4593152384632049 100.45957864551474 0 0 0 0 24.643343220683164 23.257249633476022 0 23.257249633476022 85.226604395613322 0 0 0 0 7.6146486037396244 -23.570615215818179 0 -23.570615215818179 157.02132372874621 0 0 0 0 88.644900726962078 -123.44232176185233 0 -123.44232176185233 278.80749528211527 0 0 0 0 161.4828992034345 -16.922132118538684 0 -16.922132118538684 8.6398652351344936 0 0 0 0 76.862884720350849 -25.588366598277389 0 -25.588366598277389 45.671613517799415 0 0 0 0 117.26818724101759 -77.548527610961173 0 -77.548527610961173 110.92533064784857 0 0 0 0 94.19404830557778 -1.912666881947672 0 -1.912666881947672 3.1010455198266325 0 0 0 0 93.197795841857442 -21.559157791320104 0 -21.559157791320104 46.392817346989204 0 0 0 0 105.76781834709254 1.729778833081582 0 1.729778833081582 6.5463844362329837 0 0 0 0 116.02865524740628 6.1221933449623975 0 6.1221933449623975 40.539354330195692 0 0 0 0 96.555209653182828 -14.800292098137561 0 -14.800292098137561 23.083765883642627 0 0 0 0 15.958607223420131 -9.5147198352657476 0 -9.5147198352657476 4.7705384713842953 0 0 0 0 26.898830885256757 6.1865569047522513 0 6.1865569047522513 118.15293609599394 0 0 0 0 46.031948247960827 11.913273511139778 0 11.913273511139778 74.012492491438024 0 0 0 0 91.54286144861544 -4.7169733481650837 0 -4.7169733481650837 24.283906265563928 0 0 0 0 82.84440658830863 38.899069862603028 0 38.899069862603028 82.980474338133718 0 0 0 0 17.368576295753982 0.34912493901062192 0 0.34912493901062192 10.599953099912199 0 0 0 0 5.824807235825574 76.363881976818448 0 76.363881976818448 66.855911428499894 0 0 0 0 0.32285002375463989 1.1941726110891722 0 1.1941726110891722 3.9602439819609643 0 0 0 0 307.88983485937933 167.13996765938646 0 167.13996765938646 25.041560381847376 0 0 0 0 279.34026657002687 -106.95258954766905 0 -106.95258954766905 77.027164379649548 0 0 0 0 -206.4508752116235 58.955210789897137 0 58.955210789897137 173.25473851056722 0 0 0 0 13.73067872282445 42.892931479661002 0 42.892931479661002 155.44252855484774 0 0 0 0 93.882943517812237 55.187955805103911 0 55.187955805103911 175.17376323086683 0 0 0 0 -4.5910829023669066 244.72379393312804 0 244.72379393312804 65.677545386131897 0 0 0 0 18.130725561263091 6.5886690482443484 0 6.5886690482443484 3.2996648534649129 0 0 0 0 76.193337664808496 113.15317472476454 0 113.15317472476454 65.083642545076145 0 0 0 0 381.9859300567332 -328.68732517556236 0 -328.68732517556236 -246.39914701310863 0 0 0 0 71.396827466808503 40.660123499731583 0 40.660123499731583 6.1961231968949768 0 0 0 0 113.05512860439194 42.893107135181708 0 42.893107135181708 -43.352922296381621 0 0 0 0 46.362364293891005 98.823515295121069 0 98.823515295121069 60.448718789753912 0 0 0 0 122.68386710419873 85.537177302892815 0 85.537177302892815 33.428879596644038 0 0 0 0 65.300081277680874 63.317483832686094 0 63.317483832686094 27.338965801291124 0 0 0 0 134.39031574298861 76.276266763646163 0 76.276266763646163 -36.628406847464056 0 0 0 0 136.51935052562499 40.075016510358381 0 40.075016510358381 -104.74812649654632 0 0 0 0 139.82429403490096 151.07075760163207 0 151.07075760163207 -7.9036957308453566 0 0 0 0 287.94534890913928 -708.09512075505518 0 -708.09512075505518 717.04223660801199 0 0 0 0 2.1873016505758471 -6.9421932908668538 0 -6.9421932908668538 6.9154074225108033 0 0 0 0 610.58924466886674 400.41103730792929 0 400.41103730792929 -24.645080139923266 0 0 0 0 -41.681386920659861 -226.92284500444384 0 -226.92284500444384 -50.835051531757927 0 0 0 0 2.1668806270299399 -4.1979474830568009 0 -4.1979474830568009 1.6860035599718088 0 0 0 0 716.15539298459771 -23.36415012472753 0 -23.36415012472753 -253.12313902445931 0 0 0 0 102.67721304979932 309.41643795059099 0 309.41643795059099 342.88309386463243 0 0 0 0 39.448202580679208 -115.49258912368259 0 -115.49258912368259 181.2664819994643 0 0 0 0 39.540565359289758 -121.16945399737142 0 -121.16945399737142 509.54320952265698 0 0 0 0 707.14263052814567 -444.7262969132172 0 -444.7262969132172 296.61398724914034 0 0 0 0 93.685885938408319 -178.7451998949382 0 -178.7451998949382 565.86239785901307 0 0 0 0 102.86089295834245 105.95605468264876 0 105.95605468264876 375.58883271332434 0 0 0 0 -4.2389641835139855 -2.294102559375446 0 -2.294102559375446 13.825505634037988 0 0 0 0 971.87442768789151 601.17605152674469 0 601.17605152674469 -381.79742087784325 0 0 0 0 76.447989543255972 3.0559273087740166 0 3.0559273087740166 267.84163377834921 0 0 0 0 121.33543836523313 66.24144244276431 0 66.24144244276431 60.750198529371119 0 0 0 0 170.40991590687918 -31.653552690660945 0 -31.653552690660945 34.329886624222127 0 0 0 0 169.83298573178763 -41.186751701805406 0 -41.186751701805406 46.735429133746948 0 0 0 0 3.363326820831162 -3.4001249717415618 0 -3.4001249717415618 5.1644991916007754 0 0 0 0 -270.82213519793004 -171.25931454047168 0 -171.25931454047168 407.6854404263031 0 0 0 0 501.97004083580396 549.82035008685853 0 549.82035008685853 -123.19498371811642 0 0 0 0 1113.1033868332306 -495.70335387302293 0 -495.70335387302293 -86.896574084245003 0 0 0 0 39.417880218896073 -10.541566587851491 0 -10.541566587851491 26.214494457359585 0 0 0 0 -155.7529130079929 -153.63379714509392 0 -153.63379714509392 381.97401930661363 0 0 0 0 994.53853884204727 -752.14391771648479 0 -752.14391771648479 922.13046863989439 0 0 0 0 160.75344106699049 287.32043398596579 0 287.32043398596579 -459.54897365901343 0 0 0 0 385.21994788783195 58.653444285382648 0 58.653444285382648 17.098985753074885 0 0 0 0 73.32520294250935 -162.32329715582773 0 -162.32329715582773 -137.36192045577263 0 0 0 0 -322.43067417185375 185.61528340733912 0 185.61528340733912 329.30110026667353 0 0 0 0 408.28320393474132 -35.580680635992394 0 -35.580680635992394 289.05967847921602 0 0 0 0 25.567272647182108 -166.18986298967502 0 -166.18986298967502 404.2486880950396 0 0 0 0 338.07811550573388 -288.46884608611072 0 -288.46884608611072 352.08672258784463 0 0 0 0 -177.58025490053114 -85.302691447801408 0 -85.302691447801408 294.67012984517078 0 0 0 0 5.0639577187059217 -1.4048692130259361 0 -1.4048692130259361 -0.10934251452131605 0 0 0 0 75.296392187679885 105.46556148811487 0 105.46556148811487 240.55777345454408 0 0 0 0 533.08270921361691 -61.595079962842647 0 -61.595079962842647 51.500149862576563 0 0 0 0 131.32186256474961 -271.75257351336586 0 -271.75257351336586 358.30539750986554 0 0 0 0 546.54866310556099 135.80628566825271 0 135.80628566825271 -370.68196509653535 0 0 0 0 190.33448731081626 199.45379030488107 0 199.45379030488107 -218.00098604710729 0 0 0 0 165.60834103441519 16.955266473670264 0 16.955266473670264 -13.298664231831584 0 0 0 0 222.12995375439277 -100.81406395485419 0 -100.81406395485419 171.58173775564154 0 0 0 0 132.86468112059038 213.4530611923592 0 213.4530611923592 146.19120708734135 0 0 0 0 60.557395026023642 55.918143401578845 0 55.918143401578845 -2.1358638424080709 0 0 0 0 92.424655080552839 8.7194615766015886 0 8.7194615766015886 -18.180488372142008 0 0 0 0 135.19414099490496 -141.01483208353352 0 -141.01483208353352 118.02766645762676 0 0 0 0 91.441643363802456 -44.220747585541929 0 -44.220747585541929 5.1003920874742263 0 0 0 0 151.7775628726813 -12.261063017328524 0 -12.261063017328524 -21.271759217243016 0 0 0 0 353.75621449653863 25.769166491496435 0 25.769166491496435 -270.90371718002007 0 0 0 0 608.64587485943503 -226.25034336444514 0 -226.25034336444514 -144.8818772214654 0 0 0 0 197.71835249673484 16.823302056156368 0 16.823302056156368 -6.5477160717173746 0 0 0 0 9.6511161445772693 -7.1343361785008454 0 -7.1343361785008454 2.8542743941847784 0 0 0 0 242.16027500372547 -312.95244958384956 0 -312.95244958384956 227.44014707502629 0 0 0 0 271.2198397248203 279.72475650065644 0 279.72475650065644 -357.93530965271975 0 0 0 0 -135.46859035472698 63.600599860584225 0 63.600599860584225 -215.49748431553394 0 0 0 0 -33.788487724882998 205.31481973670839 0 205.31481973670839 -215.27070411114619 0 0 0 0 79.01745038556632 133.74577924311552 0 133.74577924311552 -207.54655971232387 0 0 0 0 -74.929770420769728 46.746768679704473 0 46.746768679704473 -820.39068909169873 0 0 0 0 9.5766126018834541 -2.566035118618319 0 -2.566035118618319 -4.1874485088079467 0 0 0 0 269.77894892315589 168.33844499076849 0 168.33844499076849 -109.07608799032096 0 0 0 0 210.96567939311109 88.735451083206499 0 88.735451083206499 -18.769790039468944 0 0 0 0 50.375792329943465 105.8401558240962 0 105.8401558240962 -107.04686516114089 0 0 0 0 82.699590651919152 159.5686482833446 0 159.5686482833446 -47.922779089094547 0 0 0 0 126.68988109422253 274.38001127483881 0 274.38001127483881 -187.61190519746378 0 0 0 0 170.1581262530155 179.10933151074619 0 179.10933151074619 -21.134129616791597 0 0 0 0 500.77538653772677 -57.307228220081328 0 -57.307228220081328 -57.231010026025615 0 0 0 0 269.54461831753179 167.82500962889935 0 167.82500962889935 -83.170318596881316 0 0 0 0 481.91074638990722 155.59295146628574 0 155.59295146628574 -289.08390763638454 0 0 0 0 315.01146180249998 123.7947215738177 0 123.7947215738177 -40.651859962134949 0 0 0 0 234.40166186971715 141.27272925686242 0 141.27272925686242 37.79145052399781 0 0 0 0 221.11474844380882 101.63862891222402 0 101.63862891222402 -45.32277119769833 0 0 0 0 211.80696525961014 91.003225030189242 0 91.003225030189242 81.412525857003885 0 0 0 0 267.07916216580526 131.3246969296456 0 131.3246969296456 -9.7439658621469789 0 0 0 0 114.31219638341645 42.867949000795022 0 42.867949000795022 -8.4537845181653211 0 0 0 0 81.693866725345288 14.786356420110224 0 14.786356420110224 -10.495215249469766 0 0 0 0 152.89814838568054 -12.98320723811139 0 -12.98320723811139 13.495739914905243 0 0 0 0 143.15349639272245 45.137194186478155 0 45.137194186478155 1.838417801954165 0 0 0 0 245.13069784229901 53.479364607443813 0 53.479364607443813 -99.510619550045249 0 0 0 0 241.80409584354129 47.002454831571868 0 47.002454831571868 -33.401350047719006 0 0 0 0 220.77396081849838 95.144658234049984 0 95.144658234049984 3.6004909086357202 0 0 0 0 170.03711380988034 43.043720116658164 0 43.043720116658164 -33.59936549903432 0 0 0 0 152.75327579429813 52.039884915663691 0 52.039884915663691 1.3490591700594905 0 0 0 0 60.725964294781079 35.632775917057415 0 35.632775917057415 5.6278165185785838 0 0 0 0 110.67444298301052 12.03898375828669 0 12.03898375828669 -8.2472744591282208 0 0 0 0 27.334671715390868 -14.503468228768782 0 -14.503468228768782 -17.794541417106757 0 0 0 0 69.393925626862256 27.722005263858023 0 27.722005263858023 -13.075808901313849 0 0 0 0 75.376788758659131 29.920867536413425 0 29.920867536413425 -20.907480572305758 0 0 0 0 61.107464821916437 -27.348602968818341 0 -27.348602968818341 -31.723229927387877 0 0 0 0 39.833120353111553 -56.246428714902549 0 -56.246428714902549 -6.7931767578484141 0 0 0 0 21.417968380302241 -6.5982459781229856 0 -6.5982459781229856 -2.2786104059816736 0 0 0 0 22.307023263543801 -5.749221206306574 0 -5.749221206306574 -7.5440112104732755 0 0 0 0 31.486260182283839 -3.8382545018431307 0 -3.8382545018431307 -4.5259820369732964 0 0 0 0 34.613827704084542 -14.62124807123746 0 -14.62124807123746 -33.051174811466808 0 0 0 0 61.355415682695593 -7.9403965899909963 0 -7.9403965899909963 -0.11083394058880458 0 0 0 0 53.937461211553114 -6.1928407319587677 0 -6.1928407319587677 0.18913435990816652 0 0 0 0 54.354383473262125 -15.458735634195861 0 -15.458735634195861 1.2509999803605751 0 0 0 0 14.40293916829738 7.1441885279888808 0 7.1441885279888808 -3.1136773184097422 0 0 0 0 64.530090572737322 -14.304068785043455 0 -14.304068785043455 -1.02720159261753 0 0 0 0 -428.18127241174147 -120.23785084543943 0 -120.23785084543943 42.995357974825311 0 0 0 0 -397.64670075676713 1.6283996110068983 0 1.6283996110068983 2.2469222779691336 0 0 0 0 10.320660431836764 -6.7620083663369686 0 -6.7620083663369686 -5.7092378240567037 0 0 0 0 -114.88810320667653 -669.95899870831636 0 -669.95899870831636 561.03676877365888 0 0 0 0 52.517050630248235 18.260474530019508 0 18.260474530019508 7.4854542922588383 0 0 0 0 315.3480909177058 39.198163537990695 0 39.198163537990695 -591.07913632159489 0 0 0 0 -201.77505763510771 -119.18856699381286 0 -119.18856699381286 -33.767014973051118 0 0 0 0 -146.78612473209262 6.5985909272258141 0 6.5985909272258141 -75.245608380973863 0 0 0 0 55.496075643408503 0.95209051537711176 0 0.95209051537711176 -10.540291986935358 0 0 0 0 26.402093402377432 3.4638488736670752 0 3.4638488736670752 6.0558509789980235 0 0 0 0 22.136622214299081 -0.28098910860116888 0 -0.28098910860116888 5.1982263093893444 0 0 0 0 48.626268509728469 -16.453818375248645 0 -16.453818375248645 -11.832941012264113 0 0 0 0 138.09152058477048 -20.136622148915194 0 -20.136622148915194 1.2270951573445927 0 0 0 0 75.883813713823656 -37.890351660377519 0 -37.890351660377519 -8.0282674953568858 0 0 0 0 13.360589474839799 37.172376790574162 0 37.172376790574162 -23.255935603881881 0 0 0 0 39.866843093916152 -19.373689980123824 0 -19.373689980123824 -13.402124897493291 0 0 0 0 35.752093322545988 -1.9721627579365304 0 -1.9721627579365304 -15.489825221215142 0 0 0 0 43.528915353536057 -4.5312788815807723 0 -4.5312788815807723 -8.5557673804939327 0 0 0 0 201.69894301999557 -126.95897313352771 0 -126.95897313352771 -186.16610615387435 0 0 0 0 41.803580513560519 -0.56851706424731674 0 -0.56851706424731674 -171.24869606936954 0 0 0 0 35.302073860270454 -8.4772381395864933 0 -8.4772381395864933 1.0583747764385958 0 0 0 0 12.188749681928293 -5.10428193039224 0 -5.10428193039224 2.1481966111266644 0 0 0 0 110.96886339451157 -114.7040643559717 0 -114.7040643559717 77.673172997947404 0 0 0 0 30.543421132977528 -243.35861546359411 0 -243.35861546359411 114.30451490101041 0 0 0 0 -56.653380826461216 -167.28763692586199 0 -167.28763692586199 100.0799458262627 0 0 0 0 21.836307010780729 -62.255329979413546 0 -62.255329979413546 96.082220448001863 0 0 0 0 31.140961058081302 31.992692634923515 0 31.992692634923515 229.65074802706658 0 0 0 0 -35.422714715954498 -163.73635144332638 0 -163.73635144332638 79.554162903696124 0 0 0 0 -68.806564088059531 -32.610867955312642 0 -32.610867955312642 45.503274968585174 0 0 0 0 26.232013662222016 -56.488302170108 0 -56.488302170108 43.21097309995821 0 0 0 0 -44.768553740897914 -103.95175337037654 0 -103.95175337037654 174.50537948678857 0 0 0 0 78.912438655090227 136.76910283977486 0 136.76910283977486 -67.084827128561301 0 0 0 0 89.726213634055512 -3.0146257732486621 0 -3.0146257732486621 0.048759839978909092 0 0 0 0 17.314750349684914 4.8572967653088241 0 4.8572967653088241 -1.5700735054682209 0 0 0 0 42.681096756874467 -234.8553396375446 0 -234.8553396375446 -420.80179454932295 0 0 0 0 -45.79972431418355 -322.564881807446 0 -322.564881807446 -114.91190449660371 0 0 0 0 -89.897310664244287 -287.42163788326889 0 -287.42163788326889 188.62155738623642 0 0 0 0 -110.55216896029015 -43.910217888109401 0 -43.910217888109401 -47.024603180607301 0 0 0 0 279.36518648776109 79.555287048673563 0 79.555287048673563 -348.6511213958097 0 0 0 0 58.263475122235832 249.32403289043759 0 249.32403289043759 268.32813541099313 0 0 0 0 2.110922648077505 -2.5315963248315114 0 -2.5315963248315114 1.7818259120559468 0 0 0 0 -100.87099098488397 -165.65571620205264 0 -165.65571620205264 131.78059122629566 0 0 0 0 -106.12138027578476 -154.70246683159166 0 -154.70246683159166 114.16614902306864 0 0 0 0 -47.770699256152511 -81.715800174095875 0 -81.715800174095875 145.44984833463604 0 0 0 0 33.753248668667972 -40.269452689435134 0 -40.269452689435134 31.551480815150562 0 0 0 0 0.46724595438899996 -230.33623494534959 0 -230.33623494534959 443.05200335584959 0 0 0 0 273.99622043075942 231.69816241261105 0 231.69816241261105 -91.216785411756064 0 0 0 0 128.53893203720509 -72.970409560988628 0 -72.970409560988628 28.962529068689037 0 0 0 0 88.466127197229071 -130.5195322127056 0 -130.5195322127056 156.6323933758872 0 0 0 0 99.858512854720175 -152.14179763733136 0 -152.14179763733136 5.715414608901483 0 0 0 0 136.69600758567299 -2.5011017260006101 0 -2.5011017260006101 -14.629508676795458 0 0 0 0 149.07649958890397 -81.069607042747521 0 -81.069607042747521 -68.103105205946122 0 0 0 0 78.029288384437677 55.706440651146295 0 55.706440651146295 -68.10834773904935 0 0 0 0 575.91208571223979 -352.47651788384155 0 -352.47651788384155 -63.573390802843278 0 0 0 0 
</DataArray>
<DataArray type="Float64" Name="cross_section_updated" format="ascii">
1 1 1 1 1 1 1 1 1 1 0.015926622270087884 1 0.009164200071157166 1 1 1 1 0.010383029899171226 1 1 1 0.011058115750996057 1 0.010675085851824806 1 1 1 0.011557373889773688 1 1 1 1 0.011765916885625623 1 1 1 1 1 1 1 1 1 1 0.014366252844962436 1 1 1 1 1 1 1 1 1 1 1 1 1 1 1 1 1 1 1 1 1 1 1 1 1 1 1 0.011259777969324397 1 1 1 1 0.013572701998926066 1 1 1 1 0.0094987037642585825 1 1 1 1 1 1 1 1 1 1 0.012536772828614609 1 0.016220141948619239 1 1 0.0079263834705521619 1 1 1 1 1 1 1 0.010660263154213798 1 1 1 1 1 1 1 1 1 1 0.010239586126380235 0.0099341262935696839 1 1 1 0.011945337692957345 1 1 0.011866943613271161 1 1 1 1 1 1 1 1 1 1 1 1 1 0.012563397183505617 1 1 1 1 1 1 0.012989206929654863 1 1 1 1 1 1 1 1 1 1 1 1 1 1 1 1 1 1 1 1 1 1 1 1 1 1 1 1 1 1 1 1 1 1 1 1 1 1 1 1 1 1 1 1 1 1 1 1 1 1 1 1 1 1 1 1 1 1 1 1 1 0.011272988983809046 1 1 1 1 1 1 1 1 1 1 1 1 1 1 1 1 1 1 1 1 1 1 1 1 1 0.010244668263848717 1 0.010409360801332087 1 1 1 1 1 1 1 1 1 0.010644649848731097 1 0.010429781824123583 1 1 1 1 1 1 1 1 1 1 1 1 1 1 1 1 1 1 1 1 1 1 1 1 1 0.010233145098453911 1 1 1 1 1 1 1 1 1 1 1 1 0.010185113560274876 1 1 1 1 1 0.01202420193144318 1 1 1 1 1 1 1 1 0.011971927249101785 1 1 1 1 0.026148103234276895 1 1 1 1 1 0.010998984912833333 1 1 1 1 1 1 1 1 1 1 1 1 1 1 1 1 1 1 1 1 1 1 1 1 1 1 1 1 0.025047451051776047 1 1 1 1 1 1 1 1 1 1 1 1 1 1 1 1 1 1 1 1 1 1 1 0.01122660820382709 1 1 1 1 1 1 1 1 0.01221376936606443 1 1 1 1 0.017464841114435033 1 1 1 0.0099630570023313356 1 1 0.016683618546559059 1 1 0.023501671169765467 1 0.010193695820409021 1 1 0.011989689114536236 1 1 1 1 1 1 1 0.014423124518470517 0.012515070377573399 1 1 1 0.01044915007713345 1 1 1 1 1 0.017210423176125811 1 1 1 1 1 1 1 1 1 1 1 1 1 0.016212751446296601 1 1 1 1 1 1 1 1 1 1 1 0.0095802643741542577 1 0.015037709835633663 1 1 1 1 1 1 1 1 1 1 0.01156044992736583 1 1 0.012876781846957494 1 1 1 0.015003838383784978 1 1 1 0.01621718735451089 1 1 0.00999936452522961 1 0.013824008787806707 1 0.010089177882095145 1 0.010001343090700495 0.010017559205913032 1 1 1 0.010577126586121878 0.0089760289060738241 0.012884841270847214 0.013177269396581728 1 1 1 1 1 1 1 1 0.010391839059219889 1 1 1 1 0.0091120083891809995 1 0.0088229809126222757 1 0.010705725013603859 1 1 0.012911280713220759 1 1 1 1 0.010296236322349656 1 1 1 1 1 1 1 1 1 1 0.011813236095812661 0.010823899723693029 1 1 1 1 1 0.010834856218395103 1 1 1 1 1 1 1 1 1 1 1 1 1 0.011073125021065307 1 1 1 1 1 1 1 1 1 1 1 1 0.0099938814802752671 0.01176178324736009 0.0092883629214460389 1 1 1 1 1 1 1 1 1 1 1 1 1 1 1 1 1 1 1 1 1 0.0099574258392706744 1 1 1 0.011440795234804547 1 1 1 1 1 1 1 1 1 1 1 1 1 1 1 1 1 1 1 1 1 1 1 1 1 1 1 1 1 1 1 1 1 0.01232754963797943 1 1 0.014640473667581106 1 1 1 1 1 1 1 1 1 1 1 1 1 1 1 1 1 1 1 1 1 0.011373288380667892 1 1 1 1 1 1 1 1 1 1 1 1 1 1 1 1 1 1 1 0.01108296984314637 1 1 1 1 1 1 1 1 1 1 0.017579692242675415 1 0.0079931887549735334 1 1 0.013624323306170347 1 1 1 0.013190604289975944 1 1 1 1 1 0.0137040964042646 1 0.015057817480398146 1 1 0.0096790588400058504 1 1 1 1 1 1 1 0.010695776409189594 1 1 1 0.014788617678135323 0.014701858091976539 1 1 1 1 1 1 1 0.0149998639498272 1 1 0.014640210306569866 1 0.013694379797922781 0.013107981468015974 1 1 1 0.0094604471215411177 1 1 0.0093075568009779695 0.013118782156678437 0.013570233079846216 1 1 1 0.0097559023618502844 1 1 0.012878744906320688 0.013153489699249614 1 1 1 0.012653441147213659 1 1 0.0098119359807172426 1 1 0.010670263760576379 0.009995289283664277 0.015149043135668503 1 1 1 0.013792297621460647 1 1 1 1 1 1 1 0.010001793519945998 1 1 1 1 1 1 1 1 1 1 1 1 1 1 1 1 1 1 1 1 1 1 1 1 1 1 1 1 0.010642265932722514 1 1 1 0.010793011373624962 0.018035956152943469 1 1 0.010492872462637236 1 1 1 1 1 1 1 1 0.019201155812337015 1 1 1 1 0.010024512238157904 1 1 1 1 1 1 1 1 1 0.0099763913745398829 1 1 1 0.010974146971182607 1 1 0.010329864989756915 1 0.011708442281626336 1 1 0.011523062824825389 1 1 1 0.011778797640398669 0.012010279158236044 1 1 0.010504831382312858 1 1 0.015136383752360521 0.01082344345337526 1 1 1 1 1 1 1 1 1 1 1 0.017093695026823646 1 1 1 1 1 1 1 1 1 1 0.0070046250861251994 1 1 0.0062993939609537145 1 0.010834612266745189 0.014318291848767147 0.006853308901631442 1 0.010776927540216853 1 1 1 1 1 1 1 1 1 1 1 1 1 1 1 1 1 1 1 1 1 1 1 1 1 1 1 1 1 1 1 1 1 1 1 1 1 0.0094969617445862711 1 1 0.0099784049655910634 1 0.011201734972571688 1 1 0.010466247651855609 1 1 1 0.0098801815083534705 1 0.0097550306843485982 1 0.010620651692019775 1 1 1 1 1 1 1 1 1 1 1 1 1 1 1 1 1 1 1 0.011763749005989844 1 0.010104757185104542 1 1 1 1 1 1 1 1 1 1 1 1 1 1 1 1 1 1 0.019991663848416975 1 0.016384799336632703 1 1 0.022529134423221152 1 1 1 0.0099126926624601257 1 1 1 1 0.016543485419896784 1 1 0.0096544941263871746 1 0.015520881165966055 0.012189115709044348 1 1 0.010009353363194281 0.01725882703827528 1 1 0.0099276165818850664 1 1 0.0099718006358563253 0.01602585493383922 1 1 1 1 0.010533990207186782 1 1 1 1 0.009993029684606523 1 1 1 0.01657227262208974 0.017336328868995721 1 1 0.017081181947292547 1 1 0.0078461150522245084 1 1 1 1 1 1 0.0093722943780263045 1 1 0.0086942353694006869 1 0.010410038727904474 1 1 1 1 1 1 1 1 1 1 0.010229334524191679 1 1 1 1 1 1 1 1 1 1 1 1 1 1 1 1 0.01660227753783753 1 1 1 1 1 1 1 0.016999427692146962 0.016094442647233868 1 1 0.015180224820961073 1 1 1 1 0.010016729175874373 0.01647533376181505 1 1 1 1 1 1 1 1 1 1 1 1 1 1 1 1 1 1 1 1 0.010001483544355557 1 1 1 1 1 1 1 1 1 1 1 1 1 1 1 1 1 1 0.0086259640113096683 1 1 0.0098361341838504937 1 1 1 1 0.0095035960442615575 1 1 1 1 1 1 1 1 1 1 1 1 1 1 1 1 1 1 1 1 0.010052610975000799 1 1 1 1 1 1 1 1 0.0099483472493249337 1 1 1 1 1 1 1 0.010547305904766628 1 1 1 1 1 1 1 1 1 1 1 0.0098972198186796888 1 1 1 0.010237271796444309 1 1 1 1 1 1 1 1 1 1 1 1 1 1 1 1 1 1 1 1 1 1 1 1 1 1 1 1 1 1 0.010310034108322321 1 1 1 1 1 1 1 0.010652843999488692 1 1 1 1 1 1 1 1 1 1 1 1 1 1 1 1 1 1 1 1 1 1 1 1 1 1 1 1 1 1 1 0.010980920260744322 1 1 1 1 1 1 1 0.012013209201017984 1 1 1 0.011739575412058745 1 1 1 0.012392434003565243 1 1 1 1 1 1 1 0.015688983931117451 1 1 1 0.016840101553973381 1 1 1 1 1 1 1 1 1 1 1 1 1 1 1 1 0.010435321451150203 1 1 1 1 1 1 1 1 1 0.01114260792293529 1 1 1 1 1 1 1 0.011120913317155673 1 1 1 1 0.010449185219224232 1 1 1 0.011661558054490352 0.011284443232506179 1 1 1 1 0.010460883418198282 1 1 1 1 1 1 1 1 1 1 1 1 1 1 1 0.010107343201618744 1 1 1 1 1 1 1 1 1 1 1 1 1 1 1 1 1 1 1 1 1 1 1 1 1 1 1 0.010404925693767615 1 1 1 1 1 1 1 1 1 1 1 0.010911674190229497 1 1 0.011022926735489906 1 1 0.010026171070829039 1 1 1 0.010002679663746041 1 1 0.0099772240574332177 1 1 1 1 1 1 1 1 0.0099568409017517408 1 1 0.0099305159201250777 1 1 1 1 1 1 1 1 1 1 1 1 1 0.010335663821140479 1 1 1 0.010422918765804992 1 1 1 1 1 1 1 1 1 1 1 1 1 1 1 1 0.0098940194616420098 1 1 0.0099380270588326786 1 1 1 1 1 0.010220725219317769 1 1 1 1 1 1 1 1 1 1 1 1 1 1 1 1 1 1 1 1 1 0.010492974782123882 1 0.0097765470443472082 0.011252997948270524 1 1 1 1 1 0.0099139791241250087 1 1 0.009990056656502027 1 0.0095289075856175888 1 1 1 1 1 1 1 0.0098475335793832691 1 1 1 1 1 1 1 1 1 1 1 1 1 1 0.010837998240182457 1 1 1 1 1 1 1 1 1 1 1 1 1 1 1 1 0.010346319671075251 1 1 0.010189795028584853 1 1 1 1 1 1 1 1 0.011500508067854125 1 0.01453450748958143 1 0.010001082675315786 0.0098788302312180047 1 1 1 1 0.014030294411272053 1 1 1 1 0.012219517852655012 1 1 1 1 1 1 1 1 1 1 0.010849555285834025 1 1 1 1 1 1 1 1 1 1 1 1 0.0092069883049950389 1 1 0.011502401439207286 1 1 0.016349760114934001 0.008891513280540558 1 1 1 1 1 1 1 1 0.017464250984972111 1 1 1 1 1 1 1 1 1 0.013252558586029814 1 1 0.010032383224831814 1 1 1 0.014204892570688098 0.0099679521330396058 1 1 1 1 1 1 1 1 1 1 0.01261181644783419 1 1 0.013123495981664041 0.0089367698276937892 1 0.013075402202617267 1 1 0.011123266156199128 1 1 1 1 1 1 1 1 1 1 1 0.010502535641017609 1 1 1 1 1 1 1 1 1 0.010339946940231862 1 1 1 1 1 1 1 0.01018070420371279 1 1 1 1 1 1 1 1 0.01175437420955267 1 1 1 1 1 1 0.010026758769046705 0.012573196480795112 1 1 1 1 1 1 1 1 1 0.011065391856202396 1 1 1 1 0.010431713872901191 1 1 1 1 1 1 1 1 1 1 1 0.012136907112018001 1 1 1 1 1 0.010663728291289616 1 1 1 1 1 1 1 1 1 1 1 1 1 1 1 1 1 1 1 1 1 1 1 1 1 1 1 1 1 1 1 1 1 1 1 1 1 1 1 1 1 1 1 1 1 1 1 1 1 1 1 0.010952680098561516 1 1 1 1 1 0.011779705037898181 1 1 0.010827024939336667 1 1 1 1 1 1 1 1 1 1 1 1 1 1 1 0.0099403970647851548 1 1 1 0.0094885645413127027 1 1 1 0.010205347195232225 0.010061326442360975 1 1 1 1 1 1 1 1 1 1 1 0.0068019508345052151 1 1 1 1 1 0.0082758919377010891 1 1 1 1 1 1 1 1 1 1 1 1 1 1 1 1 1 1 1 1 1 1 1 1 1 1 1 1 0.01677371345827422 1 1 1 1 1 1 1 1 1 1 1 0.013807655818113249 1 1 0.020079006203545378 1 0.019477932721003559 0.01999930338419386 1 1 1 1 1 1 1 0.018207493787644545 0.018463275607456191 1 1 1 0.010024264060992683 1 1 1 1 1 1 1 1 1 1 1 1 1 0.017622365745147275 1 1 0.010148622860906096 1 0.016105763177879359 1 1 1 1 0.013374466917646464 1 0.0091825789880610968 1 1 1 0.020498416536446521 0.010018245501139375 1 1 1 1 1 1 1 1 1 1 1 1 0.019845518508024709 1 1 1 1 0.011285529058813673 1 1 1 0.005268366639281331 1 1 0.013876980649918417 0.0066718737392109373 1 1 0.011942456382395227 1 0.0096271950959620559 1 1 1 1 1 1 1 1 0.011457206808908361 1 1 1 0.010945754377593693 1 1 1 1 1 1 1 1 1 1 1 1 1 1 1 1 1 1 1 1 1 1 1 1 1 1 1 1 1 1 0.010071492434836758 1 1 1 0.012097614838520647 1 0.011507942052713596 0.0087728093772786522 1 1 1 1 1 0.0089568331356801763 0.0096224060996391234 1 1 1 1 0.010036772975503174 1 1 1 1 1 1 1 1 1 1 1 1 1 0.011546516793169462 1 1 1 1 0.010475001537353852 1 1 1 1 1 1 1 1 1 0.011160036151186237 1 1 1 0.019676881274710664 1 1 1 1 1 0.022860514112908611 1 1 1 0.010403039208369623 1 0.024777948895739938 1 1 0.0074447657588291305 1 0.011332424148198773 1 1 0.0088412621847551096 1 1 1 0.021352630726066427 0.019030839174726283 1 1 1 1 0.0085815692648525659 1 1 1 0.017987385365631055 1 0.0090954497554634021 1 0.01358070338903577 1 1 1 0.011137625139945807 1 1 1 1 1 1 1 1 1 0.019015793720590632 1 1 0.022486694163339857 0.015977663161150138 0.025001867542917229 1 1 1 1 1 1 1 1 0.010343494489115541 1 1 1 1 1 1 0.010858412540599972 1 1 1 1 1 1 1 1 1 0.0098833958797335409 1 1 1 1 1 1 1 1 1 1 1 1 1 1 1 1 1 1 1 1 1 1 1 1 1 1 1 1 1 1 1 0.010290027006298018 1 1 1 0.010617693895075025 1 1 1 1 1 1 1 1 0.0096164341832937726 1 1 1 1 1 1 1 1 1 1 0.01071717563215914 1 0.01032766688877701 1 1 1 1 1 1 1 1 1 1 1 1 0.011210031980591791 1 0.010600017713286107 1 1 1 1 1 0.010585563209500243 1 1 0.01090908808956223 1 1 1 1 1 1 1 1 0.0099792439751439574 1 1 1 1 1 1 0.011059699403044305 1 1 1 1 1 1 1 1 1 1 1 1 1 1 1 1 1 1 1 1 1 1 1 1 1 1 1 0.010443493039767937 1 1 1 1 0.010704234367612295 1 1 1 0.0099670944374559371 1 0.0097353018227360078 1 0.011695805671355003 1 1 1 0.011673946950330374 0.0096966756679174263 1 1 1 1 1 0.010109265483051959 1 1 1 1 1 1 1 1 1 1 1 0.011553815390561743 1 1 1 1 0.01160038904427322 1 0.010337006586433033 1 1 1 1 0.011983158308823211 1 0.012296062018816861 1 0.010666800208837587 1 0.010000199193458979 1 0.0089174648367808373 1 0.01238191495580454 1 0.014391947896711048 1 1 0.015985623079881727 1 1 1 1 1 1 1 0.016902608465489265 1 1 1 1 1 1 1 1 1 0.0098955115821239489 1 1 1 1 1 1 1 1 1 0.0096844583548700031 1 1 1 1 1 1 1 1 1 1 1 1 1 0.011992501742001987 1 1 1 1 1 1 1 1 1 0.012914190707328643 1 1 1 1 1 1 1 0.0094629653595400248 1 1 1 1 0.011008488283736503 1 1 0.0097182831598295431 1 1 1 0.010001380248247628 1 1 1 1 1 0.012367683623486558 0.010002714526075802 1 0.014597009914577281 1 1 0.015335406242302762 1 1 1 0.011840111041510351 1 1 1 1 1 1 1 1 1 1 0.01022120434386227 1 1 1 1 1 1 0.0098853114353641379 1 1 1 1 1 1 1 1 1 1 1 1 1 1 0.010000679705415117 0.0099693991790151607 1 1 1 1 1 0.010804421591618485 1 1 1 0.012451993763464828 1 0.010993713185602978 1 1 0.011392509015149139 1 1 1 1 0.011172182176171047 1 1 1 1 1 1 1 1 1 1 1 1 1 1 1 1 1 1 1 1 1 1 1 1 1 1 1 1 1 1 0.010292600400105781 1 1 0.010814609280668359 1 1 1 1 1 1 1 1 1 0.017801452305431967 1 1 1 1 1 1 1 1 0.014569561858991772 0.017683137413477525 0.010448569532982635 1 1 0.020932174163270999 1 0.011368804723547919 1 1 1 0.018319785800552407 1 0.010049787893943375 0.012601109877751341 1 1 1 1 0.010015573011991262 1 1 1 0.011334925164822915 0.010018140307350754 1 1 0.010242586691880426 1 0.010045613203041714 1 1 1 0.0099214959895489001 1 1 1 1 1 1 0.0097737719107786822 1 1 1 1 1 1 1 1 1 1 1 1 1 1 1 0.010269218963454584 1 1 1 0.010189070164427681 1 1 1 1 1 1 1 1 1 1 1 1 1 1 1 1 1 1 1 1 1 1 1 1 1 1 1 1 1 1 1 1 1 1 1 1 1 1 1 1 1 1 1 1 1 0.010493923873851077 1 1 0.011041075661933179 1 1 1 1 1 1 1 1 1 0.010741894427629038 1 1 1 1 1 1 1 1 1 1 1 0.010068152407902421 1 1 1 1 1 1 1 1 1 1 0.010547789323118437 1 1 0.010068061607969237 1 1 1 0.013498498846690514 1 1 1 0.013800069147205676 1 1 1 1 1 1 1 1 0.012495541533445668 1 1 1 1 1 1 1 1 1 1 1 1 1 1 1 0.011623740837975132 1 1 1 1 0.010987010973392754 1 1 1 1 1 1 1 1 1 1 1 1 1 1 1 1 1 1 1 1 1 1 1 1 1 1 1 1 1 1 1 0.013714647429637634 1 1 1 1 1 1 1 0.011583416262698286 1 1 1 0.010454363894217099 1 1 0.0094996742817237221 1 1 1 0.0096193731364687673 1 1 1 1 1 1 1 1 0.0089717161176083027 1 1 1 1 1 1 1 1 1 1 1 1 0.014196694179692521 1 1 1 1 1 0.019923133051560238 1 0.020108804098542737 1 1 1 1 1 1 0.019683147128360542 1 1 0.010127492925902124 1 1 0.010664062967525617 1 1 1 1 1 0.011701413298992715 1 0.0070401747873172407 1 1 1 0.010044855738127287 1 1 1 1 1 1 0.010023774337683653 1 1 1 0.010465836449112195 1 1 1 1 1 1 1 1 1 1 1 1 1 1 0.010089477902967926 1 0.012120002285580175 1 0.010028813182939156 1 1 1 1 1 0.019672255419746765 1 0.0121850196840912 1 0.0088033961130032073 1 1 1 1 1 0.012479221958120396 1 1 1 0.010866269750010812 1 1 1 1 1 1 0.010024859784905112 1 0.011243935088923466 1 0.0099109358464595787 1 1 1 1 0.0086978251725234376 0.010139442221761082 1 1 1 1 1 1 1 1 1 1 1 1 1 1 1 1 1 0.011979042277963639 1 1 1 1 0.016891650077999244 1 1 1 1 1 1 1 1 1 1 0.017854491917921385 1 1 1 1 1 1 1 0.012899910683456643 1 1 1 0.010863400440400215 1 1 1 0.017027621958404522 1 1 1 1 1 1 1 1 1 1 1 1 1 1 1 1 1 1 1 1 1 1 1 1 1 1 1 1 1 1 1 1 1 1 1 1 1 1 1 1 1 1 1 1 1 1 1 1 1 1 1 1 1 1 1 1 1 1 1 0.010369933421931073 1 1 1 1 0.010485293492010467 1 1 1 1 1 0.0088238358362202687 1 1 1 1 1 1 1 1 1 1 1 1 1 1 1 1 0.0153658697332086 1 0.018736912069999861 1 1 1 1 0.01852344081113437 0.014889919774362288 1 1 1 1 0.017556927542105562 0.014088854574275889 1 1 1 1 1 1 0.0096576805574502891 1 0.021500876048996843 0.010476149728568911 1 1 1 1 0.025424879776378657 0.0082846768434650699 1 1 1 1 1 1 0.020271238362081209 1 1 1 1 1 1 0.012217651901728872 1 1 1 1 0.011385622335882025 0.0063714814012545383 1 1 0.019332374863336839 0.0099444237132200741 1 1 1 1 0.013437147620957815 1 1 1 0.011979568206876186 0.010922815140868221 1 1 0.010102917481405004 1 0.014280110190523998 0.010385679829730583 1 1 1 0.010066658847518138 1 0.010903739268493546 1 0.012551032288000169 1 1 1 1 0.010922716663266378 1 1 0.0097823264488866354 1 1 1 1 1 0.010184179016660102 0.010052743732940541 1 1 1 1 1 1 0.014559685652844899 0.0095006119796490953 1 1 1 1 1 0.0094560541260873612 1 1 0.009629876504993513 1 1 1 1 1 1 1 0.013141682388326774 1 1 1 0.010948830301613642 1 1 1 1 1 0.011396729855533277 1 1 1 1 1 0.010727675579271664 1 1 1 1 1 1 1 1 1 0.0098935351581528243 1 1 1 0.0098940443699360951 1 1 1 1 1 1 1 1 1 0.011359378561953723 1 0.0083949957441425277 1 1 1 1 1 1 0.0093590193968979968 1 1 0.0098482179521016018 1 1 1 1 1 1 0.010344918520253134 1 1 1 1 1 1 1 1 1 1 1 1 0.010955848886442035 0.019448465536755999 1 1 0.012953411203893032 1 1 1 1 1 0.014988048961177183 1 1 0.017191244219961606 0.011896851094677741 1 1 1 1 1 1 1 0.012865777781781971 1 1 1 1 1 1 1 0.010673060964516191 1 1 1 1 1 1 1 1 1 1 1 1 1 1 1 1 1 1 1 0.018820522162075151 1 1 1 0.010155970943161563 1 1 1 1 1 1 1 1 1 1 1 1 1 1 0.020367862141543167 1 1 1 1 1 1 1 1 1 1 1 0.01073045416972402 1 1 1 1 1 1 1 0.010541470317508773 1 1 1 1 1 1 1 1 1 1 1 0.010541506592632435 1 1 1 1 1 1 1 1 1 1 0.011764734772398741 1 1 1 1 1 1 1 1 1 1 1 0.013033873815848182 1 1 1 1 1 1 1 1 1 1 1 1 0.015728297854036476 0.012059955726121493 1 1 1 1 1 1 1 1 1 1 1 1 0.018862105966440969 1 0.016862261160700748 1 1 1 0.011523735777517686 1 1 0.010538197681124732 1 1 1 1 1 1 1 1 1 1 1 1 1 1 0.010969515916215325 1 1 1 1 1 1 1 1 1 1 0.010503679467103134 1 1 1 1 1 1 1 1 1 1 1 1 1 1 1 1 1 1 1 1 1 1 1 1 1 1 1 0.012533684170327358 0.014069271265179024 1 1 1 1 1 1 1 1 1 1 1 1 0.011455522221690911 1 0.013978651779798179 1 1 1 1 1 1 0.011118552748566404 1 1 0.012104090844959364 1 1 1 1 1 1 0.014367604913445693 1 0.011532527617998771 1 1 1 1 1 1 1 1 1 1 1 1 1 1 1 0.012026312732705963 1 1 0.013492457696757752 1 1 1 0.013443757528060461 1 0.012129460056948611 1 1 1 1 1 1 1 1 1 1 1 1 1 1 1 1 1 1 1 1 1 1 0.010083085726168638 0.015491136425361509 1 1 1 0.014446753789251754 1 1 1 1 1 1 1 1 1 1 1 1 1 1 1 1 1 1 1 1 1 1 1 1 1 1 1 0.010914633328123122 1 0.010220073655340608 1 1 1 1 1 1 1 1 1 1 1 1 1 1 1 1 1 1 1 1 1 1 1 1 1 1 1 0.0099905068599045518 1 1 1 1 1 1 1 1 1 1 1 1 1 1 1 1 1 1 1 1 1 1 1 1 1 1 1 1 1 1 1 1 1 1 1 1 1 1 1 1 1 1 1 1 1 1 1 1 1 1 1 1 1 1 0.011686682716661505 1 0.013851361896791144 1 1 0.010162471820910327 1 1 1 1 0.013248420007912159 1 1 1 1 1 0.011114998725875711 1 1 1 0.011197299264733883 0.01179179034008172 1 1 1 1 0.010670851976520127 0.011445657299307797 1 1 0.0098895462744987249 0.012177576170856581 1 1 0.0095571643589398222 1 1 0.01031721464941255 0.01174647425091567 1 1 1 0.010996855228074576 1 1 1 1 0.010104010439423961 1 1 1 1 0.011520356316577498 1 0.013572353973251414 1 1 0.015596421159463031 1 1 1 0.0098733242633472218 0.015482184656433735 1 0.0097411577472794122 1 1 1 0.018715248883340717 0.011438740680029303 1 1 1 1 1 0.014780100175849211 1 1 1 1 1 1 0.010184606989560786 1 1 1 1 1 1 0.011526754292988805 1 1 1 1 0.01078912031574125 1 1 0.011098875887406743 1 0.014830123595820819 1 1 1 1 1 1 1 1 1 1 1 1 0.012188587638813371 1 1 0.010090033537477299 1 0.0098625682825418202 1 0.014751785703420112 1 1 1 1 1 0.010626101043835788 1 0.010315064935517983 1 1 1 0.016747030516995432 1 1 1 0.023044695933874058 1 1 0.011948500791242107 1 0.021992304494638612 1 1 0.0099977708243101249 1 1 1 1 1 1 1 1 1 1 1 1 0.027652574945875408 1 1 1 1 1 1 0.015938444527874872 1 0.0079906588303737015 1 1 1 1 1 0.010500721789404296 1 1 1 1 1 1 1 1 0.018811578651282638 1 1 1 1 1 0.012117294169036046 1 0.0086437101792112732 1 1 0.013945632863771408 0.0094917876760639737 1 0.018679549488990508 1 1 1 1 1 1 1 1 1 1 1 1 1 1 0.010878508891107024 1 1 1 1 1 1 0.012287161446886418 1 0.0164236777486736 1 1 1 1 0.012216908060800656 0.032893715087624301 1 1 1 1 1 0.0093670051861510402 1 1 1 1 0.020965132117998678 0.01101312859282905 1 1 1 1 0.018079754045712819 1 1 1 1 1 1 0.028429209114265906 1 1 1 1 1 1 1 0.0097713052083779547 1 1 1 1 1 1 1 1 1 1 0.02549548731331357 1 0.013674631327625463 1 0.022950675935051817 1 1 0.017285672396396747 1 1 0.014257128571667665 1 0.010263624640032335 1 1 1 1 1 1 1 0.024163290034694997 1 1 1 1 0.010186640791847374 1 1 1 0.023008387554005517 1 0.02517481923545959 1 0.0077403646473625356 0.0050189111442028242 0.015886835048507825 0.025945545456032698 1 1 0.0054762483365549414 0.0099324007447979083 1 1 1 0.025100278848025577 1 0.012189620949897159 1 1 1 1 1 0.001308271170429033 1 1 1 1 1 1 1 1 1 0.0048110558897914435 1 1 1 1 1 1 1 1 1 1 1 1 1 1 1 1 1 1 0.0078632370004195606 1 1 1 1 0.010652179979199703 1 1 0.010546946497222811 1 1 1 1 1 1 1 1 0.01099671079737637 1 1 0.0096253996113333518 1 1 1 1 1 1 1 1 1 1 1 1 1 1 0.012035327995983119 1 1 1 1 0.012453788695183198 1 1 0.010813601578814374 1 0.01103861719860675 1 1 1 1 1 1 1 1 1 1 1 1 1 1 1 1 1 1 1 1 1 1 1 0.010054546350185635 1 1 1 1 1 1 1 1 0.010039147573639447 1 0.0099830839951112835 1 1 0.01002223156875073 1 1 1 1 1 1 1 1 1 1 1 1 1 0.0099791305864514943 1 1 0.0096602265819390899 1 1 1 1 1 1 0.0092109465495371062 1 1 1 1 0.012164042958577181 1 1 1 1 1 0.012262158840599047 1 1 1 0.012127964442583117 1 1 1 1 1 1 1 1 1 1 1 1 1 1 0.010136486056724734 1 1 1 1 1 1 1 1 1 0.01056830965730746 1 1 1 1 1 1 1 1 1 0.010966533034587601 1 1 1 1 1 1 1 1 0.010431823600582724 1 1 1 1 1 1 1 1 1 1 1 1 1 1 1 1 1 1 1 1 1 1 1 1 1 1 1 1 1 1 1 1 1 1 1 1 1 1 1 1 1 1 0.012603868957748812 1 1 1 0.015107036976644266 1 1 1 1 1 1 1 1 1 0.0095883870075731143 0.015838454727494643 1 1 0.013763890404310601 1 0.010824709931498784 1 1 1 1 1 0.011032074691989554 1 1 0.010631467627468583 0.0099979658093595457 1 1 0.015643459345714143 1 0.010060273287488727 1 1 1 0.010567994770476635 1 1 1 1 1 1 1 1 1 1 1 0.0097561623252631086 1 1 1 1 1 1 1 1 1 0.011492161627672309 1 1 1 1 1 1 0.013781513495703281 1 1 1 1 1 1 1 1 1 0.010964908626219282 1 1 1 1 1 1 1 0.010805209562769029 1 1 1 1 1 1 1 1 1 1 0.0097948300370382674 1 0.010975534710583892 1 1 1 1 1 1 1 1 1 1 1 1 1 1 1 1 1 1 1 1 1 1 0.012067235991942159 1 1 1 1 1 1 1 1 0.01428000523848089 1 1 0.009807792278058362 1 1 0.0093866776599500715 1 1 1 1 0.012186556930043415 0.010077967037638334 1 1 0.010851142806523464 1 0.011943421696911339 0.010904542570372095 1 1 0.011964191356650812 1 1 0.011644898818609835 1 1 0.010988286519092932 1 0.011442657771779738 1 1 0.014057389169110934 1 1 1 1 1 1 0.011776374279262834 1 1 1 0.015282907224961843 1 1 1 1 1 0.010071284038092737 1 1 1 1 1 1 1 1 1 0.0092298121269087062 1 1 0.01000496998293806 1 1 1 1 0.013368194111866058 1 1 1 1 0.019656347815865886 1 1 0.018246976949473831 1 1 1 1 0.011046420309333976 0.0096950148016646427 1 1 1 1 1 1 1 1 0.016764155745693312 1 1 0.017670783296173442 1 1 1 1 1 1 1 1 1 1 1 1 0.010168265433761051 1 1 1 1 1 1 1 1 0.015596520699438475 1 1 1 0.015806957358543552 1 1 1 1 0.016895990739099625 1 0.0093490146922998677 1 1 1 1 1 0.0077673527143060517 0.0068909992567420452 1 1 1 0.019889415853605139 1 1 1 0.024901777363666701 1 0.016547991978244643 1 1 1 0.010001434764093407 1 1 0.010023350871928086 1 1 1 0.014144647980537346 1 1 0.017350605362303602 1 1 1 1 1 0.01955805715427502 1 1 0.0099969207380245038 1 1 1 1 1 1 1 1 1 1 1 1 1 1 1 1 1 1 1 1 1 1 0.010629469692085365 1 1 1 1 1 1 1 0.011708040682717778 0.008450590354802761 1 1 1 1 1 1 1 1 1 1 0.010124591758743086 1 1 0.013782958861733507 1 1 1 0.010976140201533945 1 1 0.012240000450174437 1 1 0.01125177644519835 0.012042776123503985 1 0.0072670752300291221 1 0.012441495957716471 0.0099998594900448587 1 0.010101426852053055 1 0.0076396895005705814 1 1 0.010534799856326011 1 1 1 0.010080242811277004 0.0093338421553919408 1 0.010027694004342357 1 1 1 1 1 0.0083936597558823128 0.012505315856607179 1 0.0092494244828924994 1 1 1 1 1 0.009976401960944143 1 1 1 1 1 1 0.015488816527894715 1 1 1 1 1 1 1 1 1 1 1 1 1 0.0099589284502757981 1 1 1 1 1 1 1 1 1 1 1 1 1 1 0.0099870943162063235 0.0085000627387326715 0.0097692704244106351 1 1 0.015088084229397336 1 0.0095637310438937556 0.012597542823869448 0.010224119963639453 1 1 1 1 1 1 1 0.0097071857180134266 1 1 1 1 1 0.0083872665010645241 1 1 1 1 1 1 1 1 1 1 1 1 1 0.010075394747373139 1 0.0094585584940866854 1 0.013957784815499473 1 0.0091478122282049445 1 1 1 1 1 1 1 1 1 1 1 1 1 1 1 1 1 1 1 1 0.012702529485329725 1 1 0.015746592789756451 0.010180446649965784 1 1 1 1 1 1 1 1 1 1 1 1 1 0.010024526422616824 1 1 1 1 1 1 1 1 1 1 1 0.017382455764220317 0.011549415880261775 1 1 1 1 0.018304996788182697 1 1 1 1 1 0.010019958595742152 1 1 1 0.019275225585614224 1 1 1 1 1 1 0.020286963085746318 0.0020737518960290795 1 0.025541742986087031 1 1 0.007584542017633253 1 1 1 1 1 0.0022046552139238463 1 0.0094943617832919346 1 1 1 1 1 1 1 0.0085176262882896599 1 1 1 1 1 1 1 1 1 1 1 1 1 1 1 1 1 0.016058825077719684 1 1 1 1 1 1 1 1 0.016220291606199123 1 0.010016757529087279 1 1 1 1 1 1 1 1 1 1 1 1 1 1 1 1 1 1 1 0.0089609319484893844 1 1 1 1 1 1 0.01581265796200737 1 0.00776230618395934 1 0.0075442127924174986 1 1 1 1 0.010095751524635146 1 1 1 1 1 1 1 1 1 1 1 1 1 1 1 1 1 1 1 1 1 1 1 1 1 1 1 1 1 0.0026035267459877803 1 1 0.010233093703353624 1 1 1 1 1 1 1 1 1 1 1 1 1 1 1 1 1 1 1 1 1 1 1 1 1 1 1 1 1 1 1 0.015503455673975217 1 1 0.0096901511411735686 0.022402601616354871 1 1 1 1 1 1 0.013108235709002911 1 1 1 0.023658577732392244 1 1 1 1 1 1 1 1 1 1 1 1 0.014926986941699964 1 0.014076187811727179 1 0.014388034776914969 1 1 1 1 1 1 1 0.013141898527225438 1 0.010025094578278451 1 1 1 1 1 1 1 1 1 0.018465304579975979 0.0099926038587956987 1 1 0.010018378595733547 0.0095960910639088688 1 1 1 1 1 1 0.009869860047623271 1 0.0098746384908727555 1 1 1 1 1 1 0.013799668332407124 1 1 1 1 1 1 1 0.0098414830219947132 1 1 1 0.013082684652761342 1 1 1 1 1 1 0.010240989744985303 1 0.013265507213971415 1 1 0.010007502500313275 1 1 0.011922160582663214 1 1 0.011829763525648823 1 1 0.010923578492371227 1 1 1 1 1 1 1 1 1 1 1 1 1 1 1 1 1 1 1 1 1 1 0.011429748237577145 1 1 1 1 1 0.010235457419576611 1 1 0.01751541070363935 1 0.013943137747291084 0.013013672282998923 0.0099906301698653409 1 1 0.014761940846467564 1 0.01027623294603352 1 0.0099998562608545408 1 0.015199080999576267 1 1 0.010126137224723669 1 0.020170764073293442 1 1 1 1 1 1 1 1 1 1 1 1 1 1 1 1 1 1 1 1 1 1 1 1 1 1 1 1 1 1 1 1 0.024726870545943271 1 1 1 1 1 1 1 1 0.010054453998376017 1 1 1 0.0087799899827310044 1 1 1 1 0.0096366136928332236 1 1 1 1 0.013244463522436006 1 1 1 1 1 0.013969816372383899 1 1 1 0.014483046481652618 1 1 1 1 1 0.010444129289298353 1 1 1 1 1 1 1 1 1 0.01177992857223608 1 1 1 1 1 1 1 1 1 1 0.01491980745544734 1 1 1 0.017500136496723884 1 1 1 1 1 1 1 1 1 1 1 1 1 1 1 1 1 1 1 1 1 1 1 1 0.015063972713564043 1 1 0.014900140808117086 1 1 1 0.011368861615352683 1 1 1 1 1 1 1 1 1 1 0.014950186357877756 1 1 1 1 0.012340222800078501 1 1 1 0.011420425243627534 1 1 0.0083740646178261328 1 0.01379514112165907 1 1 1 1 0.018114637884546224 1 0.019417476954123852 1 1 1 1 1 1 1 1 1 1 1 1 1 1 1 1 1 1 0.0095454506514269892 1 1 1 1 1 1 1 1 1 1 1 0.011505465450809618 1 1 1 1 1 1 1 0.01067045978382637 1 1 1 1 1 1 1 0.014033933404498721 1 1 1 1 0.010642633110504078 1 1 1 1 1 1 1 1 1 1 1 1 1 1 0.011517575408757769 1 1 1 1 1 1 1 1 1 1 1 1 1 1 1 1 1 1 1 1 0.011496425770316893 1 1 0.010621483472063202 1 1 1 1 1 1 1 1 1 1 1 1 1 1 1 1 1 1 1 1 1 0.010402523526494694 0.011077513363439248 1 1 1 1 1 1 1 1 1 1 1 0.010773083892049411 1 1 1 0.010430932245133131 1 1 1 1 0.01019324186666128 1 1 1 1 1 1 1 1 0.010044213009487093 1 1 1 1 1 0.010288057852283594 1 1 1 1 1 0.012268249397461413 1 1 1 1 1 1 0.013560362367809156 1 1 1 1 1 0.012180231550196902 0.010002827512667473 0.011342179054298612 1 1 0.012501111997983707 1 1 0.012638936591181125 0.01042470815120804 1 1 1 0.013434276546603246 0.010984240287124658 1 0.012654170922164375 1 1 1 1 1 0.010089098896697086 1 1 1 0.012077775159254329 1 1 0.011163537076645949 1 1 1 0.011302289788406717 0.011896629285461197 1 1 0.01139450293797044 0.011472382186253845 1 1 1 1 1 0.011965741090084067 1 0.011517662182753985 0.010217157275904099 1 1 1 1 1 0.01179335942694602 1 0.01021509292620847 1 1 1 0.010645771278425045 0.01007146197883977 1 0.012877284694298672 1 0.010221630325442949 1 1 1 1 1 0.012408629181495455 1 0.012624298311688461 1 1 1 1 1 1 1 1 1 1 1 1 1 1 0.0109294495543304 1 1 0.010393669643639305 1 1 1 0.010912150754534718 1 1 1 1 1 1 1 1 0.011122582248200048 1 1 0.010423065220571454 1 1 1 1 1 1 1 1 0.01085737004779274 1 1 1 1 1 1 1 1 1 1 1 1 1 1 1 1 0.011536209691696504 1 1 0.0099347138686562073 1 1 1 1 1 1 1 1 1 1 1 0.010092063301162635 1 1 1 0.011296265974116829 0.011553583879811698 0.010035296023388224 1 1 0.011144412978167095 1 1 0.010095855919602027 1 1 1 1 1 1 1 1 1 1 0.011521980937673482 1 1 1 1 1 1 1 1 1 1 1 1 1 1 1 1 1 1 1 1 1 1 0.010128084325277535 1 1 1 1 1 0.011703425150688795 1 0.016415818242879628 0.0098386334370675326 1 1 1 1 0.010571375868463975 1 1 1 1 1 1 1 1 1 1 0.010672564645253114 0.01070920423794652 1 0.011594719399158373 1 1 1 0.010591199094512914 1 1 1 0.012835789172779466 1 1 1 1 1 1 1 1 1 1 1 1 1 1 0.016645316217218008 1 1 1 1 1 1 1 0.017903609712459741 1 1 1 1 1 1 1 1 1 1 1 0.018105972445939297 1 1 1 1 1 1 1 1 1 1 1 0.014509442779923529 0.010612030349460923 1 1 1 1 1 1 1 1 1 1 1 1 1 1 0.016826895322879142 1 1 1 0.016013832750598575 1 1 0.010573349997534435 1 1 1 1 1 1 1 1 1 1 1 1 1 1 1 1 1 1 1 1 1 1 1 1 1 1 1 1 1 1 1 1 1 1 1 1 1 1 1 1 1 1 0.01180920919245829 0.013247153144418995 1 1 1 1 1 1 0.012234465965535599 1 0.015496712833131872 1 1 1 1 1 1 1 1 1 1 1 1 0.014279660099140244 1 1 0.011577932800094887 1 1 0.010962693864922702 1 1 0.011247266257544661 1 1 1 1 1 1 1 1 1 1 1 1 1 1 0.017524659549514508 1 1 1 1 0.015703950984172189 1 1 1 1 1 1 1 1 1 0.010865477006963966 1 1 0.0096914076034865515 1 1 1 1 1 1 1 1 1 1 1 1 0.012191181212575775 1 1 1 1 1 1 1 0.0092126616912065213 1 0.0070722106479651379 1 1 0.0042695585105392434 1 1 1 1 1 1 1 1 1 1 1 1 1 1 1 0.016871434092512988 0.0099905114624152386 0.014449175468886917 1 0.0099508518694663359 1 1 1 1 1 1 0.009921409902430213 1 0.018578116554432433 1 1 1 1 1 1 1 1 0.01754809475242787 1 1 1 0.016591744720868988 1 1 0.0099713778991839044 1 1 1 1 1 1 1 1 0.0098415758484369335 1 1 1 1 1 1 0.0099083663201684369 1 1 1 1 1 1 1 0.010058999706681636 1 0.0099882003741617147 1 1 0.010100566115771765 1 1 1 1 1 1 1 1 1 1 1 1 1 1 1 1 1 0.010037546089479519 1 1 1 1 0.01005142117650598 1 1 1 1 1 1 1 1 0.0099763513839732469 1 1 1 1 1 1 1 1 1 1 1 1 1 1 1 1 1 1 1 1 1 1 1 1 0.010029392839496356 1 1 1 0.011219829252250657 0.0099061814077714624 1 1 1 1 1 1 1 1 1 0.010005825075421772 1 1 1 1 0.012364586200991222 0.0068504235572230737 1 0.007725561331681674 1 1 0.01419673031779866 1 1 1 0.018162107197860995 0.010002820851833995 1 1 1 1 1 1 1 0.01244568998055675 1 1 0.0083307160827730039 1 1 0.010136076623758927 1 1 1 1 1 1 0.0073634261943948155 1 0.011537210924919595 1 1 1 1 0.012529338336858101 1 0.018282117749016096 1 1 1 1 0.011848828318865193 1 1 1 1 1 1 1 1 1 1 1 1 1 0.011924303147873402 1 1 0.011933426377704568 1 1 1 1 1 1 1 1 1 1 1 1 1 1 1 1 1 1 1 1 1 1 1 1 1 1 1 1 1 1 1 1 1 0.018815680029524023 1 1 1 1 1 1 1 1 1 1 1 1 1 1 1 1 0.0081642676163770043 1 1 1 1 1 1 1 1 0.02004126198494361 1 1 0.019639036323218825 1 1 1 1 1 1 1 0.019552000488083601 1 1 0.017578385439915696 1 1 1 1 1 1 1 1 1 1 1 1 1 1 1 1 1 1 1 1 1 1 1 1 1 1 1 1 1 1 1 1 1 1 1 1 1 1 1 0.010077285676090161 1 0.011449113036253882 1 1 1 1 1 1 1 1 1 1 1 0.013076731383409885 1 1 1 1 1 1 1 1 1 1 1 1 1 1 1 1 1 1 1 1 1 0.0108971561619822 1 1 1 0.012351768757192169 1 0.0079962750791639607 1 0.012441755206100949 1 1 0.0093441305345347888 1 1 1 1 0.0098449225442644017 1 1 0.010424720077665263 1 0.011159714640970469 0.010377035175898072 1 1 1 0.011658005544087406 1 1 0.0085014683331347315 1 1 0.011886540909905076 1 1 0.011735597351514387 1 0.012173148898856272 1 1 1 1 1 0.0085854524181680804 0.011065900854525836 1 0.013282646025428009 1 1 0.010003500371023918 1 1 1 1 1 1 1 1 1 1 0.0088993093053425266 0.010013861946336564 1 1 1 1 0.0093422965125529583 0.0097853636392393247 1 1 1 1 1 1 1 1 0.013842410409937132 1 1 0.010002830349643024 0.0096742900375489729 1 1 0.011986313422584459 0.01180857431745181 0.009415176475667017 1 0.010306147730102248 0.011949309979306384 0.0099608617846458081 1 1 1 1 0.0080918728417349144 1 1 1 1 1 1 1 1 0.013802461916221899 1 0.0099548655280723049 1 1 1 1 1 1 1 0.010876436185403196 1 1 1 0.012494379279614158 1 1 1 1 1 0.018839771010367247 1 1 1 1 1 1 1 1 1 1 1 1 1 1 1 1 0.0097347310290561411 1 0.010006472930397303 1 0.011723591173787951 1 1 1 1 0.011280627533498119 0.014551291762014272 0.0087290553199550949 1 1 0.016999235055231633 1 1 1 0.0081138666563514497 0.0098090289515045011 1 1 0.010561564123487705 0.011296037423244261 1 0.010060378334939973 0.008444255543048354 1 1 1 1 1 1 1 0.0098339974524791016 1 1 1 1 1 1 1 1 1 1 1 0.011072515039811118 1 1 1 1 0.010757193081765945 0.0097520716832585792 1 0.010070938514203936 1 1 0.01001550656113313 1 1 1 1 1 0.01419084858581398 1 1 1 1 1 1 1 1 1 1 1 1 1 1 1 0.016205867433977172 1 1 0.010001270778469504 1 1 1 1 1 1 1 1 0.010013875087026454 1 1 1 1 1 1 1 1 0.011680615025744634 1 1 1 1 1 0.012193035661716478 1 1 1 1 1 1 1 1 0.01011759266932331 1 1 1 1 1 0.0091043238599940596 0.010586201471827889 1 0.012873960586467711 1 1 1 1 0.0099595131072175332 1 0.01085012825714479 1 0.011191195013630391 1 1 1 0.02002267042222064 1 1 1 1 1 0.020137072794761256 1 1 1 1 0.011245452331065393 1 0.011167177545730433 1 1 0.010189779472902403 1 1 1 1 1 1 1 1 1 1 1 1 1 1 1 1 1 1 0.018183641431741799 1 1 1 1 1 1 1 1 0.0099935078290744623 1 1 0.013097435067092164 1 1 1 0.0158628591669129 1 1 0.012178057455650922 0.011073968519005641 1 1 0.013008047793254908 0.011132617851653337 0.014057255709228049 1 0.014078615244635183 1 1 1 1 1 0.0092114423598849398 1 1 1 1 1 1 0.007682612818905532 1 1 1 1 1 1 1 1 1 1 1 1 1 1 1 1 1 1 1 1 1 1 1 1 1 1 1 1 0.010780026930046094 1 1 1 1 1 1 1 0.012140008108142874 1 1 1 1 1 1 0.010000486901871395 1 1 0.012034774892543773 1 0.0137929372271949 1 0.014965318738240106 1 0.010487042727842441 1 1 1 1 1 1 0.013841533764274161 1 1 0.010137538485278721 1 1 1 1 1 1 1 1 1 1 1 1 1 1 1 0.011039630030249964 1 1 0.011506266221462363 1 1 1 1 1 0.0095113512532204944 1 1 1 1 1 1 0.012689909994618241 0.0084177412962864913 1 1 1 1 1 1 1 1 1 1 1 1 1 1 1 0.00998806965455485 1 1 1 1 1 1 1 1 1 1 0.011412319279409174 0.010574601125985281 1 1 1 1 1 1 1 1 1 0.010558187396246525 1 1 1 1 1 1 1 0.010372695587564429 1 0.0092138042370246281 1 1 1 1 0.0099725547576089025 1 1 1 1 1 0.0095180436031474316 1 1 1 0.011539454221400493 1 1 1 1 1 1 0.0096607854745223067 1 1 1 1 1 1 1 1 1 1 1 1 0.0087060536353513081 1 1 1 1 1 1 1 1 1 1 1 1 0.0087572650859960161 1 1 1 1 0.0099910482131765586 0.0099522090451535442 0.0098995070654445058 0.010801748474032292 1 0.0098863488606699378 1 1 1 1 1 0.009630445549357769 1 0.010086477547568314 0.0094376247751554593 1 0.010801085716296691 1 1 1 1 1 1 1 1 1 0.0094074713717725231 0.0099781558292049294 1 0.0098344862231786786 1 0.010641835009435489 1 0.01000168128042029 1 0.0091721256894032634 0.0087909802377871098 1 1 1 0.0097717893162254897 1 1 1 1 1 1 1 0.0092077038015666822 1 1 0.0096010254694224931 1 1 0.011438110053006649 1 0.012938372689684209 1 1 0.0099813821579531493 1 1 1 1 0.011288899661495294 1 1 1 1 1 1 1 1 1 1 1 1 1 1 1 1 1 1 1 1 1 1 1 1 1 1 1 1 1 1 1 1 0.011150609878445144 1 0.012194306840650683 1 1 0.010222021969046539 1 0.0099485514035954296 1 1 1 1 1 0.0099864024143367404 1 1 1 1 1 1 1 1 1 1 1 1 0.010034445100778173 0.010400418213615639 1 1 1 0.010395995146118676 1 1 1 1 1 1 1 0.014169584155991682 1 1 1 1 1 1 0.012585139811180403 1 0.010754974547456326 1 1 0.021554101580068805 1 1 1 1 0.019743736789626702 1 1 0.017552411310633197 1 1 1 1 1 1 0.012429719252735847 1 0.010882124133247014 1 1 1 1 1 1 1 1 1 1 0.013076725602093735 1 0.012910472357810562 1 1 1 1 1 1 1 1 1 1 1 1 1 0.012440062520612121 1 1 1 1 1 1 1 1 1 1 1 1 1 0.012483520851139034 0.014575587459063063 1 1 0.014154660543026746 1 1 1 0.0099748976014973553 1 1 1 1 1 0.0098466340202272695 0.010170289664029003 1 1 0.011164120047219329 1 1 1 0.012170470469812263 1 1 1 1 1 1 1 1 1 1 1 1 1 1 1 1 1 1 1 1 0.010054155105641433 1 1 1 1 1 1 1 1 1 1 1 1 1 1 1 1 1 1 1 1 1 1 1 1 1 1 1 1 1 1 1 1 1 1 1 1 1 1 1 1 1 1 1 1 1 1 1 1 1 1 1 1 1 1 1 1 1 1 1 1 1 1 1 1 1 1 1 1 1 1 1 1 1 1 1 1 0.011144513999177291 1 1 1 0.010365230471471294 1 1 1 1 1 1 1 1 1 0.01023989911671786 1 1 1 0.010439308231678926 1 1 1 1 1 1 1 1 1 1 1 1 1 1 0.014233662530987111 1 1 1 1 1 1 0.010170208024767475 1 0.010126610116829854 1 1 1 1 1 1 1 1 1 1 1 1 1 1 1 1 1 1 1 1 1 1 1 1 1 1 1 1 1 1 1 1 1 1 1 1 1 1 1 1 1 1 1 1 1 1 0.024032040042368571 1 0.0088694780542383431 1 1 0.0099652460283329927 0.0092095133865119534 1 1 1 0.010090435466383867 1 1 1 1 1 1 1 1 1 1 1 1 1 1 1 1 1 1 1 1 1 1 1 1 1 0.010195860496365084 1 1 1 1 1 1 1 1 1 1 1 1 1 1 1 1 1 1 1 1 1 1 1 1 1 1 1 1 1 1 1 1 1 1 1 1 1 1 1 1 1 0.01155249248132042 1 1 1 1 1 1 1 0.018045849897760917 1 1 1 1 1 1 1 1 1 1 1 1 1 1 1 1 1 1 1 1 1 0.023030076449482115 1 1 1 1 1 0.0099425983777531399 1 1 1 0.010492230730769367 1 1 1 1 1 1 1 1 1 1 1 1 1 1 1 1 1 1 1 1 1 1 1 1 1 1 1 1 1 1 1 0.0088897800230637661 1 1 0.02220679125116665 1 1 0.0078697828277311793 1 1 1 1 1 1 1 1 1 1 0.0091184842510438936 1 1 1 0.0072379198642267689 0.030709783686217157 1 1 1 1 1 1 0.010201812450682447 1 0.029324370924300493 1 1 0.010629521303941708 1 1 1 1 1 0.016638832379043803 0.020928884165332243 1 1 1 1 0.013453502546177123 1 0.01450103390017368 0.019148614506771834 1 0.01741924753874171 1 1 1 1 1 1 0.029840309486041675 1 0.010240302901893157 1 1 0.0097266820191558266 1 1 1 0.009956857133816114 1 1 1 1 1 1 1 1 1 1 1 1 1 1 1 1 1 1 1 1 0.0099581183893817718 1 1 1 1 1 1 1 1 1 1 0.0098959300528198638 1 1 1 1 1 0.010449099812818982 1 1 1 1 1 1 1 1 0.017627311899007347 1 1 1 1 0.01015140623206378 0.020750507097805848 1 1 0.021379182762321106 1 1 1 1 0.0086871905448476089 1 1 1 0.020136939067108006 0.004824723277495363 1 0.010641966064298177 1 1 0.014589359905231671 1 0.0098423589550207455 1 0.012041850781077224 1 1 1 1 1 1 1 0.022669135789071922 1 1 0.025655518978466851 1 1 1 1 1 0.015612169615605841 1 1 1 0.010491100752828698 1 1 0.0099705805397152427 1 1 1 0.010704535472800866 1 1 1 1 1 1 1 1 0.013774837801517829 1 1 1 0.016087957645482265 1 1 1 1 1 1 1 0.0097893345558322971 1 1 1 0.011309002401579185 1 1 1 1 1 1 1 1 0.010819695638925271 1 1 1 1 1 1 1 1 1 1 1 1 1 1 1 1 1 1 1 1 1 1 1 0.010223753608722595 1 1 1 1 1 1 1 1 1 1 1 1 1 1 1 1 1 1 1 1 1 0.010467959131616279 1 1 1 1 1 1 0.010243227049353494 1 1 1 1 1 1 1 1 1 1 1 1 1 1 1 1 1 1 1 1 1 1 1 1 1 0.010225095357124958 1 1 1 1 1 1 1 1 1 1 1 1 1 1 1 1 1 1 1 1 1 1 0.0099902794284961183 1 1 1 1 1 1 0.01067798641736474 1 1 1 1 1 1 1 1 1 1 1 1 1 1 1 1 1 0.010836185517143056 1 1 1 1 0.01043372152374937 1 1 1 1 1 1 0.0093875455638436356 1 1 1 1 1 1 0.0098005675609291985 1 1 1 1 1 1 1 1 1 1 1 1 1 1 1 0.010402463993393708 1 1 1 1 1 1 1 0.0087891900432765842 0.018318347093851321 0.010053989059623389 1 1 1 1 1 1 1 1 1 1 1 1 1 1 1 1 1 1 0.0088740176276688246 0.010165509153867538 1 1 1 1 1 0.015289461878234552 1 1 0.010408172643022968 1 1 1 0.012992458108217978 1 1 1 1 1 1 1 1 1 0.016623381313036562 1 1 1 1 1 1 1 1 1 1 1 0.020168407481309124 0.015862537822504762 1 1 0.019308215761432768 1 1 1 1 1 0.020421704607105851 1 1 1 0.021435531812499981 1 0.021066324693624978 1 1 0.0096120489357424017 1 1 1 1 0.0099667735355502413 1 1 0.012337096159010472 1 1 1 1 1 0.014372885721665916 1 1 1 1 1 1 1 1 1 1 1 1 1 1 1 0.011026672201315252 1 1 1 1 0.01061849955829228 1 1 1 1 1 1 1 0.010723837866337231 1 1 1 1 1 1 0.018998731734979644 0.011226848610898317 1 1 1 1 1 1 1 1 1 1 1 1 1 1 1 1 0.017303800250229939 1 1 1 1 0.015033823896131516 1 1 1 1 1 1 0.01284576626029435 1 1 1 1 1 1 1 1 1 1 1 1 1 1 1 1 1 1 1 1 1 1 0.018140185129402187 1 1 1 0.0097856254925330344 1 0.015362582148368917 1 1 1 0.010816022567050288 1 1 1 1 1 1 1 1 1 1 1 1 1 1 1 1 1 1 1 1 1 1 1 1 1 1 1 1 1 1 1 1 1 1 1 1 1 1 1 1 1 1 1 1 1 1 1 1 1 1 0.0098936999200963174 0.010099234211608859 1 1 1 1 1 1 1 1 1 1 1 1 1 1 1 1 1 1 1 1 1 1 0.010331022553573923 1 0.010802513251640734 1 1 1 1 1 1 0.010568809988246795 1 1 1 1 1 1 1 1 1 1 0.019405029148102028 1 1 1 1 1 1 1 1 0.019975436238041475 1 1 1 1 0.0098830772472790797 1 1 0.017514386048711139 1 1 1 1 1 0.0098956454886063808 1 0.016751822731265662 1 1 1 1 1 1 1 1 1 1 1 1 1 1 1 1 1 1 1 1 1 1 1 1 1 0.0099814783738546436 1 1 1 1 1 1 1 0.020241566268422807 1 1 1 1 1 1 1 0.019034203745785155 1 1 1 1 1 1 1 1 1 1 1 0.012347780929847545 1 1 0.010047238605548217 1 0.012054739935216019 1 1 1 1 1 1 1 0.010006637075095132 1 0.010018665805907941 1 0.0084198223260246313 1 1 1 0.011799666347027386 1 0.01004016071019375 1 1 1 1 1 1 1 0.011439206212045956 1 1 1 1 1 0.010310537160836561 1 1 0.010129594178238548 1 1 1 1 1 1 0.011303042982220422 1 1 1 1 1 1 1 1 1 1 1 1 1 0.0121026931876098 1 1 1 1 0.012401920211249386 1 1 1 0.010607116895390338 1 0.012806461913007557 1 0.010057884265188485 1 1 0.0099678901517647762 1 1 1 0.0098508450845731683 0.018052859265806714 1 1 1 1 1 1 1 1 1 1 1 1 0.010156792718236985 0.010025241864326542 1 0.010391767772245247 1 1 1 1 1 1 1 1 1 1 0.015419266713106995 1 1 1 0.011756244725994023 1 1 1 0.012721128360904561 1 0.0096982763723041272 1 1 1 1 1 1 1 1 0.011750510389916008 1 1 1 1 1 1 1 1 1 1 1 0.009980259503301123 1 1 1 1 1 1 1 1 1 1 1 1 1 1 1 1 1 1 1 1 1 1 0.010003301653327705 1 1 1 1 1 1 1 1 1 1 1 1 1 0.009989971426395414 1 1 1 1 1 0.018759188673465196 1 1 1 0.018567796892382374 1 0.0099495995663835771 1 1 1 1 1 1 1 1 1 1 1 1 1 1 1 1 0.010068144696593111 1 1 1 1 1 1 0.010754405822868178 1 1 1 1 1 0.018039736941396822 1 1 0.016000128987942792 1 1 1 0.0099269841020091665 1 1 1 1 1 0.011292392863443898 1 1 1 0.011596201342334397 1 1 1 0.010155691776346745 0.012337448290212556 1 1 1 1 0.010026755397588766 1 1 0.0099151637551019509 1 1 0.0099653622623004229 1 1 1 0.012488252090568565 0.01192019732546689 1 1 1 1 1 1 0.013004395844738607 1 0.009999329625030938 1 0.011944669836349751 1 1 0.012756901808666114 1 0.012141127152731433 1 0.013291714730798272 1 1 0.012208530214962654 1 1 1 1 1 1 1 1 1 1 1 1 1 1 1 1 1 1 1 1 1 1 1 1 1 1 1 1 1 1 0.0096668085543387579 1 1 1 1 1 1 1 1 1 0.0077219549316221124 1 1 1 1 1 0.0088048295749460857 1 1 1 1 1 1 1 1 1 1 1 1 1 1 1 1 0.011669445145798506 1 1 1 1 1 1 1 0.014526265410683928 1 1 0.013823105110667332 1 1 1 1 1 0.010890936773453069 1 1 1 1 1 1 1 1 1 1 1 0.011364620274824079 1 1 1 1 1 1 1 1 1 1 1 1 1 1 1 1 1 1 1 1 1 1 1 1 1 1 1 1 1 1 1 1 1 1 1 1 1 1 1 1 1 1 1 1 1 1 1 1 1 1 1 1 1 1 1 1 1 1 1 1 1 1 1 1 1 1 1 1 0.014577222558424349 1 1 1 1 0.014164667133905576 1 1 1 0.010806776004126594 1 0.0088097119603534526 1 1 0.013641061945005712 1 1 1 1 0.0097119990408973487 0.01007551747620674 1 1 0.010466517822888127 0.011100837690073983 1 0.012590061317974462 1 1 1 0.0129440407765723 0.0059406078379215677 1 1 1 0.011281931236460763 1 1 1 1 1 1 1 1 1 0.014045193630811057 0.0095096006293055729 1 1 1 1 1 1 1 0.011574948375607567 1 1 1 1 1 1 1 1 0.0095316215900723093 1 1 1 1 1 0.0081057206625257533 1 1 1 1 1 0.013182838100988034 1 1 1 1 1 0.011327749887325812 1 1 1 1 1 1 1 1 1 1 1 1 1 1 1 1 1 1 1 1 1 1 1 1 1 1 0.011776842104252829 1 1 1 1 1 1 1 1 1 1 1 0.012319175818141632 1 1 1 1 1 1 1 1 1 1 1 1 1 1 1 1 1 1 1 1 1 1 1 1 1 1 1 1 1 1 1 1 1 1 1 1 1 1 1 1 1 1 0.015766576620603948 0.015531955869872688 1 1 0.013588856938109163 1 0.014219306288458806 1 1 1 1 1 1 1 1 1 1 1 1 1 1 1 1 1 0.010248882638176372 1 1 1 0.009931504055612491 1 1 1 1 0.01069279869337955 1 1 1 1 1 0.010250726475102896 1 0.0099908406219980303 0.017842533826356144 1 1 1 1 1 1 1 1 0.0094194662428218386 1 1 1 1 0.0087532806812982127 1 1 0.010032539160712124 1 1 1 1 1 1 1 1 1 0.010103761085681832 1 1 0.009418678167376817 1 1 1 1 1 1 1 1 1 1 1 1 1 1 1 0.0079768842856695783 1 1 0.016902337143295001 1 1 1 1 0.014145340716908799 1 0.017751427959211523 1 0.0080591944886911921 0.011515213140698843 1 1 1 1 1 0.0098517536436415493 1 1 1 1 1 1 0.010613480697930529 1 1 1 0.012989971004110701 1 1 1 1 1 1 1 1 1 1 1 1 1 1 1 1 1 1 1 1 1 1 1 1 1 0.010454733925298859 1 1 1 1 1 1 1 1 1 1 1 0.010954555543317569 1 1 1 0.010290850890268478 1 1 1 1 0.011077541537954516 1 1 1 1 1 1 1 1 1 1 1 1 1 0.012465613288504079 1 1 0.01317027554274963 1 1 1 1 1 1 1 1 1 1 1 0.011647065713563703 1 1 1 1 1 1 1 1 1 1 1 1 1 0.011286028462686722 1 1 1 1 1 1 1 1 1 1 1 1 1 1 1 1 1 0.010156270516635776 1 1 1 0.010590990167196486 1 1 1 1 1 1 1 1 1 0.012179595370426212 1 1 1 1 1 1 1 1 1 1 1 1 1 1 1 1 1 1 1 1 1 0.017984497800705958 1 0.015661093296936126 1 1 1 1 1 1 1 1 1 1 0.022503731137109198 1 1 1 1 1 1 0.021343660747258811 1 1 1 1 1 1 1 1 0.010029376731601624 1 1 0.011395988367294654 1 1 1 1 1 0.01220698718107161 1 1 1 0.015057074093721421 1 1 1 0.015476390337260698 1 1 1 1 1 1 1 1 1 1 1 1 1 1 1 1 1 1 1 1 1 1 1 1 1 1 1 1 1 1 1 1 1 0.010519552712363512 1 1 1 1 1 1 1 0.037032386984321791 1 0.010263710405300438 1 1 1 1 1 1 0.018890174732128104 1 0.032079940178216061 1 1 0.010252258409750005 1 1 1 1 1 1 1 1 1 1 0.011993351707885345 0.024678643536047505 1 1 1 1 1 1 1 0.009954556831962412 1 1 1 1 1 1 1 1 1 1 0.011169548490039073 1 1 1 1 1 1 1 1 1 1 1 1 1 1 1 1 1 0.0079000568231789182 1 0.013150659808557393 1 1 1 1 1 1 1 1 1 0.013185205859703949 1 1 1 0.00806766654561503 1 0.012320887524202391 1 1 1 1 1 1 1 1 1 1 1 0.010012408944913329 0.010046900803118042 1 1 1 1 1 1 1 1 1 1 1 0.0087405376960767271 1 1 1 1 1 1 1 1 1 1 1 1 1 1 1 1 1 1 0.022485412568338352 1 1 1 1 0.024973160817974013 1 0.027084163231637579 1 0.0056218567182212773 1 1 1 0.0076230501442557464 1 1 1 1 1 1 1 1 0.012069906118480146 1 1 1 1 1 1 1 1 1 0.014743270502811066 1 1 1 1 1 1 0.013712926719208965 1 0.015848234606436643 1 0.0099398293371012331 1 1 1 1 1 1 1 0.012786996074003567 1 1 1 1 1 0.012012013119754732 1 1 1 1 1 1 1 1 1 1 0.011290168986789835 1 1 0.0098771582124984065 1 1 1 1 0.010196473985165195 1 1 1 1 1 1 1 1 1 1 1 1 1 1 1 1 1 1 1 1 1 1 0.019828775554492722 1 1 0.010066184855301584 0.022638387083742655 1 1 1 1 1 1 1 1 0.017859634694242656 1 1 1 1 0.0092568309436544087 1 1 1 1 0.0099169165869626118 1 1 1 1 1 1 0.01041633901846542 1 1 0.010015158277254103 1 0.014771481284418783 1 1 0.015685761074641095 1 0.010841534291690253 1 1 1 0.017206959599424733 1 0.010747379212757084 1 1 0.011397222308793377 1 1 0.01066553568069931 1 1 1 1 1 0.016731676895534273 0.015286490357989485 1 1 1 1 0.0099320832671937771 1 1 0.015718470151377818 1 1 0.0099124432750672693 1 1 1 1 1 0.014492965671906714 1 1 0.010654264021114161 1 1 1 1 1 0.011689970392511817 1 1 1 1 1 1 1 1 0.013819160765213629 1 1 1 1 1 1 1 1 1 1 0.01150964953398656 1 1 1 0.011624510872504218 1 1 1 0.010982462116633143 1 1 1 1 1 0.011802840662644819 1 1 1 1 1 1 1 1 1 1 1 1 0.015763199224282903 1 1 1 1 1 1 1 1 1 1 1 1 1 1 1 1 1 1 1 1 1 1 1 1 1 1 1 1 1 1 0.011132538211311022 0.015130435557421076 1 1 1 1 1 1 1 0.01035599422786094 1 1 0.011064517852934254 1 1 1 1 1 1 1 1 1 1 1 1 1 1 1 1 0.0098554338036319668 1 1 1 1 1 1 1 1 1 1 1 1 1 1 1 1 1 0.016307445554772895 0.010516938315694977 1 1 1 1 1 1 1 1 1 1 1 1 1 1 1 1 1 1 1 0.016460176615099832 1 1 1 1 1 0.0094597665262325485 1 1 1 1 1 1 1 1 1 0.009939777859661025 1 1 1 1 1 1 1 1 0.011540052698145179 1 1 0.013618098285190125 1 1 1 1 0.01166145610679516 0.015021280025613745 1 1 0.011001382613396199 1 1 1 1 1 0.010678188119233482 0.011786813674174258 1 1 1 1 1 1 1 1 1 0.01000175188136139 1 1 1 1 1 1 1 1 1 1 1 1 1 1 0.0096452484377909497 1 1 1 1 1 1 1 1 1 1 1 1 1 1 1 1 1 1 1 1 1 1 1 1 0.01420917613198372 1 0.011875272205025482 1 1 1 1 1 1 1 1 1 1 1 1 1 0.010825822415819334 1 0.010278242878580056 1 1 1 1 1 0.012410377272997751 1 1 1 1 0.01105565106298818 1 1 1 1 1 1 1 1 0.010787964348475102 1 1 0.010321562699783267 1 0.011685237434658248 1 1 1 1 1 1 1 1 1 1 1 0.010469185188039335 1 1 1 0.010452314090281464 1 1 1 1 1 0.01523504506795291 1 1 0.011943795427459991 1 1 1 1 1 1 1 1 1 1 1 1 1 0.0099559924028093331 1 1 1 1 0.0099276329004100439 1 1 1 0.01336610908551132 1 1 1 1 1 1 1 1 1 0.0097240243774432654 1 1 1 0.012807374388329431 0.0094134357577791011 1 1 1 1 0.012096672948143081 0.0088263254290415101 1 0.013198971140617943 1 0.010155409650270137 1 1 1 1 0.013604762112900622 1 1 1 1 1 1 1 1 0.0091835968179969502 1 1 1 1 1 1 1 1 0.01512167043951884 1 1 0.010127101639194875 0.010775988353005085 1 1 0.010003855130130317 1 0.010856223609315664 1 1 1 1 0.012414365978428654 1 1 1 1 1 1 1 1 1 1 1 1 1 1 1 1 1 1 1 1 1 1 1 1 0.010119256404349993 1 1 1 1 1 1 1 1 1 1 0.010321536289629762 1 1 1 1 0.0099571061931248133 1 1 1 1 1 1 1 1 1 0.0098527788314560528 1 1 0.017518865169895096 1 1 1 1 1 1 1 1 1 0.011461501758162525 1 0.010006706228155055 1 1 0.01025454176789215 0.01323824737872111 0.012928564250805482 1 1 0.013644742850145121 1 0.013851140970656779 1 1 1 0.010178178159782053 1 1 0.010000067926622322 1 1 1 1 0.0188254058317779 1 1 1 1 0.010137556033230929 1 1 1 1 1 1 0.019777230559631039 1 1 1 1 1 0.012761984097645831 1 0.011915246322343215 1 0.010022839045681943 1 1 1 1 1 1 1 1 1 1 1 1 1 1 1 1 0.024274456947085146 1 1 1 1 1 0.0093751070806794654 1 1 1 1 1 1 1 0.01028695943233408 1 0.014851654486056388 1 1 0.0071224976777179011 0.0087081833502061362 1 1 1 1 1 0.009989846332570702 1 1 1 1 1 1 1 1 1 1 0.0098780460217819856 1 0.013325113844498505 0.0095523981985770629 1 1 1 1 1 1 1 1 0.011422237137655149 1 1 1 1 1 1 1 0.025407402832527879 1 1 1 1 1 1 0.024938827734633452 0.018759563936293331 1 1 0.0093203476030852411 1 1 1 1 0.01727169230552994 1 0.021676216158903659 0.0078765838474864625 0.019195883160795443 1 0.012179903529320401 1 1 1 0.010060335688013162 1 1 0.017548558473037577 1 1 1 1 1 1 1 1 1 1 1 1 1 1 1 1 0.0098294687470279959 1 1 1 1 1 1 1 1 0.016218935179994679 1 1 1 1 0.014373033282458956 1 1 1 1 1 1 1 1 1 0.010147341816695743 1 0.011619660731361022 1 1 1 1 1 1 1 0.013635595637866389 1 0.011135817681334363 1 1 1 1 1 1 1 1 1 1 1 1 1 1 1 1 0.0098662706199699243 1 1 1 1 0.010553936218804216 1 1 1 1 1 1 0.010446659856488549 1 1 1 1 1 1 1 1 1 1 1 1 1 1 1 1 1 1 1 1 1 1 1 1 1 1 0.0095903066779739077 1 1 1 1 1 1 1 1 1 0.010240027159545988 1 1 0.010252177349267344 1 0.011048674260018208 1 1 1 1 1 1 0.0096513219770876704 1 1 1 1 1 1 1 1 1 0.012792546324478746 1 1 1 1 1 0.012843896535394583 1 1 1 1 1 1 1 1 1 1 0.021351097925832556 1 1 0.010165236631431972 1 0.010177495023672146 1 1 1 1 1 1 1 1 1 1 1 1 1 1 1 1 1 1 1 1 1 1 1 1 1 0.010921039270041764 1 0.014411461026482726 1 1 1 1 1 0.019464179976631642 1 1 1 1 0.018488840352463183 1 1 0.0088716446337392726 1 1 1 0.017176428165050925 1 1 0.01062897960740866 0.0065649688750083843 1 0.010215635528302259 1 1 1 1 1 1 0.01218567397107208 1 1 1 1 1 1 1 1 1 1 1 1 1 1 1 1 0.020260420395519146 1 1 1 1 1 1 1 1 1 1 1 1 1 1 1 0.019255153153188508 1 1 1 1 0.01136360763751031 1 1 1 1 0.011062064981134385 1 0.010360233090334387 1 1 1 1 1 1 0.011204136006774831 1 1 0.016857730974261242 1 1 1 1 1 1 1 1 0.011186711743233664 1 1 0.010484599935210451 1 1 1 1 1 1 1 0.011264853852986374 1 1 1 1 1 0.010778128427704056 1 1 1 0.013598161187656579 1 1 1 1 1 1 1 1 1 1 0.010467443421225395 1 1 1 1 1 0.025454683099307058 1 1 1 1 1 0.015095485973157907 1 1 1 0.028341557693050964 0.010533702780460109 1 1 1 1 1 1 0.0099854136289073275 1 1 1 1 1 1 1 1 1 1 1 1 1 1 1 1 1 1 1 1 1 1 1 1 1 1 1 1 1 1 0.0099756580339018814 0.011746446220278308 0.012042210602690274 1 1 1 1 0.010015026664109982 1 1 1 0.0091860978176622685 1 0.015896846527533322 1 1 1 0.013178293983213954 1 0.011655363702025506 0.014339213124615141 1 1 1 0.0080723446114598502 1 0.013405983457824887 1 1 0.012544760822707125 0.010000913261792154 1 1 1 1 1 1 1 1 1 1 0.018785058780246798 0.011144118960396446 1 1 1 1 1 1 0.010379747103595287 1 1 1 0.014169323513644473 1 1 1 1 1 0.02162233100525204 1 1 1 
</DataArray>
</CellData>
</Piece>
</UnstructuredGrid>
</VTKFile>
