<?xml version="1.0"?>
<VTKFile type="UnstructuredGrid" version="0.1" byte_order="LittleEndian">
<UnstructuredGrid>
<Piece NumberOfPoints="30881" NumberOfCells="10862">
<Points>
<DataArray type="Float64" NumberOfComponents="3" format="ascii">
-0.49999999999999828 -0.48677703703187492 0 -0.5 -0.5 0 -0.48129281494584059 -0.49338851851593718 0 -0.5 -0.5 0 -0.48129281494584059 -0.49338851851593718 0 -0.46258562989168328 -0.5 0 -0.49999999999999828 -0.48677703703187492 0 -0.48129281494584059 -0.49338851851593718 0 -0.49999999999999828 -0.48677703703187492 0 -0.4824545428279598 -0.47451624516148783 0 -0.48129281494584059 -0.49338851851593718 0 -0.49999999999999828 -0.48677703703187492 0 -0.4824545428279598 -0.47451624516148783 0 -0.5 -0.46599539173150673 0 -0.4824545428279598 -0.47451624516148783 0 -0.46853075243710779 -0.48354990242643758 0 -0.46411508256092049 -0.46598235294430129 0 -0.4824545428279598 -0.47451624516148783 0 -0.48129281494584059 -0.49338851851593718 0 -0.46853075243710779 -0.48354990242643758 0 -0.48129281494584059 -0.49338851851593718 0 -0.46258562989168328 -0.5 0 -0.48129281494584059 -0.49338851851593718 0 -0.46258562989168328 -0.5 0 -0.46853075243710779 -0.48354990242643758 0 -0.46258562989168328 -0.5 0 -0.46853075243710779 -0.48354990242643758 0 -0.45147378687733691 -0.48362213557840178 0 -0.46853075243710779 -0.48354990242643758 0 -0.45147378687733691 -0.48362213557840178 0 -0.46411508256092049 -0.46598235294430129 0 -0.4457251648104853 -0.47020164095208389 0 -0.45147378687733691 -0.48362213557840178 0 -0.46411508256092049 -0.46598235294430129 0 -0.4457251648104853 -0.47020164095208389 0 -0.45147378687733691 -0.48362213557840178 0 -0.43513446131126993 -0.48199891714758791 0 -0.45147378687733691 -0.48362213557840178 0 -0.43275163025255442 -0.5 0 -0.43513446131126993 -0.48199891714758791 0 -0.46258562989168328 -0.5 0 -0.45147378687733691 -0.48362213557840178 0 -0.43275163025255442 -0.5 0 -0.4467190029717853 -0.45478934699519452 0 -0.4422915115958943 -0.43555510214664611 0 -0.43246707723660932 -0.44794326854796312 0 -0.4457251648104853 -0.47020164095208389 0 -0.4467190029717853 -0.45478934699519452 0 -0.46411508256092049 -0.46598235294430129 0 -0.4457251648104853 -0.47020164095208389 0 -0.4467190029717853 -0.45478934699519452 0 -0.43016578207734568 -0.46313500011938619 0 -0.4467190029717853 -0.45478934699519452 0 -0.46411508256092049 -0.46598235294430129 0 -0.47114575579794699 -0.4403844242888923 0 -0.4467190029717853 -0.45478934699519452 0 -0.47114575579794699 -0.4403844242888923 0 -0.4422915115958943 -0.43555510214664611 0 -0.47114575579794699 -0.4403844242888923 0 -0.4422915115958943 -0.43555510214664611 0 -0.46411508256092049 -0.46598235294430129 0 -0.47114575579794699 -0.4403844242888923 0 -0.48354307623736548 -0.45841843211146538 0 -0.4824545428279598 -0.47451624516148783 0 -0.46411508256092049 -0.46598235294430129 0 -0.48354307623736548 -0.45841843211146538 0 -0.4824545428279598 -0.47451624516148783 0 -0.48354307623736548 -0.45841843211146538 0 -0.5 -0.46599539173150673 0 -0.48354307623736548 -0.45841843211146538 0 -0.5 -0.46599539173150673 0 -0.49999999999999972 -0.44521374643113848 0 -0.47114575579794699 -0.4403844242888923 0 -0.49999999999999972 -0.44521374643113848 0 -0.47114575579794699 -0.4403844242888923 0 -0.49999999999999972 -0.44521374643113848 0 -0.48704432221743971 -0.42935617662229603 0 -0.47114575579794699 -0.4403844242888923 0 -0.48354307623736548 -0.45841843211146538 0 -0.49999999999999972 -0.44521374643113848 0 -0.49999999999999972 -0.44521374643113848 0 -0.48704432221743971 -0.42935617662229603 0 -0.5 -0.41591957503128979 0 -0.48704432221743971 -0.42935617662229603 0 -0.5 -0.41591957503128979 0 -0.47703153307181151 -0.41590696073786332 0 -0.5 -0.41591957503128979 0 -0.47703153307181151 -0.41590696073786332 0 -0.48817838912021821 -0.4022119694541284 0 -0.47114575579794699 -0.4403844242888923 0 -0.48704432221743971 -0.42935617662229603 0 -0.47703153307181151 -0.41590696073786332 0 -0.5 -0.38662540363144121 0 -0.47568202340906118 -0.39039593841591919 0 -0.4947615751445838 -0.37332156409002909 0 -0.47568202340906118 -0.39039593841591919 0 -0.4947615751445838 -0.37332156409002909 0 -0.5 -0.38662540363144121 0 -0.48817838912021821 -0.4022119694541284 0 -0.47568202340906118 -0.39039593841591919 0 -0.5 -0.41591957503128979 0 -0.5 -0.38662540363144121 0 -0.48817838912021821 -0.4022119694541284 0 -0.47703153307181151 -0.41590696073786332 0 -0.48817838912021821 -0.4022119694541284 0 -0.47568202340906118 -0.39039593841591919 0 -0.47703153307181151 -0.41590696073786332 0 -0.47568202340906118 -0.39039593841591919 0 -0.45660247167353862 -0.40747031274180939 0 -0.47568202340906118 -0.39039593841591919 0 -0.48030931097003587 -0.37191064435083931 0 -0.46669490250066459 -0.37481721741951951 0 -0.47568202340906118 -0.39039593841591919 0 -0.4947615751445838 -0.37332156409002909 0 -0.48030931097003587 -0.37191064435083931 0 -0.45332061783919553 -0.38729481725706361 0 -0.46669490250066459 -0.37481721741951951 0 -0.45095991715087752 -0.36968037302039969 0 -0.47568202340906118 -0.39039593841591919 0 -0.45332061783919553 -0.38729481725706361 0 -0.46669490250066459 -0.37481721741951951 0 -0.47568202340906118 -0.39039593841591919 0 -0.45660247167353862 -0.40747031274180939 0 -0.47568202340906118 -0.39039593841591919 0 -0.45332061783919553 -0.38729481725706361 0 -0.45660247167353862 -0.40747031274180939 0 -0.44332653075004852 -0.401690115615219 0 -0.44646247228389868 -0.41654464256061052 0 -0.42870657106664078 -0.39987574649354879 0 -0.45332061783919553 -0.38729481725706361 0 -0.44332653075004852 -0.401690115615219 0 -0.43479631603355468 -0.39077639303142497 0 -0.45332061783919553 -0.38729481725706361 0 -0.44332653075004852 -0.401690115615219 0 -0.45660247167353862 -0.40747031274180939 0 -0.45332061783919553 -0.38729481725706361 0 -0.43421362475025049 -0.37527491429266319 0 -0.43479631603355468 -0.39077639303142497 0 -0.45332061783919553 -0.38729481725706361 0 -0.43421362475025049 -0.37527491429266319 0 -0.45095991715087752 -0.36968037302039969 0 -0.47114575579794699 -0.4403844242888923 0 -0.45663439814062529 -0.42533932462455271 0 -0.4422915115958943 -0.43555510214664611 0 -0.47114575579794699 -0.4403844242888923 0 -0.47703153307181151 -0.41590696073786332 0 -0.45663439814062529 -0.42533932462455271 0 -0.45663439814062529 -0.42533932462455271 0 -0.45660247167353862 -0.40747031274180939 0 -0.44646247228389868 -0.41654464256061052 0 -0.47703153307181151 -0.41590696073786332 0 -0.45663439814062529 -0.42533932462455271 0 -0.45660247167353862 -0.40747031274180939 0 -0.44332653075004852 -0.401690115615219 0 -0.45660247167353862 -0.40747031274180939 0 -0.44646247228389868 -0.41654464256061052 0 -0.45660247167353862 -0.40747031274180939 0 -0.44646247228389868 -0.41654464256061052 0 -0.44646247228389868 -0.41654464256061052 0 -0.4375229199380159 -0.42454468706769971 0 -0.45663439814062529 -0.42533932462455271 0 -0.4375229199380159 -0.42454468706769971 0 -0.4422915115958943 -0.43555510214664611 0 -0.45663439814062529 -0.42533932462455271 0 -0.44646247228389868 -0.41654464256061052 0 -0.4375229199380159 -0.42454468706769971 0 -0.4375229199380159 -0.42454468706769971 0 -0.4422915115958943 -0.43555510214664611 0 -0.43077617074680319 -0.43406335077952207 0 -0.43077617074680319 -0.43406335077952207 0 -0.42550232634077589 -0.42345940056268039 0 -0.41950844772475421 -0.43888456563633732 0 -0.4375229199380159 -0.42454468706769971 0 -0.43077617074680319 -0.43406335077952207 0 -0.42550232634077589 -0.42345940056268039 0 -0.44646247228389868 -0.41654464256061052 0 -0.41657232816672918 -0.41306671883907142 0 -0.42870657106664078 -0.39987574649354879 0 -0.44646247228389868 -0.41654464256061052 0 -0.4375229199380159 -0.42454468706769971 0 -0.42550232634077589 -0.42345940056268039 0 -0.44646247228389868 -0.41654464256061052 0 -0.42550232634077589 -0.42345940056268039 0 -0.41657232816672918 -0.41306671883907142 0 -0.44646247228389868 -0.41654464256061052 0 -0.41657232816672918 -0.41306671883907142 0 -0.42550232634077589 -0.42345940056268039 0 -0.41657232816672918 -0.41306671883907142 0 -0.41333489101611293 -0.42699700567040988 0 -0.41657232816672918 -0.41306671883907142 0 -0.41333489101611293 -0.42699700567040988 0 -0.39893236021425188 -0.42931692235905211 0 -0.41333489101611293 -0.42699700567040988 0 -0.39893236021425188 -0.42931692235905211 0 -0.41950844772475421 -0.43888456563633732 0 -0.42550232634077589 -0.42345940056268039 0 -0.41333489101611293 -0.42699700567040988 0 -0.41950844772475421 -0.43888456563633732 0 -0.43421362475025049 -0.37527491429266319 0 -0.42478231784314502 -0.38643128255249681 0 -0.41656514696884139 -0.37636588688318029 0 -0.43421362475025049 -0.37527491429266319 0 -0.42478231784314502 -0.38643128255249681 0 -0.43479631603355468 -0.39077639303142497 0 -0.42478231784314502 -0.38643128255249681 0 -0.43479631603355468 -0.39077639303142497 0 -0.42870657106664078 -0.39987574649354879 0 -0.44332653075004852 -0.401690115615219 0 -0.43479631603355468 -0.39077639303142497 0 -0.42870657106664078 -0.39987574649354879 0 -0.41657232816672918 -0.41306671883907142 0 -0.40962993039643741 -0.3898634720616666 0 -0.3946356370269814 -0.39577424904278191 0 -0.42478231784314502 -0.38643128255249681 0 -0.42870657106664078 -0.39987574649354879 0 -0.40962993039643741 -0.3898634720616666 0 -0.41657232816672918 -0.41306671883907142 0 -0.42870657106664078 -0.39987574649354879 0 -0.40962993039643741 -0.3898634720616666 0 -0.42478231784314502 -0.38643128255249681 0 -0.40962993039643741 -0.3898634720616666 0 -0.41656514696884139 -0.37636588688318029 0 -0.40962993039643741 -0.3898634720616666 0 -0.41656514696884139 -0.37636588688318029 0 -0.40465459864295228 -0.37650109000307358 0 -0.39431275766669582 -0.38061373190328529 0 -0.40465459864295228 -0.37650109000307358 0 -0.3968495855878465 -0.36923685638487008 0 -0.40962993039643741 -0.3898634720616666 0 -0.39431275766669582 -0.38061373190328529 0 -0.40465459864295228 -0.37650109000307358 0 -0.40962993039643741 -0.3898634720616666 0 -0.39431275766669582 -0.38061373190328529 0 -0.3946356370269814 -0.39577424904278191 0 -0.3946356370269814 -0.39577424904278191 0 -0.38704143117499401 -0.40999023144455299 0 -0.37464038230528551 -0.396492613407532 0 -0.3946356370269814 -0.39577424904278191 0 -0.37522403377147279 -0.38060127254172499 0 -0.37464038230528551 -0.396492613407532 0 -0.39431275766669582 -0.38061373190328529 0 -0.3946356370269814 -0.39577424904278191 0 -0.37522403377147279 -0.38060127254172499 0 -0.39431275766669582 -0.38061373190328529 0 -0.37522403377147279 -0.38060127254172499 0 -0.38569326772338258 -0.37053454129240582 0 -0.41657232816672918 -0.41306671883907142 0 -0.39893236021425188 -0.42931692235905211 0 -0.38704143117499401 -0.40999023144455299 0 -0.41657232816672918 -0.41306671883907142 0 -0.3946356370269814 -0.39577424904278191 0 -0.38704143117499401 -0.40999023144455299 0 -0.41657232816672918 -0.41306671883907142 0 -0.38704143117499401 -0.40999023144455299 0 -0.38704143117499401 -0.40999023144455299 0 -0.38131756488089769 -0.42670085612339947 0 -0.36377437909963828 -0.41972983174959272 0 -0.38131756488089769 -0.42670085612339947 0 -0.38339996822118783 -0.44368928783448319 0 -0.36866352395763108 -0.4313760290561211 0 -0.39893236021425188 -0.42931692235905211 0 -0.38131756488089769 -0.42670085612339947 0 -0.38339996822118783 -0.44368928783448319 0 -0.39893236021425188 -0.42931692235905211 0 -0.38704143117499401 -0.40999023144455299 0 -0.38131756488089769 -0.42670085612339947 0 -0.38339996822118783 -0.44368928783448319 0 -0.40446438048225181 -0.45117017211807442 0 -0.3895931593355052 -0.46351353191466821 0 -0.39893236021425188 -0.42931692235905211 0 -0.38339996822118783 -0.44368928783448319 0 -0.40446438048225181 -0.45117017211807442 0 -0.40446438048225181 -0.45117017211807442 0 -0.3895931593355052 -0.46351353191466821 0 -0.40280611050484572 -0.47090640128894168 0 -0.38339996822118783 -0.44368928783448319 0 -0.3895931593355052 -0.46351353191466821 0 -0.37415472949075129 -0.45946062715310632 0 -0.3895931593355052 -0.46351353191466821 0 -0.38039451612360919 -0.47713749807852829 0 -0.37415472949075129 -0.45946062715310632 0 -0.38039451612360919 -0.47713749807852829 0 -0.39198476482648659 -0.49312537606366408 0 -0.39366244928105898 -0.47747566409097131 0 -0.3895931593355052 -0.46351353191466821 0 -0.38039451612360919 -0.47713749807852829 0 -0.39366244928105898 -0.47747566409097131 0 -0.39198476482648659 -0.49312537606366408 0 -0.37055643484088358 -0.49425936316784103 0 -0.39198476482648659 -0.49312537606366408 0 -0.40291763061342539 -0.5 0 -0.37308363097429631 -0.50000000000000244 0 -0.39198476482648659 -0.49312537606366408 0 -0.37055643484088358 -0.49425936316784103 0 -0.37308363097429631 -0.50000000000000244 0 -0.38039451612360919 -0.47713749807852829 0 -0.39198476482648659 -0.49312537606366408 0 -0.37055643484088358 -0.49425936316784103 0 -0.39198476482648659 -0.49312537606366408 0 -0.41341309481208982 -0.49199138895948757 0 -0.39198476482648659 -0.49312537606366408 0 -0.39366244928105898 -0.47747566409097131 0 -0.40353369561484831 -0.48269551310905429 0 -0.39198476482648659 -0.49312537606366408 0 -0.40291763061342539 -0.5 0 -0.41341309481208982 -0.49199138895948757 0 -0.39198476482648659 -0.49312537606366408 0 -0.40353369561484831 -0.48269551310905429 0 -0.41341309481208982 -0.49199138895948757 0 -0.3895931593355052 -0.46351353191466821 0 -0.39366244928105898 -0.47747566409097131 0 -0.40280611050484572 -0.47090640128894168 0 -0.39366244928105898 -0.47747566409097131 0 -0.40353369561484831 -0.48269551310905429 0 -0.40280611050484572 -0.47090640128894168 0 -0.40280611050484572 -0.47090640128894168 0 -0.41792735015940108 -0.47619959015896091 0 -0.41524515795200517 -0.46243146669528151 0 -0.40353369561484831 -0.48269551310905429 0 -0.41792735015940108 -0.47619959015896091 0 -0.41341309481208982 -0.49199138895948757 0 -0.40353369561484831 -0.48269551310905429 0 -0.40280611050484572 -0.47090640128894168 0 -0.41792735015940108 -0.47619959015896091 0 -0.41792735015940108 -0.47619959015896091 0 -0.41341309481208982 -0.49199138895948757 0 -0.42480663413382869 -0.48754747406650911 0 -0.40291763061342539 -0.5 0 -0.41341309481208982 -0.49199138895948757 0 -0.43275163025255442 -0.5 0 -0.41341309481208982 -0.49199138895948757 0 -0.42480663413382869 -0.48754747406650911 0 -0.43275163025255442 -0.5 0 -0.42480663413382869 -0.48754747406650911 0 -0.43275163025255442 -0.5 0 -0.43513446131126993 -0.48199891714758791 0 -0.4457251648104853 -0.47020164095208389 0 -0.43513446131126993 -0.48199891714758791 0 -0.43016578207734568 -0.46313500011938619 0 -0.41792735015940108 -0.47619959015896091 0 -0.43513446131126993 -0.48199891714758791 0 -0.43016578207734568 -0.46313500011938619 0 -0.41792735015940108 -0.47619959015896091 0 -0.42480663413382869 -0.48754747406650911 0 -0.43513446131126993 -0.48199891714758791 0 -0.4467190029717853 -0.45478934699519452 0 -0.43016578207734568 -0.46313500011938619 0 -0.43246707723660932 -0.44794326854796312 0 -0.43016578207734568 -0.46313500011938619 0 -0.42051073979218989 -0.45215097324273301 0 -0.41524515795200517 -0.46243146669528151 0 -0.43016578207734568 -0.46313500011938619 0 -0.43246707723660932 -0.44794326854796312 0 -0.42051073979218989 -0.45215097324273301 0 -0.4422915115958943 -0.43555510214664611 0 -0.43077617074680319 -0.43406335077952207 0 -0.43246707723660932 -0.44794326854796312 0 -0.43077617074680319 -0.43406335077952207 0 -0.43246707723660932 -0.44794326854796312 0 -0.41950844772475421 -0.43888456563633732 0 -0.43246707723660932 -0.44794326854796312 0 -0.42051073979218989 -0.45215097324273301 0 -0.41950844772475421 -0.43888456563633732 0 -0.39893236021425188 -0.42931692235905211 0 -0.40446438048225181 -0.45117017211807442 0 -0.41950844772475421 -0.43888456563633732 0 -0.40446438048225181 -0.45117017211807442 0 -0.42051073979218989 -0.45215097324273301 0 -0.41950844772475421 -0.43888456563633732 0 -0.40446438048225181 -0.45117017211807442 0 -0.42051073979218989 -0.45215097324273301 0 -0.41524515795200517 -0.46243146669528151 0 -0.40446438048225181 -0.45117017211807442 0 -0.40280611050484572 -0.47090640128894168 0 -0.41524515795200517 -0.46243146669528151 0 -0.41792735015940108 -0.47619959015896091 0 -0.43016578207734568 -0.46313500011938619 0 -0.41524515795200517 -0.46243146669528151 0 -0.45018232007011222 -0.256765034028549 0 -0.429874989515865 -0.26165756953837482 0 -0.43598079583492633 -0.24721882136819351 0 -0.45018232007011222 -0.256765034028549 0 -0.43765198640052377 -0.27443700488157741 0 -0.429874989515865 -0.26165756953837482 0 -0.45018232007011222 -0.256765034028549 0 -0.43598079583492633 -0.24721882136819351 0 -0.45139902778349827 -0.24711062934306771 0 -0.45018232007011222 -0.256765034028549 0 -0.43765198640052377 -0.27443700488157741 0 -0.46196722525855399 -0.27174391220054139 0 -0.43765198640052377 -0.27443700488157741 0 -0.46196722525855399 -0.27174391220054139 0 -0.4476129789611048 -0.29283803371489903 0 -0.46196722525855399 -0.27174391220054139 0 -0.48050148842732221 -0.25523221810557922 0 -0.46267023581878858 -0.24817136713935201 0 -0.45018232007011222 -0.256765034028549 0 -0.46196722525855399 -0.27174391220054139 0 -0.46267023581878858 -0.24817136713935201 0 -0.45018232007011222 -0.256765034028549 0 -0.46267023581878858 -0.24817136713935201 0 -0.45139902778349827 -0.24711062934306771 0 -0.48050148842732221 -0.25523221810557922 0 -0.5 -0.26944871803204617 0 -0.5 -0.2401545466321974 0 -0.48050148842732221 -0.25523221810557922 0 -0.5 -0.26944871803204617 0 -0.48245797385404121 -0.28063059353633901 0 -0.46196722525855399 -0.27174391220054139 0 -0.48050148842732221 -0.25523221810557922 0 -0.48245797385404121 -0.28063059353633901 0 -0.46196722525855399 -0.27174391220054139 0 -0.48245797385404121 -0.28063059353633901 0 -0.46937090116945868 -0.29821258941183898 0 -0.48245797385404121 -0.28063059353633901 0 -0.5 -0.29874288943189498 0 -0.46937090116945868 -0.29821258941183898 0 -0.5 -0.26944871803204617 0 -0.48245797385404121 -0.28063059353633901 0 -0.5 -0.29874288943189498 0 -0.5 -0.29874288943189498 0 -0.46937090116945868 -0.29821258941183898 0 -0.47623524987602139 -0.32201367690444971 0 -0.46937090116945868 -0.29821258941183898 0 -0.4476129789611048 -0.29283803371489903 0 -0.45018982867155483 -0.32180400573951162 0 -0.46196722525855399 -0.27174391220054139 0 -0.46937090116945868 -0.29821258941183898 0 -0.4476129789611048 -0.29283803371489903 0 -0.43765198640052377 -0.27443700488157741 0 -0.4476129789611048 -0.29283803371489903 0 -0.43236213870239748 -0.29002705800971151 0 -0.4476129789611048 -0.29283803371489903 0 -0.45018982867155483 -0.32180400573951162 0 -0.4314578060398388 -0.3048790663939604 0 -0.45018982867155483 -0.32180400573951162 0 -0.4314578060398388 -0.3048790663939604 0 -0.45018982867155483 -0.32180400573951162 0 -0.46157657978994598 -0.34139555482026068 0 -0.43521386225128428 -0.33802231259611382 0 -0.46157657978994598 -0.34139555482026068 0 -0.43521386225128428 -0.33802231259611382 0 -0.45018982867155483 -0.32180400573951162 0 -0.46157657978994598 -0.34139555482026068 0 -0.47623524987602139 -0.32201367690444971 0 -0.46937090116945868 -0.29821258941183898 0 -0.45018982867155483 -0.32180400573951162 0 -0.47623524987602139 -0.32201367690444971 0 -0.5 -0.29874288943189498 0 -0.47623524987602139 -0.32201367690444971 0 -0.5 -0.32803706083174372 0 -0.47623524987602139 -0.32201367690444971 0 -0.5 -0.32803706083174372 0 -0.48561656391384522 -0.34384835974822991 0 -0.5 -0.32803706083174372 0 -0.5 -0.35733123223159241 0 -0.48561656391384522 -0.34384835974822991 0 -0.46157657978994598 -0.34139555482026068 0 -0.47623524987602139 -0.32201367690444971 0 -0.48561656391384522 -0.34384835974822991 0 -0.46157657978994598 -0.34139555482026068 0 -0.47568148196104371 -0.35852722048879659 0 -0.48561656391384522 -0.34384835974822991 0 -0.47568148196104371 -0.35852722048879659 0 -0.48561656391384522 -0.34384835974822991 0 -0.48768886795130861 -0.36141736908419309 0 -0.5 -0.35733123223159241 0 -0.48561656391384522 -0.34384835974822991 0 -0.48768886795130861 -0.36141736908419309 0 -0.5 -0.35733123223159241 0 -0.4947615751445838 -0.37332156409002909 0 -0.48768886795130861 -0.36141736908419309 0 -0.5 -0.38662540363144121 0 -0.5 -0.35733123223159241 0 -0.4947615751445838 -0.37332156409002909 0 -0.4947615751445838 -0.37332156409002909 0 -0.48768886795130861 -0.36141736908419309 0 -0.48030931097003587 -0.37191064435083931 0 -0.47568148196104371 -0.35852722048879659 0 -0.48030931097003587 -0.37191064435083931 0 -0.46669490250066459 -0.37481721741951951 0 -0.47568148196104371 -0.35852722048879659 0 -0.48768886795130861 -0.36141736908419309 0 -0.48030931097003587 -0.37191064435083931 0 -0.46669490250066459 -0.37481721741951951 0 -0.45985290530711531 -0.35919053618658509 0 -0.45095991715087752 -0.36968037302039969 0 -0.47568148196104371 -0.35852722048879659 0 -0.46669490250066459 -0.37481721741951951 0 -0.45985290530711531 -0.35919053618658509 0 -0.46157657978994598 -0.34139555482026068 0 -0.47568148196104371 -0.35852722048879659 0 -0.45985290530711531 -0.35919053618658509 0 -0.46157657978994598 -0.34139555482026068 0 -0.45985290530711531 -0.35919053618658509 0 -0.44091292170358748 -0.35617636658334351 0 -0.46157657978994598 -0.34139555482026068 0 -0.44091292170358748 -0.35617636658334351 0 -0.43521386225128428 -0.33802231259611382 0 -0.43421362475025049 -0.37527491429266319 0 -0.44091292170358748 -0.35617636658334351 0 -0.45095991715087752 -0.36968037302039969 0 -0.45985290530711531 -0.35919053618658509 0 -0.44091292170358748 -0.35617636658334351 0 -0.45095991715087752 -0.36968037302039969 0 -0.43421362475025049 -0.37527491429266319 0 -0.41656514696884139 -0.37636588688318029 0 -0.42218579342164808 -0.36334977441807748 0 -0.43421362475025049 -0.37527491429266319 0 -0.44091292170358748 -0.35617636658334351 0 -0.42218579342164808 -0.36334977441807748 0 -0.44091292170358748 -0.35617636658334351 0 -0.42218579342164808 -0.36334977441807748 0 -0.42066840753926321 -0.34864312644900147 0 -0.44091292170358748 -0.35617636658334351 0 -0.42066840753926321 -0.34864312644900147 0 -0.43521386225128428 -0.33802231259611382 0 -0.42218579342164808 -0.36334977441807748 0 -0.42066840753926321 -0.34864312644900147 0 -0.40690054455725883 -0.35815659477868023 0 -0.40690054455725883 -0.35815659477868023 0 -0.40885114471262263 -0.334649070371968 0 -0.42066840753926321 -0.34864312644900147 0 -0.40690054455725883 -0.35815659477868023 0 -0.40885114471262263 -0.334649070371968 0 -0.42218579342164808 -0.36334977441807748 0 -0.40690054455725883 -0.35815659477868023 0 -0.40625971269279348 -0.36587953617857771 0 -0.40690054455725883 -0.35815659477868023 0 -0.40625971269279348 -0.36587953617857771 0 -0.41656514696884139 -0.37636588688318029 0 -0.42218579342164808 -0.36334977441807748 0 -0.40625971269279348 -0.36587953617857771 0 -0.42218579342164808 -0.36334977441807748 0 -0.40690054455725883 -0.35815659477868023 0 -0.41656514696884139 -0.37636588688318029 0 -0.40465459864295228 -0.37650109000307358 0 -0.40625971269279348 -0.36587953617857771 0 -0.40465459864295228 -0.37650109000307358 0 -0.40625971269279348 -0.36587953617857771 0 -0.3968495855878465 -0.36923685638487008 0 -0.40690054455725883 -0.35815659477868023 0 -0.40029228617445223 -0.36350286704594809 0 -0.3911593018599101 -0.36073848084166482 0 -0.40625971269279348 -0.36587953617857771 0 -0.40029228617445223 -0.36350286704594809 0 -0.3968495855878465 -0.36923685638487008 0 -0.40690054455725883 -0.35815659477868023 0 -0.40625971269279348 -0.36587953617857771 0 -0.40029228617445223 -0.36350286704594809 0 -0.3911593018599101 -0.36073848084166482 0 -0.3968495855878465 -0.36923685638487008 0 -0.38569326772338258 -0.37053454129240582 0 -0.40029228617445223 -0.36350286704594809 0 -0.3911593018599101 -0.36073848084166482 0 -0.3968495855878465 -0.36923685638487008 0 -0.39431275766669582 -0.38061373190328529 0 -0.3968495855878465 -0.36923685638487008 0 -0.38569326772338258 -0.37053454129240582 0 -0.3911593018599101 -0.36073848084166482 0 -0.38569326772338258 -0.37053454129240582 0 -0.37568472164775779 -0.36524225821647011 0 -0.37522403377147279 -0.38060127254172499 0 -0.38569326772338258 -0.37053454129240582 0 -0.37568472164775779 -0.36524225821647011 0 -0.3911593018599101 -0.36073848084166482 0 -0.37568472164775779 -0.36524225821647011 0 -0.38024887903539811 -0.3491016629308506 0 -0.40690054455725883 -0.35815659477868023 0 -0.3911593018599101 -0.36073848084166482 0 -0.38024887903539811 -0.3491016629308506 0 -0.40690054455725883 -0.35815659477868023 0 -0.38024887903539811 -0.3491016629308506 0 -0.39533213247953691 -0.34338662223350158 0 -0.40690054455725883 -0.35815659477868023 0 -0.39533213247953691 -0.34338662223350158 0 -0.40885114471262263 -0.334649070371968 0 -0.40690054455725883 -0.35815659477868023 0 -0.38024887903539811 -0.3491016629308506 0 -0.39533213247953691 -0.34338662223350158 0 -0.38532796161286798 -0.33163916085250739 0 -0.40885114471262263 -0.334649070371968 0 -0.38532796161286798 -0.33163916085250739 0 -0.40885114471262263 -0.334649070371968 0 -0.38024887903539811 -0.3491016629308506 0 -0.39533213247953691 -0.34338662223350158 0 -0.38532796161286798 -0.33163916085250739 0 -0.38024887903539811 -0.3491016629308506 0 -0.38532796161286798 -0.33163916085250739 0 -0.37024470816872912 -0.33735420154985679 0 -0.38532796161286798 -0.33163916085250739 0 -0.37601492727600683 -0.3197696392392384 0 -0.39293033406270472 -0.31505081143976649 0 -0.37601492727600683 -0.3197696392392384 0 -0.39293033406270472 -0.31505081143976649 0 -0.37651642550459341 -0.307078797330949 0 -0.38532796161286798 -0.33163916085250739 0 -0.39293033406270472 -0.31505081143976649 0 -0.40885114471262263 -0.334649070371968 0 -0.39293033406270472 -0.31505081143976649 0 -0.40885114471262263 -0.334649070371968 0 -0.41078846406037228 -0.3113015987101887 0 -0.40885114471262263 -0.334649070371968 0 -0.42554877913925399 -0.3223331804902434 0 -0.41078846406037228 -0.3113015987101887 0 -0.40885114471262263 -0.334649070371968 0 -0.41078846406037228 -0.3113015987101887 0 -0.42066840753926321 -0.34864312644900147 0 -0.40885114471262263 -0.334649070371968 0 -0.43521386225128428 -0.33802231259611382 0 -0.40885114471262263 -0.334649070371968 0 -0.43521386225128428 -0.33802231259611382 0 -0.40885114471262263 -0.334649070371968 0 -0.43521386225128428 -0.33802231259611382 0 -0.42554877913925399 -0.3223331804902434 0 -0.42554877913925399 -0.3223331804902434 0 -0.4314578060398388 -0.3048790663939604 0 -0.41078846406037228 -0.3113015987101887 0 -0.45018982867155483 -0.32180400573951162 0 -0.43521386225128428 -0.33802231259611382 0 -0.42554877913925399 -0.3223331804902434 0 -0.45018982867155483 -0.32180400573951162 0 -0.42554877913925399 -0.3223331804902434 0 -0.4314578060398388 -0.3048790663939604 0 -0.4476129789611048 -0.29283803371489903 0 -0.4314578060398388 -0.3048790663939604 0 -0.43236213870239748 -0.29002705800971151 0 -0.4314578060398388 -0.3048790663939604 0 -0.43236213870239748 -0.29002705800971151 0 -0.41272578340812272 -0.2879541270484095 0 -0.4314578060398388 -0.3048790663939604 0 -0.41272578340812272 -0.2879541270484095 0 -0.43765198640052377 -0.27443700488157741 0 -0.43236213870239748 -0.29002705800971151 0 -0.41272578340812272 -0.2879541270484095 0 -0.4314578060398388 -0.3048790663939604 0 -0.41272578340812272 -0.2879541270484095 0 -0.41078846406037228 -0.3113015987101887 0 -0.41272578340812272 -0.2879541270484095 0 -0.41078846406037228 -0.3113015987101887 0 -0.41272578340812272 -0.2879541270484095 0 -0.41078846406037228 -0.3113015987101887 0 -0.39233272698174793 -0.29435547039456872 0 -0.39293033406270472 -0.31505081143976649 0 -0.41078846406037228 -0.3113015987101887 0 -0.39233272698174793 -0.29435547039456872 0 -0.39293033406270472 -0.31505081143976649 0 -0.37651642550459341 -0.307078797330949 0 -0.39233272698174793 -0.29435547039456872 0 -0.39233272698174793 -0.29435547039456872 0 -0.39278725088820249 -0.26993907014966689 0 -0.37040839911066209 -0.28171057629616708 0 -0.37651642550459341 -0.307078797330949 0 -0.39233272698174793 -0.29435547039456872 0 -0.37040839911066209 -0.28171057629616708 0 -0.41272578340812272 -0.2879541270484095 0 -0.39233272698174793 -0.29435547039456872 0 -0.39278725088820249 -0.26993907014966689 0 -0.41272578340812272 -0.2879541270484095 0 -0.39278725088820249 -0.26993907014966689 0 -0.39278725088820249 -0.26993907014966689 0 -0.37040839911066209 -0.28171057629616708 0 -0.39278725088820249 -0.26993907014966689 0 -0.37533687834285862 -0.25417213976024849 0 -0.37040839911066209 -0.28171057629616708 0 -0.39278725088820249 -0.26993907014966689 0 -0.37533687834285862 -0.25417213976024849 0 -0.39826986996263802 -0.25360934065352753 0 -0.39278725088820249 -0.26993907014966689 0 -0.37533687834285862 -0.25417213976024849 0 -0.39278725088820249 -0.26993907014966689 0 -0.39826986996263802 -0.25360934065352753 0 -0.41519883225968468 -0.25815034790020708 0 -0.39278725088820249 -0.26993907014966689 0 -0.41519883225968468 -0.25815034790020708 0 -0.39826986996263802 -0.25360934065352753 0 -0.41519883225968468 -0.25815034790020708 0 -0.41615383063077721 -0.2466412503256647 0 -0.41519883225968468 -0.25815034790020708 0 -0.41615383063077721 -0.2466412503256647 0 -0.41272578340812272 -0.2879541270484095 0 -0.41519883225968468 -0.25815034790020708 0 -0.41272578340812272 -0.2879541270484095 0 -0.41519883225968468 -0.25815034790020708 0 -0.429874989515865 -0.26165756953837482 0 -0.41272578340812272 -0.2879541270484095 0 -0.39278725088820249 -0.26993907014966689 0 -0.41519883225968468 -0.25815034790020708 0 -0.43765198640052377 -0.27443700488157741 0 -0.41272578340812272 -0.2879541270484095 0 -0.429874989515865 -0.26165756953837482 0 -0.41519883225968468 -0.25815034790020708 0 -0.43598079583492633 -0.24721882136819351 0 -0.41519883225968468 -0.25815034790020708 0 -0.429874989515865 -0.26165756953837482 0 -0.43598079583492633 -0.24721882136819351 0 -0.41519883225968468 -0.25815034790020708 0 -0.43598079583492633 -0.24721882136819351 0 -0.41615383063077721 -0.2466412503256647 0 -0.31968345090478489 -0.25798973640781447 0 -0.33623326073948312 -0.25365348176558788 0 -0.32213598881581812 -0.2442700999577708 0 -0.31968345090478489 -0.25798973640781447 0 -0.31319680135340772 -0.27337899374224139 0 -0.30564385326437488 -0.26015983685037081 0 -0.31968345090478489 -0.25798973640781447 0 -0.31319680135340772 -0.27337899374224139 0 -0.33256675641106698 -0.27199424518209242 0 -0.31319680135340772 -0.27337899374224139 0 -0.33256675641106698 -0.27199424518209242 0 -0.3219330120753135 -0.28752383142540722 0 -0.33256675641106698 -0.27199424518209242 0 -0.33623326073948312 -0.25365348176558788 0 -0.35329637777243872 -0.26495799818728782 0 -0.31968345090478489 -0.25798973640781447 0 -0.33256675641106698 -0.27199424518209242 0 -0.33623326073948312 -0.25365348176558788 0 -0.33623326073948312 -0.25365348176558788 0 -0.35329637777243872 -0.26495799818728782 0 -0.35305879752332059 -0.24486073726717009 0 -0.37533687834285862 -0.25417213976024849 0 -0.35329637777243872 -0.26495799818728782 0 -0.35305879752332059 -0.24486073726717009 0 -0.37533687834285862 -0.25417213976024849 0 -0.35329637777243872 -0.26495799818728782 0 -0.37040839911066209 -0.28171057629616708 0 -0.35329637777243872 -0.26495799818728782 0 -0.34802954733312141 -0.29348208244266671 0 -0.37040839911066209 -0.28171057629616708 0 -0.33256675641106698 -0.27199424518209242 0 -0.35329637777243872 -0.26495799818728782 0 -0.34802954733312141 -0.29348208244266671 0 -0.34802954733312141 -0.29348208244266671 0 -0.37040839911066209 -0.28171057629616708 0 -0.37651642550459341 -0.307078797330949 0 -0.37040839911066209 -0.28171057629616708 0 -0.36249180620921062 -0.30132401124355712 0 -0.34802954733312141 -0.29348208244266671 0 -0.37040839911066209 -0.28171057629616708 0 -0.36249180620921062 -0.30132401124355712 0 -0.37651642550459341 -0.307078797330949 0 -0.36249180620921062 -0.30132401124355712 0 -0.36514172279026702 -0.314674684486903 0 -0.36249180620921062 -0.30132401124355712 0 -0.35217384865543538 -0.31302074178168637 0 -0.36514172279026702 -0.314674684486903 0 -0.34802954733312141 -0.29348208244266671 0 -0.33894022777705518 -0.31261958861733652 0 -0.35217384865543538 -0.31302074178168637 0 -0.34802954733312141 -0.29348208244266671 0 -0.36249180620921062 -0.30132401124355712 0 -0.35217384865543538 -0.31302074178168637 0 -0.34802954733312141 -0.29348208244266671 0 -0.32565069555558063 -0.30525358858916618 0 -0.33894022777705518 -0.31261958861733652 0 -0.34802954733312141 -0.29348208244266671 0 -0.32565069555558063 -0.30525358858916618 0 -0.32565069555558063 -0.30525358858916618 0 -0.32940773276489932 -0.31652548782855527 0 -0.33894022777705518 -0.31261958861733652 0 -0.33256675641106698 -0.27199424518209242 0 -0.34802954733312141 -0.29348208244266671 0 -0.3219330120753135 -0.28752383142540722 0 -0.34802954733312141 -0.29348208244266671 0 -0.3219330120753135 -0.28752383142540722 0 -0.32565069555558063 -0.30525358858916618 0 -0.3219330120753135 -0.28752383142540722 0 -0.31228269981280887 -0.29918463989613459 0 -0.30483638085835207 -0.28788342401786787 0 -0.31319680135340772 -0.27337899374224139 0 -0.3219330120753135 -0.28752383142540722 0 -0.30483638085835207 -0.28788342401786787 0 -0.32565069555558063 -0.30525358858916618 0 -0.30327184377803978 -0.31702509473566581 0 -0.31228269981280887 -0.29918463989613459 0 -0.3219330120753135 -0.28752383142540722 0 -0.32565069555558063 -0.30525358858916618 0 -0.31228269981280887 -0.29918463989613459 0 -0.32565069555558063 -0.30525358858916618 0 -0.30327184377803978 -0.31702509473566581 0 -0.31475841231360341 -0.32260943229412947 0 -0.32694554799167658 -0.33099179923519167 0 -0.33828159541335823 -0.32561934181358893 0 -0.32565069555558063 -0.30525358858916618 0 -0.31475841231360341 -0.32260943229412947 0 -0.30327184377803978 -0.31702509473566581 0 -0.31475841231360341 -0.32260943229412947 0 -0.33828159541335823 -0.32561934181358893 0 -0.32940773276489932 -0.31652548782855527 0 -0.32565069555558063 -0.30525358858916618 0 -0.31475841231360341 -0.32260943229412947 0 -0.32940773276489932 -0.31652548782855527 0 -0.31475841231360341 -0.32260943229412947 0 -0.33828159541335823 -0.32561934181358893 0 -0.31475841231360341 -0.32260943229412947 0 -0.31372637242327511 -0.33497634201883658 0 -0.32694554799167658 -0.33099179923519167 0 -0.32694554799167658 -0.33099179923519167 0 -0.32737612656656928 -0.35021722948502532 0 -0.3170311031704231 -0.34491623006635341 0 -0.31372637242327511 -0.33497634201883658 0 -0.32694554799167658 -0.33099179923519167 0 -0.3170311031704231 -0.34491623006635341 0 -0.31372637242327511 -0.33497634201883658 0 -0.3170311031704231 -0.34491623006635341 0 -0.30849554643820359 -0.34481279163420842 0 -0.32694554799167658 -0.33099179923519167 0 -0.33828159541335823 -0.32561934181358893 0 -0.35359721351353718 -0.34004673108302108 0 -0.32694554799167658 -0.33099179923519167 0 -0.35359721351353718 -0.34004673108302108 0 -0.33765025977867152 -0.34480892108230998 0 -0.32694554799167658 -0.33099179923519167 0 -0.35359721351353718 -0.34004673108302108 0 -0.32694554799167658 -0.33099179923519167 0 -0.33765025977867152 -0.34480892108230998 0 -0.32737612656656928 -0.35021722948502532 0 -0.33828159541335823 -0.32561934181358893 0 -0.32940773276489932 -0.31652548782855527 0 -0.33894022777705518 -0.31261958861733652 0 -0.33828159541335823 -0.32561934181358893 0 -0.33894022777705518 -0.31261958861733652 0 -0.35217384865543538 -0.31302074178168637 0 -0.33828159541335823 -0.32561934181358893 0 -0.3618047785131131 -0.32862925133304821 0 -0.33828159541335823 -0.32561934181358893 0 -0.35217384865543538 -0.31302074178168637 0 -0.3618047785131131 -0.32862925133304821 0 -0.38532796161286798 -0.33163916085250739 0 -0.37601492727600683 -0.3197696392392384 0 -0.3618047785131131 -0.32862925133304821 0 -0.35217384865543538 -0.31302074178168637 0 -0.36514172279026702 -0.314674684486903 0 -0.3618047785131131 -0.32862925133304821 0 -0.37601492727600683 -0.3197696392392384 0 -0.36514172279026702 -0.314674684486903 0 -0.3618047785131131 -0.32862925133304821 0 -0.37601492727600683 -0.3197696392392384 0 -0.37651642550459341 -0.307078797330949 0 -0.36514172279026702 -0.314674684486903 0 -0.38532796161286798 -0.33163916085250739 0 -0.37024470816872912 -0.33735420154985679 0 -0.3618047785131131 -0.32862925133304821 0 -0.37024470816872912 -0.33735420154985679 0 -0.3618047785131131 -0.32862925133304821 0 -0.35359721351353718 -0.34004673108302108 0 -0.38532796161286798 -0.33163916085250739 0 -0.3618047785131131 -0.32862925133304821 0 -0.38024887903539811 -0.3491016629308506 0 -0.37024470816872912 -0.33735420154985679 0 -0.35359721351353718 -0.34004673108302108 0 -0.33828159541335823 -0.32561934181358893 0 -0.3618047785131131 -0.32862925133304821 0 -0.35359721351353718 -0.34004673108302108 0 -0.35359721351353718 -0.34004673108302108 0 -0.36247207576052709 -0.35740109745143939 0 -0.34268215104290278 -0.35797992452600158 0 -0.35359721351353718 -0.34004673108302108 0 -0.34268215104290278 -0.35797992452600158 0 -0.33765025977867152 -0.34480892108230998 0 -0.37568472164775779 -0.36524225821647011 0 -0.38024887903539811 -0.3491016629308506 0 -0.36247207576052709 -0.35740109745143939 0 -0.38024887903539811 -0.3491016629308506 0 -0.35359721351353718 -0.34004673108302108 0 -0.36247207576052709 -0.35740109745143939 0 -0.38024887903539811 -0.3491016629308506 0 -0.35359721351353718 -0.34004673108302108 0 -0.37522403377147279 -0.38060127254172499 0 -0.37568472164775779 -0.36524225821647011 0 -0.35964608014779109 -0.37334112637938882 0 -0.37568472164775779 -0.36524225821647011 0 -0.36247207576052709 -0.35740109745143939 0 -0.35964608014779109 -0.37334112637938882 0 -0.36247207576052709 -0.35740109745143939 0 -0.35964608014779109 -0.37334112637938882 0 -0.34268215104290278 -0.35797992452600158 0 -0.35964608014779109 -0.37334112637938882 0 -0.34268215104290278 -0.35797992452600158 0 -0.34254000635277743 -0.38197763020755832 0 -0.34268215104290278 -0.35797992452600158 0 -0.32737612656656928 -0.35021722948502532 0 -0.32270418411731933 -0.37181077970513959 0 -0.34268215104290278 -0.35797992452600158 0 -0.32270418411731933 -0.37181077970513959 0 -0.34254000635277743 -0.38197763020755832 0 -0.34268215104290278 -0.35797992452600158 0 -0.34254000635277743 -0.38197763020755832 0 -0.34268215104290278 -0.35797992452600158 0 -0.33765025977867152 -0.34480892108230998 0 -0.32737612656656928 -0.35021722948502532 0 -0.32737612656656928 -0.35021722948502532 0 -0.31662274924076123 -0.35606216629487569 0 -0.32270418411731933 -0.37181077970513959 0 -0.32737612656656928 -0.35021722948502532 0 -0.3170311031704231 -0.34491623006635341 0 -0.31662274924076123 -0.35606216629487569 0 -0.3170311031704231 -0.34491623006635341 0 -0.31662274924076123 -0.35606216629487569 0 -0.30902027636205309 -0.35243705172998302 0 -0.31662274924076123 -0.35606216629487569 0 -0.32270418411731933 -0.37181077970513959 0 -0.30796050174877349 -0.36016317053514468 0 -0.32270418411731933 -0.37181077970513959 0 -0.29719619905707523 -0.36594012765828582 0 -0.30796050174877349 -0.36016317053514468 0 -0.32270418411731933 -0.37181077970513959 0 -0.29719619905707523 -0.36594012765828582 0 -0.3103864423796594 -0.37828470113645102 0 -0.32270418411731933 -0.37181077970513959 0 -0.29719619905707523 -0.36594012765828582 0 -0.29719619905707523 -0.36594012765828582 0 -0.29943295026653399 -0.35953932364306618 0 -0.30796050174877349 -0.36016317053514468 0 -0.29719619905707523 -0.36594012765828582 0 -0.29584447723995128 -0.37444813956539807 0 -0.3103864423796594 -0.37828470113645102 0 -0.31662274924076123 -0.35606216629487569 0 -0.30796050174877349 -0.36016317053514468 0 -0.30902027636205309 -0.35243705172998302 0 -0.30796050174877349 -0.36016317053514468 0 -0.30902027636205309 -0.35243705172998302 0 -0.30278665144889838 -0.35518957417951802 0 -0.3170311031704231 -0.34491623006635341 0 -0.30902027636205309 -0.35243705172998302 0 -0.30849554643820359 -0.34481279163420842 0 -0.30902027636205309 -0.35243705172998302 0 -0.30849554643820359 -0.34481279163420842 0 -0.30076474035813339 -0.34759465108555682 0 -0.30849554643820359 -0.34481279163420842 0 -0.30076474035813339 -0.34759465108555682 0 -0.30398917998114899 -0.33934800480643368 0 -0.30902027636205309 -0.35243705172998302 0 -0.30076474035813339 -0.34759465108555682 0 -0.30278665144889838 -0.35518957417951802 0 -0.29943295026653399 -0.35953932364306618 0 -0.30796050174877349 -0.36016317053514468 0 -0.30278665144889838 -0.35518957417951802 0 -0.30076474035813339 -0.34759465108555682 0 -0.30278665144889838 -0.35518957417951802 0 -0.29719830368448108 -0.35301728683459582 0 -0.29943295026653399 -0.35953932364306618 0 -0.30278665144889838 -0.35518957417951802 0 -0.29719830368448108 -0.35301728683459582 0 -0.29943295026653399 -0.35953932364306618 0 -0.29719830368448108 -0.35301728683459582 0 -0.29016743694869812 -0.35649807524262711 0 -0.29016743694869812 -0.35649807524262711 0 -0.28284547851944208 -0.35047845284871731 0 -0.27168821399683141 -0.36006947561143121 0 -0.29719830368448108 -0.35301728683459582 0 -0.29016743694869812 -0.35649807524262711 0 -0.2925915294609488 -0.34919256188026188 0 -0.2925915294609488 -0.34919256188026188 0 -0.28611540962297188 -0.3426453659285974 0 -0.29619358151489988 -0.34015641309103278 0 -0.30076474035813339 -0.34759465108555682 0 -0.29719830368448108 -0.35301728683459582 0 -0.2925915294609488 -0.34919256188026188 0 -0.30076474035813339 -0.34759465108555682 0 -0.2925915294609488 -0.34919256188026188 0 -0.29619358151489988 -0.34015641309103278 0 -0.2925915294609488 -0.34919256188026188 0 -0.28284547851944208 -0.35047845284871731 0 -0.28611540962297188 -0.3426453659285974 0 -0.28284547851944208 -0.35047845284871731 0 -0.27676447355633299 -0.3457480812413124 0 -0.28611540962297188 -0.3426453659285974 0 -0.29016743694869812 -0.35649807524262711 0 -0.2925915294609488 -0.34919256188026188 0 -0.28284547851944208 -0.35047845284871731 0 -0.29202770366946113 -0.36668513997228358 0 -0.27168821399683141 -0.36006947561143121 0 -0.28307956849111848 -0.3828068929804474 0 -0.29719619905707523 -0.36594012765828582 0 -0.27168821399683141 -0.36006947561143121 0 -0.29202770366946113 -0.36668513997228358 0 -0.28307956849111848 -0.3828068929804474 0 -0.29202770366946113 -0.36668513997228358 0 -0.29584447723995128 -0.37444813956539807 0 -0.28307956849111848 -0.3828068929804474 0 -0.29719619905707523 -0.36594012765828582 0 -0.29016743694869812 -0.35649807524262711 0 -0.27168821399683141 -0.36006947561143121 0 -0.29719619905707523 -0.36594012765828582 0 -0.29202770366946113 -0.36668513997228358 0 -0.27168821399683141 -0.36006947561143121 0 -0.29719619905707523 -0.36594012765828582 0 -0.29943295026653399 -0.35953932364306618 0 -0.29016743694869812 -0.35649807524262711 0 -0.29719619905707523 -0.36594012765828582 0 -0.29202770366946113 -0.36668513997228358 0 -0.29584447723995128 -0.37444813956539807 0 -0.27168821399683141 -0.36006947561143121 0 -0.28307956849111848 -0.3828068929804474 0 -0.27168821399683141 -0.36006947561143121 0 -0.28307956849111848 -0.3828068929804474 0 -0.26050234447883253 -0.38027693877573482 0 -0.27168821399683141 -0.36006947561143121 0 -0.25721723303835431 -0.36623646057876708 0 -0.26050234447883253 -0.38027693877573482 0 -0.27168821399683141 -0.36006947561143121 0 -0.25721723303835431 -0.36623646057876708 0 -0.24850069890613241 -0.35473287875334369 0 -0.25721723303835431 -0.36623646057876708 0 -0.24817767477162081 -0.36986654917455902 0 -0.24850069890613241 -0.35473287875334369 0 -0.25721723303835431 -0.36623646057876708 0 -0.26050234447883253 -0.38027693877573482 0 -0.24817767477162081 -0.36986654917455902 0 -0.27168821399683141 -0.36006947561143121 0 -0.25445926970156468 -0.34270101061729968 0 -0.24850069890613241 -0.35473287875334369 0 -0.27168821399683141 -0.36006947561143121 0 -0.26120815563270988 -0.3391510272218049 0 -0.25445926970156468 -0.34270101061729968 0 -0.27168821399683141 -0.36006947561143121 0 -0.24850069890613241 -0.35473287875334369 0 -0.27168821399683141 -0.36006947561143121 0 -0.27676447355633299 -0.3457480812413124 0 -0.26120815563270988 -0.3391510272218049 0 -0.27168821399683141 -0.36006947561143121 0 -0.26120815563270988 -0.3391510272218049 0 -0.28284547851944208 -0.35047845284871731 0 -0.27168821399683141 -0.36006947561143121 0 -0.27676447355633299 -0.3457480812413124 0 -0.27676447355633299 -0.3457480812413124 0 -0.27858368134566353 -0.33798527866036399 0 -0.28611540962297188 -0.3426453659285974 0 -0.27676447355633299 -0.3457480812413124 0 -0.27858368134566353 -0.33798527866036399 0 -0.26120815563270988 -0.3391510272218049 0 -0.28089299200049878 -0.32879660088216478 0 -0.26120815563270988 -0.3391510272218049 0 -0.28089299200049878 -0.32879660088216478 0 -0.26120815563270988 -0.3391510272218049 0 -0.26730676106940449 -0.32685643845792262 0 -0.27858368134566353 -0.33798527866036399 0 -0.28089299200049878 -0.32879660088216478 0 -0.26120815563270988 -0.3391510272218049 0 -0.26120815563270988 -0.3391510272218049 0 -0.26057751607960811 -0.32279583566460812 0 -0.26730676106940449 -0.32685643845792262 0 -0.26120815563270988 -0.3391510272218049 0 -0.25273748935779161 -0.32224337373924072 0 -0.26120815563270988 -0.3391510272218049 0 -0.25207330520806498 -0.33378255792528982 0 -0.25273748935779161 -0.32224337373924072 0 -0.26120815563270988 -0.3391510272218049 0 -0.25445926970156468 -0.34270101061729968 0 -0.25207330520806498 -0.33378255792528982 0 -0.25445926970156468 -0.34270101061729968 0 -0.2460450098649074 -0.33743905859998191 0 -0.26120815563270988 -0.3391510272218049 0 -0.25207330520806498 -0.33378255792528982 0 -0.25445926970156468 -0.34270101061729968 0 -0.25273748935779161 -0.32224337373924072 0 -0.26050456352867191 -0.3149367065078193 0 -0.24426682308287331 -0.30533572025667649 0 -0.26120815563270988 -0.3391510272218049 0 -0.25273748935779161 -0.32224337373924072 0 -0.26057751607960811 -0.32279583566460812 0 -0.26057751607960811 -0.32279583566460812 0 -0.26050456352867191 -0.3149367065078193 0 -0.26730676106940449 -0.32685643845792262 0 -0.25273748935779161 -0.32224337373924072 0 -0.26057751607960811 -0.32279583566460812 0 -0.26050456352867191 -0.3149367065078193 0 -0.28089299200049878 -0.32879660088216478 0 -0.26050456352867191 -0.3149367065078193 0 -0.27445713665833338 -0.31633796571173628 0 -0.28089299200049878 -0.32879660088216478 0 -0.26050456352867191 -0.3149367065078193 0 -0.26050456352867191 -0.3149367065078193 0 -0.27445713665833338 -0.31633796571173628 0 -0.26793999894844561 -0.31004618489902153 0 -0.28089299200049878 -0.32879660088216478 0 -0.26050456352867191 -0.3149367065078193 0 -0.26730676106940449 -0.32685643845792262 0 -0.28089299200049878 -0.32879660088216478 0 -0.27445713665833338 -0.31633796571173628 0 -0.28125105682705043 -0.31976055402590231 0 -0.27445713665833338 -0.31633796571173628 0 -0.28252008875028978 -0.31254235777143202 0 -0.28125105682705043 -0.31976055402590231 0 -0.28252008875028978 -0.31254235777143202 0 -0.28823329624350208 -0.31711313423980658 0 -0.29327146190654751 -0.30876504511160502 0 -0.28089299200049878 -0.32879660088216478 0 -0.28823329624350208 -0.31711313423980658 0 -0.30327184377803978 -0.31702509473566581 0 -0.28089299200049878 -0.32879660088216478 0 -0.29457520052377689 -0.33013191680287202 0 -0.30327184377803978 -0.31702509473566581 0 -0.28089299200049878 -0.32879660088216478 0 -0.30327184377803978 -0.31702509473566581 0 -0.28252008875028978 -0.31254235777143202 0 -0.28125105682705043 -0.31976055402590231 0 -0.28823329624350208 -0.31711313423980658 0 -0.28823329624350208 -0.31711313423980658 0 -0.30327184377803978 -0.31702509473566581 0 -0.29327146190654751 -0.30876504511160502 0 -0.28089299200049878 -0.32879660088216478 0 -0.28125105682705043 -0.31976055402590231 0 -0.28823329624350208 -0.31711313423980658 0 -0.28089299200049878 -0.32879660088216478 0 -0.28793737591580382 -0.33358531802794061 0 -0.27858368134566353 -0.33798527866036399 0 -0.28089299200049878 -0.32879660088216478 0 -0.28793737591580382 -0.33358531802794061 0 -0.28089299200049878 -0.32879660088216478 0 -0.28793737591580382 -0.33358531802794061 0 -0.29457520052377689 -0.33013191680287202 0 -0.27858368134566353 -0.33798527866036399 0 -0.28793737591580382 -0.33358531802794061 0 -0.28611540962297188 -0.3426453659285974 0 -0.28793737591580382 -0.33358531802794061 0 -0.28611540962297188 -0.3426453659285974 0 -0.29619358151489988 -0.34015641309103278 0 -0.28793737591580382 -0.33358531802794061 0 -0.29619358151489988 -0.34015641309103278 0 -0.29457520052377689 -0.33013191680287202 0 -0.29619358151489988 -0.34015641309103278 0 -0.29457520052377689 -0.33013191680287202 0 -0.30458020940964259 -0.3310961572775562 0 -0.30076474035813339 -0.34759465108555682 0 -0.29619358151489988 -0.34015641309103278 0 -0.30398917998114899 -0.33934800480643368 0 -0.29619358151489988 -0.34015641309103278 0 -0.30458020940964259 -0.3310961572775562 0 -0.30398917998114899 -0.33934800480643368 0 -0.31372637242327511 -0.33497634201883658 0 -0.30849554643820359 -0.34481279163420842 0 -0.30398917998114899 -0.33934800480643368 0 -0.31475841231360341 -0.32260943229412947 0 -0.31372637242327511 -0.33497634201883658 0 -0.30458020940964259 -0.3310961572775562 0 -0.31372637242327511 -0.33497634201883658 0 -0.30458020940964259 -0.3310961572775562 0 -0.30398917998114899 -0.33934800480643368 0 -0.31475841231360341 -0.32260943229412947 0 -0.30458020940964259 -0.3310961572775562 0 -0.30327184377803978 -0.31702509473566581 0 -0.29457520052377689 -0.33013191680287202 0 -0.30458020940964259 -0.3310961572775562 0 -0.30327184377803978 -0.31702509473566581 0 -0.30327184377803978 -0.31702509473566581 0 -0.30068554560480582 -0.30112982209441241 0 -0.31228269981280887 -0.29918463989613459 0 -0.30327184377803978 -0.31702509473566581 0 -0.30068554560480582 -0.30112982209441241 0 -0.29327146190654751 -0.30876504511160502 0 -0.30068554560480582 -0.30112982209441241 0 -0.30483638085835207 -0.28788342401786787 0 -0.28888361246081401 -0.29493054457851903 0 -0.30068554560480582 -0.30112982209441241 0 -0.31228269981280887 -0.29918463989613459 0 -0.30483638085835207 -0.28788342401786787 0 -0.28888361246081401 -0.29493054457851903 0 -0.28078806465599399 -0.28300047521785149 0 -0.29451735460655398 -0.27472288856989607 0 -0.30483638085835207 -0.28788342401786787 0 -0.28888361246081401 -0.29493054457851903 0 -0.29451735460655398 -0.27472288856989607 0 -0.28888361246081401 -0.29493054457851903 0 -0.28295382644196537 -0.3038897035906043 0 -0.27388309143310768 -0.29511411685975181 0 -0.28888361246081401 -0.29493054457851903 0 -0.28295382644196537 -0.3038897035906043 0 -0.29327146190654751 -0.30876504511160502 0 -0.30068554560480582 -0.30112982209441241 0 -0.28888361246081401 -0.29493054457851903 0 -0.29327146190654751 -0.30876504511160502 0 -0.28252008875028978 -0.31254235777143202 0 -0.28295382644196537 -0.3038897035906043 0 -0.29327146190654751 -0.30876504511160502 0 -0.27445713665833338 -0.31633796571173628 0 -0.28252008875028978 -0.31254235777143202 0 -0.27524002690986649 -0.30828041126704497 0 -0.28252008875028978 -0.31254235777143202 0 -0.28295382644196537 -0.3038897035906043 0 -0.27524002690986649 -0.30828041126704497 0 -0.28295382644196537 -0.3038897035906043 0 -0.27524002690986649 -0.30828041126704497 0 -0.27388309143310768 -0.29511411685975181 0 -0.26808679199009749 -0.30362992927208171 0 -0.26252268864995981 -0.29761987486456531 0 -0.27388309143310768 -0.29511411685975181 0 -0.27524002690986649 -0.30828041126704497 0 -0.26808679199009749 -0.30362992927208171 0 -0.27388309143310768 -0.29511411685975181 0 -0.27445713665833338 -0.31633796571173628 0 -0.27524002690986649 -0.30828041126704497 0 -0.26793999894844561 -0.31004618489902153 0 -0.27524002690986649 -0.30828041126704497 0 -0.26808679199009749 -0.30362992927208171 0 -0.26793999894844561 -0.31004618489902153 0 -0.26808679199009749 -0.30362992927208171 0 -0.26793999894844561 -0.31004618489902153 0 -0.26278193746552841 -0.30551063084933561 0 -0.26050456352867191 -0.3149367065078193 0 -0.25485564421046719 -0.30132045870319019 0 -0.24011613505684479 -0.30107681213347393 0 -0.26050456352867191 -0.3149367065078193 0 -0.24011613505684479 -0.30107681213347393 0 -0.26050456352867191 -0.3149367065078193 0 -0.26278193746552841 -0.30551063084933561 0 -0.25485564421046719 -0.30132045870319019 0 -0.26050456352867191 -0.3149367065078193 0 -0.26793999894844561 -0.31004618489902153 0 -0.26278193746552841 -0.30551063084933561 0 -0.26278193746552841 -0.30551063084933561 0 -0.26252268864995981 -0.29761987486456531 0 -0.25485564421046719 -0.30132045870319019 0 -0.26252268864995981 -0.29761987486456531 0 -0.25485564421046719 -0.30132045870319019 0 -0.2567143935458242 -0.29223768812186002 0 -0.26808679199009749 -0.30362992927208171 0 -0.26278193746552841 -0.30551063084933561 0 -0.26252268864995981 -0.29761987486456531 0 -0.25608276685525683 -0.28295324223861612 0 -0.2567143935458242 -0.29223768812186002 0 -0.24732420154209239 -0.29033586459568173 0 -0.25485564421046719 -0.30132045870319019 0 -0.2567143935458242 -0.29223768812186002 0 -0.24732420154209239 -0.29033586459568173 0 -0.26252268864995981 -0.29761987486456531 0 -0.2567143935458242 -0.29223768812186002 0 -0.26350989061834318 -0.28909490770035701 0 -0.25608276685525683 -0.28295324223861612 0 -0.26350989061834318 -0.28909490770035701 0 -0.26907982973782107 -0.2804670883869903 0 -0.25608276685525683 -0.28295324223861612 0 -0.2567143935458242 -0.29223768812186002 0 -0.26350989061834318 -0.28909490770035701 0 -0.26350989061834318 -0.28909490770035701 0 -0.27388309143310768 -0.29511411685975181 0 -0.26907982973782107 -0.2804670883869903 0 -0.26252268864995981 -0.29761987486456531 0 -0.26350989061834318 -0.28909490770035701 0 -0.27388309143310768 -0.29511411685975181 0 -0.28888361246081401 -0.29493054457851903 0 -0.27388309143310768 -0.29511411685975181 0 -0.28078806465599399 -0.28300047521785149 0 -0.27388309143310768 -0.29511411685975181 0 -0.28078806465599399 -0.28300047521785149 0 -0.26907982973782107 -0.2804670883869903 0 -0.27772768471542669 -0.26767482265106679 0 -0.26907982973782107 -0.2804670883869903 0 -0.25958550566062261 -0.27102626557679149 0 -0.28078806465599399 -0.28300047521785149 0 -0.27772768471542669 -0.26767482265106679 0 -0.26907982973782107 -0.2804670883869903 0 -0.25608276685525683 -0.28295324223861612 0 -0.26907982973782107 -0.2804670883869903 0 -0.25958550566062261 -0.27102626557679149 0 -0.25608276685525683 -0.28295324223861612 0 -0.25958550566062261 -0.27102626557679149 0 -0.2444485511135471 -0.27534046621033159 0 -0.26398002587916253 -0.25656090854441049 0 -0.24465976002352091 -0.25387891845332877 0 -0.25992972331208369 -0.2410680052130979 0 -0.25958550566062261 -0.27102626557679149 0 -0.26398002587916253 -0.25656090854441049 0 -0.24465976002352091 -0.25387891845332877 0 -0.27772768471542669 -0.26767482265106679 0 -0.26398002587916253 -0.25656090854441049 0 -0.27722523139620658 -0.24922189107985179 0 -0.27772768471542669 -0.26767482265106679 0 -0.25958550566062261 -0.27102626557679149 0 -0.26398002587916253 -0.25656090854441049 0 -0.27772768471542669 -0.26767482265106679 0 -0.29131753467172561 -0.25675805269722002 0 -0.27722523139620658 -0.24922189107985179 0 -0.28078806465599399 -0.28300047521785149 0 -0.27772768471542669 -0.26767482265106679 0 -0.29451735460655398 -0.27472288856989607 0 -0.27772768471542669 -0.26767482265106679 0 -0.29131753467172561 -0.25675805269722002 0 -0.29451735460655398 -0.27472288856989607 0 -0.31319680135340772 -0.27337899374224139 0 -0.29451735460655398 -0.27472288856989607 0 -0.30564385326437488 -0.26015983685037081 0 -0.31319680135340772 -0.27337899374224139 0 -0.30483638085835207 -0.28788342401786787 0 -0.29451735460655398 -0.27472288856989607 0 -0.29131753467172561 -0.25675805269722002 0 -0.29451735460655398 -0.27472288856989607 0 -0.30564385326437488 -0.26015983685037081 0 -0.29131753467172561 -0.25675805269722002 0 -0.30564385326437488 -0.26015983685037081 0 -0.30769212114973271 -0.24578220261295139 0 -0.31968345090478489 -0.25798973640781447 0 -0.30564385326437488 -0.26015983685037081 0 -0.30769212114973271 -0.24578220261295139 0 -0.34207866423036198 -0.45986413066326443 0 -0.33141508850449702 -0.45187214799378478 0 -0.32594289259428999 -0.46085836632795257 0 -0.34207866423036198 -0.45986413066326443 0 -0.32594289259428999 -0.46085836632795257 0 -0.33264581849560632 -0.47431014716802089 0 -0.34207866423036198 -0.45986413066326443 0 -0.34225571697252682 -0.42997304157067162 0 -0.34207866423036198 -0.45986413066326443 0 -0.33358626016413989 -0.44229992863572659 0 -0.33141508850449702 -0.45187214799378478 0 -0.34207866423036198 -0.45986413066326443 0 -0.33358626016413989 -0.44229992863572659 0 -0.34225571697252682 -0.42997304157067162 0 -0.33358626016413989 -0.44229992863572659 0 -0.33141508850449702 -0.45187214799378478 0 -0.32300139100864811 -0.44723989508536771 0 -0.33358626016413989 -0.44229992863572659 0 -0.32300139100864811 -0.44723989508536771 0 -0.32413493920603592 -0.43586432580396972 0 -0.32300139100864811 -0.44723989508536771 0 -0.31385630152515048 -0.44199725430357722 0 -0.32413493920603592 -0.43586432580396972 0 -0.32300139100864811 -0.44723989508536771 0 -0.31385630152515048 -0.44199725430357722 0 -0.31044958537109257 -0.45255960714027171 0 -0.32594289259428999 -0.46085836632795257 0 -0.31333683559556219 -0.46686726284272168 0 -0.31044958537109257 -0.45255960714027171 0 -0.32594289259428999 -0.46085836632795257 0 -0.31333683559556219 -0.46686726284272168 0 -0.32224857144892449 -0.47649828689453749 0 -0.32300139100864811 -0.44723989508536771 0 -0.32594289259428999 -0.46085836632795257 0 -0.31044958537109257 -0.45255960714027171 0 -0.33141508850449702 -0.45187214799378478 0 -0.32300139100864811 -0.44723989508536771 0 -0.32594289259428999 -0.46085836632795257 0 -0.31333683559556219 -0.46686726284272168 0 -0.32224857144892449 -0.47649828689453749 0 -0.30503152439861497 -0.48190266549989857 0 -0.32224857144892449 -0.47649828689453749 0 -0.32279626626388608 -0.48781718170045291 0 -0.30503152439861497 -0.48190266549989857 0 -0.32594289259428999 -0.46085836632795257 0 -0.32224857144892449 -0.47649828689453749 0 -0.33264581849560632 -0.47431014716802089 0 -0.32224857144892449 -0.47649828689453749 0 -0.32279626626388608 -0.48781718170045291 0 -0.33105735271625752 -0.4845747321984929 0 -0.32006214434654462 -0.5 0 -0.32279626626388608 -0.48781718170045291 0 -0.30503152439861497 -0.48190266549989857 0 -0.32006214434654462 -0.5 0 -0.32279626626388608 -0.48781718170045291 0 -0.33558173840908911 -0.49611022390933512 0 -0.32006214434654462 -0.5 0 -0.33558173840908911 -0.49611022390933512 0 -0.34657288766042038 -0.5 0 -0.33558173840908911 -0.49611022390933512 0 -0.34190161148819742 -0.48975521975585701 0 -0.35306908662498632 -0.4951847935385878 0 -0.32279626626388608 -0.48781718170045291 0 -0.33558173840908911 -0.49611022390933512 0 -0.33105735271625752 -0.4845747321984929 0 -0.33558173840908911 -0.49611022390933512 0 -0.33105735271625752 -0.4845747321984929 0 -0.34190161148819742 -0.48975521975585701 0 -0.34207866423036198 -0.45986413066326443 0 -0.34190161148819742 -0.48975521975585701 0 -0.34207866423036198 -0.45986413066326443 0 -0.34190161148819742 -0.48975521975585701 0 -0.33264581849560632 -0.47431014716802089 0 -0.33105735271625752 -0.4845747321984929 0 -0.34190161148819742 -0.48975521975585701 0 -0.33264581849560632 -0.47431014716802089 0 -0.32224857144892449 -0.47649828689453749 0 -0.33105735271625752 -0.4845747321984929 0 -0.33264581849560632 -0.47431014716802089 0 -0.34190161148819742 -0.48975521975585701 0 -0.35001641252228072 -0.47142734906239081 0 -0.35328963507943428 -0.48328499015431992 0 -0.34207866423036198 -0.45986413066326443 0 -0.34190161148819742 -0.48975521975585701 0 -0.35001641252228072 -0.47142734906239081 0 -0.35328963507943428 -0.48328499015431992 0 -0.35950950469085041 -0.48638993404071668 0 -0.36112286221809747 -0.47283058930211808 0 -0.35001641252228072 -0.47142734906239081 0 -0.35328963507943428 -0.48328499015431992 0 -0.36112286221809747 -0.47283058930211808 0 -0.33558173840908911 -0.49611022390933512 0 -0.35306908662498632 -0.4951847935385878 0 -0.33558173840908911 -0.49611022390933512 0 -0.34657288766042038 -0.5 0 -0.35306908662498632 -0.4951847935385878 0 -0.34657288766042038 -0.5 0 -0.35306908662498632 -0.4951847935385878 0 -0.37308363097429631 -0.50000000000000244 0 -0.34190161148819742 -0.48975521975585701 0 -0.35328963507943428 -0.48328499015431992 0 -0.35306908662498632 -0.4951847935385878 0 -0.35328963507943428 -0.48328499015431992 0 -0.35306908662498632 -0.4951847935385878 0 -0.35950950469085041 -0.48638993404071668 0 -0.35306908662498632 -0.4951847935385878 0 -0.35950950469085041 -0.48638993404071668 0 -0.37055643484088358 -0.49425936316784103 0 -0.35306908662498632 -0.4951847935385878 0 -0.37055643484088358 -0.49425936316784103 0 -0.35950950469085041 -0.48638993404071668 0 -0.37055643484088358 -0.49425936316784103 0 -0.36112286221809747 -0.47283058930211808 0 -0.35306908662498632 -0.4951847935385878 0 -0.37055643484088358 -0.49425936316784103 0 -0.37308363097429631 -0.50000000000000244 0 -0.37055643484088358 -0.49425936316784103 0 -0.37308363097429631 -0.50000000000000244 0 -0.38039451612360919 -0.47713749807852829 0 -0.37055643484088358 -0.49425936316784103 0 -0.36112286221809747 -0.47283058930211808 0 -0.37055643484088358 -0.49425936316784103 0 -0.36112286221809747 -0.47283058930211808 0 -0.38039451612360919 -0.47713749807852829 0 -0.36112286221809747 -0.47283058930211808 0 -0.37415472949075129 -0.45946062715310632 0 -0.37415472949075129 -0.45946062715310632 0 -0.3629811744391212 -0.45722253899736259 0 -0.36406731613876331 -0.44506275929787698 0 -0.36112286221809747 -0.47283058930211808 0 -0.37415472949075129 -0.45946062715310632 0 -0.3629811744391212 -0.45722253899736259 0 -0.36112286221809747 -0.47283058930211808 0 -0.3629811744391212 -0.45722253899736259 0 -0.35168928959531232 -0.4514018154363949 0 -0.36112286221809747 -0.47283058930211808 0 -0.35168928959531232 -0.4514018154363949 0 -0.35001641252228072 -0.47142734906239081 0 -0.36112286221809747 -0.47283058930211808 0 -0.35168928959531232 -0.4514018154363949 0 -0.34207866423036198 -0.45986413066326443 0 -0.35001641252228072 -0.47142734906239081 0 -0.35168928959531232 -0.4514018154363949 0 -0.35168928959531232 -0.4514018154363949 0 -0.34225571697252682 -0.42997304157067162 0 -0.35168928959531232 -0.4514018154363949 0 -0.36406731613876331 -0.44506275929787698 0 -0.34225571697252682 -0.42997304157067162 0 -0.34207866423036198 -0.45986413066326443 0 -0.35168928959531232 -0.4514018154363949 0 -0.34225571697252682 -0.42997304157067162 0 -0.38339996822118783 -0.44368928783448319 0 -0.36406731613876331 -0.44506275929787698 0 -0.36866352395763108 -0.4313760290561211 0 -0.38339996822118783 -0.44368928783448319 0 -0.37415472949075129 -0.45946062715310632 0 -0.36406731613876331 -0.44506275929787698 0 -0.3629811744391212 -0.45722253899736259 0 -0.35168928959531232 -0.4514018154363949 0 -0.36406731613876331 -0.44506275929787698 0 -0.38131756488089769 -0.42670085612339947 0 -0.36866352395763108 -0.4313760290561211 0 -0.36377437909963828 -0.41972983174959272 0 -0.38704143117499401 -0.40999023144455299 0 -0.3575105341832589 -0.40691374405003478 0 -0.38704143117499401 -0.40999023144455299 0 -0.36377437909963828 -0.41972983174959272 0 -0.3575105341832589 -0.40691374405003478 0 -0.35062038894632092 -0.41624612172537079 0 -0.34239786166265201 -0.40597533588911489 0 -0.34225571697252682 -0.42997304157067162 0 -0.36377437909963828 -0.41972983174959272 0 -0.3575105341832589 -0.40691374405003478 0 -0.35062038894632092 -0.41624612172537079 0 -0.3575105341832589 -0.40691374405003478 0 -0.35062038894632092 -0.41624612172537079 0 -0.34239786166265201 -0.40597533588911489 0 -0.36406731613876331 -0.44506275929787698 0 -0.36866352395763108 -0.4313760290561211 0 -0.34225571697252682 -0.42997304157067162 0 -0.36866352395763108 -0.4313760290561211 0 -0.36377437909963828 -0.41972983174959272 0 -0.34225571697252682 -0.42997304157067162 0 -0.36377437909963828 -0.41972983174959272 0 -0.35062038894632092 -0.41624612172537079 0 -0.34225571697252682 -0.42997304157067162 0 -0.37522403377147279 -0.38060127254172499 0 -0.37464038230528551 -0.396492613407532 0 -0.35879027536972019 -0.3891835699585654 0 -0.37522403377147279 -0.38060127254172499 0 -0.35964608014779109 -0.37334112637938882 0 -0.35879027536972019 -0.3891835699585654 0 -0.38704143117499401 -0.40999023144455299 0 -0.3575105341832589 -0.40691374405003478 0 -0.37464038230528551 -0.396492613407532 0 -0.3575105341832589 -0.40691374405003478 0 -0.37464038230528551 -0.396492613407532 0 -0.35879027536972019 -0.3891835699585654 0 -0.3575105341832589 -0.40691374405003478 0 -0.35030966939210212 -0.39601257002631829 0 -0.35879027536972019 -0.3891835699585654 0 -0.35030966939210212 -0.39601257002631829 0 -0.34254000635277743 -0.38197763020755832 0 -0.34239786166265201 -0.40597533588911489 0 -0.3575105341832589 -0.40691374405003478 0 -0.35030966939210212 -0.39601257002631829 0 -0.34239786166265201 -0.40597533588911489 0 -0.35964608014779109 -0.37334112637938882 0 -0.35879027536972019 -0.3891835699585654 0 -0.34254000635277743 -0.38197763020755832 0 -0.35030966939210212 -0.39601257002631829 0 -0.35879027536972019 -0.3891835699585654 0 -0.34254000635277743 -0.38197763020755832 0 -0.32270418411731933 -0.37181077970513959 0 -0.34254000635277743 -0.38197763020755832 0 -0.32435131947256218 -0.38428518727128619 0 -0.34254000635277743 -0.38197763020755832 0 -0.33211028503505757 -0.39455092735479258 0 -0.32435131947256218 -0.38428518727128619 0 -0.34254000635277743 -0.38197763020755832 0 -0.33211028503505757 -0.39455092735479258 0 -0.34239786166265201 -0.40597533588911489 0 -0.34254000635277743 -0.38197763020755832 0 -0.34239786166265201 -0.40597533588911489 0 -0.33211028503505757 -0.39455092735479258 0 -0.32627218782356721 -0.40254155632103228 0 -0.33325599186729038 -0.40952977136485508 0 -0.33211028503505757 -0.39455092735479258 0 -0.34239786166265201 -0.40597533588911489 0 -0.33325599186729038 -0.40952977136485508 0 -0.32627218782356721 -0.40254155632103228 0 -0.31778611784491262 -0.39429551077659458 0 -0.31836523457261151 -0.40628576827473822 0 -0.31778611784491262 -0.39429551077659458 0 -0.31836523457261151 -0.40628576827473822 0 -0.30856762168503782 -0.40330407176644772 0 -0.33211028503505757 -0.39455092735479258 0 -0.32627218782356721 -0.40254155632103228 0 -0.31778611784491262 -0.39429551077659458 0 -0.33211028503505757 -0.39455092735479258 0 -0.31778611784491262 -0.39429551077659458 0 -0.32435131947256218 -0.38428518727128619 0 -0.31778611784491262 -0.39429551077659458 0 -0.32435131947256218 -0.38428518727128619 0 -0.3103864423796594 -0.37828470113645102 0 -0.32270418411731933 -0.37181077970513959 0 -0.32435131947256218 -0.38428518727128619 0 -0.3103864423796594 -0.37828470113645102 0 -0.34225571697252682 -0.42997304157067162 0 -0.32127707919304882 -0.42450406978857058 0 -0.32413493920603592 -0.43586432580396972 0 -0.33358626016413989 -0.44229992863572659 0 -0.34225571697252682 -0.42997304157067162 0 -0.32413493920603592 -0.43586432580396972 0 -0.34225571697252682 -0.42997304157067162 0 -0.32547848823970138 -0.41505510354763547 0 -0.32127707919304882 -0.42450406978857058 0 -0.34225571697252682 -0.42997304157067162 0 -0.33325599186729038 -0.40952977136485508 0 -0.34239786166265201 -0.40597533588911489 0 -0.34225571697252682 -0.42997304157067162 0 -0.34225571697252682 -0.42997304157067162 0 -0.33325599186729038 -0.40952977136485508 0 -0.32547848823970138 -0.41505510354763547 0 -0.34239786166265201 -0.40597533588911489 0 -0.34225571697252682 -0.42997304157067162 0 -0.33325599186729038 -0.40952977136485508 0 -0.32627218782356721 -0.40254155632103228 0 -0.33325599186729038 -0.40952977136485508 0 -0.32547848823970138 -0.41505510354763547 0 -0.32547848823970138 -0.41505510354763547 0 -0.3149711123139971 -0.41411215899080989 0 -0.32127707919304882 -0.42450406978857058 0 -0.32627218782356721 -0.40254155632103228 0 -0.32547848823970138 -0.41505510354763547 0 -0.31836523457261151 -0.40628576827473822 0 -0.32547848823970138 -0.41505510354763547 0 -0.31836523457261151 -0.40628576827473822 0 -0.3149711123139971 -0.41411215899080989 0 -0.31836523457261151 -0.40628576827473822 0 -0.3149711123139971 -0.41411215899080989 0 -0.30856762168503782 -0.40330407176644772 0 -0.3149711123139971 -0.41411215899080989 0 -0.32127707919304882 -0.42450406978857058 0 -0.31068047406536009 -0.42124040027518911 0 -0.32127707919304882 -0.42450406978857058 0 -0.31073004788055869 -0.43167813375356229 0 -0.31068047406536009 -0.42124040027518911 0 -0.32127707919304882 -0.42450406978857058 0 -0.32413493920603592 -0.43586432580396972 0 -0.31073004788055869 -0.43167813375356229 0 -0.31385630152515048 -0.44199725430357722 0 -0.32413493920603592 -0.43586432580396972 0 -0.31073004788055869 -0.43167813375356229 0 -0.31073004788055869 -0.43167813375356229 0 -0.29829421210859891 -0.43220714453990322 0 -0.30286215921622678 -0.44210958888768459 0 -0.31073004788055869 -0.43167813375356229 0 -0.29829421210859891 -0.43220714453990322 0 -0.30293836312512551 -0.42244552438862548 0 -0.29829421210859891 -0.43220714453990322 0 -0.30293836312512551 -0.42244552438862548 0 -0.29038846928103268 -0.42353273433611682 0 -0.31073004788055869 -0.43167813375356229 0 -0.30293836312512551 -0.42244552438862548 0 -0.31068047406536009 -0.42124040027518911 0 -0.3149711123139971 -0.41411215899080989 0 -0.31068047406536009 -0.42124040027518911 0 -0.30545777612822328 -0.41428354029227837 0 -0.30293836312512551 -0.42244552438862548 0 -0.31068047406536009 -0.42124040027518911 0 -0.30545777612822328 -0.41428354029227837 0 -0.3149711123139971 -0.41411215899080989 0 -0.30545777612822328 -0.41428354029227837 0 -0.30856762168503782 -0.40330407176644772 0 -0.30545777612822328 -0.41428354029227837 0 -0.30856762168503782 -0.40330407176644772 0 -0.30079847364115991 -0.40578130343003371 0 -0.30545777612822328 -0.41428354029227837 0 -0.2987732092282892 -0.41413177709842958 0 -0.30079847364115991 -0.40578130343003371 0 -0.30293836312512551 -0.42244552438862548 0 -0.2987732092282892 -0.41413177709842958 0 -0.29038846928103268 -0.42353273433611682 0 -0.30293836312512551 -0.42244552438862548 0 -0.2987732092282892 -0.41413177709842958 0 -0.30293836312512551 -0.42244552438862548 0 -0.30545777612822328 -0.41428354029227837 0 -0.2987732092282892 -0.41413177709842958 0 -0.30545777612822328 -0.41428354029227837 0 -0.2987732092282892 -0.41413177709842958 0 -0.2987732092282892 -0.41413177709842958 0 -0.29092638885970451 -0.39846933503943821 0 -0.2987732092282892 -0.41413177709842958 0 -0.28243901841779939 -0.41376093348156762 0 -0.29092638885970451 -0.39846933503943821 0 -0.2987732092282892 -0.41413177709842958 0 -0.28243901841779939 -0.41376093348156762 0 -0.29038846928103268 -0.42353273433611682 0 -0.2987732092282892 -0.41413177709842958 0 -0.28243901841779939 -0.41376093348156762 0 -0.28243901841779939 -0.41376093348156762 0 -0.29038846928103268 -0.42353273433611682 0 -0.27500508569675858 -0.42792788340523652 0 -0.29038846928103268 -0.42353273433611682 0 -0.27500508569675858 -0.42792788340523652 0 -0.28620792983366777 -0.44117103379144762 0 -0.29829421210859891 -0.43220714453990322 0 -0.29038846928103268 -0.42353273433611682 0 -0.28620792983366777 -0.44117103379144762 0 -0.31778611784491262 -0.39429551077659458 0 -0.3103864423796594 -0.37828470113645102 0 -0.30424293331838692 -0.39073887816822978 0 -0.29584447723995128 -0.37444813956539807 0 -0.29713407365637251 -0.38186722723828942 0 -0.3103864423796594 -0.37828470113645102 0 -0.29713407365637251 -0.38186722723828942 0 -0.30424293331838692 -0.39073887816822978 0 -0.29406976999373469 -0.38920344929064732 0 -0.29713407365637251 -0.38186722723828942 0 -0.3103864423796594 -0.37828470113645102 0 -0.30424293331838692 -0.39073887816822978 0 -0.29998863005712628 -0.39809616774203599 0 -0.30424293331838692 -0.39073887816822978 0 -0.30856762168503782 -0.40330407176644772 0 -0.29998863005712628 -0.39809616774203599 0 -0.30424293331838692 -0.39073887816822978 0 -0.29406976999373469 -0.38920344929064732 0 -0.31778611784491262 -0.39429551077659458 0 -0.30424293331838692 -0.39073887816822978 0 -0.30856762168503782 -0.40330407176644772 0 -0.29998863005712628 -0.39809616774203599 0 -0.30079847364115991 -0.40578130343003371 0 -0.29092638885970451 -0.39846933503943821 0 -0.29998863005712628 -0.39809616774203599 0 -0.30856762168503782 -0.40330407176644772 0 -0.30079847364115991 -0.40578130343003371 0 -0.2987732092282892 -0.41413177709842958 0 -0.30079847364115991 -0.40578130343003371 0 -0.29092638885970451 -0.39846933503943821 0 -0.29092638885970451 -0.39846933503943821 0 -0.28307956849111848 -0.3828068929804474 0 -0.29092638885970451 -0.39846933503943821 0 -0.28307956849111848 -0.3828068929804474 0 -0.27459219804921331 -0.39809849142257658 0 -0.28243901841779939 -0.41376093348156762 0 -0.29092638885970451 -0.39846933503943821 0 -0.27459219804921331 -0.39809849142257658 0 -0.29998863005712628 -0.39809616774203599 0 -0.29092638885970451 -0.39846933503943821 0 -0.29406976999373469 -0.38920344929064732 0 -0.29092638885970451 -0.39846933503943821 0 -0.29406976999373469 -0.38920344929064732 0 -0.28307956849111848 -0.3828068929804474 0 -0.29713407365637251 -0.38186722723828942 0 -0.29406976999373469 -0.38920344929064732 0 -0.28307956849111848 -0.3828068929804474 0 -0.29584447723995128 -0.37444813956539807 0 -0.29713407365637251 -0.38186722723828942 0 -0.28307956849111848 -0.3828068929804474 0 -0.28307956849111848 -0.3828068929804474 0 -0.27459219804921331 -0.39809849142257658 0 -0.26050234447883253 -0.38027693877573482 0 -0.28307956849111848 -0.3828068929804474 0 -0.27459219804921331 -0.39809849142257658 0 -0.27459219804921331 -0.39809849142257658 0 -0.26610482760730952 -0.4133900898647066 0 -0.27459219804921331 -0.39809849142257658 0 -0.26088670843651829 -0.40068536336094251 0 -0.26610482760730952 -0.4133900898647066 0 -0.26088670843651829 -0.40068536336094251 0 -0.26050234447883253 -0.38027693877573482 0 -0.2487824818667288 -0.3954643368039899 0 -0.27459219804921331 -0.39809849142257658 0 -0.26088670843651829 -0.40068536336094251 0 -0.26050234447883253 -0.38027693877573482 0 -0.26088670843651829 -0.40068536336094251 0 -0.24694430377570939 -0.41295507854145541 0 -0.2487824818667288 -0.3954643368039899 0 -0.27500508569675858 -0.42792788340523652 0 -0.25298523514652932 -0.43702750984159111 0 -0.27028712802556781 -0.44002206955302048 0 -0.27500508569675858 -0.42792788340523652 0 -0.27028712802556781 -0.44002206955302048 0 -0.28620792983366777 -0.44117103379144762 0 -0.28243901841779939 -0.41376093348156762 0 -0.27500508569675858 -0.42792788340523652 0 -0.26610482760730952 -0.4133900898647066 0 -0.28243901841779939 -0.41376093348156762 0 -0.27459219804921331 -0.39809849142257658 0 -0.26610482760730952 -0.4133900898647066 0 -0.28243901841779939 -0.41376093348156762 0 -0.26610482760730952 -0.4133900898647066 0 -0.26610482760730952 -0.4133900898647066 0 -0.24694430377570939 -0.41295507854145541 0 -0.26610482760730952 -0.4133900898647066 0 -0.25298523514652932 -0.43702750984159111 0 -0.24694430377570939 -0.41295507854145541 0 -0.26088670843651829 -0.40068536336094251 0 -0.26610482760730952 -0.4133900898647066 0 -0.24694430377570939 -0.41295507854145541 0 -0.27500508569675858 -0.42792788340523652 0 -0.26610482760730952 -0.4133900898647066 0 -0.25298523514652932 -0.43702750984159111 0 -0.26610482760730952 -0.4133900898647066 0 -0.25298523514652932 -0.43702750984159111 0 -0.25298523514652932 -0.43702750984159111 0 -0.25823473398406083 -0.46259190486934387 0 -0.27139768853026319 -0.45350369328431828 0 -0.25298523514652932 -0.43702750984159111 0 -0.27139768853026319 -0.45350369328431828 0 -0.27028712802556781 -0.44002206955302048 0 -0.25298523514652932 -0.43702750984159111 0 -0.25823473398406083 -0.46259190486934387 0 -0.2398656426857485 -0.46066492981847512 0 -0.27139768853026319 -0.45350369328431828 0 -0.28665438526504589 -0.45880473289459528 0 -0.27499686831673542 -0.4693274569635677 0 -0.25823473398406083 -0.46259190486934387 0 -0.27139768853026319 -0.45350369328431828 0 -0.27499686831673542 -0.4693274569635677 0 -0.27139768853026319 -0.45350369328431828 0 -0.27028712802556781 -0.44002206955302048 0 -0.28620792983366777 -0.44117103379144762 0 -0.28620792983366777 -0.44117103379144762 0 -0.29665932401628559 -0.4519210782245337 0 -0.28665438526504589 -0.45880473289459528 0 -0.28620792983366777 -0.44117103379144762 0 -0.29665932401628559 -0.4519210782245337 0 -0.30286215921622678 -0.44210958888768459 0 -0.27139768853026319 -0.45350369328431828 0 -0.28620792983366777 -0.44117103379144762 0 -0.28665438526504589 -0.45880473289459528 0 -0.29829421210859891 -0.43220714453990322 0 -0.28620792983366777 -0.44117103379144762 0 -0.30286215921622678 -0.44210958888768459 0 -0.28665438526504589 -0.45880473289459528 0 -0.28928475434474438 -0.47221518125428918 0 -0.27499686831673542 -0.4693274569635677 0 -0.28665438526504589 -0.45880473289459528 0 -0.30029558254474148 -0.46389675841394568 0 -0.28928475434474438 -0.47221518125428918 0 -0.29665932401628559 -0.4519210782245337 0 -0.28665438526504589 -0.45880473289459528 0 -0.30029558254474148 -0.46389675841394568 0 -0.29665932401628559 -0.4519210782245337 0 -0.30029558254474148 -0.46389675841394568 0 -0.31044958537109257 -0.45255960714027171 0 -0.31333683559556219 -0.46686726284272168 0 -0.30029558254474148 -0.46389675841394568 0 -0.31044958537109257 -0.45255960714027171 0 -0.31385630152515048 -0.44199725430357722 0 -0.31044958537109257 -0.45255960714027171 0 -0.30286215921622678 -0.44210958888768459 0 -0.31385630152515048 -0.44199725430357722 0 -0.31073004788055869 -0.43167813375356229 0 -0.30286215921622678 -0.44210958888768459 0 -0.29665932401628559 -0.4519210782245337 0 -0.31044958537109257 -0.45255960714027171 0 -0.30286215921622678 -0.44210958888768459 0 -0.32006214434654462 -0.5 0 -0.30503152439861497 -0.48190266549989857 0 -0.29355140103266869 -0.5 0 -0.30029558254474148 -0.46389675841394568 0 -0.30503152439861497 -0.48190266549989857 0 -0.28928475434474438 -0.47221518125428918 0 -0.31333683559556219 -0.46686726284272168 0 -0.30029558254474148 -0.46389675841394568 0 -0.30503152439861497 -0.48190266549989857 0 -0.30503152439861497 -0.48190266549989857 0 -0.28928475434474438 -0.47221518125428918 0 -0.27944541119858413 -0.48714429249943858 0 -0.30503152439861497 -0.48190266549989857 0 -0.29355140103266869 -0.5 0 -0.27944541119858413 -0.48714429249943858 0 -0.26704065771879287 -0.5 0 -0.27944541119858413 -0.48714429249943858 0 -0.26377894750559139 -0.4817410620592058 0 -0.29355140103266869 -0.5 0 -0.26704065771879287 -0.5 0 -0.27944541119858413 -0.48714429249943858 0 -0.27944541119858413 -0.48714429249943858 0 -0.27499686831673542 -0.4693274569635677 0 -0.26377894750559139 -0.4817410620592058 0 -0.28928475434474438 -0.47221518125428918 0 -0.27944541119858413 -0.48714429249943858 0 -0.27499686831673542 -0.4693274569635677 0 -0.25823473398406083 -0.46259190486934387 0 -0.27499686831673542 -0.4693274569635677 0 -0.26377894750559139 -0.4817410620592058 0 -0.25823473398406083 -0.46259190486934387 0 -0.26377894750559139 -0.4817410620592058 0 -0.24769273461092009 -0.47775775457152359 0 -0.26704065771879287 -0.5 0 -0.26377894750559139 -0.4817410620592058 0 -0.24052991440491719 -0.5 0 -0.26377894750559139 -0.4817410620592058 0 -0.24052991440491719 -0.5 0 -0.24769273461092009 -0.47775775457152359 0 -0.24052991440491719 -0.5 0 -0.24769273461092009 -0.47775775457152359 0 -0.2238647917587385 -0.47868470982513422 0 -0.24769273461092009 -0.47775775457152359 0 -0.2238647917587385 -0.47868470982513422 0 -0.2253613830811457 -0.45761053917550981 0 -0.24052991440491719 -0.5 0 -0.2238647917587385 -0.47868470982513422 0 -0.2140191710910414 -0.49999999999999972 0 -0.25298523514652932 -0.43702750984159111 0 -0.23591515519085041 -0.44398209369878189 0 -0.2398656426857485 -0.46066492981847512 0 -0.25298523514652932 -0.43702750984159111 0 -0.2398656426857485 -0.46066492981847512 0 -0.25823473398406083 -0.46259190486934387 0 -0.24769273461092009 -0.47775775457152359 0 -0.2398656426857485 -0.46066492981847512 0 -0.24769273461092009 -0.47775775457152359 0 -0.2398656426857485 -0.46066492981847512 0 -0.2253613830811457 -0.45761053917550981 0 -0.24769273461092009 -0.47775775457152359 0 -0.2253613830811457 -0.45761053917550981 0 -0.2238647917587385 -0.47868470982513422 0 -0.2253613830811457 -0.45761053917550981 0 -0.20999779143719291 -0.46083672605530768 0 -0.23591515519085041 -0.44398209369878189 0 -0.2398656426857485 -0.46066492981847512 0 -0.2253613830811457 -0.45761053917550981 0 -0.23591515519085041 -0.44398209369878189 0 -0.2253613830811457 -0.45761053917550981 0 -0.22549954629610269 -0.43500765649169948 0 -0.2253613830811457 -0.45761053917550981 0 -0.20999779143719291 -0.46083672605530768 0 -0.2030300315513712 -0.43746332377949593 0 -0.2253613830811457 -0.45761053917550981 0 -0.2030300315513712 -0.43746332377949593 0 -0.20999779143719291 -0.46083672605530768 0 -0.19715634076338631 -0.4518064782969281 0 -0.2030300315513712 -0.43746332377949593 0 -0.2253613830811457 -0.45761053917550981 0 -0.2030300315513712 -0.43746332377949593 0 -0.22549954629610269 -0.43500765649169948 0 -0.20999779143719291 -0.46083672605530768 0 -0.19715634076338631 -0.4518064782969281 0 -0.2055877559272139 -0.47590323914846377 0 -0.19715634076338631 -0.4518064782969281 0 -0.2055877559272139 -0.47590323914846377 0 -0.19179305986328829 -0.46711759196808689 0 -0.19715634076338631 -0.4518064782969281 0 -0.2055877559272139 -0.47590323914846377 0 -0.19179305986328829 -0.46711759196808689 0 -0.19715634076338631 -0.4518064782969281 0 -0.184822707974968 -0.45592422963236362 0 -0.19715634076338631 -0.4518064782969281 0 -0.2030300315513712 -0.43746332377949593 0 -0.18872492559955881 -0.42770971744539221 0 -0.19715634076338631 -0.4518064782969281 0 -0.18872492559955881 -0.42770971744539221 0 -0.19715634076338631 -0.4518064782969281 0 -0.1870173619903012 -0.44414077979923022 0 -0.18872492559955881 -0.42770971744539221 0 -0.19715634076338631 -0.4518064782969281 0 -0.184822707974968 -0.45592422963236362 0 -0.1870173619903012 -0.44414077979923022 0 -0.2140191710910414 -0.49999999999999972 0 -0.2055877559272139 -0.47590323914846377 0 -0.2140191710910414 -0.49999999999999972 0 -0.2055877559272139 -0.47590323914846377 0 -0.1915741566131953 -0.48274482478870012 0 -0.2238647917587385 -0.47868470982513422 0 -0.2140191710910414 -0.49999999999999972 0 -0.2055877559272139 -0.47590323914846377 0 -0.2238647917587385 -0.47868470982513422 0 -0.20999779143719291 -0.46083672605530768 0 -0.2055877559272139 -0.47590323914846377 0 -0.19179305986328829 -0.46711759196808689 0 -0.2055877559272139 -0.47590323914846377 0 -0.1915741566131953 -0.48274482478870012 0 -0.19179305986328829 -0.46711759196808689 0 -0.1915741566131953 -0.48274482478870012 0 -0.17982433803767831 -0.46920918797397909 0 -0.2140191710910414 -0.49999999999999972 0 -0.1915741566131953 -0.48274482478870012 0 -0.1841956238768391 -0.5 0 -0.1915741566131953 -0.48274482478870012 0 -0.1841956238768391 -0.5 0 -0.17247084166804699 -0.48396500267038112 0 -0.1841956238768391 -0.5 0 -0.17247084166804699 -0.48396500267038112 0 -0.15437207666263669 -0.50000000000000022 0 -0.15669106487963419 -0.47716915445828201 0 -0.17247084166804699 -0.48396500267038112 0 -0.15437207666263669 -0.50000000000000022 0 -0.15669106487963419 -0.47716915445828201 0 -0.17247084166804699 -0.48396500267038112 0 -0.1680230602922401 -0.4683158249620154 0 -0.17247084166804699 -0.48396500267038112 0 -0.17982433803767831 -0.46920918797397909 0 -0.1680230602922401 -0.4683158249620154 0 -0.1915741566131953 -0.48274482478870012 0 -0.17247084166804699 -0.48396500267038112 0 -0.17982433803767831 -0.46920918797397909 0 -0.19179305986328829 -0.46711759196808689 0 -0.17982433803767831 -0.46920918797397909 0 -0.184822707974968 -0.45592422963236362 0 -0.17982433803767831 -0.46920918797397909 0 -0.184822707974968 -0.45592422963236362 0 -0.17211900377920919 -0.45689747079087062 0 -0.17982433803767831 -0.46920918797397909 0 -0.17211900377920919 -0.45689747079087062 0 -0.1680230602922401 -0.4683158249620154 0 -0.1870173619903012 -0.44414077979923022 0 -0.17843006300647921 -0.44542980211747812 0 -0.1823118302108766 -0.43680876328769058 0 -0.184822707974968 -0.45592422963236362 0 -0.1870173619903012 -0.44414077979923022 0 -0.17843006300647921 -0.44542980211747812 0 -0.17211900377920919 -0.45689747079087062 0 -0.17843006300647921 -0.44542980211747812 0 -0.16919262628862339 -0.44362555979768409 0 -0.184822707974968 -0.45592422963236362 0 -0.17211900377920919 -0.45689747079087062 0 -0.17843006300647921 -0.44542980211747812 0 -0.17843006300647921 -0.44542980211747812 0 -0.16919262628862339 -0.44362555979768409 0 -0.17507497024716731 -0.42995475378866199 0 -0.1590100530966318 -0.45433830891656402 0 -0.148881704538534 -0.44296791951084241 0 -0.1613290413136293 -0.43150746337484569 0 -0.1590100530966318 -0.45433830891656402 0 -0.1613290413136293 -0.43150746337484569 0 -0.16919262628862339 -0.44362555979768409 0 -0.1590100530966318 -0.45433830891656402 0 -0.1613290413136293 -0.43150746337484569 0 -0.17211900377920919 -0.45689747079087062 0 -0.16919262628862339 -0.44362555979768409 0 -0.1590100530966318 -0.45433830891656402 0 -0.15669106487963419 -0.47716915445828201 0 -0.1680230602922401 -0.4683158249620154 0 -0.1590100530966318 -0.45433830891656402 0 -0.15669106487963419 -0.47716915445828201 0 -0.1590100530966318 -0.45433830891656402 0 -0.17211900377920919 -0.45689747079087062 0 -0.1680230602922401 -0.4683158249620154 0 -0.1590100530966318 -0.45433830891656402 0 -0.15669106487963419 -0.47716915445828201 0 -0.1590100530966318 -0.45433830891656402 0 -0.1472923250818238 -0.46077477567243558 0 -0.1590100530966318 -0.45433830891656402 0 -0.1472923250818238 -0.46077477567243558 0 -0.148881704538534 -0.44296791951084241 0 -0.1472923250818238 -0.46077477567243558 0 -0.148881704538534 -0.44296791951084241 0 -0.13194602454298601 -0.43962244526902572 0 -0.13194602454298601 -0.43962244526902572 0 -0.13077987840644981 -0.46069854066347632 0 -0.11615585050415531 -0.45102464773050138 0 -0.1472923250818238 -0.46077477567243558 0 -0.13194602454298601 -0.43962244526902572 0 -0.1472923250818238 -0.46077477567243558 0 -0.13077987840644981 -0.46069854066347632 0 -0.13742439756140509 -0.48004162281001828 0 -0.1472923250818238 -0.46077477567243558 0 -0.13194602454298601 -0.43962244526902572 0 -0.13077987840644981 -0.46069854066347632 0 -0.13742439756140509 -0.48004162281001828 0 -0.12108079434187891 -0.47202921183540031 0 -0.1206292342060253 -0.48641385964910883 0 -0.13077987840644981 -0.46069854066347632 0 -0.13742439756140509 -0.48004162281001828 0 -0.12108079434187891 -0.47202921183540031 0 -0.13742439756140509 -0.48004162281001828 0 -0.131118449396015 -0.5 0 -0.1206292342060253 -0.48641385964910883 0 -0.15669106487963419 -0.47716915445828201 0 -0.13742439756140509 -0.48004162281001828 0 -0.15437207666263669 -0.50000000000000022 0 -0.15669106487963419 -0.47716915445828201 0 -0.15437207666263669 -0.50000000000000022 0 -0.13742439756140509 -0.48004162281001828 0 -0.131118449396015 -0.5 0 -0.15437207666263669 -0.50000000000000022 0 -0.15669106487963419 -0.47716915445828201 0 -0.1472923250818238 -0.46077477567243558 0 -0.13742439756140509 -0.48004162281001828 0 -0.13678826443221431 -0.39755243580027871 0 -0.14931675495270949 -0.41057852288770358 0 -0.15761740849691311 -0.38818340141201402 0 -0.1369224961495438 -0.38192389563367207 0 -0.13678826443221431 -0.39755243580027871 0 -0.15761740849691311 -0.38818340141201402 0 -0.1369224961495438 -0.38192389563367207 0 -0.15761740849691311 -0.38818340141201402 0 -0.148308101659717 -0.36695316985008092 0 -0.1369224961495438 -0.38192389563367207 0 -0.12526638733901391 -0.39147447277512609 0 -0.13678826443221431 -0.39755243580027871 0 -0.1369224961495438 -0.38192389563367207 0 -0.1303219987982592 -0.3665496015062627 0 -0.12201267174342199 -0.37938718301114999 0 -0.1369224961495438 -0.38192389563367207 0 -0.12526638733901391 -0.39147447277512609 0 -0.12201267174342199 -0.37938718301114999 0 -0.12526638733901391 -0.39147447277512609 0 -0.13678826443221431 -0.39755243580027871 0 -0.12592730430259419 -0.40432488328170318 0 -0.13678826443221431 -0.39755243580027871 0 -0.12592730430259419 -0.40432488328170318 0 -0.1345256340888337 -0.41538851269275129 0 -0.13678826443221431 -0.39755243580027871 0 -0.1345256340888337 -0.41538851269275129 0 -0.14931675495270949 -0.41057852288770358 0 -0.12592730430259419 -0.40432488328170318 0 -0.1345256340888337 -0.41538851269275129 0 -0.1165997240041481 -0.41847011486561592 0 -0.13194602454298601 -0.43962244526902572 0 -0.1345256340888337 -0.41538851269275129 0 -0.14483107865759889 -0.42859660432134139 0 -0.13194602454298601 -0.43962244526902572 0 -0.1345256340888337 -0.41538851269275129 0 -0.1165997240041481 -0.41847011486561592 0 -0.148881704538534 -0.44296791951084241 0 -0.14483107865759889 -0.42859660432134139 0 -0.1613290413136293 -0.43150746337484569 0 -0.148881704538534 -0.44296791951084241 0 -0.13194602454298601 -0.43962244526902572 0 -0.14483107865759889 -0.42859660432134139 0 -0.14483107865759889 -0.42859660432134139 0 -0.14931675495270949 -0.41057852288770358 0 -0.1613290413136293 -0.43150746337484569 0 -0.1345256340888337 -0.41538851269275129 0 -0.14483107865759889 -0.42859660432134139 0 -0.14931675495270949 -0.41057852288770358 0 -0.16364802953062679 -0.40867661783312748 0 -0.1613290413136293 -0.43150746337484569 0 -0.14931675495270949 -0.41057852288770358 0 -0.16364802953062679 -0.40867661783312748 0 -0.1613290413136293 -0.43150746337484569 0 -0.16364802953062679 -0.40867661783312748 0 -0.1613290413136293 -0.43150746337484569 0 -0.17507497024716731 -0.42995475378866199 0 -0.16919262628862339 -0.44362555979768409 0 -0.1613290413136293 -0.43150746337484569 0 -0.17507497024716731 -0.42995475378866199 0 -0.1870173619903012 -0.44414077979923022 0 -0.1823118302108766 -0.43680876328769058 0 -0.18872492559955881 -0.42770971744539221 0 -0.17843006300647921 -0.44542980211747812 0 -0.17507497024716731 -0.42995475378866199 0 -0.1823118302108766 -0.43680876328769058 0 -0.17507497024716731 -0.42995475378866199 0 -0.1806986800215967 -0.4173161083834821 0 -0.18872492559955881 -0.42770971744539221 0 -0.17507497024716731 -0.42995475378866199 0 -0.1823118302108766 -0.43680876328769058 0 -0.18872492559955881 -0.42770971744539221 0 -0.1806986800215967 -0.4173161083834821 0 -0.18228064084688081 -0.39610998094782668 0 -0.19209360216251761 -0.40824625574224149 0 -0.16364802953062679 -0.40867661783312748 0 -0.17507497024716731 -0.42995475378866199 0 -0.1806986800215967 -0.4173161083834821 0 -0.16364802953062679 -0.40867661783312748 0 -0.1806986800215967 -0.4173161083834821 0 -0.18228064084688081 -0.39610998094782668 0 -0.16364802953062679 -0.40867661783312748 0 -0.18228064084688081 -0.39610998094782668 0 -0.15761740849691311 -0.38818340141201402 0 -0.14931675495270949 -0.41057852288770358 0 -0.16364802953062679 -0.40867661783312748 0 -0.15761740849691311 -0.38818340141201402 0 -0.15761740849691311 -0.38818340141201402 0 -0.183603859264966 -0.3766054584014627 0 -0.1661931572416451 -0.36889933283976362 0 -0.18228064084688081 -0.39610998094782668 0 -0.15761740849691311 -0.38818340141201402 0 -0.183603859264966 -0.3766054584014627 0 -0.18228064084688081 -0.39610998094782668 0 -0.183603859264966 -0.3766054584014627 0 -0.20216487974800659 -0.3829991661375407 0 -0.18228064084688081 -0.39610998094782668 0 -0.20343785588976751 -0.39944649130885712 0 -0.19209360216251761 -0.40824625574224149 0 -0.18228064084688081 -0.39610998094782668 0 -0.20216487974800659 -0.3829991661375407 0 -0.20343785588976751 -0.39944649130885712 0 -0.20343785588976751 -0.39944649130885712 0 -0.21350444502423929 -0.40864471589815532 0 -0.22035180610084079 -0.39356726900625483 0 -0.20216487974800659 -0.3829991661375407 0 -0.20343785588976751 -0.39944649130885712 0 -0.22035180610084079 -0.39356726900625483 0 -0.20216487974800659 -0.3829991661375407 0 -0.22035180610084079 -0.39356726900625483 0 -0.219169022554425 -0.37113875127287832 0 -0.1806986800215967 -0.4173161083834821 0 -0.2030300315513712 -0.43746332377949593 0 -0.18872492559955881 -0.42770971744539221 0 -0.1806986800215967 -0.4173161083834821 0 -0.2030300315513712 -0.43746332377949593 0 -0.2030300315513712 -0.43746332377949593 0 -0.19369636752838881 -0.41903658901391427 0 -0.2031687955665597 -0.42354741618771741 0 -0.1806986800215967 -0.4173161083834821 0 -0.2030300315513712 -0.43746332377949593 0 -0.19369636752838881 -0.41903658901391427 0 -0.19369636752838881 -0.41903658901391427 0 -0.20299923128825029 -0.41376529568937459 0 -0.2031687955665597 -0.42354741618771741 0 -0.1806986800215967 -0.4173161083834821 0 -0.19369636752838881 -0.41903658901391427 0 -0.19209360216251761 -0.40824625574224149 0 -0.19369636752838881 -0.41903658901391427 0 -0.19209360216251761 -0.40824625574224149 0 -0.20299923128825029 -0.41376529568937459 0 -0.20343785588976751 -0.39944649130885712 0 -0.19209360216251761 -0.40824625574224149 0 -0.20299923128825029 -0.41376529568937459 0 -0.20343785588976751 -0.39944649130885712 0 -0.20299923128825029 -0.41376529568937459 0 -0.21350444502423929 -0.40864471589815532 0 -0.21350444502423929 -0.40864471589815532 0 -0.21294955189822859 -0.42392445626808489 0 -0.2277837799441092 -0.41252006721820539 0 -0.20299923128825029 -0.41376529568937459 0 -0.2031687955665597 -0.42354741618771741 0 -0.21294955189822859 -0.42392445626808489 0 -0.20299923128825029 -0.41376529568937459 0 -0.21350444502423929 -0.40864471589815532 0 -0.21294955189822859 -0.42392445626808489 0 -0.2030300315513712 -0.43746332377949593 0 -0.21294955189822859 -0.42392445626808489 0 -0.22549954629610269 -0.43500765649169948 0 -0.2030300315513712 -0.43746332377949593 0 -0.2031687955665597 -0.42354741618771741 0 -0.21294955189822859 -0.42392445626808489 0 -0.23591515519085041 -0.44398209369878189 0 -0.22549954629610269 -0.43500765649169948 0 -0.23735783041644329 -0.42609093398936743 0 -0.22549954629610269 -0.43500765649169948 0 -0.2277837799441092 -0.41252006721820539 0 -0.23735783041644329 -0.42609093398936743 0 -0.21294955189822859 -0.42392445626808489 0 -0.22549954629610269 -0.43500765649169948 0 -0.2277837799441092 -0.41252006721820539 0 -0.2277837799441092 -0.41252006721820539 0 -0.24694430377570939 -0.41295507854145541 0 -0.2277837799441092 -0.41252006721820539 0 -0.24694430377570939 -0.41295507854145541 0 -0.23735783041644329 -0.42609093398936743 0 -0.2277837799441092 -0.41252006721820539 0 -0.24694430377570939 -0.41295507854145541 0 -0.2359891007147569 -0.39914414181493052 0 -0.25298523514652932 -0.43702750984159111 0 -0.24694430377570939 -0.41295507854145541 0 -0.23735783041644329 -0.42609093398936743 0 -0.25298523514652932 -0.43702750984159111 0 -0.23591515519085041 -0.44398209369878189 0 -0.23735783041644329 -0.42609093398936743 0 -0.22035180610084079 -0.39356726900625483 0 -0.23802591309349369 -0.38358476956933441 0 -0.219169022554425 -0.37113875127287832 0 -0.22035180610084079 -0.39356726900625483 0 -0.2359891007147569 -0.39914414181493052 0 -0.23802591309349369 -0.38358476956933441 0 -0.21350444502423929 -0.40864471589815532 0 -0.2277837799441092 -0.41252006721820539 0 -0.22035180610084079 -0.39356726900625483 0 -0.2277837799441092 -0.41252006721820539 0 -0.22035180610084079 -0.39356726900625483 0 -0.2359891007147569 -0.39914414181493052 0 -0.2359891007147569 -0.39914414181493052 0 -0.2487824818667288 -0.3954643368039899 0 -0.23802591309349369 -0.38358476956933441 0 -0.24694430377570939 -0.41295507854145541 0 -0.2359891007147569 -0.39914414181493052 0 -0.2487824818667288 -0.3954643368039899 0 -0.26050234447883253 -0.38027693877573482 0 -0.2487824818667288 -0.3954643368039899 0 -0.23802591309349369 -0.38358476956933441 0 -0.26050234447883253 -0.38027693877573482 0 -0.23802591309349369 -0.38358476956933441 0 -0.24817767477162081 -0.36986654917455902 0 -0.23802591309349369 -0.38358476956933441 0 -0.24817767477162081 -0.36986654917455902 0 -0.23583729862822109 -0.36574384613307409 0 -0.24817767477162081 -0.36986654917455902 0 -0.23583729862822109 -0.36574384613307409 0 -0.24850069890613241 -0.35473287875334369 0 -0.23583729862822109 -0.36574384613307409 0 -0.219169022554425 -0.37113875127287832 0 -0.22531318381543361 -0.34939628189525529 0 -0.23802591309349369 -0.38358476956933441 0 -0.23583729862822109 -0.36574384613307409 0 -0.219169022554425 -0.37113875127287832 0 -0.22531318381543361 -0.34939628189525529 0 -0.24850069890613241 -0.35473287875334369 0 -0.24219101746094579 -0.34438554910399921 0 -0.23583729862822109 -0.36574384613307409 0 -0.22531318381543361 -0.34939628189525529 0 -0.24850069890613241 -0.35473287875334369 0 -0.22531318381543361 -0.34939628189525529 0 -0.24850069890613241 -0.35473287875334369 0 -0.25445926970156468 -0.34270101061729968 0 -0.24850069890613241 -0.35473287875334369 0 -0.24219101746094579 -0.34438554910399921 0 -0.25445926970156468 -0.34270101061729968 0 -0.24219101746094579 -0.34438554910399921 0 -0.2460450098649074 -0.33743905859998191 0 -0.25207330520806498 -0.33378255792528982 0 -0.2460450098649074 -0.33743905859998191 0 -0.24306356592407591 -0.32787829483024122 0 -0.2348359590034956 -0.33686915078515089 0 -0.24306356592407591 -0.32787829483024122 0 -0.23163603200856511 -0.32708080208212859 0 -0.2460450098649074 -0.33743905859998191 0 -0.2348359590034956 -0.33686915078515089 0 -0.24306356592407591 -0.32787829483024122 0 -0.24219101746094579 -0.34438554910399921 0 -0.2460450098649074 -0.33743905859998191 0 -0.2348359590034956 -0.33686915078515089 0 -0.25273748935779161 -0.32224337373924072 0 -0.24326482791746179 -0.31394285089519419 0 -0.24426682308287331 -0.30533572025667649 0 -0.25273748935779161 -0.32224337373924072 0 -0.24426682308287331 -0.30533572025667649 0 -0.25273748935779161 -0.32224337373924072 0 -0.24326482791746179 -0.31394285089519419 0 -0.2440208243134171 -0.32058552998791068 0 -0.25273748935779161 -0.32224337373924072 0 -0.24306356592407591 -0.32787829483024122 0 -0.2440208243134171 -0.32058552998791068 0 -0.25207330520806498 -0.33378255792528982 0 -0.25273748935779161 -0.32224337373924072 0 -0.24306356592407591 -0.32787829483024122 0 -0.24306356592407591 -0.32787829483024122 0 -0.2440208243134171 -0.32058552998791068 0 -0.23701741405433899 -0.31827760048696663 0 -0.24306356592407591 -0.32787829483024122 0 -0.23701741405433899 -0.31827760048696663 0 -0.23163603200856511 -0.32708080208212859 0 -0.24326482791746179 -0.31394285089519419 0 -0.23701741405433899 -0.31827760048696663 0 -0.2384772558931193 -0.30928307653082621 0 -0.24326482791746179 -0.31394285089519419 0 -0.2440208243134171 -0.32058552998791068 0 -0.23701741405433899 -0.31827760048696663 0 -0.22244826701882919 -0.32070202864358233 0 -0.22802593536356699 -0.30882837184141948 0 -0.21110805984082151 -0.30983785689108939 0 -0.23701741405433899 -0.31827760048696663 0 -0.22244826701882919 -0.32070202864358233 0 -0.22802593536356699 -0.30882837184141948 0 -0.23701741405433899 -0.31827760048696663 0 -0.23163603200856511 -0.32708080208212859 0 -0.22244826701882919 -0.32070202864358233 0 -0.23163603200856511 -0.32708080208212859 0 -0.22244826701882919 -0.32070202864358233 0 -0.22079431421521131 -0.33353493235345111 0 -0.22531318381543361 -0.34939628189525529 0 -0.2348359590034956 -0.33686915078515089 0 -0.22079431421521131 -0.33353493235345111 0 -0.22531318381543361 -0.34939628189525529 0 -0.24219101746094579 -0.34438554910399921 0 -0.2348359590034956 -0.33686915078515089 0 -0.2348359590034956 -0.33686915078515089 0 -0.23163603200856511 -0.32708080208212859 0 -0.22079431421521131 -0.33353493235345111 0 -0.22079431421521131 -0.33353493235345111 0 -0.20839645480677241 -0.32403064402179738 0 -0.20212566872473489 -0.34405968503716688 0 -0.22531318381543361 -0.34939628189525529 0 -0.22079431421521131 -0.33353493235345111 0 -0.20212566872473489 -0.34405968503716688 0 -0.22244826701882919 -0.32070202864358233 0 -0.20839645480677241 -0.32403064402179738 0 -0.21110805984082151 -0.30983785689108939 0 -0.22244826701882919 -0.32070202864358233 0 -0.22079431421521131 -0.33353493235345111 0 -0.20839645480677241 -0.32403064402179738 0 -0.20839645480677241 -0.32403064402179738 0 -0.19575919956014079 -0.31702437624003538 0 -0.21110805984082151 -0.30983785689108939 0 -0.20839645480677241 -0.32403064402179738 0 -0.19575919956014079 -0.31702437624003538 0 -0.19562896033857519 -0.33020038185646122 0 -0.19575919956014079 -0.31702437624003538 0 -0.19562896033857519 -0.33020038185646122 0 -0.18477851095256179 -0.32477614194451959 0 -0.20212566872473489 -0.34405968503716688 0 -0.1789381536340362 -0.33872308817907848 0 -0.19562896033857519 -0.33020038185646122 0 -0.20212566872473489 -0.34405968503716688 0 -0.1789381536340362 -0.33872308817907848 0 -0.20839645480677241 -0.32403064402179738 0 -0.19562896033857519 -0.33020038185646122 0 -0.20212566872473489 -0.34405968503716688 0 -0.20212566872473489 -0.34405968503716688 0 -0.2037839996862793 -0.36234410805543599 0 -0.1863350517553729 -0.35962674217565882 0 -0.20212566872473489 -0.34405968503716688 0 -0.1863350517553729 -0.35962674217565882 0 -0.1789381536340362 -0.33872308817907848 0 -0.183603859264966 -0.3766054584014627 0 -0.20216487974800659 -0.3829991661375407 0 -0.2037839996862793 -0.36234410805543599 0 -0.183603859264966 -0.3766054584014627 0 -0.2037839996862793 -0.36234410805543599 0 -0.1863350517553729 -0.35962674217565882 0 -0.219169022554425 -0.37113875127287832 0 -0.22531318381543361 -0.34939628189525529 0 -0.2037839996862793 -0.36234410805543599 0 -0.20216487974800659 -0.3829991661375407 0 -0.219169022554425 -0.37113875127287832 0 -0.2037839996862793 -0.36234410805543599 0 -0.22531318381543361 -0.34939628189525529 0 -0.20212566872473489 -0.34405968503716688 0 -0.2037839996862793 -0.36234410805543599 0 -0.22531318381543361 -0.34939628189525529 0 -0.20212566872473489 -0.34405968503716688 0 -0.24465976002352091 -0.25387891845332877 0 -0.23199225124923151 -0.26692477658714647 0 -0.21854221021918649 -0.25236034283526498 0 -0.23199225124923151 -0.26692477658714647 0 -0.21864709985809599 -0.27150291036173302 0 -0.21854221021918649 -0.25236034283526498 0 -0.24465976002352091 -0.25387891845332877 0 -0.2444485511135471 -0.27534046621033159 0 -0.23199225124923151 -0.26692477658714647 0 -0.25958550566062261 -0.27102626557679149 0 -0.24465976002352091 -0.25387891845332877 0 -0.2444485511135471 -0.27534046621033159 0 -0.2444485511135471 -0.27534046621033159 0 -0.23199225124923151 -0.26692477658714647 0 -0.23366363503180709 -0.28154124507507411 0 -0.2197277065850177 -0.2872169177591285 0 -0.23366363503180709 -0.28154124507507411 0 -0.21864709985809599 -0.27150291036173302 0 -0.23199225124923151 -0.26692477658714647 0 -0.23366363503180709 -0.28154124507507411 0 -0.21864709985809599 -0.27150291036173302 0 -0.2197277065850177 -0.2872169177591285 0 -0.23366363503180709 -0.28154124507507411 0 -0.24011613505684479 -0.30107681213347393 0 -0.2197277065850177 -0.2872169177591285 0 -0.24011613505684479 -0.30107681213347393 0 -0.2197277065850177 -0.2872169177591285 0 -0.24011613505684479 -0.30107681213347393 0 -0.2201073871300871 -0.30044142834658671 0 -0.2444485511135471 -0.27534046621033159 0 -0.23366363503180709 -0.28154124507507411 0 -0.24732420154209239 -0.29033586459568173 0 -0.23366363503180709 -0.28154124507507411 0 -0.24732420154209239 -0.29033586459568173 0 -0.24011613505684479 -0.30107681213347393 0 -0.25608276685525683 -0.28295324223861612 0 -0.2444485511135471 -0.27534046621033159 0 -0.24732420154209239 -0.29033586459568173 0 -0.26050456352867191 -0.3149367065078193 0 -0.24011613505684479 -0.30107681213347393 0 -0.24426682308287331 -0.30533572025667649 0 -0.25485564421046719 -0.30132045870319019 0 -0.24732420154209239 -0.29033586459568173 0 -0.24011613505684479 -0.30107681213347393 0 -0.24011613505684479 -0.30107681213347393 0 -0.2384772558931193 -0.30928307653082621 0 -0.22802593536356699 -0.30882837184141948 0 -0.24326482791746179 -0.31394285089519419 0 -0.24426682308287331 -0.30533572025667649 0 -0.2384772558931193 -0.30928307653082621 0 -0.24011613505684479 -0.30107681213347393 0 -0.24426682308287331 -0.30533572025667649 0 -0.2384772558931193 -0.30928307653082621 0 -0.23701741405433899 -0.31827760048696663 0 -0.2384772558931193 -0.30928307653082621 0 -0.22802593536356699 -0.30882837184141948 0 -0.22802593536356699 -0.30882837184141948 0 -0.2201073871300871 -0.30044142834658671 0 -0.21110805984082151 -0.30983785689108939 0 -0.24011613505684479 -0.30107681213347393 0 -0.22802593536356699 -0.30882837184141948 0 -0.2201073871300871 -0.30044142834658671 0 -0.2201073871300871 -0.30044142834658671 0 -0.21110805984082151 -0.30983785689108939 0 -0.20155909880418441 -0.29524718310782239 0 -0.21110805984082151 -0.30983785689108939 0 -0.2000775247532616 -0.30687463122530689 0 -0.20155909880418441 -0.29524718310782239 0 -0.19575919956014079 -0.31702437624003538 0 -0.21110805984082151 -0.30983785689108939 0 -0.2000775247532616 -0.30687463122530689 0 -0.18961770926909149 -0.30481471110084102 0 -0.20155909880418441 -0.29524718310782239 0 -0.1798976030385912 -0.29461474791537873 0 -0.19575919956014079 -0.31702437624003538 0 -0.2000775247532616 -0.30687463122530689 0 -0.18961770926909149 -0.30481471110084102 0 -0.19575919956014079 -0.31702437624003538 0 -0.18961770926909149 -0.30481471110084102 0 -0.1803928959391416 -0.31521744924658562 0 -0.2000775247532616 -0.30687463122530689 0 -0.18961770926909149 -0.30481471110084102 0 -0.20155909880418441 -0.29524718310782239 0 -0.19933927811319041 -0.27335702338478318 0 -0.1798976030385912 -0.29461474791537873 0 -0.20155909880418441 -0.29524718310782239 0 -0.19933927811319041 -0.27335702338478318 0 -0.1798976030385912 -0.29461474791537873 0 -0.2197277065850177 -0.2872169177591285 0 -0.20155909880418441 -0.29524718310782239 0 -0.19933927811319041 -0.27335702338478318 0 -0.2197277065850177 -0.2872169177591285 0 -0.2201073871300871 -0.30044142834658671 0 -0.20155909880418441 -0.29524718310782239 0 -0.21864709985809599 -0.27150291036173302 0 -0.19933927811319041 -0.27335702338478318 0 -0.21854221021918649 -0.25236034283526498 0 -0.2197277065850177 -0.2872169177591285 0 -0.21864709985809599 -0.27150291036173302 0 -0.19933927811319041 -0.27335702338478318 0 -0.2197277065850177 -0.2872169177591285 0 -0.19933927811319041 -0.27335702338478318 0 -0.19672455084482071 -0.27157955221738023 0 -0.19563648814007639 -0.2627950405098789 0 -0.1773613401945949 -0.28300380337564962 0 -0.19672455084482071 -0.27157955221738023 0 -0.19933927811319041 -0.27335702338478318 0 -0.1773613401945949 -0.28300380337564962 0 -0.19672455084482071 -0.27157955221738023 0 -0.19933927811319041 -0.27335702338478318 0 -0.19563648814007639 -0.2627950405098789 0 -0.19672455084482071 -0.27157955221738023 0 -0.19933927811319041 -0.27335702338478318 0 -0.19933927811319041 -0.27335702338478318 0 -0.19563648814007639 -0.2627950405098789 0 -0.2024770003035091 -0.25628481747185139 0 -0.19563648814007639 -0.2627950405098789 0 -0.19160736129165659 -0.25262396586623759 0 -0.18182513936558051 -0.25739227955256888 0 -0.19563648814007639 -0.2627950405098789 0 -0.19160736129165659 -0.25262396586623759 0 -0.2024770003035091 -0.25628481747185139 0 -0.19160736129165659 -0.25262396586623759 0 -0.2024770003035091 -0.25628481747185139 0 -0.19988453840298659 -0.24176205441804 0 -0.19933927811319041 -0.27335702338478318 0 -0.2024770003035091 -0.25628481747185139 0 -0.21854221021918649 -0.25236034283526498 0 -0.2024770003035091 -0.25628481747185139 0 -0.21854221021918649 -0.25236034283526498 0 -0.19988453840298659 -0.24176205441804 0 -0.19933927811319041 -0.27335702338478318 0 -0.21854221021918649 -0.25236034283526498 0 -0.16270034237907721 -0.26451024010365409 0 -0.1689202540561075 -0.25519621835756329 0 -0.15263230708737521 -0.24356194903458239 0 -0.16270034237907721 -0.26451024010365409 0 -0.15585924966824549 -0.27338725763800159 0 -0.15263230708737521 -0.24356194903458239 0 -0.16270034237907721 -0.26451024010365409 0 -0.1689202540561075 -0.25519621835756329 0 -0.17291740387759841 -0.2648938158906885 0 -0.1689202540561075 -0.25519621835756329 0 -0.18182513936558051 -0.25739227955256888 0 -0.1745260775709061 -0.24562280720632229 0 -0.19160736129165659 -0.25262396586623759 0 -0.18182513936558051 -0.25739227955256888 0 -0.1745260775709061 -0.24562280720632229 0 -0.19563648814007639 -0.2627950405098789 0 -0.18182513936558051 -0.25739227955256888 0 -0.18269465011250469 -0.26841637399603913 0 -0.1689202540561075 -0.25519621835756329 0 -0.18182513936558051 -0.25739227955256888 0 -0.17291740387759841 -0.2648938158906885 0 -0.18182513936558051 -0.25739227955256888 0 -0.17291740387759841 -0.2648938158906885 0 -0.18269465011250469 -0.26841637399603913 0 -0.19563648814007639 -0.2627950405098789 0 -0.18269465011250469 -0.26841637399603913 0 -0.1773613401945949 -0.28300380337564962 0 -0.17291740387759841 -0.2648938158906885 0 -0.17526212336935321 -0.27297056277525461 0 -0.1680750992927145 -0.27556825783864097 0 -0.19563648814007639 -0.2627950405098789 0 -0.1773613401945949 -0.28300380337564962 0 -0.17291740387759841 -0.2648938158906885 0 -0.17526212336935321 -0.27297056277525461 0 -0.18269465011250469 -0.26841637399603913 0 -0.17526212336935321 -0.27297056277525461 0 -0.18269465011250469 -0.26841637399603913 0 -0.1773613401945949 -0.28300380337564962 0 -0.17526212336935321 -0.27297056277525461 0 -0.1680750992927145 -0.27556825783864097 0 -0.1773613401945949 -0.28300380337564962 0 -0.1680750992927145 -0.27556825783864097 0 -0.1682011228878135 -0.28257539269247411 0 -0.1773613401945949 -0.28300380337564962 0 -0.1680750992927145 -0.27556825783864097 0 -0.1622412594804854 -0.28273310688964581 0 -0.1682011228878135 -0.28257539269247411 0 -0.16270034237907721 -0.26451024010365409 0 -0.17291740387759841 -0.2648938158906885 0 -0.1680750992927145 -0.27556825783864097 0 -0.16270034237907721 -0.26451024010365409 0 -0.1680750992927145 -0.27556825783864097 0 -0.16179622859894191 -0.27503335760685149 0 -0.16270034237907721 -0.26451024010365409 0 -0.16179622859894191 -0.27503335760685149 0 -0.15585924966824549 -0.27338725763800159 0 -0.16179622859894191 -0.27503335760685149 0 -0.1622412594804854 -0.28273310688964581 0 -0.15585924966824549 -0.27338725763800159 0 -0.1680750992927145 -0.27556825783864097 0 -0.16179622859894191 -0.27503335760685149 0 -0.1622412594804854 -0.28273310688964581 0 -0.1622412594804854 -0.28273310688964581 0 -0.16512679258345911 -0.28899640266596011 0 -0.15908619224911419 -0.30321256624142101 0 -0.1622412594804854 -0.28273310688964581 0 -0.15908619224911419 -0.30321256624142101 0 -0.15585924966824549 -0.27338725763800159 0 -0.15908619224911419 -0.30321256624142101 0 -0.15585924966824549 -0.27338725763800159 0 -0.16512679258345911 -0.28899640266596011 0 -0.1773613401945949 -0.28300380337564962 0 -0.15908619224911419 -0.30321256624142101 0 -0.1773613401945949 -0.28300380337564962 0 -0.15908619224911419 -0.30321256624142101 0 -0.16512679258345911 -0.28899640266596011 0 -0.1682011228878135 -0.28257539269247411 0 -0.1773613401945949 -0.28300380337564962 0 -0.1622412594804854 -0.28273310688964581 0 -0.16512679258345911 -0.28899640266596011 0 -0.1682011228878135 -0.28257539269247411 0 -0.1773613401945949 -0.28300380337564962 0 -0.1798976030385912 -0.29461474791537873 0 -0.15908619224911419 -0.30321256624142101 0 -0.19933927811319041 -0.27335702338478318 0 -0.1773613401945949 -0.28300380337564962 0 -0.1798976030385912 -0.29461474791537873 0 -0.1798976030385912 -0.29461474791537873 0 -0.17759103405270391 -0.30762984517719472 0 -0.16045592796399111 -0.3158724724459735 0 -0.18961770926909149 -0.30481471110084102 0 -0.1798976030385912 -0.29461474791537873 0 -0.17759103405270391 -0.30762984517719472 0 -0.18961770926909149 -0.30481471110084102 0 -0.17759103405270391 -0.30762984517719472 0 -0.1803928959391416 -0.31521744924658562 0 -0.1798976030385912 -0.29461474791537873 0 -0.16045592796399111 -0.3158724724459735 0 -0.1798976030385912 -0.29461474791537873 0 -0.15908619224911419 -0.30321256624142101 0 -0.16045592796399111 -0.3158724724459735 0 -0.15908619224911419 -0.30321256624142101 0 -0.16045592796399111 -0.3158724724459735 0 -0.1471380549162328 -0.30532142906175452 0 -0.14032160831301491 -0.30752887986621158 0 -0.14130665940473261 -0.32287327510069419 0 -0.15908619224911419 -0.30321256624142101 0 -0.1471380549162328 -0.30532142906175452 0 -0.14130665940473261 -0.32287327510069419 0 -0.15908619224911419 -0.30321256624142101 0 -0.1471380549162328 -0.30532142906175452 0 -0.1510678287434867 -0.29559461902651829 0 -0.14390798587081549 -0.29739780507392732 0 -0.1471380549162328 -0.30532142906175452 0 -0.1510678287434867 -0.29559461902651829 0 -0.14390798587081549 -0.29739780507392732 0 -0.1471380549162328 -0.30532142906175452 0 -0.14032160831301491 -0.30752887986621158 0 -0.14032160831301491 -0.30752887986621158 0 -0.13439128381467691 -0.29991683468539793 0 -0.13033731665847181 -0.31286393971371201 0 -0.13439128381467691 -0.29991683468539793 0 -0.13033731665847181 -0.31286393971371201 0 -0.12304085188452731 -0.29931348820209958 0 -0.14390798587081549 -0.29739780507392732 0 -0.14032160831301491 -0.30752887986621158 0 -0.13439128381467691 -0.29991683468539793 0 -0.14390798587081549 -0.29739780507392732 0 -0.13439128381467691 -0.29991683468539793 0 -0.14011095662501261 -0.28947786809128212 0 -0.13439128381467691 -0.29991683468539793 0 -0.14011095662501261 -0.28947786809128212 0 -0.12994370463312691 -0.28995419054763111 0 -0.13439128381467691 -0.29991683468539793 0 -0.12994370463312691 -0.28995419054763111 0 -0.12304085188452731 -0.29931348820209958 0 -0.12994370463312691 -0.28995419054763111 0 -0.13687965345326569 -0.27993872332247433 0 -0.1257911728949061 -0.280427018304516 0 -0.12994370463312691 -0.28995419054763111 0 -0.1257911728949061 -0.280427018304516 0 -0.1194571486541455 -0.28746452468861589 0 -0.14011095662501261 -0.28947786809128212 0 -0.12994370463312691 -0.28995419054763111 0 -0.13687965345326569 -0.27993872332247433 0 -0.15908619224911419 -0.30321256624142101 0 -0.15162645984294551 -0.28670064183700439 0 -0.15585924966824549 -0.27338725763800159 0 -0.14011095662501261 -0.28947786809128212 0 -0.1458827091329962 -0.28225219708249882 0 -0.13687965345326569 -0.27993872332247433 0 -0.15908619224911419 -0.30321256624142101 0 -0.1510678287434867 -0.29559461902651829 0 -0.15162645984294551 -0.28670064183700439 0 -0.1458827091329962 -0.28225219708249882 0 -0.1468811506158991 -0.28912565090950809 0 -0.15162645984294551 -0.28670064183700439 0 -0.14011095662501261 -0.28947786809128212 0 -0.1458827091329962 -0.28225219708249882 0 -0.1468811506158991 -0.28912565090950809 0 -0.14390798587081549 -0.29739780507392732 0 -0.1468811506158991 -0.28912565090950809 0 -0.1510678287434867 -0.29559461902651829 0 -0.14390798587081549 -0.29739780507392732 0 -0.14011095662501261 -0.28947786809128212 0 -0.1468811506158991 -0.28912565090950809 0 -0.1468811506158991 -0.28912565090950809 0 -0.1510678287434867 -0.29559461902651829 0 -0.15162645984294551 -0.28670064183700439 0 -0.1458827091329962 -0.28225219708249882 0 -0.15162645984294551 -0.28670064183700439 0 -0.15098162864793119 -0.27663156012407891 0 -0.15162645984294551 -0.28670064183700439 0 -0.15098162864793119 -0.27663156012407891 0 -0.15585924966824549 -0.27338725763800159 0 -0.15098162864793119 -0.27663156012407891 0 -0.1522527558101047 -0.27366235468835692 0 -0.14903370440966179 -0.27344637702894548 0 -0.15098162864793119 -0.27663156012407891 0 -0.1522527558101047 -0.27366235468835692 0 -0.15585924966824549 -0.27338725763800159 0 -0.14903370440966179 -0.27344637702894548 0 -0.1531364405145805 -0.27118422396240138 0 -0.14385763015454139 -0.26954128824380802 0 -0.1522527558101047 -0.27366235468835692 0 -0.15585924966824549 -0.27338725763800159 0 -0.1531364405145805 -0.27118422396240138 0 -0.1522527558101047 -0.27366235468835692 0 -0.14903370440966179 -0.27344637702894548 0 -0.1531364405145805 -0.27118422396240138 0 -0.14903370440966179 -0.27344637702894548 0 -0.14385763015454139 -0.26954128824380802 0 -0.1442805510697899 -0.27562940435382949 0 -0.14385763015454139 -0.26954128824380802 0 -0.1442805510697899 -0.27562940435382949 0 -0.13835653564694769 -0.27242798417408381 0 -0.1458827091329962 -0.28225219708249882 0 -0.1442805510697899 -0.27562940435382949 0 -0.13687965345326569 -0.27993872332247433 0 -0.15098162864793119 -0.27663156012407891 0 -0.14903370440966179 -0.27344637702894548 0 -0.1442805510697899 -0.27562940435382949 0 -0.1458827091329962 -0.28225219708249882 0 -0.15098162864793119 -0.27663156012407891 0 -0.1442805510697899 -0.27562940435382949 0 -0.13687965345326569 -0.27993872332247433 0 -0.12970248462840331 -0.2717774759070859 0 -0.13835653564694769 -0.27242798417408381 0 -0.1442805510697899 -0.27562940435382949 0 -0.13687965345326569 -0.27993872332247433 0 -0.13835653564694769 -0.27242798417408381 0 -0.13687965345326569 -0.27993872332247433 0 -0.1257911728949061 -0.280427018304516 0 -0.12970248462840331 -0.2717774759070859 0 -0.12970248462840331 -0.2717774759070859 0 -0.13570208279224111 -0.26528350045903498 0 -0.12855037573501921 -0.26115248962005239 0 -0.14385763015454139 -0.26954128824380802 0 -0.13835653564694769 -0.27242798417408381 0 -0.13570208279224111 -0.26528350045903498 0 -0.12970248462840331 -0.2717774759070859 0 -0.13835653564694769 -0.27242798417408381 0 -0.13570208279224111 -0.26528350045903498 0 -0.13570208279224111 -0.26528350045903498 0 -0.12855037573501921 -0.26115248962005239 0 -0.1377523016625678 -0.25581657194563601 0 -0.14385763015454139 -0.26954128824380802 0 -0.13570208279224111 -0.26528350045903498 0 -0.1377523016625678 -0.25581657194563601 0 -0.12855037573501921 -0.26115248962005239 0 -0.1377523016625678 -0.25581657194563601 0 -0.1223681628105569 -0.24044891992886891 0 -0.1531364405145805 -0.27118422396240138 0 -0.1377523016625678 -0.25581657194563601 0 -0.15263230708737521 -0.24356194903458239 0 -0.15585924966824549 -0.27338725763800159 0 -0.1531364405145805 -0.27118422396240138 0 -0.15263230708737521 -0.24356194903458239 0 -0.15585924966824549 -0.27338725763800159 0 -0.15263230708737521 -0.24356194903458239 0 -0.1531364405145805 -0.27118422396240138 0 -0.1377523016625678 -0.25581657194563601 0 -0.1531364405145805 -0.27118422396240138 0 -0.14385763015454139 -0.26954128824380802 0 -0.1377523016625678 -0.25581657194563601 0 -0.1661931572416451 -0.36889933283976362 0 -0.1633245426028184 -0.34238590264286861 0 -0.15433175674287769 -0.35458729317269139 0 -0.1661931572416451 -0.36889933283976362 0 -0.1633245426028184 -0.34238590264286861 0 -0.1661931572416451 -0.36889933283976362 0 -0.17388048196752651 -0.3522733272046466 0 -0.1633245426028184 -0.34238590264286861 0 -0.1661931572416451 -0.36889933283976362 0 -0.15433175674287769 -0.35458729317269139 0 -0.148308101659717 -0.36695316985008092 0 -0.15761740849691311 -0.38818340141201402 0 -0.1661931572416451 -0.36889933283976362 0 -0.148308101659717 -0.36695316985008092 0 -0.183603859264966 -0.3766054584014627 0 -0.1661931572416451 -0.36889933283976362 0 -0.1863350517553729 -0.35962674217565882 0 -0.1661931572416451 -0.36889933283976362 0 -0.1863350517553729 -0.35962674217565882 0 -0.17388048196752651 -0.3522733272046466 0 -0.1863350517553729 -0.35962674217565882 0 -0.17388048196752651 -0.3522733272046466 0 -0.1789381536340362 -0.33872308817907848 0 -0.17388048196752651 -0.3522733272046466 0 -0.1789381536340362 -0.33872308817907848 0 -0.1633245426028184 -0.34238590264286861 0 -0.19562896033857519 -0.33020038185646122 0 -0.1789381536340362 -0.33872308817907848 0 -0.18477851095256179 -0.32477614194451959 0 -0.1789381536340362 -0.33872308817907848 0 -0.18477851095256179 -0.32477614194451959 0 -0.1735479853981102 -0.32728394705986258 0 -0.1789381536340362 -0.33872308817907848 0 -0.1735479853981102 -0.32728394705986258 0 -0.1633245426028184 -0.34238590264286861 0 -0.17759103405270391 -0.30762984517719472 0 -0.1803928959391416 -0.31521744924658562 0 -0.16045592796399111 -0.3158724724459735 0 -0.19575919956014079 -0.31702437624003538 0 -0.1803928959391416 -0.31521744924658562 0 -0.18477851095256179 -0.32477614194451959 0 -0.1803928959391416 -0.31521744924658562 0 -0.18477851095256179 -0.32477614194451959 0 -0.1735479853981102 -0.32728394705986258 0 -0.1803928959391416 -0.31521744924658562 0 -0.1735479853981102 -0.32728394705986258 0 -0.16045592796399111 -0.3158724724459735 0 -0.1735479853981102 -0.32728394705986258 0 -0.16045592796399111 -0.3158724724459735 0 -0.1633245426028184 -0.34238590264286861 0 -0.16045592796399111 -0.3158724724459735 0 -0.1633245426028184 -0.34238590264286861 0 -0.1476770575246594 -0.3298450188736391 0 -0.16045592796399111 -0.3158724724459735 0 -0.1633245426028184 -0.34238590264286861 0 -0.1633245426028184 -0.34238590264286861 0 -0.15030263560259111 -0.34285112818916452 0 -0.1476770575246594 -0.3298450188736391 0 -0.1476770575246594 -0.3298450188736391 0 -0.14130665940473261 -0.32287327510069419 0 -0.13989838249203351 -0.33226752099114382 0 -0.1476770575246594 -0.3298450188736391 0 -0.14096893258994439 -0.33934882548262568 0 -0.13989838249203351 -0.33226752099114382 0 -0.15030263560259111 -0.34285112818916452 0 -0.1476770575246594 -0.3298450188736391 0 -0.14096893258994439 -0.33934882548262568 0 -0.15908619224911419 -0.30321256624142101 0 -0.14130665940473261 -0.32287327510069419 0 -0.16045592796399111 -0.3158724724459735 0 -0.1476770575246594 -0.3298450188736391 0 -0.14130665940473261 -0.32287327510069419 0 -0.15908619224911419 -0.30321256624142101 0 -0.16045592796399111 -0.3158724724459735 0 -0.14130665940473261 -0.32287327510069419 0 -0.16045592796399111 -0.3158724724459735 0 -0.1476770575246594 -0.3298450188736391 0 -0.14130665940473261 -0.32287327510069419 0 -0.12766342535057629 -0.32481504462803062 0 -0.13033731665847181 -0.31286393971371201 0 -0.14032160831301491 -0.30752887986621158 0 -0.14130665940473261 -0.32287327510069419 0 -0.13033731665847181 -0.31286393971371201 0 -0.14130665940473261 -0.32287327510069419 0 -0.12766342535057629 -0.32481504462803062 0 -0.12902917457320359 -0.33644978787578289 0 -0.12766342535057629 -0.32481504462803062 0 -0.12902917457320359 -0.33644978787578289 0 -0.123033176677132 -0.34308019655903149 0 -0.14096893258994439 -0.33934882548262568 0 -0.12902917457320359 -0.33644978787578289 0 -0.13366226850604379 -0.34759248760944123 0 -0.14096893258994439 -0.33934882548262568 0 -0.13989838249203351 -0.33226752099114382 0 -0.12902917457320359 -0.33644978787578289 0 -0.14130665940473261 -0.32287327510069419 0 -0.12902917457320359 -0.33644978787578289 0 -0.14130665940473261 -0.32287327510069419 0 -0.13989838249203351 -0.33226752099114382 0 -0.12902917457320359 -0.33644978787578289 0 -0.12902917457320359 -0.33644978787578289 0 -0.123033176677132 -0.34308019655903149 0 -0.12902917457320359 -0.33644978787578289 0 -0.13366226850604379 -0.34759248760944123 0 -0.123033176677132 -0.34308019655903149 0 -0.13366226850604379 -0.34759248760944123 0 -0.1303219987982592 -0.3665496015062627 0 -0.123033176677132 -0.34308019655903149 0 -0.1303219987982592 -0.3665496015062627 0 -0.123033176677132 -0.34308019655903149 0 -0.13366226850604379 -0.34759248760944123 0 -0.1435303466076166 -0.35184693234157938 0 -0.1303219987982592 -0.3665496015062627 0 -0.14096893258994439 -0.33934882548262568 0 -0.13366226850604379 -0.34759248760944123 0 -0.1435303466076166 -0.35184693234157938 0 -0.15030263560259111 -0.34285112818916452 0 -0.14096893258994439 -0.33934882548262568 0 -0.1435303466076166 -0.35184693234157938 0 -0.1435303466076166 -0.35184693234157938 0 -0.15433175674287769 -0.35458729317269139 0 -0.148308101659717 -0.36695316985008092 0 -0.1633245426028184 -0.34238590264286861 0 -0.15030263560259111 -0.34285112818916452 0 -0.15433175674287769 -0.35458729317269139 0 -0.15030263560259111 -0.34285112818916452 0 -0.1435303466076166 -0.35184693234157938 0 -0.15433175674287769 -0.35458729317269139 0 -0.1435303466076166 -0.35184693234157938 0 -0.148308101659717 -0.36695316985008092 0 -0.1303219987982592 -0.3665496015062627 0 -0.1369224961495438 -0.38192389563367207 0 -0.148308101659717 -0.36695316985008092 0 -0.1303219987982592 -0.3665496015062627 0 -0.1303219987982592 -0.3665496015062627 0 -0.1159926709000937 -0.36685414663024191 0 -0.11895596668836859 -0.34683008488337108 0 -0.1303219987982592 -0.3665496015062627 0 -0.1159926709000937 -0.36685414663024191 0 -0.12201267174342199 -0.37938718301114999 0 -0.1024060606807759 -0.36205135125861898 0 -0.1016559479587178 -0.38500202459504551 0 -0.1159926709000937 -0.36685414663024191 0 -0.1024060606807759 -0.36205135125861898 0 -0.1094440337948836 -0.37923577087639421 0 -0.1024060606807759 -0.36205135125861898 0 -0.1016559479587178 -0.38500202459504551 0 -0.095426438310298192 -0.37780241062099151 0 -0.1024060606807759 -0.36205135125861898 0 -0.090139611558562177 -0.37333304007799939 0 -0.095426438310298192 -0.37780241062099151 0 -0.1024060606807759 -0.36205135125861898 0 -0.093943439343664059 -0.36410026383479388 0 -0.090139611558562177 -0.37333304007799939 0 -0.1024060606807759 -0.36205135125861898 0 -0.093943439343664059 -0.36410026383479388 0 -0.095626283443773746 -0.35612124291623848 0 -0.1024060606807759 -0.36205135125861898 0 -0.090139611558562177 -0.37333304007799939 0 -0.1024060606807759 -0.36205135125861898 0 -0.1029439411344124 -0.34559419992324319 0 -0.1024060606807759 -0.36205135125861898 0 -0.1029439411344124 -0.34559419992324319 0 -0.11895596668836859 -0.34683008488337108 0 -0.1024060606807759 -0.36205135125861898 0 -0.095626283443773746 -0.35612124291623848 0 -0.1029439411344124 -0.34559419992324319 0 -0.095626283443773746 -0.35612124291623848 0 -0.1029439411344124 -0.34559419992324319 0 -0.093212578299404075 -0.34130700998995739 0 -0.1159926709000937 -0.36685414663024191 0 -0.1024060606807759 -0.36205135125861898 0 -0.11895596668836859 -0.34683008488337108 0 -0.1024060606807759 -0.36205135125861898 0 -0.11895596668836859 -0.34683008488337108 0 -0.1303219987982592 -0.3665496015062627 0 -0.11895596668836859 -0.34683008488337108 0 -0.123033176677132 -0.34308019655903149 0 -0.1029439411344124 -0.34559419992324319 0 -0.11895596668836859 -0.34683008488337108 0 -0.123033176677132 -0.34308019655903149 0 -0.11895596668836859 -0.34683008488337108 0 -0.123033176677132 -0.34308019655903149 0 -0.1029439411344124 -0.34559419992324319 0 -0.1137910684918501 -0.33520612369310882 0 -0.123033176677132 -0.34308019655903149 0 -0.123033176677132 -0.34308019655903149 0 -0.1159692764993048 -0.31568518943543378 0 -0.1137910684918501 -0.33520612369310882 0 -0.123033176677132 -0.34308019655903149 0 -0.1159692764993048 -0.31568518943543378 0 -0.12766342535057629 -0.32481504462803062 0 -0.123033176677132 -0.34308019655903149 0 -0.1159692764993048 -0.31568518943543378 0 -0.1137910684918501 -0.33520612369310882 0 -0.1159692764993048 -0.31568518943543378 0 -0.1034818215880495 -0.3291370485878673 0 -0.12766342535057629 -0.32481504462803062 0 -0.13033731665847181 -0.31286393971371201 0 -0.1159692764993048 -0.31568518943543378 0 -0.1159692764993048 -0.31568518943543378 0 -0.10079975883819629 -0.31506063040533638 0 -0.1034818215880495 -0.3291370485878673 0 -0.10079975883819629 -0.31506063040533638 0 -0.093212578299404075 -0.34130700998995739 0 -0.10079975883819629 -0.31506063040533638 0 -0.093212578299404075 -0.34130700998995739 0 -0.087373844159168004 -0.3291061545470132 0 -0.10079975883819629 -0.31506063040533638 0 -0.1034818215880495 -0.3291370485878673 0 -0.093212578299404075 -0.34130700998995739 0 -0.1029439411344124 -0.34559419992324319 0 -0.1034818215880495 -0.3291370485878673 0 -0.1029439411344124 -0.34559419992324319 0 -0.1034818215880495 -0.3291370485878673 0 -0.093212578299404075 -0.34130700998995739 0 -0.1029439411344124 -0.34559419992324319 0 -0.1137910684918501 -0.33520612369310882 0 -0.1034818215880495 -0.3291370485878673 0 -0.093212578299404075 -0.34130700998995739 0 -0.087373844159168004 -0.3291061545470132 0 -0.080908772255243899 -0.33898270124258217 0 -0.087373844159168004 -0.3291061545470132 0 -0.080908772255243899 -0.33898270124258217 0 -0.077490532230771417 -0.32991328235931511 0 -0.093212578299404075 -0.34130700998995739 0 -0.080908772255243899 -0.33898270124258217 0 -0.080378844364046895 -0.35001101873094542 0 -0.10079975883819629 -0.31506063040533638 0 -0.085305929108392881 -0.31951846990187233 0 -0.091873739319295072 -0.31122357941036211 0 -0.10079975883819629 -0.31506063040533638 0 -0.087373844159168004 -0.3291061545470132 0 -0.085305929108392881 -0.31951846990187233 0 -0.085305929108392881 -0.31951846990187233 0 -0.076805788315873161 -0.32077910918615782 0 -0.077490532230771417 -0.32991328235931511 0 -0.087373844159168004 -0.3291061545470132 0 -0.085305929108392881 -0.31951846990187233 0 -0.077490532230771417 -0.32991328235931511 0 -0.085305929108392881 -0.31951846990187233 0 -0.076805788315873161 -0.32077910918615782 0 -0.078544889372492196 -0.31002595631180607 0 -0.085305929108392881 -0.31951846990187233 0 -0.091873739319295072 -0.31122357941036211 0 -0.078544889372492196 -0.31002595631180607 0 -0.066882954587322394 -0.32486941793266988 0 -0.078544889372492196 -0.31002595631180607 0 -0.05424539878688571 -0.319762651601179 0 -0.078544889372492196 -0.31002595631180607 0 -0.05424539878688571 -0.319762651601179 0 -0.076805788315873161 -0.32077910918615782 0 -0.066882954587322394 -0.32486941793266988 0 -0.078544889372492196 -0.31002595631180607 0 -0.076805788315873161 -0.32077910918615782 0 -0.066882954587322394 -0.32486941793266988 0 -0.077490532230771417 -0.32991328235931511 0 -0.066882954587322394 -0.32486941793266988 0 -0.070160141916437824 -0.34098238217286791 0 -0.054527031800802053 -0.34042178362413461 0 -0.066882954587322394 -0.32486941793266988 0 -0.077490532230771417 -0.32991328235931511 0 -0.070160141916437824 -0.34098238217286791 0 -0.080908772255243899 -0.33898270124258217 0 -0.077490532230771417 -0.32991328235931511 0 -0.070160141916437824 -0.34098238217286791 0 -0.080908772255243899 -0.33898270124258217 0 -0.070160141916437824 -0.34098238217286791 0 -0.080378844364046895 -0.35001101873094542 0 -0.070160141916437824 -0.34098238217286791 0 -0.066522813126512412 -0.35680227137673098 0 -0.054527031800802053 -0.34042178362413461 0 -0.070160141916437824 -0.34098238217286791 0 -0.066522813126512412 -0.35680227137673098 0 -0.080378844364046895 -0.35001101873094542 0 -0.066522813126512412 -0.35680227137673098 0 -0.076582500297099523 -0.36039923154202719 0 -0.080378844364046895 -0.35001101873094542 0 -0.066522813126512412 -0.35680227137673098 0 -0.073802945937226916 -0.36723024648585417 0 -0.058387822440418388 -0.36975607908058028 0 -0.073802945937226916 -0.36723024648585417 0 -0.058387822440418388 -0.36975607908058028 0 -0.08170780991661282 -0.38109255286014232 0 -0.066522813126512412 -0.35680227137673098 0 -0.073802945937226916 -0.36723024648585417 0 -0.076582500297099523 -0.36039923154202719 0 -0.073802945937226916 -0.36723024648585417 0 -0.076582500297099523 -0.36039923154202719 0 -0.085625397760611066 -0.36755338957457828 0 -0.085625397760611066 -0.36755338957457828 0 -0.087954911787112483 -0.37534235041220648 0 -0.08170780991661282 -0.38109255286014232 0 -0.073802945937226916 -0.36723024648585417 0 -0.085625397760611066 -0.36755338957457828 0 -0.08170780991661282 -0.38109255286014232 0 -0.085625397760611066 -0.36755338957457828 0 -0.08170780991661282 -0.38109255286014232 0 -0.093943439343664059 -0.36410026383479388 0 -0.085625397760611066 -0.36755338957457828 0 -0.090139611558562177 -0.37333304007799939 0 -0.093943439343664059 -0.36410026383479388 0 -0.090139611558562177 -0.37333304007799939 0 -0.085625397760611066 -0.36755338957457828 0 -0.090139611558562177 -0.37333304007799939 0 -0.087954911787112483 -0.37534235041220648 0 -0.085625397760611066 -0.36755338957457828 0 -0.087954911787112483 -0.37534235041220648 0 -0.090139611558562177 -0.37333304007799939 0 -0.087954911787112483 -0.37534235041220648 0 -0.093943439343664059 -0.36410026383479388 0 -0.095626283443773746 -0.35612124291623848 0 -0.085625397760611066 -0.36755338957457828 0 -0.093212578299404075 -0.34130700998995739 0 -0.085625397760611066 -0.36755338957457828 0 -0.076582500297099523 -0.36039923154202719 0 -0.085625397760611066 -0.36755338957457828 0 -0.080378844364046895 -0.35001101873094542 0 -0.093212578299404075 -0.34130700998995739 0 -0.085625397760611066 -0.36755338957457828 0 -0.080378844364046895 -0.35001101873094542 0 -0.085625397760611066 -0.36755338957457828 0 -0.080378844364046895 -0.35001101873094542 0 -0.095626283443773746 -0.35612124291623848 0 -0.093212578299404075 -0.34130700998995739 0 -0.085625397760611066 -0.36755338957457828 0 -0.10474757541744149 -0.26087495970427582 0 -0.090174700483665673 -0.26498018187443112 0 -0.1005321994236209 -0.2431127607729493 0 -0.10474757541744149 -0.26087495970427582 0 -0.11757885349586771 -0.25701660664448461 0 -0.1005321994236209 -0.2431127607729493 0 -0.12855037573501921 -0.26115248962005239 0 -0.11757885349586771 -0.25701660664448461 0 -0.1127895441811773 -0.27358429336009982 0 -0.12855037573501921 -0.26115248962005239 0 -0.11757885349586771 -0.25701660664448461 0 -0.1223681628105569 -0.24044891992886891 0 -0.10474757541744149 -0.26087495970427582 0 -0.11757885349586771 -0.25701660664448461 0 -0.1127895441811773 -0.27358429336009982 0 -0.11757885349586771 -0.25701660664448461 0 -0.1127895441811773 -0.27358429336009982 0 -0.1257911728949061 -0.280427018304516 0 -0.12970248462840331 -0.2717774759070859 0 -0.1127895441811773 -0.27358429336009982 0 -0.12855037573501921 -0.26115248962005239 0 -0.1127895441811773 -0.27358429336009982 0 -0.12970248462840331 -0.2717774759070859 0 -0.12855037573501921 -0.26115248962005239 0 -0.1127895441811773 -0.27358429336009982 0 -0.1257911728949061 -0.280427018304516 0 -0.1127895441811773 -0.27358429336009982 0 -0.1194571486541455 -0.28746452468861589 0 -0.1127895441811773 -0.27358429336009982 0 -0.1083869393769897 -0.28881425082071571 0 -0.1127895441811773 -0.27358429336009982 0 -0.093274829049746905 -0.28897707944045958 0 -0.090174700483665673 -0.26498018187443112 0 -0.10474757541744149 -0.26087495970427582 0 -0.1127895441811773 -0.27358429336009982 0 -0.090174700483665673 -0.26498018187443112 0 -0.1127895441811773 -0.27358429336009982 0 -0.1067008731150054 -0.28283902414649681 0 -0.093274829049746905 -0.28897707944045958 0 -0.1127895441811773 -0.27358429336009982 0 -0.093274829049746905 -0.28897707944045958 0 -0.1083869393769897 -0.28881425082071571 0 -0.102844379958099 -0.30028926102243358 0 -0.093274829049746905 -0.28897707944045958 0 -0.1127895441811773 -0.27358429336009982 0 -0.1083869393769897 -0.28881425082071571 0 -0.1067008731150054 -0.28283902414649681 0 -0.1083869393769897 -0.28881425082071571 0 -0.1067008731150054 -0.28283902414649681 0 -0.1083869393769897 -0.28881425082071571 0 -0.1067008731150054 -0.28283902414649681 0 -0.093274829049746905 -0.28897707944045958 0 -0.1127895441811773 -0.27358429336009982 0 -0.1083869393769897 -0.28881425082071571 0 -0.1194571486541455 -0.28746452468861589 0 -0.12994370463312691 -0.28995419054763111 0 -0.1194571486541455 -0.28746452468861589 0 -0.12304085188452731 -0.29931348820209958 0 -0.1083869393769897 -0.28881425082071571 0 -0.1194571486541455 -0.28746452468861589 0 -0.12304085188452731 -0.29931348820209958 0 -0.1159692764993048 -0.31568518943543378 0 -0.1083869393769897 -0.28881425082071571 0 -0.12304085188452731 -0.29931348820209958 0 -0.1159692764993048 -0.31568518943543378 0 -0.1083869393769897 -0.28881425082071571 0 -0.13033731665847181 -0.31286393971371201 0 -0.1159692764993048 -0.31568518943543378 0 -0.12304085188452731 -0.29931348820209958 0 -0.1159692764993048 -0.31568518943543378 0 -0.10079975883819629 -0.31506063040533638 0 -0.1083869393769897 -0.28881425082071571 0 -0.10079975883819629 -0.31506063040533638 0 -0.1083869393769897 -0.28881425082071571 0 -0.10079975883819629 -0.31506063040533638 0 -0.1083869393769897 -0.28881425082071571 0 -0.102844379958099 -0.30028926102243358 0 -0.10079975883819629 -0.31506063040533638 0 -0.102844379958099 -0.30028926102243358 0 -0.091873739319295072 -0.31122357941036211 0 -0.078544889372492196 -0.31002595631180607 0 -0.073760113918316481 -0.30436986552081963 0 -0.093274829049746905 -0.28897707944045958 0 -0.102844379958099 -0.30028926102243358 0 -0.078544889372492196 -0.31002595631180607 0 -0.093274829049746905 -0.28897707944045958 0 -0.102844379958099 -0.30028926102243358 0 -0.091873739319295072 -0.31122357941036211 0 -0.078544889372492196 -0.31002595631180607 0 -0.102844379958099 -0.30028926102243358 0 -0.078544889372492196 -0.31002595631180607 0 -0.078544889372492196 -0.31002595631180607 0 -0.073760113918316481 -0.30436986552081963 0 -0.05424539878688571 -0.319762651601179 0 -0.073760113918316481 -0.30436986552081963 0 -0.05424539878688571 -0.319762651601179 0 -0.073760113918316481 -0.30436986552081963 0 -0.071188273097670243 -0.28513602236808322 0 -0.055748641784298267 -0.30178875706485681 0 -0.073760113918316481 -0.30436986552081963 0 -0.071188273097670243 -0.28513602236808322 0 -0.093274829049746905 -0.28897707944045958 0 -0.073760113918316481 -0.30436986552081963 0 -0.093274829049746905 -0.28897707944045958 0 -0.071188273097670243 -0.28513602236808322 0 -0.093274829049746905 -0.28897707944045958 0 -0.090174700483665673 -0.26498018187443112 0 -0.071188273097670243 -0.28513602236808322 0 -0.063484538676239377 -0.26413124226689111 0 -0.090174700483665673 -0.26498018187443112 0 -0.063484538676239377 -0.26413124226689111 0 -0.076282262678724011 -0.24169347649274159 0 -0.063484538676239377 -0.26413124226689111 0 -0.090174700483665673 -0.26498018187443112 0 -0.076282262678724011 -0.24169347649274159 0 -0.036942597034766073 -0.27265489088473938 0 -0.050686814673754729 -0.28656900804104057 0 -0.0185119813334658 -0.28327625011988139 0 -0.038581934025118947 -0.25114857380685968 0 -0.038334603868346327 -0.2604973367990705 0 -0.03064478186574425 -0.25326356670072259 0 -0.038334603868346327 -0.2604973367990705 0 -0.029413390480137139 -0.26518294325465769 0 -0.03064478186574425 -0.25326356670072259 0 -0.038334603868346327 -0.2604973367990705 0 -0.046517308340487992 -0.25474718453952289 0 -0.048289188575406587 -0.26955092917192058 0 -0.038581934025118947 -0.25114857380685968 0 -0.038334603868346327 -0.2604973367990705 0 -0.046517308340487992 -0.25474718453952289 0 -0.063484538676239377 -0.26413124226689111 0 -0.046517308340487992 -0.25474718453952289 0 -0.0567919256119837 -0.24387644547435741 0 -0.063484538676239377 -0.26413124226689111 0 -0.046517308340487992 -0.25474718453952289 0 -0.048289188575406587 -0.26955092917192058 0 -0.063484538676239377 -0.26413124226689111 0 -0.050686814673754729 -0.28656900804104057 0 -0.071188273097670243 -0.28513602236808322 0 -0.063484538676239377 -0.26413124226689111 0 -0.050686814673754729 -0.28656900804104057 0 -0.063484538676239377 -0.26413124226689111 0 -0.048289188575406587 -0.26955092917192058 0 -0.050686814673754729 -0.28656900804104057 0 -0.048289188575406587 -0.26955092917192058 0 -0.036942597034766073 -0.27265489088473938 0 -0.050686814673754729 -0.28656900804104057 0 -0.038334603868346327 -0.2604973367990705 0 -0.048289188575406587 -0.26955092917192058 0 -0.036942597034766073 -0.27265489088473938 0 -0.038334603868346327 -0.2604973367990705 0 -0.036942597034766073 -0.27265489088473938 0 -0.029413390480137139 -0.26518294325465769 0 -0.050686814673754729 -0.28656900804104057 0 -0.037889090671270123 -0.30900677381518998 0 -0.0185119813334658 -0.28327625011988139 0 -0.071188273097670243 -0.28513602236808322 0 -0.050686814673754729 -0.28656900804104057 0 -0.055748641784298267 -0.30178875706485681 0 -0.073760113918316481 -0.30436986552081963 0 -0.055748641784298267 -0.30178875706485681 0 -0.05424539878688571 -0.319762651601179 0 -0.055748641784298267 -0.30178875706485681 0 -0.037889090671270123 -0.30900677381518998 0 -0.05424539878688571 -0.319762651601179 0 -0.050686814673754729 -0.28656900804104057 0 -0.055748641784298267 -0.30178875706485681 0 -0.037889090671270123 -0.30900677381518998 0 -0.050686814673754729 -0.28656900804104057 0 -0.037889090671270123 -0.30900677381518998 0 -0.037889090671270123 -0.30900677381518998 0 -0.014390974368570029 -0.31032982847088841 0 -0.0185119813334658 -0.28327625011988139 0 -0.014390974368570029 -0.31032982847088841 0 0.001904989571353899 -0.32214434476741449 0 0.0019518825097332619 -0.30029273945570772 0 -0.014390974368570029 -0.31032982847088841 0 -0.0185119813334658 -0.28327625011988139 0 0.0019518825097332619 -0.30029273945570772 0 -0.0185119813334658 -0.28327625011988139 0 -0.0020851015340006161 -0.28052611142458661 0 0.0019518825097332619 -0.30029273945570772 0 -0.014390974368570029 -0.31032982847088841 0 -0.0185119813334658 -0.28327625011988139 0 -0.036942597034766073 -0.27265489088473938 0 -0.0185119813334658 -0.28327625011988139 0 -0.029413390480137139 -0.26518294325465769 0 -0.0185119813334658 -0.28327625011988139 0 -0.02263298829836323 -0.25622267176887481 0 -0.029413390480137139 -0.26518294325465769 0 -0.0185119813334658 -0.28327625011988139 0 -0.02263298829836323 -0.25622267176887481 0 -0.0185119813334658 -0.28327625011988139 0 -0.0093077836028632385 -0.27105033158696179 0 -0.02263298829836323 -0.25622267176887481 0 -0.0185119813334658 -0.28327625011988139 0 -0.0020851015340006161 -0.28052611142458661 0 -0.0093077836028632385 -0.27105033158696179 0 -0.0020851015340006161 -0.28052611142458661 0 -0.0093077836028632385 -0.27105033158696179 0 0.0055944649301708496 -0.26664830233551728 0 -0.014059514610042069 -0.25416210053859828 0 -0.02263298829836323 -0.25622267176887481 0 0.0055944649301708496 -0.26664830233551728 0 -0.0093077836028632385 -0.27105033158696179 0 -0.02263298829836323 -0.25622267176887481 0 0.0055944649301708496 -0.26664830233551728 0 -0.02263298829836323 -0.25622267176887481 0 0.0055944649301708496 -0.26664830233551728 0 -0.014059514610042069 -0.25416210053859828 0 -0.0080727856436109482 -0.2481099565327444 0 0.0055944649301708496 -0.26664830233551728 0 -0.014059514610042069 -0.25416210053859828 0 -0.01887874476148543 -0.24814250919209771 0 -0.0080727856436109482 -0.2481099565327444 0 -0.014059514610042069 -0.25416210053859828 0 -0.02263298829836323 -0.25622267176887481 0 -0.02285766608625657 -0.25474770747244752 0 -0.014059514610042069 -0.25416210053859828 0 -0.02285766608625657 -0.25474770747244752 0 -0.01887874476148543 -0.24814250919209771 0 -0.02285766608625657 -0.25474770747244752 0 -0.026067501294639708 -0.24850247980592871 0 -0.01887874476148543 -0.24814250919209771 0 -0.02263298829836323 -0.25622267176887481 0 -0.02285766608625657 -0.25474770747244752 0 -0.02263298829836323 -0.25622267176887481 0 -0.029413390480137139 -0.26518294325465769 0 -0.03064478186574425 -0.25326356670072259 0 -0.02263298829836323 -0.25622267176887481 0 -0.03064478186574425 -0.25326356670072259 0 -0.02263298829836323 -0.25622267176887481 0 -0.02285766608625657 -0.25474770747244752 0 -0.03064478186574425 -0.25326356670072259 0 -0.02285766608625657 -0.25474770747244752 0 -0.03064478186574425 -0.25326356670072259 0 -0.026067501294639708 -0.24850247980592871 0 -0.040780788735907937 -0.34809370153295588 0 -0.035070660285960877 -0.35841379707961513 0 -0.051335308585544609 -0.35442186843706669 0 -0.040780788735907937 -0.34809370153295588 0 -0.033802973987086503 -0.33588719504380232 0 -0.029167969020145641 -0.35132386348016093 0 -0.040780788735907937 -0.34809370153295588 0 -0.035070660285960877 -0.35841379707961513 0 -0.029167969020145641 -0.35132386348016093 0 -0.035070660285960877 -0.35841379707961513 0 -0.040000350022935588 -0.37213681664196291 0 -0.021437446366364531 -0.36359117576668931 0 -0.035070660285960877 -0.35841379707961513 0 -0.058387822440418388 -0.36975607908058028 0 -0.035070660285960877 -0.35841379707961513 0 -0.040000350022935588 -0.37213681664196291 0 -0.058387822440418388 -0.36975607908058028 0 -0.040000350022935588 -0.37213681664196291 0 -0.058387822440418388 -0.36975607908058028 0 -0.058563253679506787 -0.38068245751723601 0 -0.035070660285960877 -0.35841379707961513 0 -0.058387822440418388 -0.36975607908058028 0 -0.051335308585544609 -0.35442186843706669 0 -0.066522813126512412 -0.35680227137673098 0 -0.058387822440418388 -0.36975607908058028 0 -0.051335308585544609 -0.35442186843706669 0 -0.066522813126512412 -0.35680227137673098 0 -0.051335308585544609 -0.35442186843706669 0 -0.054527031800802053 -0.34042178362413461 0 -0.040780788735907937 -0.34809370153295588 0 -0.051335308585544609 -0.35442186843706669 0 -0.054527031800802053 -0.34042178362413461 0 -0.066882954587322394 -0.32486941793266988 0 -0.054527031800802053 -0.34042178362413461 0 -0.05424539878688571 -0.319762651601179 0 -0.054527031800802053 -0.34042178362413461 0 -0.05424539878688571 -0.319762651601179 0 -0.033802973987086503 -0.33588719504380232 0 -0.05424539878688571 -0.319762651601179 0 -0.039668382727836717 -0.32560359559526031 0 -0.05424539878688571 -0.319762651601179 0 -0.033802973987086503 -0.33588719504380232 0 -0.037889090671270123 -0.30900677381518998 0 -0.025091366668787349 -0.3314445395893405 0 -0.05424539878688571 -0.319762651601179 0 -0.039668382727836717 -0.32560359559526031 0 -0.033802973987086503 -0.33588719504380232 0 -0.037889090671270123 -0.30900677381518998 0 -0.05424539878688571 -0.319762651601179 0 -0.039668382727836717 -0.32560359559526031 0 -0.037889090671270123 -0.30900677381518998 0 -0.039668382727836717 -0.32560359559526031 0 -0.025091366668787349 -0.3314445395893405 0 -0.040780788735907937 -0.34809370153295588 0 -0.054527031800802053 -0.34042178362413461 0 -0.033802973987086503 -0.33588719504380232 0 -0.039668382727836717 -0.32560359559526031 0 -0.025091366668787349 -0.3314445395893405 0 -0.039668382727836717 -0.32560359559526031 0 -0.033802973987086503 -0.33588719504380232 0 -0.025091366668787349 -0.3314445395893405 0 -0.025091366668787349 -0.3314445395893405 0 -0.01336054918728761 -0.35201173848642592 0 -0.033802973987086503 -0.33588719504380232 0 -0.025091366668787349 -0.3314445395893405 0 -0.01336054918728761 -0.35201173848642592 0 -0.025091366668787349 -0.3314445395893405 0 -0.01532372128421448 -0.33535839064186268 0 -0.01336054918728761 -0.35201173848642592 0 -0.025091366668787349 -0.3314445395893405 0 -0.022734703789933738 -0.32728556430890232 0 -0.01532372128421448 -0.33535839064186268 0 -0.025091366668787349 -0.3314445395893405 0 -0.01532372128421448 -0.33535839064186268 0 -0.022734703789933738 -0.32728556430890232 0 -0.01532372128421448 -0.33535839064186268 0 -0.037889090671270123 -0.30900677381518998 0 -0.014390974368570029 -0.31032982847088841 0 -0.022734703789933738 -0.32728556430890232 0 -0.037889090671270123 -0.30900677381518998 0 -0.025091366668787349 -0.3314445395893405 0 -0.022734703789933738 -0.32728556430890232 0 -0.014390974368570029 -0.31032982847088841 0 -0.022734703789933738 -0.32728556430890232 0 -0.01532372128421448 -0.33535839064186268 0 -0.014390974368570029 -0.31032982847088841 0 -0.010269967403673339 -0.33738340682189533 0 -0.014390974368570029 -0.31032982847088841 0 -0.010269967403673339 -0.33738340682189533 0 -0.01532372128421448 -0.33535839064186268 0 -0.014390974368570029 -0.31032982847088841 0 -0.010269967403673339 -0.33738340682189533 0 0.001904989571353899 -0.32214434476741449 0 -0.010269967403673339 -0.33738340682189533 0 -0.0096343958099064687 -0.34155580596031437 0 0.0075807645751098419 -0.34453611388615663 0 -0.010269967403673339 -0.33738340682189533 0 0.0075807645751098419 -0.34453611388615663 0 -0.0096343958099064687 -0.34155580596031437 0 -0.01532372128421448 -0.33535839064186268 0 -0.01336054918728761 -0.35201173848642592 0 -0.010269967403673339 -0.33738340682189533 0 -0.0096343958099064687 -0.34155580596031437 0 -0.010269967403673339 -0.33738340682189533 0 -0.0096343958099064687 -0.34155580596031437 0 -0.01532372128421448 -0.33535839064186268 0 -0.0096343958099064687 -0.34155580596031437 0 -0.01532372128421448 -0.33535839064186268 0 -0.010269967403673339 -0.33738340682189533 0 -0.01532372128421448 -0.33535839064186268 0 -0.010269967403673339 -0.33738340682189533 0 0.0034794820758208261 -0.33361449123698089 0 0.001904989571353899 -0.32214434476741449 0 -0.0096343958099064687 -0.34155580596031437 0 -0.0070150904897389628 -0.35875101633193152 0 -0.0096343958099064687 -0.34155580596031437 0 -0.0070150904897389628 -0.35875101633193152 0 -0.01336054918728761 -0.35201173848642592 0 -0.0096343958099064687 -0.34155580596031437 0 -0.0070150904897389628 -0.35875101633193152 0 0.0099352179383349771 -0.36287309999936251 0 -0.033802973987086503 -0.33588719504380232 0 -0.01336054918728761 -0.35201173848642592 0 -0.029167969020145641 -0.35132386348016093 0 -0.01336054918728761 -0.35201173848642592 0 -0.029167969020145641 -0.35132386348016093 0 -0.021437446366364531 -0.36359117576668931 0 -0.033802973987086503 -0.33588719504380232 0 -0.01336054918728761 -0.35201173848642592 0 -0.035070660285960877 -0.35841379707961513 0 -0.029167969020145641 -0.35132386348016093 0 -0.021437446366364531 -0.36359117576668931 0 -0.040000350022935588 -0.37213681664196291 0 -0.021437446366364531 -0.36359117576668931 0 -0.02618172091304426 -0.37743656618445498 0 -0.021437446366364531 -0.36359117576668931 0 -0.002178803782163227 -0.37161627006544062 0 -0.02618172091304426 -0.37743656618445498 0 -0.040000350022935588 -0.37213681664196291 0 -0.021437446366364531 -0.36359117576668931 0 -0.01336054918728761 -0.35201173848642592 0 -0.021437446366364531 -0.36359117576668931 0 -0.002178803782163227 -0.37161627006544062 0 -0.01336054918728761 -0.35201173848642592 0 -0.002178803782163227 -0.37161627006544062 0 -0.0070150904897389628 -0.35875101633193152 0 -0.01336054918728761 -0.35201173848642592 0 -0.002178803782163227 -0.37161627006544062 0 -0.002178803782163227 -0.37161627006544062 0 -0.026336278995230201 -0.38905167830789189 0 -0.002178803782163227 -0.37161627006544062 0 -0.0066930742226519926 -0.39143820132839208 0 -0.026336278995230201 -0.38905167830789189 0 -0.0066930742226519926 -0.39143820132839208 0 -0.001728596279610697 -0.40597762003102339 0 -0.017737199096442072 -0.40073047040120602 0 -0.0066930742226519926 -0.39143820132839208 0 -0.017737199096442072 -0.40073047040120602 0 -0.026336278995230201 -0.38905167830789189 0 -0.017737199096442072 -0.40073047040120602 0 -0.026336278995230201 -0.38905167830789189 0 -0.033287388117186109 -0.40399871831440642 0 -0.002178803782163227 -0.37161627006544062 0 -0.026336278995230201 -0.38905167830789189 0 -0.02618172091304426 -0.37743656618445498 0 -0.026336278995230201 -0.38905167830789189 0 -0.02618172091304426 -0.37743656618445498 0 -0.033482850758781962 -0.383939184607547 0 -0.02618172091304426 -0.37743656618445498 0 -0.042372487296275553 -0.37905951185084519 0 -0.033482850758781962 -0.383939184607547 0 -0.02618172091304426 -0.37743656618445498 0 -0.042372487296275553 -0.37905951185084519 0 -0.040000350022935588 -0.37213681664196291 0 -0.02618172091304426 -0.37743656618445498 0 -0.042372487296275553 -0.37905951185084519 0 -0.042372487296275553 -0.37905951185084519 0 -0.039040915830577852 -0.39020898208699611 0 -0.049048127186911553 -0.38756594990863991 0 -0.042372487296275553 -0.37905951185084519 0 -0.039040915830577852 -0.39020898208699611 0 -0.033482850758781962 -0.383939184607547 0 -0.026336278995230201 -0.38905167830789189 0 -0.039040915830577852 -0.39020898208699611 0 -0.033482850758781962 -0.383939184607547 0 -0.026336278995230201 -0.38905167830789189 0 -0.050493754208297943 -0.40648708655034188 0 -0.039040915830577852 -0.39020898208699611 0 -0.048181286987745188 -0.3967611761759377 0 -0.050493754208297943 -0.40648708655034188 0 -0.026336278995230201 -0.38905167830789189 0 -0.039040915830577852 -0.39020898208699611 0 -0.050493754208297943 -0.40648708655034188 0 -0.026336278995230201 -0.38905167830789189 0 -0.033287388117186109 -0.40399871831440642 0 -0.050493754208297943 -0.40648708655034188 0 -0.039040915830577852 -0.39020898208699611 0 -0.048181286987745188 -0.3967611761759377 0 -0.049048127186911553 -0.38756594990863991 0 -0.048181286987745188 -0.3967611761759377 0 -0.055512870853615448 -0.39455951290216967 0 -0.049048127186911553 -0.38756594990863991 0 -0.055512870853615448 -0.39455951290216967 0 -0.052509649903146327 -0.40794203844841681 0 -0.074281153156084773 -0.38791836881244668 0 -0.048181286987745188 -0.3967611761759377 0 -0.055512870853615448 -0.39455951290216967 0 -0.050493754208297943 -0.40648708655034188 0 -0.055512870853615448 -0.39455951290216967 0 -0.052509649903146327 -0.40794203844841681 0 -0.050493754208297943 -0.40648708655034188 0 -0.048181286987745188 -0.3967611761759377 0 -0.050493754208297943 -0.40648708655034188 0 -0.040000350022935588 -0.37213681664196291 0 -0.042372487296275553 -0.37905951185084519 0 -0.058563253679506787 -0.38068245751723601 0 -0.042372487296275553 -0.37905951185084519 0 -0.058563253679506787 -0.38068245751723601 0 -0.040000350022935588 -0.37213681664196291 0 -0.058563253679506787 -0.38068245751723601 0 -0.042372487296275553 -0.37905951185084519 0 -0.058563253679506787 -0.38068245751723601 0 -0.049048127186911553 -0.38756594990863991 0 -0.055512870853615448 -0.39455951290216967 0 -0.058563253679506787 -0.38068245751723601 0 -0.049048127186911553 -0.38756594990863991 0 -0.055571169944573007 -0.4278419796903028 0 -0.060002998013559863 -0.44648162232419802 0 -0.069408814394604765 -0.42365151461769918 0 -0.055571169944573007 -0.4278419796903028 0 -0.060002998013559863 -0.44648162232419802 0 -0.055571169944573007 -0.4278419796903028 0 -0.04142135733128624 -0.43391233418184683 0 -0.048623679129421588 -0.44273110985945369 0 -0.055571169944573007 -0.4278419796903028 0 -0.059775586818595829 -0.41787661413097049 0 -0.069408814394604765 -0.42365151461769918 0 -0.055571169944573007 -0.4278419796903028 0 -0.059775586818595829 -0.41787661413097049 0 -0.052509649903146327 -0.40794203844841681 0 -0.055571169944573007 -0.4278419796903028 0 -0.052509649903146327 -0.40794203844841681 0 -0.038621424185474637 -0.4207153063468223 0 -0.055571169944573007 -0.4278419796903028 0 -0.052509649903146327 -0.40794203844841681 0 -0.052509649903146327 -0.40794203844841681 0 -0.070248957975066639 -0.42074520084202788 0 -0.059775586818595829 -0.41787661413097049 0 -0.052509649903146327 -0.40794203844841681 0 -0.070248957975066639 -0.42074520084202788 0 -0.052509649903146327 -0.40794203844841681 0 -0.050493754208297943 -0.40648708655034188 0 -0.041470954428671609 -0.41006675355118111 0 -0.052509649903146327 -0.40794203844841681 0 -0.050493754208297943 -0.40648708655034188 0 -0.052509649903146327 -0.40794203844841681 0 -0.038621424185474637 -0.4207153063468223 0 -0.033287388117186109 -0.40399871831440642 0 -0.050493754208297943 -0.40648708655034188 0 -0.041470954428671609 -0.41006675355118111 0 -0.052509649903146327 -0.40794203844841681 0 -0.041470954428671609 -0.41006675355118111 0 -0.038621424185474637 -0.4207153063468223 0 -0.033287388117186109 -0.40399871831440642 0 -0.041470954428671609 -0.41006675355118111 0 -0.027792962261932352 -0.41547375898907968 0 -0.041470954428671609 -0.41006675355118111 0 -0.038621424185474637 -0.4207153063468223 0 -0.027792962261932352 -0.41547375898907968 0 -0.055571169944573007 -0.4278419796903028 0 -0.038621424185474637 -0.4207153063468223 0 -0.04142135733128624 -0.43391233418184683 0 -0.038621424185474637 -0.4207153063468223 0 -0.026103506495360269 -0.43222827563723731 0 -0.038621424185474637 -0.4207153063468223 0 -0.04142135733128624 -0.43391233418184683 0 -0.026103506495360269 -0.43222827563723731 0 -0.04142135733128624 -0.43391233418184683 0 -0.026103506495360269 -0.43222827563723731 0 -0.035662081446574762 -0.44437129177822371 0 -0.026103506495360269 -0.43222827563723731 0 -0.027792962261932352 -0.41547375898907968 0 -0.009537301248459449 -0.42510302968362512 0 -0.026103506495360269 -0.43222827563723731 0 -0.009537301248459449 -0.42510302968362512 0 -0.019709463090837601 -0.44530454005801179 0 -0.038621424185474637 -0.4207153063468223 0 -0.026103506495360269 -0.43222827563723731 0 -0.027792962261932352 -0.41547375898907968 0 -0.017737199096442072 -0.40073047040120602 0 -0.027792962261932352 -0.41547375898907968 0 -0.009537301248459449 -0.42510302968362512 0 -0.017737199096442072 -0.40073047040120602 0 -0.033287388117186109 -0.40399871831440642 0 -0.027792962261932352 -0.41547375898907968 0 -0.001728596279610697 -0.40597762003102339 0 -0.017737199096442072 -0.40073047040120602 0 -0.009537301248459449 -0.42510302968362512 0 -0.017737199096442072 -0.40073047040120602 0 -0.009537301248459449 -0.42510302968362512 0 -0.001728596279610697 -0.40597762003102339 0 -0.009537301248459449 -0.42510302968362512 0 0.0082246319185010179 -0.41465428951275207 0 -0.009537301248459449 -0.42510302968362512 0 -0.0013374034004768371 -0.44947558896604423 0 -0.009537301248459449 -0.42510302968362512 0 -0.0013374034004768371 -0.44947558896604423 0 0.01039378864355619 -0.42848339288335913 0 -0.009537301248459449 -0.42510302968362512 0 -0.0013374034004768371 -0.44947558896604423 0 -0.019709463090837601 -0.44530454005801179 0 -0.0013374034004768371 -0.44947558896604423 0 -0.014612752260004851 -0.46155177919014362 0 -0.019709463090837601 -0.44530454005801179 0 -0.0013374034004768371 -0.44947558896604423 0 -0.014612752260004851 -0.46155177919014362 0 0.0068624944475057766 -0.47384814824846327 0 -0.014612752260004851 -0.46155177919014362 0 -0.028521420705905499 -0.4674310816654948 0 -0.030789477839635839 -0.45543267362212791 0 -0.014612752260004851 -0.46155177919014362 0 -0.030789477839635839 -0.45543267362212791 0 -0.019709463090837601 -0.44530454005801179 0 -0.030789477839635839 -0.45543267362212791 0 -0.019709463090837601 -0.44530454005801179 0 -0.035662081446574762 -0.44437129177822371 0 -0.026103506495360269 -0.43222827563723731 0 -0.019709463090837601 -0.44530454005801179 0 -0.035662081446574762 -0.44437129177822371 0 -0.015217900669161011 -0.5 0 -0.01418124297067914 -0.47781864258071971 0 0.0024053695883212941 -0.48891336768777249 0 -0.01418124297067914 -0.47781864258071971 0 0.0068624944475057766 -0.47384814824846327 0 0.0024053695883212941 -0.48891336768777249 0 -0.014612752260004851 -0.46155177919014362 0 -0.01418124297067914 -0.47781864258071971 0 0.0068624944475057766 -0.47384814824846327 0 -0.014612752260004851 -0.46155177919014362 0 -0.028521420705905499 -0.4674310816654948 0 -0.01418124297067914 -0.47781864258071971 0 -0.028521420705905499 -0.4674310816654948 0 -0.01418124297067914 -0.47781864258071971 0 -0.027752274071966478 -0.47742461628286209 0 -0.015217900669161011 -0.5 0 -0.027752274071966478 -0.47742461628286209 0 -0.038171784631523778 -0.48284131767108018 0 -0.015217900669161011 -0.5 0 -0.01418124297067914 -0.47781864258071971 0 -0.027752274071966478 -0.47742461628286209 0 -0.015217900669161011 -0.5 0 -0.043972809743024373 -0.5 0 -0.038171784631523778 -0.48284131767108018 0 -0.043972809743024373 -0.5 0 -0.038171784631523778 -0.48284131767108018 0 -0.049841179956411519 -0.48183723669954598 0 -0.038171784631523778 -0.48284131767108018 0 -0.048675315621036823 -0.47094071089761919 0 -0.038171784631523778 -0.48284131767108018 0 -0.048675315621036823 -0.47094071089761919 0 -0.049841179956411519 -0.48183723669954598 0 -0.027752274071966478 -0.47742461628286209 0 -0.038171784631523778 -0.48284131767108018 0 -0.038764373548703768 -0.47063519779216179 0 -0.028521420705905499 -0.4674310816654948 0 -0.027752274071966478 -0.47742461628286209 0 -0.038764373548703768 -0.47063519779216179 0 -0.038764373548703768 -0.47063519779216179 0 -0.048675315621036823 -0.47094071089761919 0 -0.045335619097383061 -0.46570514195792412 0 -0.038171784631523778 -0.48284131767108018 0 -0.038764373548703768 -0.47063519779216179 0 -0.048675315621036823 -0.47094071089761919 0 -0.048675315621036823 -0.47094071089761919 0 -0.055120034750126161 -0.47128965669693351 0 -0.049841179956411519 -0.48183723669954598 0 -0.048675315621036823 -0.47094071089761919 0 -0.055120034750126161 -0.47128965669693351 0 -0.057384894248553399 -0.46524593439390849 0 -0.055120034750126161 -0.47128965669693351 0 -0.059149819292987238 -0.47777467248794547 0 -0.064422500494955764 -0.4650694252783244 0 -0.059149819292987238 -0.47777467248794547 0 -0.049841179956411519 -0.48183723669954598 0 -0.058853327493046781 -0.48842932436532971 0 -0.055120034750126161 -0.47128965669693351 0 -0.059149819292987238 -0.47777467248794547 0 -0.049841179956411519 -0.48183723669954598 0 -0.059149819292987238 -0.47777467248794547 0 -0.058853327493046781 -0.48842932436532971 0 -0.068575109655922298 -0.48253471263916042 0 -0.043972809743024373 -0.5 0 -0.058853327493046781 -0.48842932436532971 0 -0.072727718816887776 -0.49999999999999672 0 -0.043972809743024373 -0.5 0 -0.049841179956411519 -0.48183723669954598 0 -0.058853327493046781 -0.48842932436532971 0 -0.045123684251444827 -0.45223268167437758 0 -0.035662081446574762 -0.44437129177822371 0 -0.048623679129421588 -0.44273110985945369 0 -0.04142135733128624 -0.43391233418184683 0 -0.035662081446574762 -0.44437129177822371 0 -0.048623679129421588 -0.44273110985945369 0 -0.030789477839635839 -0.45543267362212791 0 -0.045123684251444827 -0.45223268167437758 0 -0.035662081446574762 -0.44437129177822371 0 -0.030789477839635839 -0.45543267362212791 0 -0.045123684251444827 -0.45223268167437758 0 -0.04007978340352341 -0.46172459869688548 0 -0.028521420705905499 -0.4674310816654948 0 -0.030789477839635839 -0.45543267362212791 0 -0.04007978340352341 -0.46172459869688548 0 -0.028521420705905499 -0.4674310816654948 0 -0.038764373548703768 -0.47063519779216179 0 -0.04007978340352341 -0.46172459869688548 0 -0.038764373548703768 -0.47063519779216179 0 -0.04007978340352341 -0.46172459869688548 0 -0.045335619097383061 -0.46570514195792412 0 -0.04007978340352341 -0.46172459869688548 0 -0.045335619097383061 -0.46570514195792412 0 -0.047248161051959649 -0.4591011094540644 0 -0.045123684251444827 -0.45223268167437758 0 -0.04007978340352341 -0.46172459869688548 0 -0.047248161051959649 -0.4591011094540644 0 -0.045123684251444827 -0.45223268167437758 0 -0.050581796861615229 -0.45333412325219669 0 -0.047248161051959649 -0.4591011094540644 0 -0.050581796861615229 -0.45333412325219669 0 -0.047248161051959649 -0.4591011094540644 0 -0.051910461861691633 -0.46612409294888979 0 -0.051910461861691633 -0.46612409294888979 0 -0.05917884661055 -0.4590401041241583 0 -0.060002998013559863 -0.44648162232419802 0 -0.051910461861691633 -0.46612409294888979 0 -0.060002998013559863 -0.44648162232419802 0 -0.050581796861615229 -0.45333412325219669 0 -0.051910461861691633 -0.46612409294888979 0 -0.060002998013559863 -0.44648162232419802 0 -0.048675315621036823 -0.47094071089761919 0 -0.05917884661055 -0.4590401041241583 0 -0.048675315621036823 -0.47094071089761919 0 -0.051910461861691633 -0.46612409294888979 0 -0.05917884661055 -0.4590401041241583 0 -0.048675315621036823 -0.47094071089761919 0 -0.045335619097383061 -0.46570514195792412 0 -0.051910461861691633 -0.46612409294888979 0 -0.045335619097383061 -0.46570514195792412 0 -0.047248161051959649 -0.4591011094540644 0 -0.051910461861691633 -0.46612409294888979 0 -0.055120034750126161 -0.47128965669693351 0 -0.057384894248553399 -0.46524593439390849 0 -0.064422500494955764 -0.4650694252783244 0 -0.048675315621036823 -0.47094071089761919 0 -0.057384894248553399 -0.46524593439390849 0 -0.05917884661055 -0.4590401041241583 0 -0.057384894248553399 -0.46524593439390849 0 -0.05917884661055 -0.4590401041241583 0 -0.059237257045792073 -0.46090013765886428 0 -0.064422500494955764 -0.4650694252783244 0 -0.057384894248553399 -0.46524593439390849 0 -0.059237257045792073 -0.46090013765886428 0 -0.064422500494955764 -0.4650694252783244 0 -0.057384894248553399 -0.46524593439390849 0 -0.059237257045792073 -0.46090013765886428 0 -0.05917884661055 -0.4590401041241583 0 -0.059237257045792073 -0.46090013765886428 0 -0.062180371227510647 -0.45563934639583059 0 -0.064422500494955764 -0.4650694252783244 0 -0.059237257045792073 -0.46090013765886428 0 -0.05917884661055 -0.4590401041241583 0 -0.062180371227510647 -0.45563934639583059 0 -0.05917884661055 -0.4590401041241583 0 -0.062180371227510647 -0.45563934639583059 0 -0.05917884661055 -0.4590401041241583 0 -0.061269440441321127 -0.45180810022505591 0 -0.05917884661055 -0.4590401041241583 0 -0.062180371227510647 -0.45563934639583059 0 -0.061269440441321127 -0.45180810022505591 0 -0.062180371227510647 -0.45563934639583059 0 -0.061269440441321127 -0.45180810022505591 0 -0.055571169944573007 -0.4278419796903028 0 -0.060002998013559863 -0.44648162232419802 0 -0.048623679129421588 -0.44273110985945369 0 -0.05917884661055 -0.4590401041241583 0 -0.061269440441321127 -0.45180810022505591 0 -0.060002998013559863 -0.44648162232419802 0 -0.061269440441321127 -0.45180810022505591 0 -0.060002998013559863 -0.44648162232419802 0 -0.050581796861615229 -0.45333412325219669 0 -0.060002998013559863 -0.44648162232419802 0 -0.048623679129421588 -0.44273110985945369 0 -0.045123684251444827 -0.45223268167437758 0 -0.050581796861615229 -0.45333412325219669 0 -0.048623679129421588 -0.44273110985945369 0 -0.061269440441321127 -0.45180810022505591 0 -0.069408814394604765 -0.42365151461769918 0 -0.062180371227510647 -0.45563934639583059 0 -0.061269440441321127 -0.45180810022505591 0 -0.077098496045509793 -0.43873696019506903 0 -0.062180371227510647 -0.45563934639583059 0 -0.077098496045509793 -0.43873696019506903 0 -0.073769461018799692 -0.45951707792468061 0 -0.061269440441321127 -0.45180810022505591 0 -0.077098496045509793 -0.43873696019506903 0 -0.069408814394604765 -0.42365151461769918 0 -0.061269440441321127 -0.45180810022505591 0 -0.060002998013559863 -0.44648162232419802 0 -0.069408814394604765 -0.42365151461769918 0 -0.062180371227510647 -0.45563934639583059 0 -0.077098496045509793 -0.43873696019506903 0 -0.062180371227510647 -0.45563934639583059 0 -0.064422500494955764 -0.4650694252783244 0 -0.062180371227510647 -0.45563934639583059 0 -0.064422500494955764 -0.4650694252783244 0 -0.073769461018799692 -0.45951707792468061 0 -0.084521355142842869 -0.45759592347480388 0 -0.086143661312174283 -0.48253471263916248 0 -0.099165393688022629 -0.46120376842987459 0 -0.073769461018799692 -0.45951707792468061 0 -0.084521355142842869 -0.45759592347480388 0 -0.086143661312174283 -0.48253471263916248 0 -0.084521355142842869 -0.45759592347480388 0 -0.089624247433654214 -0.44685599598904568 0 -0.099165393688022629 -0.46120376842987459 0 -0.077098496045509793 -0.43873696019506903 0 -0.084521355142842869 -0.45759592347480388 0 -0.089624247433654214 -0.44685599598904568 0 -0.077098496045509793 -0.43873696019506903 0 -0.073769461018799692 -0.45951707792468061 0 -0.084521355142842869 -0.45759592347480388 0 -0.089624247433654214 -0.44685599598904568 0 -0.099878095611554862 -0.4393977270813314 0 -0.089545628933694749 -0.43673796215895883 0 -0.077098496045509793 -0.43873696019506903 0 -0.089624247433654214 -0.44685599598904568 0 -0.089545628933694749 -0.43673796215895883 0 -0.072727718816887776 -0.49999999999999672 0 -0.068575109655922298 -0.48253471263916042 0 -0.058853327493046781 -0.48842932436532971 0 -0.072727718816887776 -0.49999999999999672 0 -0.068575109655922298 -0.48253471263916042 0 -0.072727718816887776 -0.49999999999999672 0 -0.068575109655922298 -0.48253471263916042 0 -0.086143661312174283 -0.48253471263916248 0 -0.064422500494955764 -0.4650694252783244 0 -0.068575109655922298 -0.48253471263916042 0 -0.059149819292987238 -0.47777467248794547 0 -0.064422500494955764 -0.4650694252783244 0 -0.068575109655922298 -0.48253471263916042 0 -0.064422500494955764 -0.4650694252783244 0 -0.073769461018799692 -0.45951707792468061 0 -0.086143661312174283 -0.48253471263916248 0 -0.064422500494955764 -0.4650694252783244 0 -0.068575109655922298 -0.48253471263916042 0 -0.086143661312174283 -0.48253471263916248 0 -0.064422500494955764 -0.4650694252783244 0 -0.086143661312174283 -0.48253471263916248 0 -0.072727718816887776 -0.49999999999999672 0 -0.086143661312174283 -0.48253471263916248 0 -0.090296270473140428 -0.5 0 -0.086143661312174283 -0.48253471263916248 0 -0.090296270473140428 -0.5 0 -0.10786482212939311 -0.50000000000000011 0 -0.086143661312174283 -0.48253471263916248 0 -0.10786482212939311 -0.50000000000000011 0 -0.086143661312174283 -0.48253471263916248 0 -0.10786482212939311 -0.50000000000000011 0 -0.1056577076014347 -0.47999846360012538 0 -0.086143661312174283 -0.48253471263916248 0 -0.1056577076014347 -0.47999846360012538 0 -0.099165393688022629 -0.46120376842987459 0 -0.1056577076014347 -0.47999846360012538 0 -0.12108079434187891 -0.47202921183540031 0 -0.099165393688022629 -0.46120376842987459 0 -0.1056577076014347 -0.47999846360012538 0 -0.12108079434187891 -0.47202921183540031 0 -0.1206292342060253 -0.48641385964910883 0 -0.131118449396015 -0.5 0 -0.10786482212939311 -0.50000000000000011 0 -0.1206292342060253 -0.48641385964910883 0 -0.10786482212939311 -0.50000000000000011 0 -0.1056577076014347 -0.47999846360012538 0 -0.1206292342060253 -0.48641385964910883 0 -0.099878095611554862 -0.4393977270813314 0 -0.099165393688022629 -0.46120376842987459 0 -0.099878095611554862 -0.4393977270813314 0 -0.099165393688022629 -0.46120376842987459 0 -0.11615585050415531 -0.45102464773050138 0 -0.089624247433654214 -0.44685599598904568 0 -0.099878095611554862 -0.4393977270813314 0 -0.099165393688022629 -0.46120376842987459 0 -0.12108079434187891 -0.47202921183540031 0 -0.099165393688022629 -0.46120376842987459 0 -0.11615585050415531 -0.45102464773050138 0 -0.13077987840644981 -0.46069854066347632 0 -0.12108079434187891 -0.47202921183540031 0 -0.11615585050415531 -0.45102464773050138 0 -0.13194602454298601 -0.43962244526902572 0 -0.11615585050415531 -0.45102464773050138 0 -0.1129403580353462 -0.43280081863281078 0 -0.099878095611554862 -0.4393977270813314 0 -0.11615585050415531 -0.45102464773050138 0 -0.1129403580353462 -0.43280081863281078 0 -0.13194602454298601 -0.43962244526902572 0 -0.1165997240041481 -0.41847011486561592 0 -0.13194602454298601 -0.43962244526902572 0 -0.1129403580353462 -0.43280081863281078 0 -0.1165997240041481 -0.41847011486561592 0 -0.1129403580353462 -0.43280081863281078 0 -0.1079125428112538 -0.41892639524425412 0 -0.1165997240041481 -0.41847011486561592 0 -0.099878095611554862 -0.4393977270813314 0 -0.100590797535087 -0.41759168573278821 0 -0.092016620863508841 -0.4218345739943074 0 -0.099878095611554862 -0.4393977270813314 0 -0.089545628933694749 -0.43673796215895883 0 -0.092016620863508841 -0.4218345739943074 0 -0.099878095611554862 -0.4393977270813314 0 -0.1129403580353462 -0.43280081863281078 0 -0.10283731640903 -0.42510314405888588 0 -0.099878095611554862 -0.4393977270813314 0 -0.100590797535087 -0.41759168573278821 0 -0.099878095611554862 -0.4393977270813314 0 -0.10283731640903 -0.42510314405888588 0 -0.100590797535087 -0.41759168573278821 0 -0.1129403580353462 -0.43280081863281078 0 -0.10283731640903 -0.42510314405888588 0 -0.1079125428112538 -0.41892639524425412 0 -0.100590797535087 -0.41759168573278821 0 -0.1012534234653099 -0.39731778446220639 0 -0.1165997240041481 -0.41847011486561592 0 -0.1012534234653099 -0.39731778446220639 0 -0.100590797535087 -0.41759168573278821 0 -0.094499944748829334 -0.39722631626938482 0 -0.088610052547492879 -0.41006814396079783 0 -0.100590797535087 -0.41759168573278821 0 -0.1079125428112538 -0.41892639524425412 0 -0.1012534234653099 -0.39731778446220639 0 -0.100590797535087 -0.41759168573278821 0 -0.094499944748829334 -0.39722631626938482 0 -0.1079125428112538 -0.41892639524425412 0 -0.1165997240041481 -0.41847011486561592 0 -0.1012534234653099 -0.39731778446220639 0 -0.10283731640903 -0.42510314405888588 0 -0.100590797535087 -0.41759168573278821 0 -0.1079125428112538 -0.41892639524425412 0 -0.10283731640903 -0.42510314405888588 0 -0.100590797535087 -0.41759168573278821 0 -0.12592730430259419 -0.40432488328170318 0 -0.1165997240041481 -0.41847011486561592 0 -0.1152538145686829 -0.39895411709426332 0 -0.1165997240041481 -0.41847011486561592 0 -0.1152538145686829 -0.39895411709426332 0 -0.1012534234653099 -0.39731778446220639 0 -0.12526638733901391 -0.39147447277512609 0 -0.12592730430259419 -0.40432488328170318 0 -0.1152538145686829 -0.39895411709426332 0 -0.12526638733901391 -0.39147447277512609 0 -0.1152538145686829 -0.39895411709426332 0 -0.1147112201852714 -0.38836266809632891 0 -0.1152538145686829 -0.39895411709426332 0 -0.1147112201852714 -0.38836266809632891 0 -0.1077648281157602 -0.39377477908459929 0 -0.12526638733901391 -0.39147447277512609 0 -0.12201267174342199 -0.37938718301114999 0 -0.1147112201852714 -0.38836266809632891 0 -0.1147112201852714 -0.38836266809632891 0 -0.1094440337948836 -0.37923577087639421 0 -0.1073228884697877 -0.3875649225559597 0 -0.1147112201852714 -0.38836266809632891 0 -0.1073228884697877 -0.3875649225559597 0 -0.1077648281157602 -0.39377477908459929 0 -0.12201267174342199 -0.37938718301114999 0 -0.1147112201852714 -0.38836266809632891 0 -0.1094440337948836 -0.37923577087639421 0 -0.1159926709000937 -0.36685414663024191 0 -0.12201267174342199 -0.37938718301114999 0 -0.1094440337948836 -0.37923577087639421 0 -0.1024060606807759 -0.36205135125861898 0 -0.1094440337948836 -0.37923577087639421 0 -0.1016559479587178 -0.38500202459504551 0 -0.1094440337948836 -0.37923577087639421 0 -0.1016559479587178 -0.38500202459504551 0 -0.1073228884697877 -0.3875649225559597 0 -0.1016559479587178 -0.38500202459504551 0 -0.1014693111655476 -0.390712419775258 0 -0.1016559479587178 -0.38500202459504551 0 -0.1073228884697877 -0.3875649225559597 0 -0.1014693111655476 -0.390712419775258 0 -0.1016559479587178 -0.38500202459504551 0 -0.091585827134305964 -0.3839926061052007 0 -0.1016559479587178 -0.38500202459504551 0 -0.1014693111655476 -0.390712419775258 0 -0.093729726096669103 -0.3869476153003294 0 -0.1016559479587178 -0.38500202459504551 0 -0.091585827134305964 -0.3839926061052007 0 -0.093729726096669103 -0.3869476153003294 0 -0.1014693111655476 -0.390712419775258 0 -0.093729726096669103 -0.3869476153003294 0 -0.1016559479587178 -0.38500202459504551 0 -0.095426438310298192 -0.37780241062099151 0 -0.091585827134305964 -0.3839926061052007 0 -0.100590797535087 -0.41759168573278821 0 -0.1012534234653099 -0.39731778446220639 0 -0.099487365185966847 -0.39952233119993291 0 -0.100590797535087 -0.41759168573278821 0 -0.094499944748829334 -0.39722631626938482 0 -0.099487365185966847 -0.39952233119993291 0 -0.1152538145686829 -0.39895411709426332 0 -0.1077648281157602 -0.39377477908459929 0 -0.1012534234653099 -0.39731778446220639 0 -0.1073228884697877 -0.3875649225559597 0 -0.1077648281157602 -0.39377477908459929 0 -0.1014693111655476 -0.390712419775258 0 -0.1077648281157602 -0.39377477908459929 0 -0.1012534234653099 -0.39731778446220639 0 -0.1014693111655476 -0.390712419775258 0 -0.1077648281157602 -0.39377477908459929 0 -0.1014693111655476 -0.390712419775258 0 -0.1012534234653099 -0.39731778446220639 0 -0.094499944748829334 -0.39722631626938482 0 -0.099487365185966847 -0.39952233119993291 0 -0.1012534234653099 -0.39731778446220639 0 -0.094499944748829334 -0.39722631626938482 0 -0.093729726096669103 -0.3869476153003294 0 -0.1012534234653099 -0.39731778446220639 0 -0.1014693111655476 -0.390712419775258 0 -0.093729726096669103 -0.3869476153003294 0 -0.1012534234653099 -0.39731778446220639 0 -0.093729726096669103 -0.3869476153003294 0 -0.1012534234653099 -0.39731778446220639 0 -0.1014693111655476 -0.390712419775258 0 -0.094499944748829334 -0.39722631626938482 0 -0.099487365185966847 -0.39952233119993291 0 -0.094499944748829334 -0.39722631626938482 0 -0.085553154766675646 -0.40134027138503481 0 -0.088610052547492879 -0.41006814396079783 0 -0.094499944748829334 -0.39722631626938482 0 -0.082560309743270749 -0.39172977139542609 0 -0.085553154766675646 -0.40134027138503481 0 -0.094499944748829334 -0.39722631626938482 0 -0.082560309743270749 -0.39172977139542609 0 -0.091033556626635648 -0.38563610430902873 0 -0.094499944748829334 -0.39722631626938482 0 -0.082560309743270749 -0.39172977139542609 0 -0.094499944748829334 -0.39722631626938482 0 -0.091033556626635648 -0.38563610430902873 0 -0.082560309743270749 -0.39172977139542609 0 -0.079097438192195432 -0.39013559964190198 0 -0.074673198083630793 -0.40544040024196493 0 -0.082560309743270749 -0.39172977139542609 0 -0.079097438192195432 -0.39013559964190198 0 -0.082560309743270749 -0.39172977139542609 0 -0.076542312027108539 -0.406336853914531 0 -0.082560309743270749 -0.39172977139542609 0 -0.085553154766675646 -0.40134027138503481 0 -0.076542312027108539 -0.406336853914531 0 -0.085553154766675646 -0.40134027138503481 0 -0.076542312027108539 -0.406336853914531 0 -0.088610052547492879 -0.41006814396079783 0 -0.090139611558562177 -0.37333304007799939 0 -0.088525620654428705 -0.37725057202694517 0 -0.088525620654428705 -0.37725057202694517 0 -0.087954911787112483 -0.37534235041220648 0 -0.08170780991661282 -0.38109255286014232 0 -0.090139611558562177 -0.37333304007799939 0 -0.088525620654428705 -0.37725057202694517 0 -0.087954911787112483 -0.37534235041220648 0 -0.088525620654428705 -0.37725057202694517 0 -0.087954911787112483 -0.37534235041220648 0 -0.090139611558562177 -0.37333304007799939 0 -0.095426438310298192 -0.37780241062099151 0 -0.088525620654428705 -0.37725057202694517 0 -0.088525620654428705 -0.37725057202694517 0 -0.091585827134305964 -0.3839926061052007 0 -0.095426438310298192 -0.37780241062099151 0 -0.088525620654428705 -0.37725057202694517 0 -0.091585827134305964 -0.3839926061052007 0 -0.088525620654428705 -0.37725057202694517 0 -0.086634605294488312 -0.38349630075200858 0 -0.088525620654428705 -0.37725057202694517 0 -0.086634605294488312 -0.38349630075200858 0 -0.091585827134305964 -0.3839926061052007 0 -0.082560309743270749 -0.39172977139542609 0 -0.086634605294488312 -0.38349630075200858 0 -0.091033556626635648 -0.38563610430902873 0 -0.094499944748829334 -0.39722631626938482 0 -0.091033556626635648 -0.38563610430902873 0 -0.093729726096669103 -0.3869476153003294 0 -0.086634605294488312 -0.38349630075200858 0 -0.091585827134305964 -0.3839926061052007 0 -0.086634605294488312 -0.38349630075200858 0 -0.091033556626635648 -0.38563610430902873 0 -0.086634605294488312 -0.38349630075200858 0 -0.091585827134305964 -0.3839926061052007 0 -0.091033556626635648 -0.38563610430902873 0 -0.091585827134305964 -0.3839926061052007 0 -0.091033556626635648 -0.38563610430902873 0 -0.093729726096669103 -0.3869476153003294 0 -0.091033556626635648 -0.38563610430902873 0 -0.093729726096669103 -0.3869476153003294 0 -0.091585827134305964 -0.3839926061052007 0 -0.093729726096669103 -0.3869476153003294 0 -0.091585827134305964 -0.3839926061052007 0 -0.091033556626635648 -0.38563610430902873 0 -0.082560309743270749 -0.39172977139542609 0 -0.086634605294488312 -0.38349630075200858 0 -0.082560309743270749 -0.39172977139542609 0 -0.086634605294488312 -0.38349630075200858 0 -0.081174899406055781 -0.38294902548401538 0 -0.082560309743270749 -0.39172977139542609 0 -0.079097438192195432 -0.39013559964190198 0 -0.081174899406055781 -0.38294902548401538 0 -0.079097438192195432 -0.39013559964190198 0 -0.081174899406055781 -0.38294902548401538 0 -0.074281153156084773 -0.38791836881244668 0 -0.079097438192195432 -0.39013559964190198 0 -0.081174899406055781 -0.38294902548401538 0 -0.086634605294488312 -0.38349630075200858 0 -0.081174899406055781 -0.38294902548401538 0 -0.088525620654428705 -0.37725057202694517 0 -0.086634605294488312 -0.38349630075200858 0 -0.08170780991661282 -0.38109255286014232 0 -0.086634605294488312 -0.38349630075200858 0 -0.081174899406055781 -0.38294902548401538 0 -0.08170780991661282 -0.38109255286014232 0 -0.086634605294488312 -0.38349630075200858 0 -0.08170780991661282 -0.38109255286014232 0 -0.081174899406055781 -0.38294902548401538 0 -0.08170780991661282 -0.38109255286014232 0 -0.087954911787112483 -0.37534235041220648 0 -0.08170780991661282 -0.38109255286014232 0 -0.055512870853615448 -0.39455951290216967 0 -0.058563253679506787 -0.38068245751723601 0 -0.074281153156084773 -0.38791836881244668 0 -0.058563253679506787 -0.38068245751723601 0 -0.074281153156084773 -0.38791836881244668 0 -0.058387822440418388 -0.36975607908058028 0 -0.08170780991661282 -0.38109255286014232 0 -0.058387822440418388 -0.36975607908058028 0 -0.081174899406055781 -0.38294902548401538 0 -0.08170780991661282 -0.38109255286014232 0 -0.058563253679506787 -0.38068245751723601 0 -0.081174899406055781 -0.38294902548401538 0 -0.074281153156084773 -0.38791836881244668 0 -0.058563253679506787 -0.38068245751723601 0 -0.081174899406055781 -0.38294902548401538 0 -0.058387822440418388 -0.36975607908058028 0 -0.058563253679506787 -0.38068245751723601 0 -0.081174899406055781 -0.38294902548401538 0 -0.081174899406055781 -0.38294902548401538 0 -0.074281153156084773 -0.38791836881244668 0 -0.079097438192195432 -0.39013559964190198 0 -0.074281153156084773 -0.38791836881244668 0 -0.079097438192195432 -0.39013559964190198 0 -0.074281153156084773 -0.38791836881244668 0 -0.074673198083630793 -0.40544040024196493 0 -0.052509649903146327 -0.40794203844841681 0 -0.074281153156084773 -0.38791836881244668 0 -0.052509649903146327 -0.40794203844841681 0 -0.074281153156084773 -0.38791836881244668 0 -0.074673198083630793 -0.40544040024196493 0 -0.082560309743270749 -0.39172977139542609 0 -0.074673198083630793 -0.40544040024196493 0 -0.076542312027108539 -0.406336853914531 0 -0.079097438192195432 -0.39013559964190198 0 -0.074673198083630793 -0.40544040024196493 0 -0.052509649903146327 -0.40794203844841681 0 -0.074673198083630793 -0.40544040024196493 0 -0.070248957975066639 -0.42074520084202788 0 -0.076542312027108539 -0.406336853914531 0 -0.070248957975066639 -0.42074520084202788 0 -0.074673198083630793 -0.40544040024196493 0 -0.070248957975066639 -0.42074520084202788 0 -0.074673198083630793 -0.40544040024196493 0 -0.076542312027108539 -0.406336853914531 0 -0.070248957975066639 -0.42074520084202788 0 -0.070248957975066639 -0.42074520084202788 0 -0.077246521605040669 -0.42579562012280953 0 -0.078194253298280558 -0.41865647959270891 0 -0.076542312027108539 -0.406336853914531 0 -0.070248957975066639 -0.42074520084202788 0 -0.078194253298280558 -0.41865647959270891 0 -0.059775586818595829 -0.41787661413097049 0 -0.070248957975066639 -0.42074520084202788 0 -0.069408814394604765 -0.42365151461769918 0 -0.060002998013559863 -0.44648162232419802 0 -0.069408814394604765 -0.42365151461769918 0 -0.070248957975066639 -0.42074520084202788 0 -0.069408814394604765 -0.42365151461769918 0 -0.077098496045509793 -0.43873696019506903 0 -0.069408814394604765 -0.42365151461769918 0 -0.077246521605040669 -0.42579562012280953 0 -0.070248957975066639 -0.42074520084202788 0 -0.069408814394604765 -0.42365151461769918 0 -0.077246521605040669 -0.42579562012280953 0 -0.070248957975066639 -0.42074520084202788 0 -0.077246521605040669 -0.42579562012280953 0 -0.077246521605040669 -0.42579562012280953 0 -0.082943237868067593 -0.4239856173255338 0 -0.078194253298280558 -0.41865647959270891 0 -0.077098496045509793 -0.43873696019506903 0 -0.082943237868067593 -0.4239856173255338 0 -0.092016620863508841 -0.4218345739943074 0 -0.077098496045509793 -0.43873696019506903 0 -0.089545628933694749 -0.43673796215895883 0 -0.092016620863508841 -0.4218345739943074 0 -0.077098496045509793 -0.43873696019506903 0 -0.092016620863508841 -0.4218345739943074 0 -0.077098496045509793 -0.43873696019506903 0 -0.077246521605040669 -0.42579562012280953 0 -0.082943237868067593 -0.4239856173255338 0 -0.100590797535087 -0.41759168573278821 0 -0.092016620863508841 -0.4218345739943074 0 -0.088610052547492879 -0.41006814396079783 0 -0.082943237868067593 -0.4239856173255338 0 -0.092016620863508841 -0.4218345739943074 0 -0.083714880680240453 -0.41622037016703428 0 -0.092016620863508841 -0.4218345739943074 0 -0.088610052547492879 -0.41006814396079783 0 -0.083714880680240453 -0.41622037016703428 0 -0.076542312027108539 -0.406336853914531 0 -0.088610052547492879 -0.41006814396079783 0 -0.083714880680240453 -0.41622037016703428 0 -0.076542312027108539 -0.406336853914531 0 -0.078194253298280558 -0.41865647959270891 0 -0.083714880680240453 -0.41622037016703428 0 -0.082943237868067593 -0.4239856173255338 0 -0.078194253298280558 -0.41865647959270891 0 -0.083714880680240453 -0.41622037016703428 0 -0.081808777729522386 -0.083143660930833002 0 -0.073985000225153141 -0.099795971436559522 0 -0.085935801107842547 -0.09579043756499836 0 -0.081808777729522386 -0.083143660930833002 0 -0.085935801107842547 -0.09579043756499836 0 -0.094306078709463503 -0.087148618235937392 0 -0.081808777729522386 -0.083143660930833002 0 -0.094306078709463503 -0.087148618235937392 0 -0.095869533599057435 -0.074719864200214883 0 -0.081808777729522386 -0.083143660930833002 0 -0.087640100333796281 -0.066301869750421821 0 -0.076351800502585221 -0.068318825045574613 0 -0.081808777729522386 -0.083143660930833002 0 -0.087640100333796281 -0.066301869750421821 0 -0.095869533599057435 -0.074719864200214883 0 -0.087640100333796281 -0.066301869750421821 0 -0.095869533599057435 -0.074719864200214883 0 -0.097041901727127691 -0.062312633498474219 0 -0.087640100333796281 -0.066301869750421821 0 -0.076351800502585221 -0.068318825045574613 0 -0.079773765115028039 -0.057914828426178573 0 -0.081808777729522386 -0.083143660930833002 0 -0.076351800502585221 -0.068318825045574613 0 -0.068001603171865072 -0.074911341683796137 0 -0.068001603171865072 -0.074911341683796137 0 -0.065822825648978775 -0.060485584973140792 0 -0.05753372126900759 -0.073422836261521005 0 -0.076351800502585221 -0.068318825045574613 0 -0.068001603171865072 -0.074911341683796137 0 -0.065822825648978775 -0.060485584973140792 0 -0.068001603171865072 -0.074911341683796137 0 -0.066670257350634976 -0.085780572793309681 0 -0.05753372126900759 -0.073422836261521005 0 -0.081808777729522386 -0.083143660930833002 0 -0.066670257350634976 -0.085780572793309681 0 -0.073985000225153141 -0.099795971436559522 0 -0.081808777729522386 -0.083143660930833002 0 -0.068001603171865072 -0.074911341683796137 0 -0.066670257350634976 -0.085780572793309681 0 -0.066670257350634976 -0.085780572793309681 0 -0.073985000225153141 -0.099795971436559522 0 -0.05982498813170789 -0.10249801488187529 0 -0.073985000225153141 -0.099795971436559522 0 -0.065415314349395459 -0.11473522154729129 0 -0.05982498813170789 -0.10249801488187529 0 -0.073985000225153141 -0.099795971436559522 0 -0.065415314349395459 -0.11473522154729129 0 -0.07727601190464152 -0.1134926659633375 0 -0.065415314349395459 -0.11473522154729129 0 -0.060446148579459319 -0.1303024678998376 0 -0.071674103496310607 -0.1250344835198243 0 -0.07727601190464152 -0.1134926659633375 0 -0.082994471061899833 -0.1234246307735777 0 -0.071674103496310607 -0.1250344835198243 0 -0.065415314349395459 -0.11473522154729129 0 -0.07727601190464152 -0.1134926659633375 0 -0.071674103496310607 -0.1250344835198243 0 -0.07727601190464152 -0.1134926659633375 0 -0.082994471061899833 -0.1234246307735777 0 -0.08680817640523622 -0.1078855820033275 0 -0.082994471061899833 -0.1234246307735777 0 -0.08680817640523622 -0.1078855820033275 0 -0.095277368860953449 -0.1178446661751102 0 -0.082994471061899833 -0.1234246307735777 0 -0.095277368860953449 -0.1178446661751102 0 -0.095971306836852913 -0.13086642389395989 0 -0.085935801107842547 -0.09579043756499836 0 -0.08680817640523622 -0.1078855820033275 0 -0.1020424425883536 -0.1015565670732166 0 -0.073985000225153141 -0.099795971436559522 0 -0.085935801107842547 -0.09579043756499836 0 -0.08680817640523622 -0.1078855820033275 0 -0.073985000225153141 -0.099795971436559522 0 -0.07727601190464152 -0.1134926659633375 0 -0.08680817640523622 -0.1078855820033275 0 -0.085935801107842547 -0.09579043756499836 0 -0.1020424425883536 -0.1015565670732166 0 -0.094306078709463503 -0.087148618235937392 0 -0.08680817640523622 -0.1078855820033275 0 -0.1020424425883536 -0.1015565670732166 0 -0.095277368860953449 -0.1178446661751102 0 -0.1020424425883536 -0.1015565670732166 0 -0.095277368860953449 -0.1178446661751102 0 -0.1085913382140784 -0.11903379143832921 0 -0.095277368860953449 -0.1178446661751102 0 -0.1085913382140784 -0.11903379143832921 0 -0.095971306836852913 -0.13086642389395989 0 -0.1085913382140784 -0.11903379143832921 0 -0.11893842975153809 -0.10446969177473921 0 -0.12736410167423581 -0.1213878944680517 0 -0.1020424425883536 -0.1015565670732166 0 -0.11893842975153809 -0.10446969177473921 0 -0.1189291253072135 -0.086669643832799348 0 -0.1020424425883536 -0.1015565670732166 0 -0.1085913382140784 -0.11903379143832921 0 -0.11893842975153809 -0.10446969177473921 0 -0.1189291253072135 -0.086669643832799348 0 -0.1056068239719813 -0.08097964138995771 0 -0.1139735316209595 -0.069866863539540053 0 -0.1020424425883536 -0.1015565670732166 0 -0.1189291253072135 -0.086669643832799348 0 -0.1056068239719813 -0.08097964138995771 0 -0.1020424425883536 -0.1015565670732166 0 -0.1056068239719813 -0.08097964138995771 0 -0.094306078709463503 -0.087148618235937392 0 -0.1056068239719813 -0.08097964138995771 0 -0.094306078709463503 -0.087148618235937392 0 -0.095869533599057435 -0.074719864200214883 0 -0.095869533599057435 -0.074719864200214883 0 -0.1039382096783972 -0.069282752438140638 0 -0.097041901727127691 -0.062312633498474219 0 -0.1056068239719813 -0.08097964138995771 0 -0.1039382096783972 -0.069282752438140638 0 -0.1139735316209595 -0.069866863539540053 0 -0.1056068239719813 -0.08097964138995771 0 -0.095869533599057435 -0.074719864200214883 0 -0.1039382096783972 -0.069282752438140638 0 -0.1039382096783972 -0.069282752438140638 0 -0.097041901727127691 -0.062312633498474219 0 -0.1071992574728602 -0.058534759562516372 0 -0.1039382096783972 -0.069282752438140638 0 -0.1139735316209595 -0.069866863539540053 0 -0.1071992574728602 -0.058534759562516372 0 -0.1189291253072135 -0.086669643832799348 0 -0.1139735316209595 -0.069866863539540053 0 -0.12930964035960699 -0.069761515268982097 0 -0.1139735316209595 -0.069866863539540053 0 -0.1161384697585349 -0.056806249932135858 0 -0.12930964035960699 -0.069761515268982097 0 -0.1161384697585349 -0.056806249932135858 0 -0.1208541397454049 -0.045822468476665427 0 -0.12930964035960699 -0.069761515268982097 0 -0.1248214427799455 -0.0491876577223027 0 -0.1208541397454049 -0.045822468476665427 0 -0.12930964035960699 -0.069761515268982097 0 -0.1161384697585349 -0.056806249932135858 0 -0.10991932193075039 -0.048940588969216672 0 -0.1071992574728602 -0.058534759562516372 0 -0.1139735316209595 -0.069866863539540053 0 -0.1161384697585349 -0.056806249932135858 0 -0.1071992574728602 -0.058534759562516372 0 -0.1161384697585349 -0.056806249932135858 0 -0.10991932193075039 -0.048940588969216672 0 -0.1149357203506014 -0.047989794102068162 0 -0.1161384697585349 -0.056806249932135858 0 -0.1149357203506014 -0.047989794102068162 0 -0.1208541397454049 -0.045822468476665427 0 -0.1248214427799455 -0.0491876577223027 0 -0.1208541397454049 -0.045822468476665427 0 -0.1246368416492639 -0.024787675353444869 0 -0.1128309499677153 -0.040389869030254703 0 -0.10841128816168021 -0.033720593740292633 0 -0.11239863913120279 -0.021883421684348751 0 -0.1208541397454049 -0.045822468476665427 0 -0.11239863913120279 -0.021883421684348751 0 -0.1208541397454049 -0.045822468476665427 0 -0.1128309499677153 -0.040389869030254703 0 -0.11239863913120279 -0.021883421684348751 0 -0.1248214427799455 -0.0491876577223027 0 -0.1246368416492639 -0.024787675353444869 0 -0.1149357203506014 -0.047989794102068162 0 -0.1208541397454049 -0.045822468476665427 0 -0.1128309499677153 -0.040389869030254703 0 -0.10991932193075039 -0.048940588969216672 0 -0.1149357203506014 -0.047989794102068162 0 -0.1128309499677153 -0.040389869030254703 0 -0.10991932193075039 -0.048940588969216672 0 -0.1128309499677153 -0.040389869030254703 0 -0.1049963107845597 -0.040407454994133042 0 -0.10991932193075039 -0.048940588969216672 0 -0.1049963107845597 -0.040407454994133042 0 -0.1002598709818909 -0.049694841596422852 0 -0.1049963107845597 -0.040407454994133042 0 -0.10841128816168021 -0.033720593740292633 0 -0.1012581714839781 -0.029848849592015819 0 -0.1128309499677153 -0.040389869030254703 0 -0.1049963107845597 -0.040407454994133042 0 -0.10841128816168021 -0.033720593740292633 0 -0.097298262181343159 -0.039849987036595598 0 -0.1012581714839781 -0.029848849592015819 0 -0.091929659262116575 -0.033133953101480262 0 -0.1049963107845597 -0.040407454994133042 0 -0.097298262181343159 -0.039849987036595598 0 -0.1012581714839781 -0.029848849592015819 0 -0.1049963107845597 -0.040407454994133042 0 -0.097298262181343159 -0.039849987036595598 0 -0.1002598709818909 -0.049694841596422852 0 -0.097298262181343159 -0.039849987036595598 0 -0.1002598709818909 -0.049694841596422852 0 -0.087030839425688053 -0.044306376809862227 0 -0.1002598709818909 -0.049694841596422852 0 -0.097041901727127691 -0.062312633498474219 0 -0.1071992574728602 -0.058534759562516372 0 -0.1002598709818909 -0.049694841596422852 0 -0.097041901727127691 -0.062312633498474219 0 -0.090164156554830718 -0.055563028782557922 0 -0.10991932193075039 -0.048940588969216672 0 -0.1002598709818909 -0.049694841596422852 0 -0.1071992574728602 -0.058534759562516372 0 -0.1244522405185825 -0.00038769298458709092 0 -0.11239863913120279 -0.021883421684348751 0 -0.10394313851700079 0.0020556251079679459 0 -0.1244522405185825 -0.00038769298458709092 0 -0.1246368416492639 -0.024787675353444869 0 -0.1244522405185825 -0.00038769298458709092 0 -0.11239863913120279 -0.021883421684348751 0 -0.1246368416492639 -0.024787675353444869 0 -0.1208541397454049 -0.045822468476665427 0 -0.11239863913120279 -0.021883421684348751 0 -0.1246368416492639 -0.024787675353444869 0 -0.10841128816168021 -0.033720593740292633 0 -0.11239863913120279 -0.021883421684348751 0 -0.1012581714839781 -0.029848849592015819 0 -0.1012581714839781 -0.029848849592015819 0 -0.090677970328949406 -0.022917020247476879 0 -0.091929659262116575 -0.033133953101480262 0 -0.1012581714839781 -0.029848849592015819 0 -0.1001126671493681 -0.016491083843961009 0 -0.090677970328949406 -0.022917020247476879 0 -0.1001126671493681 -0.016491083843961009 0 -0.092285416285709382 -0.0098617528039315269 0 -0.090677970328949406 -0.022917020247476879 0 -0.11239863913120279 -0.021883421684348751 0 -0.1012581714839781 -0.029848849592015819 0 -0.1001126671493681 -0.016491083843961009 0 -0.1001126671493681 -0.016491083843961009 0 -0.092285416285709382 -0.0098617528039315269 0 -0.10394313851700079 0.0020556251079679459 0 -0.11239863913120279 -0.021883421684348751 0 -0.1001126671493681 -0.016491083843961009 0 -0.10394313851700079 0.0020556251079679459 0 -0.092285416285709382 -0.0098617528039315269 0 -0.10394313851700079 0.0020556251079679459 0 -0.085958893623968774 0.001514634656162053 0 -0.11239863913120279 -0.021883421684348751 0 -0.10394313851700079 0.0020556251079679459 0 -0.092285416285709382 -0.0098617528039315269 0 -0.077949881484559239 -0.01307625006729682 0 -0.085958893623968774 0.001514634656162053 0 -0.092285416285709382 -0.0098617528039315269 0 -0.090677970328949406 -0.022917020247476879 0 -0.077949881484559239 -0.01307625006729682 0 -0.090677970328949406 -0.022917020247476879 0 -0.073841780976804383 -0.025706854857452392 0 -0.077949881484559239 -0.01307625006729682 0 -0.090677970328949406 -0.022917020247476879 0 -0.073841780976804383 -0.025706854857452392 0 -0.082102255714859004 -0.034759692131612618 0 -0.090677970328949406 -0.022917020247476879 0 -0.091929659262116575 -0.033133953101480262 0 -0.082102255714859004 -0.034759692131612618 0 -0.073841780976804383 -0.025706854857452392 0 -0.077949881484559239 -0.01307625006729682 0 -0.060674527584339763 -0.015412449877807689 0 -0.073841780976804383 -0.025706854857452392 0 -0.060674527584339763 -0.015412449877807689 0 -0.060703590497751453 -0.03101491529774986 0 -0.077949881484559239 -0.01307625006729682 0 -0.085958893623968774 0.001514634656162053 0 -0.065648076432031049 0.00090955339710942099 0 -0.077949881484559239 -0.01307625006729682 0 -0.060674527584339763 -0.015412449877807689 0 -0.065648076432031049 0.00090955339710942099 0 -0.079773765115028039 -0.057914828426178573 0 -0.087030839425688053 -0.044306376809862227 0 -0.074827122987446398 -0.047817820925290022 0 -0.079773765115028039 -0.057914828426178573 0 -0.090164156554830718 -0.055563028782557922 0 -0.087030839425688053 -0.044306376809862227 0 -0.087640100333796281 -0.066301869750421821 0 -0.079773765115028039 -0.057914828426178573 0 -0.090164156554830718 -0.055563028782557922 0 -0.087640100333796281 -0.066301869750421821 0 -0.097041901727127691 -0.062312633498474219 0 -0.090164156554830718 -0.055563028782557922 0 -0.1002598709818909 -0.049694841596422852 0 -0.090164156554830718 -0.055563028782557922 0 -0.087030839425688053 -0.044306376809862227 0 -0.097298262181343159 -0.039849987036595598 0 -0.087030839425688053 -0.044306376809862227 0 -0.091929659262116575 -0.033133953101480262 0 -0.087030839425688053 -0.044306376809862227 0 -0.091929659262116575 -0.033133953101480262 0 -0.082102255714859004 -0.034759692131612618 0 -0.087030839425688053 -0.044306376809862227 0 -0.082102255714859004 -0.034759692131612618 0 -0.074827122987446398 -0.047817820925290022 0 -0.082102255714859004 -0.034759692131612618 0 -0.070942460250367517 -0.03706080152277047 0 -0.074827122987446398 -0.047817820925290022 0 -0.073841780976804383 -0.025706854857452392 0 -0.082102255714859004 -0.034759692131612618 0 -0.070942460250367517 -0.03706080152277047 0 -0.073841780976804383 -0.025706854857452392 0 -0.070942460250367517 -0.03706080152277047 0 -0.060703590497751453 -0.03101491529774986 0 -0.070942460250367517 -0.03706080152277047 0 -0.061850736208416378 -0.044087883634974623 0 -0.060703590497751453 -0.03101491529774986 0 -0.070942460250367517 -0.03706080152277047 0 -0.074827122987446398 -0.047817820925290022 0 -0.061850736208416378 -0.044087883634974623 0 -0.074827122987446398 -0.047817820925290022 0 -0.065822825648978775 -0.060485584973140792 0 -0.061850736208416378 -0.044087883634974623 0 -0.079773765115028039 -0.057914828426178573 0 -0.074827122987446398 -0.047817820925290022 0 -0.065822825648978775 -0.060485584973140792 0 -0.076351800502585221 -0.068318825045574613 0 -0.079773765115028039 -0.057914828426178573 0 -0.065822825648978775 -0.060485584973140792 0 -0.065822825648978775 -0.060485584973140792 0 -0.051906109188989122 -0.051634581827710108 0 -0.055146373663134192 -0.063188587977351315 0 -0.065822825648978775 -0.060485584973140792 0 -0.051906109188989122 -0.051634581827710108 0 -0.061850736208416378 -0.044087883634974623 0 -0.051906109188989122 -0.051634581827710108 0 -0.044968642856814678 -0.064628327886466996 0 -0.055146373663134192 -0.063188587977351315 0 -0.061850736208416378 -0.044087883634974623 0 -0.048286593140243993 -0.039377229684959138 0 -0.060703590497751453 -0.03101491529774986 0 -0.051906109188989122 -0.051634581827710108 0 -0.061850736208416378 -0.044087883634974623 0 -0.048286593140243993 -0.039377229684959138 0 -0.048286593140243993 -0.039377229684959138 0 -0.039642814346724391 -0.052475069278980747 0 -0.030584103036016622 -0.035608219704199993 0 -0.039642814346724391 -0.052475069278980747 0 -0.024435088609687641 -0.049746151716912712 0 -0.030584103036016622 -0.035608219704199993 0 -0.048286593140243993 -0.039377229684959138 0 -0.044331283213942488 -0.020119990811347448 0 -0.030584103036016622 -0.035608219704199993 0 -0.039642814346724391 -0.052475069278980747 0 -0.03034189778213453 -0.060014988360291517 0 -0.024435088609687641 -0.049746151716912712 0 -0.039642814346724391 -0.052475069278980747 0 -0.03034189778213453 -0.060014988360291517 0 -0.044968642856814678 -0.064628327886466996 0 -0.051906109188989122 -0.051634581827710108 0 -0.039642814346724391 -0.052475069278980747 0 -0.044968642856814678 -0.064628327886466996 0 -0.051906109188989122 -0.051634581827710108 0 -0.048286593140243993 -0.039377229684959138 0 -0.039642814346724391 -0.052475069278980747 0 -0.060674527584339763 -0.015412449877807689 0 -0.044331283213942488 -0.020119990811347448 0 -0.045118160941850949 -0.00049033847668307538 0 -0.060674527584339763 -0.015412449877807689 0 -0.045118160941850949 -0.00049033847668307538 0 -0.065648076432031049 0.00090955339710942099 0 -0.048286593140243993 -0.039377229684959138 0 -0.060703590497751453 -0.03101491529774986 0 -0.044331283213942488 -0.020119990811347448 0 -0.060674527584339763 -0.015412449877807689 0 -0.060703590497751453 -0.03101491529774986 0 -0.044331283213942488 -0.020119990811347448 0 -0.044331283213942488 -0.020119990811347448 0 -0.027025641752002061 -0.0079319500279313396 0 -0.030584103036016622 -0.035608219704199993 0 -0.044331283213942488 -0.020119990811347448 0 -0.045118160941850949 -0.00049033847668307538 0 -0.027025641752002061 -0.0079319500279313396 0 -0.027025641752002061 -0.0079319500279313396 0 -0.0118242871531395 -0.020545428430059291 0 -0.0091716063734174208 -0.003332990253060792 0 -0.027025641752002061 -0.0079319500279313396 0 -0.0091716063734174208 -0.003332990253060792 0 -0.01566814095190756 0.010235570601176981 0 -0.027025641752002061 -0.0079319500279313396 0 -0.0118242871531395 -0.020545428430059291 0 -0.030584103036016622 -0.035608219704199993 0 -0.0118242871531395 -0.020545428430059291 0 -0.030584103036016622 -0.035608219704199993 0 -0.0118242871531395 -0.020545428430059291 0 0.006935528729737548 -0.0054826371559186567 0 0.0027408304473846411 -0.028176541972939319 0 -0.0118242871531395 -0.020545428430059291 0 -0.01026660782967455 -0.041229232136501717 0 0.0027408304473846411 -0.028176541972939319 0 -0.0118242871531395 -0.020545428430059291 0 -0.0091716063734174208 -0.003332990253060792 0 0.006935528729737548 -0.0054826371559186567 0 -0.0118242871531395 -0.020545428430059291 0 0.006935528729737548 -0.0054826371559186567 0 -0.024435088609687641 -0.049746151716912712 0 -0.01026660782967455 -0.041229232136501717 0 -0.01499476028908407 -0.06055090283160456 0 -0.03034189778213453 -0.060014988360291517 0 -0.01499476028908407 -0.06055090283160456 0 -0.03034189778213453 -0.060014988360291517 0 -0.024435088609687641 -0.049746151716912712 0 -0.01499476028908407 -0.06055090283160456 0 -0.024435088609687641 -0.049746151716912712 0 -0.030584103036016622 -0.035608219704199993 0 -0.01026660782967455 -0.041229232136501717 0 -0.0118242871531395 -0.020545428430059291 0 -0.030584103036016622 -0.035608219704199993 0 -0.01026660782967455 -0.041229232136501717 0 -0.01026660782967455 -0.041229232136501717 0 0.0096258971738255473 -0.043108802377643002 0 0.00035237720396625368 -0.061086817302918282 0 -0.01026660782967455 -0.041229232136501717 0 -0.01499476028908407 -0.06055090283160456 0 0.00035237720396625368 -0.061086817302918282 0 -0.01499476028908407 -0.06055090283160456 0 0.00035237720396625368 -0.061086817302918282 0 -0.011408129540087309 -0.083886203777590068 0 0.0065051428120863272 -0.082127796022149757 0 0.00035237720396625368 -0.061086817302918282 0 -0.011408129540087309 -0.083886203777590068 0 0.00035237720396625368 -0.061086817302918282 0 -0.01499476028908407 -0.06055090283160456 0 -0.011408129540087309 -0.083886203777590068 0 0.00035237720396625368 -0.061086817302918282 0 -0.011408129540087309 -0.083886203777590068 0 0.001856719827670471 -0.098182337095309047 0 0.0065051428120863272 -0.082127796022149757 0 -0.011408129540087309 -0.083886203777590068 0 -0.03053113156520738 -0.089911417014305078 0 -0.02316863628414112 -0.10668559025226169 0 -0.011408129540087309 -0.083886203777590068 0 -0.03053113156520738 -0.089911417014305078 0 -0.026049830403481512 -0.075342802050597457 0 -0.01499476028908407 -0.06055090283160456 0 -0.011408129540087309 -0.083886203777590068 0 -0.026049830403481512 -0.075342802050597457 0 -0.03034189778213453 -0.060014988360291517 0 -0.01499476028908407 -0.06055090283160456 0 -0.026049830403481512 -0.075342802050597457 0 -0.03034189778213453 -0.060014988360291517 0 -0.026049830403481512 -0.075342802050597457 0 -0.041349905228919973 -0.078428718904655664 0 -0.03034189778213453 -0.060014988360291517 0 -0.044968642856814678 -0.064628327886466996 0 -0.041349905228919973 -0.078428718904655664 0 -0.03053113156520738 -0.089911417014305078 0 -0.026049830403481512 -0.075342802050597457 0 -0.041349905228919973 -0.078428718904655664 0 -0.03053113156520738 -0.089911417014305078 0 -0.041349905228919973 -0.078428718904655664 0 -0.047432501145458397 -0.097370211357339573 0 -0.041349905228919973 -0.078428718904655664 0 -0.053879666709155317 -0.08598560359304859 0 -0.05753372126900759 -0.073422836261521005 0 -0.041349905228919973 -0.078428718904655664 0 -0.053879666709155317 -0.08598560359304859 0 -0.047432501145458397 -0.097370211357339573 0 -0.066670257350634976 -0.085780572793309681 0 -0.053879666709155317 -0.08598560359304859 0 -0.05982498813170789 -0.10249801488187529 0 -0.066670257350634976 -0.085780572793309681 0 -0.053879666709155317 -0.08598560359304859 0 -0.05753372126900759 -0.073422836261521005 0 -0.044968642856814678 -0.064628327886466996 0 -0.041349905228919973 -0.078428718904655664 0 -0.05753372126900759 -0.073422836261521005 0 -0.065822825648978775 -0.060485584973140792 0 -0.05753372126900759 -0.073422836261521005 0 -0.055146373663134192 -0.063188587977351315 0 -0.044968642856814678 -0.064628327886466996 0 -0.05753372126900759 -0.073422836261521005 0 -0.055146373663134192 -0.063188587977351315 0 -0.065415314349395459 -0.11473522154729129 0 -0.048239208743362072 -0.1165718691901324 0 -0.05982498813170789 -0.10249801488187529 0 -0.065415314349395459 -0.11473522154729129 0 -0.048239208743362072 -0.1165718691901324 0 -0.060446148579459319 -0.1303024678998376 0 -0.048239208743362072 -0.1165718691901324 0 -0.05982498813170789 -0.10249801488187529 0 -0.047432501145458397 -0.097370211357339573 0 -0.053879666709155317 -0.08598560359304859 0 -0.05982498813170789 -0.10249801488187529 0 -0.047432501145458397 -0.097370211357339573 0 -0.048239208743362072 -0.1165718691901324 0 -0.047432501145458397 -0.097370211357339573 0 -0.02316863628414112 -0.10668559025226169 0 -0.03053113156520738 -0.089911417014305078 0 -0.047432501145458397 -0.097370211357339573 0 -0.02316863628414112 -0.10668559025226169 0 -0.048239208743362072 -0.1165718691901324 0 -0.02316863628414112 -0.10668559025226169 0 -0.029948833034415319 -0.13246817914486481 0 -0.02316863628414112 -0.10668559025226169 0 -0.01250087523651249 -0.12826546419306251 0 -0.029948833034415319 -0.13246817914486481 0 -0.011408129540087309 -0.083886203777590068 0 -0.02316863628414112 -0.10668559025226169 0 -0.02316863628414112 -0.10668559025226169 0 0.0015243557028834459 -0.11711868301268021 0 0.001856719827670471 -0.098182337095309047 0 -0.011408129540087309 -0.083886203777590068 0 -0.02316863628414112 -0.10668559025226169 0 0.001856719827670471 -0.098182337095309047 0 -0.02316863628414112 -0.10668559025226169 0 -0.01250087523651249 -0.12826546419306251 0 0.0015243557028834459 -0.11711868301268021 0 -0.01250087523651249 -0.12826546419306251 0 -0.013317386200938249 -0.14799664519887931 0 0.0088678229424013627 -0.13941235935176011 0 -0.01250087523651249 -0.12826546419306251 0 0.0088678229424013627 -0.13941235935176011 0 0.0015243557028834459 -0.11711868301268021 0 -0.01250087523651249 -0.12826546419306251 0 -0.029948833034415319 -0.13246817914486481 0 -0.013317386200938249 -0.14799664519887931 0 -0.013317386200938249 -0.14799664519887931 0 -0.035502595344277812 -0.15658093104599841 0 -0.029948833034415319 -0.13246817914486481 0 -0.013317386200938249 -0.14799664519887931 0 -0.035502595344277812 -0.15658093104599841 0 -0.013317386200938249 -0.14799664519887931 0 0.0088678229424013627 -0.13941235935176011 0 -0.013317386200938249 -0.14799664519887931 0 0.0027310736070901482 -0.15493719994590471 0 0.0088678229424013627 -0.13941235935176011 0 -0.013317386200938249 -0.14799664519887931 0 -0.0013673002328405961 -0.1767093328090546 0 0.0027310736070901482 -0.15493719994590471 0 -0.013317386200938249 -0.14799664519887931 0 -0.0013673002328405961 -0.1767093328090546 0 -0.029934926785222919 -0.1776443960910804 0 -0.0013673002328405961 -0.1767093328090546 0 -0.0217915143334447 -0.19785215020996011 0 -0.0013673002328405961 -0.1767093328090546 0 -0.029934926785222919 -0.1776443960910804 0 -0.0217915143334447 -0.19785215020996011 0 -0.013317386200938249 -0.14799664519887931 0 -0.029934926785222919 -0.1776443960910804 0 -0.035502595344277812 -0.15658093104599841 0 -0.035502595344277812 -0.15658093104599841 0 -0.057687804487617317 -0.16516521689311761 0 -0.029934926785222919 -0.1776443960910804 0 -0.035502595344277812 -0.15658093104599841 0 -0.057687804487617317 -0.16516521689311761 0 -0.029934926785222919 -0.1776443960910804 0 -0.048583433801033478 -0.18728911877980611 0 -0.034676635542126917 -0.191298641696723 0 -0.029934926785222919 -0.1776443960910804 0 -0.048583433801033478 -0.18728911877980611 0 -0.057687804487617317 -0.16516521689311761 0 -0.048583433801033478 -0.18728911877980611 0 -0.057687804487617317 -0.16516521689311761 0 -0.063770138428779252 -0.18079669395549949 0 -0.035502595344277812 -0.15658093104599841 0 -0.057687804487617317 -0.16516521689311761 0 -0.06059931965736505 -0.14742373122833671 0 -0.035502595344277812 -0.15658093104599841 0 -0.06059931965736505 -0.14742373122833671 0 -0.046947221071775923 -0.13666943570183401 0 -0.048239208743362072 -0.1165718691901324 0 -0.046947221071775923 -0.13666943570183401 0 -0.060446148579459319 -0.1303024678998376 0 -0.06059931965736505 -0.14742373122833671 0 -0.046947221071775923 -0.13666943570183401 0 -0.060446148579459319 -0.1303024678998376 0 -0.048239208743362072 -0.1165718691901324 0 -0.029948833034415319 -0.13246817914486481 0 -0.046947221071775923 -0.13666943570183401 0 -0.029948833034415319 -0.13246817914486481 0 -0.035502595344277812 -0.15658093104599841 0 -0.046947221071775923 -0.13666943570183401 0 -0.03064478186574425 -0.25326356670072259 0 -0.026067501294639708 -0.24850247980592871 0 -0.033387688564450117 -0.24425465961654741 0 -0.026067501294639708 -0.24850247980592871 0 -0.02456862519526215 -0.24210395604782819 0 -0.033387688564450117 -0.24425465961654741 0 -0.02974340118516787 -0.23585106297766359 0 -0.02456862519526215 -0.24210395604782819 0 -0.02062871475200042 -0.2320366992723622 0 -0.02974340118516787 -0.23585106297766359 0 -0.02456862519526215 -0.24210395604782819 0 -0.033387688564450117 -0.24425465961654741 0 -0.02456862519526215 -0.24210395604782819 0 -0.01660477195623393 -0.2403164687020414 0 -0.02062871475200042 -0.2320366992723622 0 -0.02456862519526215 -0.24210395604782819 0 -0.01660477195623393 -0.2403164687020414 0 -0.01887874476148543 -0.24814250919209771 0 -0.026067501294639708 -0.24850247980592871 0 -0.02456862519526215 -0.24210395604782819 0 -0.01887874476148543 -0.24814250919209771 0 -0.01660477195623393 -0.2403164687020414 0 -0.01887874476148543 -0.24814250919209771 0 -0.0080727856436109482 -0.2481099565327444 0 -0.0080727856436109482 -0.2481099565327444 0 -0.0084819670471955304 -0.2367225590632196 0 0.0055632338660241776 -0.24332209518663511 0 -0.01660477195623393 -0.2403164687020414 0 -0.0084819670471955304 -0.2367225590632196 0 -0.02062871475200042 -0.2320366992723622 0 -0.01660477195623393 -0.2403164687020414 0 -0.0080727856436109482 -0.2481099565327444 0 -0.0084819670471955304 -0.2367225590632196 0 -0.0084819670471955304 -0.2367225590632196 0 -0.0075276580997289226 -0.21896018305478171 0 0.0032521440618358652 -0.23009641691855939 0 -0.0084819670471955304 -0.2367225590632196 0 -0.0075276580997289226 -0.21896018305478171 0 -0.02062871475200042 -0.2320366992723622 0 -0.0075276580997289226 -0.21896018305478171 0 -0.02062871475200042 -0.2320366992723622 0 -0.024832472176938718 -0.21885173135413241 0 -0.02974340118516787 -0.23585106297766359 0 -0.02062871475200042 -0.2320366992723622 0 -0.031998745265470661 -0.22641465662269231 0 -0.02062871475200042 -0.2320366992723622 0 -0.024832472176938718 -0.21885173135413241 0 -0.031998745265470661 -0.22641465662269231 0 -0.0075276580997289226 -0.21896018305478171 0 -0.024832472176938718 -0.21885173135413241 0 -0.0217915143334447 -0.19785215020996011 0 -0.024832472176938718 -0.21885173135413241 0 -0.0217915143334447 -0.19785215020996011 0 -0.042215728434048867 -0.21899496761086559 0 -0.0075276580997289226 -0.21896018305478171 0 -0.0217915143334447 -0.19785215020996011 0 0.003555539334036632 -0.19934620758084881 0 -0.0013673002328405961 -0.1767093328090546 0 -0.0217915143334447 -0.19785215020996011 0 0.003555539334036632 -0.19934620758084881 0 -0.029934926785222919 -0.1776443960910804 0 -0.0217915143334447 -0.19785215020996011 0 -0.034676635542126917 -0.191298641696723 0 -0.0217915143334447 -0.19785215020996011 0 -0.034676635542126917 -0.191298641696723 0 -0.04224094911505525 -0.20168175555289891 0 -0.048583433801033478 -0.18728911877980611 0 -0.034676635542126917 -0.191298641696723 0 -0.04224094911505525 -0.20168175555289891 0 -0.048583433801033478 -0.18728911877980611 0 -0.058327232484387218 -0.2013044317948425 0 -0.063770138428779252 -0.18079669395549949 0 -0.048583433801033478 -0.18728911877980611 0 -0.04224094911505525 -0.20168175555289891 0 -0.058327232484387218 -0.2013044317948425 0 -0.058327232484387218 -0.2013044317948425 0 -0.04785115009529034 -0.21335122322519601 0 -0.065984069430329237 -0.21594808513783789 0 -0.04224094911505525 -0.20168175555289891 0 -0.058327232484387218 -0.2013044317948425 0 -0.04785115009529034 -0.21335122322519601 0 -0.04785115009529034 -0.21335122322519601 0 -0.065984069430329237 -0.21594808513783789 0 -0.04785115009529034 -0.21335122322519601 0 -0.050089297127046031 -0.22131182591420251 0 -0.065984069430329237 -0.21594808513783789 0 -0.0217915143334447 -0.19785215020996011 0 -0.042215728434048867 -0.21899496761086559 0 -0.0217915143334447 -0.19785215020996011 0 -0.04224094911505525 -0.20168175555289891 0 -0.042215728434048867 -0.21899496761086559 0 -0.04224094911505525 -0.20168175555289891 0 -0.04785115009529034 -0.21335122322519601 0 -0.042215728434048867 -0.21899496761086559 0 -0.04785115009529034 -0.21335122322519601 0 -0.042215728434048867 -0.21899496761086559 0 -0.050089297127046031 -0.22131182591420251 0 -0.024832472176938718 -0.21885173135413241 0 -0.031998745265470661 -0.22641465662269231 0 -0.042215728434048867 -0.21899496761086559 0 -0.031998745265470661 -0.22641465662269231 0 -0.042215728434048867 -0.21899496761086559 0 -0.041320068815934301 -0.22639292378782619 0 -0.031998745265470661 -0.22641465662269231 0 -0.041320068815934301 -0.22639292378782619 0 -0.038133232148655979 -0.23444534332888789 0 -0.02974340118516787 -0.23585106297766359 0 -0.031998745265470661 -0.22641465662269231 0 -0.038133232148655979 -0.23444534332888789 0 -0.041320068815934301 -0.22639292378782619 0 -0.052151212760384272 -0.22988480121754831 0 -0.038133232148655979 -0.23444534332888789 0 -0.042215728434048867 -0.21899496761086559 0 -0.041320068815934301 -0.22639292378782619 0 -0.050089297127046031 -0.22131182591420251 0 -0.041320068815934301 -0.22639292378782619 0 -0.050089297127046031 -0.22131182591420251 0 -0.052151212760384272 -0.22988480121754831 0 -0.0567919256119837 -0.24387644547435741 0 -0.065984069430329237 -0.21594808513783789 0 -0.050089297127046031 -0.22131182591420251 0 -0.052151212760384272 -0.22988480121754831 0 -0.065984069430329237 -0.21594808513783789 0 -0.052151212760384272 -0.22988480121754831 0 -0.0567919256119837 -0.24387644547435741 0 -0.065984069430329237 -0.21594808513783789 0 -0.052151212760384272 -0.22988480121754831 0 -0.0567919256119837 -0.24387644547435741 0 -0.045207486351244337 -0.24272005325013779 0 -0.046517308340487992 -0.25474718453952289 0 -0.0567919256119837 -0.24387644547435741 0 -0.045207486351244337 -0.24272005325013779 0 -0.038581934025118947 -0.25114857380685968 0 -0.046517308340487992 -0.25474718453952289 0 -0.045207486351244337 -0.24272005325013779 0 -0.052151212760384272 -0.22988480121754831 0 -0.045207486351244337 -0.24272005325013779 0 -0.038133232148655979 -0.23444534332888789 0 -0.02974340118516787 -0.23585106297766359 0 -0.038133232148655979 -0.23444534332888789 0 -0.033387688564450117 -0.24425465961654741 0 -0.045207486351244337 -0.24272005325013779 0 -0.038133232148655979 -0.23444534332888789 0 -0.033387688564450117 -0.24425465961654741 0 -0.038581934025118947 -0.25114857380685968 0 -0.03064478186574425 -0.25326356670072259 0 -0.033387688564450117 -0.24425465961654741 0 -0.038581934025118947 -0.25114857380685968 0 -0.045207486351244337 -0.24272005325013779 0 -0.033387688564450117 -0.24425465961654741 0 -0.076282262678724011 -0.24169347649274159 0 -0.094544528280961701 -0.23130979592197831 0 -0.1005321994236209 -0.2431127607729493 0 -0.090174700483665673 -0.26498018187443112 0 -0.076282262678724011 -0.24169347649274159 0 -0.1005321994236209 -0.2431127607729493 0 -0.063484538676239377 -0.26413124226689111 0 -0.0567919256119837 -0.24387644547435741 0 -0.076282262678724011 -0.24169347649274159 0 -0.0567919256119837 -0.24387644547435741 0 -0.076282262678724011 -0.24169347649274159 0 -0.076216545617433393 -0.2267874217425101 0 -0.0567919256119837 -0.24387644547435741 0 -0.076216545617433393 -0.2267874217425101 0 -0.065984069430329237 -0.21594808513783789 0 -0.076216545617433393 -0.2267874217425101 0 -0.089079986681209755 -0.21925571071859279 0 -0.065984069430329237 -0.21594808513783789 0 -0.076282262678724011 -0.24169347649274159 0 -0.076216545617433393 -0.2267874217425101 0 -0.089079986681209755 -0.21925571071859279 0 -0.076282262678724011 -0.24169347649274159 0 -0.089079986681209755 -0.21925571071859279 0 -0.076282262678724011 -0.24169347649274159 0 -0.089079986681209755 -0.21925571071859279 0 -0.094544528280961701 -0.23130979592197831 0 -0.089079986681209755 -0.21925571071859279 0 -0.087982693832912948 -0.20610030108417279 0 -0.065984069430329237 -0.21594808513783789 0 -0.089079986681209755 -0.21925571071859279 0 -0.091681034097487346 -0.21469539259619891 0 -0.087982693832912948 -0.20610030108417279 0 -0.089079986681209755 -0.21925571071859279 0 -0.091681034097487346 -0.21469539259619891 0 -0.089079986681209755 -0.21925571071859279 0 -0.065984069430329237 -0.21594808513783789 0 -0.058327232484387218 -0.2013044317948425 0 -0.065984069430329237 -0.21594808513783789 0 -0.072928541530643487 -0.1948487939390374 0 -0.065984069430329237 -0.21594808513783789 0 -0.072928541530643487 -0.1948487939390374 0 -0.087982693832912948 -0.20610030108417279 0 -0.065984069430329237 -0.21594808513783789 0 -0.072928541530643487 -0.1948487939390374 0 -0.058327232484387218 -0.2013044317948425 0 -0.072928541530643487 -0.1948487939390374 0 -0.063770138428779252 -0.18079669395549949 0 -0.087982693832912948 -0.20610030108417279 0 -0.072928541530643487 -0.1948487939390374 0 -0.088647710124579282 -0.1895137930351245 0 -0.087982693832912948 -0.20610030108417279 0 -0.088647710124579282 -0.1895137930351245 0 -0.098413722631135098 -0.19641739989264009 0 -0.088647710124579282 -0.1895137930351245 0 -0.098413722631135098 -0.19641739989264009 0 -0.1039428787252024 -0.18306303235069041 0 -0.087982693832912948 -0.20610030108417279 0 -0.098413722631135098 -0.19641739989264009 0 -0.1018219586260966 -0.2062222809526808 0 -0.098413722631135098 -0.19641739989264009 0 -0.10967337184688419 -0.19718759204053191 0 -0.1018219586260966 -0.2062222809526808 0 -0.098413722631135098 -0.19641739989264009 0 -0.10967337184688419 -0.19718759204053191 0 -0.1039428787252024 -0.18306303235069041 0 -0.1039428787252024 -0.18306303235069041 0 -0.1280127438194481 -0.19237656196114411 0 -0.10967337184688419 -0.19718759204053191 0 -0.1178174188303993 -0.20556040013348681 0 -0.1280127438194481 -0.19237656196114411 0 -0.10967337184688419 -0.19718759204053191 0 -0.1039428787252024 -0.18306303235069041 0 -0.1280127438194481 -0.19237656196114411 0 -0.10967337184688419 -0.19718759204053191 0 -0.10961342770230489 -0.21003706569406461 0 -0.1178174188303993 -0.20556040013348681 0 -0.1178174188303993 -0.20556040013348681 0 -0.1109550451866443 -0.21888036136960631 0 -0.13246178853905299 -0.20873151589840269 0 -0.1109550451866443 -0.21888036136960631 0 -0.13246178853905299 -0.20873151589840269 0 -0.1109550451866443 -0.21888036136960631 0 -0.12407830270498089 -0.22426790937284519 0 -0.13246178853905299 -0.20873151589840269 0 -0.10961342770230489 -0.21003706569406461 0 -0.1178174188303993 -0.20556040013348681 0 -0.1109550451866443 -0.21888036136960631 0 -0.10961342770230489 -0.21003706569406461 0 -0.103172625086798 -0.22127395363072039 0 -0.1109550451866443 -0.21888036136960631 0 -0.10961342770230489 -0.21003706569406461 0 -0.1018219586260966 -0.2062222809526808 0 -0.103172625086798 -0.22127395363072039 0 -0.10967337184688419 -0.19718759204053191 0 -0.10961342770230489 -0.21003706569406461 0 -0.1018219586260966 -0.2062222809526808 0 -0.091681034097487346 -0.21469539259619891 0 -0.087982693832912948 -0.20610030108417279 0 -0.103172625086798 -0.22127395363072039 0 -0.089079986681209755 -0.21925571071859279 0 -0.091681034097487346 -0.21469539259619891 0 -0.103172625086798 -0.22127395363072039 0 -0.087982693832912948 -0.20610030108417279 0 -0.103172625086798 -0.22127395363072039 0 -0.087982693832912948 -0.20610030108417279 0 -0.1018219586260966 -0.2062222809526808 0 -0.103172625086798 -0.22127395363072039 0 -0.094544528280961701 -0.23130979592197831 0 -0.103172625086798 -0.22127395363072039 0 -0.1005321994236209 -0.2431127607729493 0 -0.089079986681209755 -0.21925571071859279 0 -0.103172625086798 -0.22127395363072039 0 -0.089079986681209755 -0.21925571071859279 0 -0.094544528280961701 -0.23130979592197831 0 -0.103172625086798 -0.22127395363072039 0 -0.103172625086798 -0.22127395363072039 0 -0.1223681628105569 -0.24044891992886891 0 -0.103172625086798 -0.22127395363072039 0 -0.12407830270498089 -0.22426790937284519 0 -0.1238233973506119 -0.23541481827178831 0 -0.103172625086798 -0.22127395363072039 0 -0.1223681628105569 -0.24044891992886891 0 -0.1238233973506119 -0.23541481827178831 0 -0.103172625086798 -0.22127395363072039 0 -0.12407830270498089 -0.22426790937284519 0 -0.103172625086798 -0.22127395363072039 0 -0.1109550451866443 -0.21888036136960631 0 -0.12407830270498089 -0.22426790937284519 0 -0.11757885349586771 -0.25701660664448461 0 -0.1223681628105569 -0.24044891992886891 0 -0.1005321994236209 -0.2431127607729493 0 -0.11757885349586771 -0.25701660664448461 0 -0.1223681628105569 -0.24044891992886891 0 -0.1223681628105569 -0.24044891992886891 0 -0.1238233973506119 -0.23541481827178831 0 -0.103172625086798 -0.22127395363072039 0 -0.1223681628105569 -0.24044891992886891 0 -0.1005321994236209 -0.2431127607729493 0 -0.088441251280713618 -0.1477167476767523 0 -0.085474651021334253 -0.13655174303235951 0 -0.077236065216807342 -0.1460130695171887 0 -0.088441251280713618 -0.1477167476767523 0 -0.077236065216807342 -0.1460130695171887 0 -0.072985053953480025 -0.15595005707556001 0 -0.088441251280713618 -0.1477167476767523 0 -0.093538562727787294 -0.15940564464812701 0 -0.098894310772838973 -0.14952020789867901 0 -0.088441251280713618 -0.1477167476767523 0 -0.085474651021334253 -0.13655174303235951 0 -0.095252038160572317 -0.1406191133899993 0 -0.085474651021334253 -0.13655174303235951 0 -0.095971306836852913 -0.13086642389395989 0 -0.095252038160572317 -0.1406191133899993 0 -0.082994471061899833 -0.1234246307735777 0 -0.085474651021334253 -0.13655174303235951 0 -0.095971306836852913 -0.13086642389395989 0 -0.082994471061899833 -0.1234246307735777 0 -0.085474651021334253 -0.13655174303235951 0 -0.073596501371478315 -0.1364787996572045 0 -0.085474651021334253 -0.13655174303235951 0 -0.073596501371478315 -0.1364787996572045 0 -0.077236065216807342 -0.1460130695171887 0 -0.06059931965736505 -0.14742373122833671 0 -0.060446148579459319 -0.1303024678998376 0 -0.073596501371478315 -0.1364787996572045 0 -0.082994471061899833 -0.1234246307735777 0 -0.073596501371478315 -0.1364787996572045 0 -0.071674103496310607 -0.1250344835198243 0 -0.060446148579459319 -0.1303024678998376 0 -0.073596501371478315 -0.1364787996572045 0 -0.071674103496310607 -0.1250344835198243 0 -0.06059931965736505 -0.14742373122833671 0 -0.073596501371478315 -0.1364787996572045 0 -0.077236065216807342 -0.1460130695171887 0 -0.057687804487617317 -0.16516521689311761 0 -0.06059931965736505 -0.14742373122833671 0 -0.072985053953480025 -0.15595005707556001 0 -0.06059931965736505 -0.14742373122833671 0 -0.077236065216807342 -0.1460130695171887 0 -0.072985053953480025 -0.15595005707556001 0 -0.057687804487617317 -0.16516521689311761 0 -0.079873013630956835 -0.17374950274023659 0 -0.057687804487617317 -0.16516521689311761 0 -0.072985053953480025 -0.15595005707556001 0 -0.079873013630956835 -0.17374950274023659 0 -0.072928541530643487 -0.1948487939390374 0 -0.079873013630956835 -0.17374950274023659 0 -0.057687804487617317 -0.16516521689311761 0 -0.063770138428779252 -0.18079669395549949 0 -0.079873013630956835 -0.17374950274023659 0 -0.072928541530643487 -0.1948487939390374 0 -0.063770138428779252 -0.18079669395549949 0 -0.079873013630956835 -0.17374950274023659 0 -0.072928541530643487 -0.1948487939390374 0 -0.088647710124579282 -0.1895137930351245 0 -0.079873013630956835 -0.17374950274023659 0 -0.079873013630956835 -0.17374950274023659 0 -0.1039428787252024 -0.18306303235069041 0 -0.088647710124579282 -0.1895137930351245 0 -0.079873013630956835 -0.17374950274023659 0 -0.1039428787252024 -0.18306303235069041 0 -0.088441251280713618 -0.1477167476767523 0 -0.079873013630956835 -0.17374950274023659 0 -0.079873013630956835 -0.17374950274023659 0 -0.093538562727787294 -0.15940564464812701 0 -0.098088850166783578 -0.16700629557107341 0 -0.088441251280713618 -0.1477167476767523 0 -0.079873013630956835 -0.17374950274023659 0 -0.093538562727787294 -0.15940564464812701 0 -0.088441251280713618 -0.1477167476767523 0 -0.072985053953480025 -0.15595005707556001 0 -0.079873013630956835 -0.17374950274023659 0 -0.093538562727787294 -0.15940564464812701 0 -0.098088850166783578 -0.16700629557107341 0 -0.1023953877876435 -0.15903546935389351 0 -0.098088850166783578 -0.16700629557107341 0 -0.1039428787252024 -0.18306303235069041 0 -0.1119878388851908 -0.16231915977259129 0 -0.098088850166783578 -0.16700629557107341 0 -0.1023953877876435 -0.15903546935389351 0 -0.1119878388851908 -0.16231915977259129 0 -0.079873013630956835 -0.17374950274023659 0 -0.098088850166783578 -0.16700629557107341 0 -0.1039428787252024 -0.18306303235069041 0 -0.1039428787252024 -0.18306303235069041 0 -0.11859204859796291 -0.17560578940816099 0 -0.1119878388851908 -0.16231915977259129 0 -0.1039428787252024 -0.18306303235069041 0 -0.11859204859796291 -0.17560578940816099 0 -0.1280127438194481 -0.19237656196114411 0 -0.1023953877876435 -0.15903546935389351 0 -0.1119878388851908 -0.16231915977259129 0 -0.1169630623746598 -0.14907522687480429 0 -0.11859204859796291 -0.17560578940816099 0 -0.1119878388851908 -0.16231915977259129 0 -0.12588679133122799 -0.1624874708491951 0 -0.1119878388851908 -0.16231915977259129 0 -0.1169630623746598 -0.14907522687480429 0 -0.12588679133122799 -0.1624874708491951 0 -0.1119878388851908 -0.16231915977259129 0 -0.1169630623746598 -0.14907522687480429 0 -0.1023953877876435 -0.15903546935389351 0 -0.1169630623746598 -0.14907522687480429 0 -0.098894310772838973 -0.14952020789867901 0 -0.1169630623746598 -0.14907522687480429 0 -0.098894310772838973 -0.14952020789867901 0 -0.1169630623746598 -0.14907522687480429 0 -0.098894310772838973 -0.14952020789867901 0 -0.1074786708911218 -0.1384404444482458 0 -0.088441251280713618 -0.1477167476767523 0 -0.098894310772838973 -0.14952020789867901 0 -0.095252038160572317 -0.1406191133899993 0 -0.098894310772838973 -0.14952020789867901 0 -0.095252038160572317 -0.1406191133899993 0 -0.1074786708911218 -0.1384404444482458 0 -0.093538562727787294 -0.15940564464812701 0 -0.1023953877876435 -0.15903546935389351 0 -0.098894310772838973 -0.14952020789867901 0 -0.1085913382140784 -0.11903379143832921 0 -0.095971306836852913 -0.13086642389395989 0 -0.1074786708911218 -0.1384404444482458 0 -0.095971306836852913 -0.13086642389395989 0 -0.095252038160572317 -0.1406191133899993 0 -0.1074786708911218 -0.1384404444482458 0 -0.1085913382140784 -0.11903379143832921 0 -0.1074786708911218 -0.1384404444482458 0 -0.12736410167423581 -0.1213878944680517 0 -0.1169630623746598 -0.14907522687480429 0 -0.1074786708911218 -0.1384404444482458 0 -0.12736410167423581 -0.1213878944680517 0 -0.1169630623746598 -0.14907522687480429 0 -0.12736410167423581 -0.1213878944680517 0 -0.13746664940214659 -0.13470709103134659 0 -0.12736410167423581 -0.1213878944680517 0 -0.14737054533773081 -0.1208951937003558 0 -0.1169630623746598 -0.14907522687480429 0 -0.13746664940214659 -0.13470709103134659 0 -0.12736410167423581 -0.1213878944680517 0 -0.1569759497016511 -0.14808982533941309 0 -0.14737054533773081 -0.1208951937003558 0 -0.13746664940214659 -0.13470709103134659 0 -0.1569759497016511 -0.14808982533941309 0 -0.14737054533773081 -0.1208951937003558 0 -0.1369695060381555 -0.1485825261071109 0 -0.1526603788815559 -0.1573596194762775 0 -0.1569759497016511 -0.14808982533941309 0 -0.13746664940214659 -0.13470709103134659 0 -0.1369695060381555 -0.1485825261071109 0 -0.1569759497016511 -0.14808982533941309 0 -0.1369695060381555 -0.1485825261071109 0 -0.1569759497016511 -0.14808982533941309 0 -0.1169630623746598 -0.14907522687480429 0 -0.1369695060381555 -0.1485825261071109 0 -0.1169630623746598 -0.14907522687480429 0 -0.1369695060381555 -0.1485825261071109 0 -0.12588679133122799 -0.1624874708491951 0 -0.1169630623746598 -0.14907522687480429 0 -0.13746664940214659 -0.13470709103134659 0 -0.1369695060381555 -0.1485825261071109 0 -0.11859204859796291 -0.17560578940816099 0 -0.12588679133122799 -0.1624874708491951 0 -0.13147554750711021 -0.17522771154146191 0 -0.12588679133122799 -0.1624874708491951 0 -0.13147554750711021 -0.17522771154146191 0 -0.14107140235061469 -0.16358211752318311 0 -0.13147554750711021 -0.17522771154146191 0 -0.14520517551865919 -0.17294749126987599 0 -0.14107140235061469 -0.16358211752318311 0 -0.1369695060381555 -0.1485825261071109 0 -0.12588679133122799 -0.1624874708491951 0 -0.14107140235061469 -0.16358211752318311 0 -0.11859204859796291 -0.17560578940816099 0 -0.13147554750711021 -0.17522771154146191 0 -0.1280127438194481 -0.19237656196114411 0 -0.13147554750711021 -0.17522771154146191 0 -0.1398254013782112 -0.18365029146927231 0 -0.1280127438194481 -0.19237656196114411 0 -0.13147554750711021 -0.17522771154146191 0 -0.1398254013782112 -0.18365029146927231 0 -0.14520517551865919 -0.17294749126987599 0 -0.1398254013782112 -0.18365029146927231 0 -0.14820117369214661 -0.18035874543477601 0 -0.1498687104188495 -0.18767128888863599 0 -0.1398254013782112 -0.18365029146927231 0 -0.14820117369214661 -0.18035874543477601 0 -0.14520517551865919 -0.17294749126987599 0 -0.14820117369214661 -0.18035874543477601 0 -0.14520517551865919 -0.17294749126987599 0 -0.1568216795970071 -0.17538216601134321 0 -0.14820117369214661 -0.18035874543477601 0 -0.15608754076248521 -0.18190001438557629 0 -0.1568216795970071 -0.17538216601134321 0 -0.14520517551865919 -0.17294749126987599 0 -0.15263532751206779 -0.16758471640843459 0 -0.1568216795970071 -0.17538216601134321 0 -0.14820117369214661 -0.18035874543477601 0 -0.15608754076248521 -0.18190001438557629 0 -0.1498687104188495 -0.18767128888863599 0 -0.15608754076248521 -0.18190001438557629 0 -0.1607184616130248 -0.18728683910860641 0 -0.1498687104188495 -0.18767128888863599 0 -0.1369695060381555 -0.1485825261071109 0 -0.14107140235061469 -0.16358211752318311 0 -0.1526603788815559 -0.1573596194762775 0 -0.14520517551865919 -0.17294749126987599 0 -0.14107140235061469 -0.16358211752318311 0 -0.15263532751206779 -0.16758471640843459 0 -0.15263532751206779 -0.16758471640843459 0 -0.1526603788815559 -0.1573596194762775 0 -0.16142564196989831 -0.16655703171874039 0 -0.14107140235061469 -0.16358211752318311 0 -0.15263532751206779 -0.16758471640843459 0 -0.1526603788815559 -0.1573596194762775 0 -0.1526603788815559 -0.1573596194762775 0 -0.16142564196989831 -0.16655703171874039 0 -0.16326087804426159 -0.16588359066980229 0 -0.16326087804426159 -0.16588359066980229 0 -0.1569759497016511 -0.14808982533941309 0 -0.1526603788815559 -0.1573596194762775 0 -0.16326087804426159 -0.16588359066980229 0 -0.1569759497016511 -0.14808982533941309 0 -0.1594122663447772 -0.17133307891758459 0 -0.16142564196989831 -0.16655703171874039 0 -0.16676641630013581 -0.17580840153182001 0 -0.15263532751206779 -0.16758471640843459 0 -0.1594122663447772 -0.17133307891758459 0 -0.16142564196989831 -0.16655703171874039 0 -0.16142564196989831 -0.16655703171874039 0 -0.16326087804426159 -0.16588359066980229 0 -0.16676641630013581 -0.17580840153182001 0 -0.15263532751206779 -0.16758471640843459 0 -0.1594122663447772 -0.17133307891758459 0 -0.1568216795970071 -0.17538216601134321 0 -0.16142564196989831 -0.16655703171874039 0 -0.16326087804426159 -0.16588359066980229 0 -0.16326087804426159 -0.16588359066980229 0 -0.16676641630013581 -0.17580840153182001 0 -0.1783922457352059 -0.17293489930968209 0 -0.16326087804426159 -0.16588359066980229 0 -0.16676641630013581 -0.17580840153182001 0 -0.15608754076248521 -0.18190001438557629 0 -0.1607184616130248 -0.18728683910860641 0 -0.16676641630013581 -0.17580840153182001 0 -0.15608754076248521 -0.18190001438557629 0 -0.1568216795970071 -0.17538216601134321 0 -0.16676641630013581 -0.17580840153182001 0 -0.1594122663447772 -0.17133307891758459 0 -0.1568216795970071 -0.17538216601134321 0 -0.16676641630013581 -0.17580840153182001 0 -0.1607184616130248 -0.18728683910860641 0 -0.16676641630013581 -0.17580840153182001 0 -0.17547527524387041 -0.1884338249559952 0 -0.17547527524387041 -0.1884338249559952 0 -0.1969820185962792 -0.17828497948479149 0 -0.1783922457352059 -0.17293489930968209 0 -0.17547527524387041 -0.1884338249559952 0 -0.1969820185962792 -0.17828497948479149 0 -0.16676641630013581 -0.17580840153182001 0 -0.1783922457352059 -0.17293489930968209 0 -0.17547527524387041 -0.1884338249559952 0 -0.16326087804426159 -0.16588359066980229 0 -0.18947664049148261 -0.1562636999060015 0 -0.16326087804426159 -0.16588359066980229 0 -0.18633417632017751 -0.14736681724080919 0 -0.18947664049148261 -0.1562636999060015 0 -0.16326087804426159 -0.16588359066980229 0 -0.1783922457352059 -0.17293489930968209 0 -0.18947664049148261 -0.1562636999060015 0 -0.18633417632017751 -0.14736681724080919 0 -0.16621773075288121 -0.1295318635244681 0 -0.18400621351090571 -0.1217110611121094 0 -0.16621773075288121 -0.1295318635244681 0 -0.1569759497016511 -0.14808982533941309 0 -0.14737054533773081 -0.1208951937003558 0 -0.18633417632017751 -0.14736681724080919 0 -0.16621773075288121 -0.1295318635244681 0 -0.1569759497016511 -0.14808982533941309 0 -0.18633417632017751 -0.14736681724080919 0 -0.1569759497016511 -0.14808982533941309 0 -0.16326087804426159 -0.16588359066980229 0 -0.18633417632017751 -0.14736681724080919 0 -0.1569759497016511 -0.14808982533941309 0 -0.1377523016625678 -0.25581657194563601 0 -0.15263230708737521 -0.24356194903458239 0 -0.13476861079800859 -0.2391754021203874 0 -0.15263230708737521 -0.24356194903458239 0 -0.13476861079800859 -0.2391754021203874 0 -0.14055595197029169 -0.22979662500526149 0 -0.1377523016625678 -0.25581657194563601 0 -0.1223681628105569 -0.24044891992886891 0 -0.13476861079800859 -0.2391754021203874 0 -0.1377523016625678 -0.25581657194563601 0 -0.1223681628105569 -0.24044891992886891 0 -0.1238233973506119 -0.23541481827178831 0 -0.13476861079800859 -0.2391754021203874 0 -0.13139441447274411 -0.22962184130071481 0 -0.1223681628105569 -0.24044891992886891 0 -0.1238233973506119 -0.23541481827178831 0 -0.13476861079800859 -0.2391754021203874 0 -0.13476861079800859 -0.2391754021203874 0 -0.14055595197029169 -0.22979662500526149 0 -0.13139441447274411 -0.22962184130071481 0 -0.12407830270498089 -0.22426790937284519 0 -0.1238233973506119 -0.23541481827178831 0 -0.13139441447274411 -0.22962184130071481 0 -0.12407830270498089 -0.22426790937284519 0 -0.13139441447274411 -0.22962184130071481 0 -0.13441394179160859 -0.22010184774946731 0 -0.14055595197029169 -0.22979662500526149 0 -0.13139441447274411 -0.22962184130071481 0 -0.13441394179160859 -0.22010184774946731 0 -0.14055595197029169 -0.22979662500526149 0 -0.13441394179160859 -0.22010184774946731 0 -0.14940536450650499 -0.21373664043116339 0 -0.15263230708737521 -0.24356194903458239 0 -0.14940536450650499 -0.21373664043116339 0 -0.15263230708737521 -0.24356194903458239 0 -0.14940536450650499 -0.21373664043116339 0 -0.16621803193972459 -0.22739125443424221 0 -0.15263230708737521 -0.24356194903458239 0 -0.14055595197029169 -0.22979662500526149 0 -0.14940536450650499 -0.21373664043116339 0 -0.14940536450650499 -0.21373664043116339 0 -0.13246178853905299 -0.20873151589840269 0 -0.1539685318914617 -0.1985826704271989 0 -0.13246178853905299 -0.20873151589840269 0 -0.1539685318914617 -0.1985826704271989 0 -0.13441394179160859 -0.22010184774946731 0 -0.14940536450650499 -0.21373664043116339 0 -0.13246178853905299 -0.20873151589840269 0 -0.12407830270498089 -0.22426790937284519 0 -0.13441394179160859 -0.22010184774946731 0 -0.13246178853905299 -0.20873151589840269 0 -0.1178174188303993 -0.20556040013348681 0 -0.13246178853905299 -0.20873151589840269 0 -0.1280127438194481 -0.19237656196114411 0 -0.13246178853905299 -0.20873151589840269 0 -0.1280127438194481 -0.19237656196114411 0 -0.14041115317576749 -0.19424917250638599 0 -0.1398254013782112 -0.18365029146927231 0 -0.1280127438194481 -0.19237656196114411 0 -0.14041115317576749 -0.19424917250638599 0 -0.13246178853905299 -0.20873151589840269 0 -0.14041115317576749 -0.19424917250638599 0 -0.1539685318914617 -0.1985826704271989 0 -0.14041115317576749 -0.19424917250638599 0 -0.1539685318914617 -0.1985826704271989 0 -0.1498687104188495 -0.18767128888863599 0 -0.1398254013782112 -0.18365029146927231 0 -0.14041115317576749 -0.19424917250638599 0 -0.1498687104188495 -0.18767128888863599 0 -0.1607184616130248 -0.18728683910860641 0 -0.1539685318914617 -0.1985826704271989 0 -0.1498687104188495 -0.18767128888863599 0 -0.1607184616130248 -0.18728683910860641 0 -0.1539685318914617 -0.1985826704271989 0 -0.17547527524387041 -0.1884338249559952 0 -0.1539685318914617 -0.1985826704271989 0 -0.17547527524387041 -0.1884338249559952 0 -0.16825702714884239 -0.20885775366498019 0 -0.1539685318914617 -0.1985826704271989 0 -0.17547527524387041 -0.1884338249559952 0 -0.17547527524387041 -0.1884338249559952 0 -0.18277425339256639 -0.2026996383603622 0 -0.16825702714884239 -0.20885775366498019 0 -0.17547527524387041 -0.1884338249559952 0 -0.18277425339256639 -0.2026996383603622 0 -0.1902080517791363 -0.1917922864575213 0 -0.18277425339256639 -0.2026996383603622 0 -0.16825702714884239 -0.20885775366498019 0 -0.18626938338499441 -0.22517712183416291 0 -0.14940536450650499 -0.21373664043116339 0 -0.1539685318914617 -0.1985826704271989 0 -0.16825702714884239 -0.20885775366498019 0 -0.14940536450650499 -0.21373664043116339 0 -0.16825702714884239 -0.20885775366498019 0 -0.16621803193972459 -0.22739125443424221 0 -0.16825702714884239 -0.20885775366498019 0 -0.16621803193972459 -0.22739125443424221 0 -0.18626938338499441 -0.22517712183416291 0 -0.16621803193972459 -0.22739125443424221 0 -0.18626938338499441 -0.22517712183416291 0 -0.1745260775709061 -0.24562280720632229 0 -0.18626938338499441 -0.22517712183416291 0 -0.1745260775709061 -0.24562280720632229 0 -0.19988453840298659 -0.24176205441804 0 -0.18626938338499441 -0.22517712183416291 0 -0.1745260775709061 -0.24562280720632229 0 -0.15263230708737521 -0.24356194903458239 0 -0.16621803193972459 -0.22739125443424221 0 -0.1745260775709061 -0.24562280720632229 0 -0.1689202540561075 -0.25519621835756329 0 -0.15263230708737521 -0.24356194903458239 0 -0.1745260775709061 -0.24562280720632229 0 -0.21854221021918649 -0.25236034283526498 0 -0.19988453840298659 -0.24176205441804 0 -0.21493562756427159 -0.22243862284749449 0 -0.19160736129165659 -0.25262396586623759 0 -0.1745260775709061 -0.24562280720632229 0 -0.19988453840298659 -0.24176205441804 0 -0.18626938338499441 -0.22517712183416291 0 -0.19988453840298659 -0.24176205441804 0 -0.21493562756427159 -0.22243862284749449 0 -0.21493562756427159 -0.22243862284749449 0 -0.19801268919908249 -0.2047314364620034 0 -0.21541309520260529 -0.20113031717637361 0 -0.18626938338499441 -0.22517712183416291 0 -0.19801268919908249 -0.2047314364620034 0 -0.18277425339256639 -0.2026996383603622 0 -0.18626938338499441 -0.22517712183416291 0 -0.19801268919908249 -0.2047314364620034 0 -0.18626938338499441 -0.22517712183416291 0 -0.21493562756427159 -0.22243862284749449 0 -0.19801268919908249 -0.2047314364620034 0 -0.19801268919908249 -0.2047314364620034 0 -0.1902080517791363 -0.1917922864575213 0 -0.20975599501317069 -0.18428575108984399 0 -0.18277425339256639 -0.2026996383603622 0 -0.19801268919908249 -0.2047314364620034 0 -0.1902080517791363 -0.1917922864575213 0 -0.21541309520260529 -0.20113031717637361 0 -0.20975599501317069 -0.18428575108984399 0 -0.229896455205026 -0.18225842567294781 0 -0.19801268919908249 -0.2047314364620034 0 -0.21541309520260529 -0.20113031717637361 0 -0.20975599501317069 -0.18428575108984399 0 -0.19801268919908249 -0.2047314364620034 0 -0.20975599501317069 -0.18428575108984399 0 -0.21541309520260529 -0.20113031717637361 0 -0.23384346774119599 -0.2034651679104556 0 -0.229896455205026 -0.18225842567294781 0 -0.24262172765942899 -0.19089247064050549 0 -0.25644706280453389 -0.1995927939493197 0 -0.25029992488695979 -0.1782534950292988 0 -0.24262172765942899 -0.19089247064050549 0 -0.23384346774119599 -0.2034651679104556 0 -0.25644706280453389 -0.1995927939493197 0 -0.24262172765942899 -0.19089247064050549 0 -0.23384346774119599 -0.2034651679104556 0 -0.229896455205026 -0.18225842567294781 0 -0.23384346774119599 -0.2034651679104556 0 -0.2377451423251814 -0.23136366228574551 0 -0.25674041691710447 -0.22108212323078871 0 -0.23384346774119599 -0.2034651679104556 0 -0.25674041691710447 -0.22108212323078871 0 -0.25644706280453389 -0.1995927939493197 0 -0.21493562756427159 -0.22243862284749449 0 -0.21541309520260529 -0.20113031717637361 0 -0.23384346774119599 -0.2034651679104556 0 -0.21493562756427159 -0.22243862284749449 0 -0.23384346774119599 -0.2034651679104556 0 -0.2377451423251814 -0.23136366228574551 0 -0.24465976002352091 -0.25387891845332877 0 -0.2377451423251814 -0.23136366228574551 0 -0.25992972331208369 -0.2410680052130979 0 -0.24465976002352091 -0.25387891845332877 0 -0.21854221021918649 -0.25236034283526498 0 -0.2377451423251814 -0.23136366228574551 0 -0.21854221021918649 -0.25236034283526498 0 -0.21493562756427159 -0.22243862284749449 0 -0.2377451423251814 -0.23136366228574551 0 -0.21854221021918649 -0.25236034283526498 0 -0.2377451423251814 -0.23136366228574551 0 -0.21569240293870359 -0.1466438091422006 0 -0.18947664049148261 -0.1562636999060015 0 -0.2105647825198341 -0.15627799774793921 0 -0.2105647825198341 -0.15627799774793921 0 -0.22149930082725899 -0.1638400657176845 0 -0.22047208921520459 -0.14652609931143951 0 -0.21569240293870359 -0.1466438091422006 0 -0.2105647825198341 -0.15627799774793921 0 -0.22047208921520459 -0.14652609931143951 0 -0.21569240293870359 -0.1466438091422006 0 -0.22047208921520459 -0.14652609931143951 0 -0.20228853596836749 -0.13187567246267581 0 -0.2244809527826766 -0.1321180186971766 0 -0.2129261089666101 -0.1196792574727195 0 -0.21569240293870359 -0.1466438091422006 0 -0.20228853596836749 -0.13187567246267581 0 -0.2244809527826766 -0.1321180186971766 0 -0.18633417632017751 -0.14736681724080919 0 -0.20228853596836749 -0.13187567246267581 0 -0.18400621351090571 -0.1217110611121094 0 -0.21569240293870359 -0.1466438091422006 0 -0.18947664049148261 -0.1562636999060015 0 -0.18633417632017751 -0.14736681724080919 0 -0.21569240293870359 -0.1466438091422006 0 -0.18947664049148261 -0.1562636999060015 0 -0.18633417632017751 -0.14736681724080919 0 -0.21569240293870359 -0.1466438091422006 0 -0.18633417632017751 -0.14736681724080919 0 -0.21569240293870359 -0.1466438091422006 0 -0.20228853596836749 -0.13187567246267581 0 -0.1783922457352059 -0.17293489930968209 0 -0.18947664049148261 -0.1562636999060015 0 -0.1969820185962792 -0.17828497948479149 0 -0.18947664049148261 -0.1562636999060015 0 -0.1969820185962792 -0.17828497948479149 0 -0.20568347912652049 -0.16811631466237001 0 -0.18947664049148261 -0.1562636999060015 0 -0.20568347912652049 -0.16811631466237001 0 -0.2105647825198341 -0.15627799774793921 0 -0.1902080517791363 -0.1917922864575213 0 -0.1969820185962792 -0.17828497948479149 0 -0.20975599501317069 -0.18428575108984399 0 -0.17547527524387041 -0.1884338249559952 0 -0.1902080517791363 -0.1917922864575213 0 -0.1969820185962792 -0.17828497948479149 0 -0.20975599501317069 -0.18428575108984399 0 -0.22149930082725899 -0.1638400657176845 0 -0.20975599501317069 -0.18428575108984399 0 -0.20568347912652049 -0.16811631466237001 0 -0.22149930082725899 -0.1638400657176845 0 -0.1969820185962792 -0.17828497948479149 0 -0.20975599501317069 -0.18428575108984399 0 -0.20568347912652049 -0.16811631466237001 0 -0.20568347912652049 -0.16811631466237001 0 -0.2105647825198341 -0.15627799774793921 0 -0.22149930082725899 -0.1638400657176845 0 -0.22149930082725899 -0.1638400657176845 0 -0.2402834514435094 -0.1667894474332684 0 -0.2341322288468432 -0.15422277024092529 0 -0.22149930082725899 -0.1638400657176845 0 -0.229896455205026 -0.18225842567294781 0 -0.2402834514435094 -0.1667894474332684 0 -0.20975599501317069 -0.18428575108984399 0 -0.22149930082725899 -0.1638400657176845 0 -0.229896455205026 -0.18225842567294781 0 -0.229896455205026 -0.18225842567294781 0 -0.2402834514435094 -0.1667894474332684 0 -0.25029992488695979 -0.1782534950292988 0 -0.24262172765942899 -0.19089247064050549 0 -0.229896455205026 -0.18225842567294781 0 -0.25029992488695979 -0.1782534950292988 0 -0.2402834514435094 -0.1667894474332684 0 -0.25029992488695979 -0.1782534950292988 0 -0.25761979100978533 -0.16665415002795461 0 -0.2402834514435094 -0.1667894474332684 0 -0.24825300788518309 -0.1555077779107997 0 -0.25761979100978533 -0.16665415002795461 0 -0.2402834514435094 -0.1667894474332684 0 -0.24825300788518309 -0.1555077779107997 0 -0.2341322288468432 -0.15422277024092529 0 -0.24825300788518309 -0.1555077779107997 0 -0.2405789555143194 -0.1375116727892334 0 -0.25601133851015478 -0.1487044986697981 0 -0.24825300788518309 -0.1555077779107997 0 -0.2341322288468432 -0.15422277024092529 0 -0.2405789555143194 -0.1375116727892334 0 -0.21569240293870359 -0.1466438091422006 0 -0.22047208921520459 -0.14652609931143951 0 -0.2405789555143194 -0.1375116727892334 0 -0.22149930082725899 -0.1638400657176845 0 -0.2341322288468432 -0.15422277024092529 0 -0.22047208921520459 -0.14652609931143951 0 -0.21569240293870359 -0.1466438091422006 0 -0.2405789555143194 -0.1375116727892334 0 -0.2341322288468432 -0.15422277024092529 0 -0.22047208921520459 -0.14652609931143951 0 -0.2405789555143194 -0.1375116727892334 0 -0.21569240293870359 -0.1466438091422006 0 -0.2244809527826766 -0.1321180186971766 0 -0.2405789555143194 -0.1375116727892334 0 -0.2244809527826766 -0.1321180186971766 0 -0.2405789555143194 -0.1375116727892334 0 -0.23651179230599079 -0.1199754775459997 0 -0.2405789555143194 -0.1375116727892334 0 -0.23651179230599079 -0.1199754775459997 0 -0.25054446979338107 -0.12912519928877991 0 -0.23651179230599079 -0.1199754775459997 0 -0.24959534238117709 -0.1078054475449232 0 -0.26009747564537128 -0.1202716976192799 0 -0.23651179230599079 -0.1199754775459997 0 -0.26009747564537128 -0.1202716976192799 0 -0.23651179230599079 -0.1199754775459997 0 -0.26009747564537128 -0.1202716976192799 0 -0.25054446979338107 -0.12912519928877991 0 -0.23651179230599079 -0.1199754775459997 0 -0.24959534238117709 -0.1078054475449232 0 -0.23746734258601571 -0.1067534300414448 0 -0.24098124084432149 -0.095291905336151436 0 -0.23746734258601571 -0.1067534300414448 0 -0.22473934926471251 -0.1042306158888877 0 -0.24959534238117709 -0.1078054475449232 0 -0.24098124084432149 -0.095291905336151436 0 -0.25687551172258971 -0.095275519396915032 0 -0.24959534238117709 -0.1078054475449232 0 -0.24098124084432149 -0.095291905336151436 0 -0.23746734258601571 -0.1067534300414448 0 -0.22473934926471251 -0.1042306158888877 0 -0.22774604229393439 -0.087804120453188278 0 -0.20897213189474381 -0.093424031558921927 0 -0.24098124084432149 -0.095291905336151436 0 -0.22473934926471251 -0.1042306158888877 0 -0.22774604229393439 -0.087804120453188278 0 -0.2244809527826766 -0.1321180186971766 0 -0.23651179230599079 -0.1199754775459997 0 -0.2129261089666101 -0.1196792574727195 0 -0.23651179230599079 -0.1199754775459997 0 -0.2129261089666101 -0.1196792574727195 0 -0.23651179230599079 -0.1199754775459997 0 -0.23746734258601571 -0.1067534300414448 0 -0.22473934926471251 -0.1042306158888877 0 -0.23651179230599079 -0.1199754775459997 0 -0.22473934926471251 -0.1042306158888877 0 -0.2129261089666101 -0.1196792574727195 0 -0.2466384096447127 -0.069214282175018252 0 -0.23144064811545881 -0.071679072189906365 0 -0.24006258296416741 -0.059977364163272567 0 -0.2466384096447127 -0.069214282175018252 0 -0.23867713564867771 -0.0818228939715063 0 -0.25106785873748549 -0.083001848322642804 0 -0.2466384096447127 -0.069214282175018252 0 -0.23867713564867771 -0.0818228939715063 0 -0.23144064811545881 -0.071679072189906365 0 -0.24098124084432149 -0.095291905336151436 0 -0.25106785873748549 -0.083001848322642804 0 -0.25687551172258971 -0.095275519396915032 0 -0.24098124084432149 -0.095291905336151436 0 -0.23867713564867771 -0.0818228939715063 0 -0.25106785873748549 -0.083001848322642804 0 -0.24098124084432149 -0.095291905336151436 0 -0.23867713564867771 -0.0818228939715063 0 -0.22774604229393439 -0.087804120453188278 0 -0.22048160989483939 -0.080833284582646742 0 -0.22774604229393439 -0.087804120453188278 0 -0.23144064811545881 -0.071679072189906365 0 -0.23867713564867771 -0.0818228939715063 0 -0.22774604229393439 -0.087804120453188278 0 -0.23144064811545881 -0.071679072189906365 0 -0.22048160989483939 -0.080833284582646742 0 -0.22774604229393439 -0.087804120453188278 0 -0.20897213189474381 -0.093424031558921927 0 -0.23144064811545881 -0.071679072189906365 0 -0.2137676172752207 -0.070425914128570383 0 -0.21856310265569601 -0.047427796698218422 0 -0.22048160989483939 -0.080833284582646742 0 -0.23144064811545881 -0.071679072189906365 0 -0.2137676172752207 -0.070425914128570383 0 -0.23144064811545881 -0.071679072189906365 0 -0.23092663332862359 -0.057189961691847993 0 -0.24006258296416741 -0.059977364163272567 0 -0.20335705558913081 -0.063140738221072371 0 -0.2137676172752207 -0.070425914128570383 0 -0.20224544779007569 -0.076575791796341275 0 -0.2137676172752207 -0.070425914128570383 0 -0.20897213189474381 -0.093424031558921927 0 -0.20224544779007569 -0.076575791796341275 0 -0.2137676172752207 -0.070425914128570383 0 -0.20897213189474381 -0.093424031558921927 0 -0.22048160989483939 -0.080833284582646742 0 -0.2137676172752207 -0.070425914128570383 0 -0.20897213189474381 -0.093424031558921927 0 -0.20897213189474381 -0.093424031558921927 0 -0.18864483179057751 -0.079783658531738119 0 -0.20224544779007569 -0.076575791796341275 0 -0.20897213189474381 -0.093424031558921927 0 -0.18864483179057751 -0.079783658531738119 0 -0.1843208979706715 -0.098582101900239388 0 -0.20335705558913081 -0.063140738221072371 0 -0.18864483179057751 -0.079783658531738119 0 -0.20224544779007569 -0.076575791796341275 0 -0.20335705558913081 -0.063140738221072371 0 -0.18864483179057751 -0.079783658531738119 0 -0.20335705558913081 -0.063140738221072371 0 -0.18864483179057751 -0.079783658531738119 0 -0.18476368522970901 -0.060313507398174523 0 -0.22473934926471251 -0.1042306158888877 0 -0.2129261089666101 -0.1196792574727195 0 -0.1994025973422491 -0.10829052452779669 0 -0.20228853596836749 -0.13187567246267581 0 -0.2129261089666101 -0.1196792574727195 0 -0.1994025973422491 -0.10829052452779669 0 -0.22473934926471251 -0.1042306158888877 0 -0.20897213189474381 -0.093424031558921927 0 -0.1994025973422491 -0.10829052452779669 0 -0.20897213189474381 -0.093424031558921927 0 -0.1994025973422491 -0.10829052452779669 0 -0.1843208979706715 -0.098582101900239388 0 -0.20228853596836749 -0.13187567246267581 0 -0.1994025973422491 -0.10829052452779669 0 -0.18400621351090571 -0.1217110611121094 0 -0.1994025973422491 -0.10829052452779669 0 -0.18400621351090571 -0.1217110611121094 0 -0.1843208979706715 -0.098582101900239388 0 -0.16621773075288121 -0.1295318635244681 0 -0.18400621351090571 -0.1217110611121094 0 -0.16647442841019139 -0.11035058163789351 0 -0.18400621351090571 -0.1217110611121094 0 -0.16647442841019139 -0.11035058163789351 0 -0.1843208979706715 -0.098582101900239388 0 -0.16621773075288121 -0.1295318635244681 0 -0.16647442841019139 -0.11035058163789351 0 -0.14737054533773081 -0.1208951937003558 0 -0.16647442841019139 -0.11035058163789351 0 -0.16521255597131029 -0.094363556792246006 0 -0.15171862691764881 -0.097019712797942706 0 -0.16647442841019139 -0.11035058163789351 0 -0.16521255597131029 -0.094363556792246006 0 -0.1843208979706715 -0.098582101900239388 0 -0.16521255597131029 -0.094363556792246006 0 -0.1843208979706715 -0.098582101900239388 0 -0.1718657805157274 -0.077566403117392158 0 -0.18864483179057751 -0.079783658531738119 0 -0.1843208979706715 -0.098582101900239388 0 -0.1718657805157274 -0.077566403117392158 0 -0.18864483179057751 -0.079783658531738119 0 -0.1718657805157274 -0.077566403117392158 0 -0.18476368522970901 -0.060313507398174523 0 -0.1718657805157274 -0.077566403117392158 0 -0.16766997596840549 -0.055069670457126463 0 -0.18476368522970901 -0.060313507398174523 0 -0.1718657805157274 -0.077566403117392158 0 -0.1555984100513392 -0.067553704814911478 0 -0.16766997596840549 -0.055069670457126463 0 -0.1718657805157274 -0.077566403117392158 0 -0.15451520526235171 -0.083858215916353424 0 -0.1555984100513392 -0.067553704814911478 0 -0.16521255597131029 -0.094363556792246006 0 -0.1718657805157274 -0.077566403117392158 0 -0.15451520526235171 -0.083858215916353424 0 -0.16521255597131029 -0.094363556792246006 0 -0.15451520526235171 -0.083858215916353424 0 -0.15171862691764881 -0.097019712797942706 0 -0.15451520526235171 -0.083858215916353424 0 -0.14334301715898221 -0.074859018030624863 0 -0.13903100861317999 -0.090330850909877913 0 -0.15451520526235171 -0.083858215916353424 0 -0.13903100861317999 -0.090330850909877913 0 -0.15171862691764881 -0.097019712797942706 0 -0.1377651409738101 -0.093700562061298426 0 -0.13903100861317999 -0.090330850909877913 0 -0.15171862691764881 -0.097019712797942706 0 -0.15451520526235171 -0.083858215916353424 0 -0.1555984100513392 -0.067553704814911478 0 -0.14334301715898221 -0.074859018030624863 0 -0.1555984100513392 -0.067553704814911478 0 -0.14334301715898221 -0.074859018030624863 0 -0.13945189113323761 -0.059806177835795588 0 -0.14334301715898221 -0.074859018030624863 0 -0.12930964035960699 -0.069761515268982097 0 -0.13945189113323761 -0.059806177835795588 0 -0.12930964035960699 -0.069761515268982097 0 -0.1377651409738101 -0.093700562061298426 0 -0.12930964035960699 -0.069761515268982097 0 -0.1377651409738101 -0.093700562061298426 0 -0.13903100861317999 -0.090330850909877913 0 -0.1189291253072135 -0.086669643832799348 0 -0.12930964035960699 -0.069761515268982097 0 -0.1377651409738101 -0.093700562061298426 0 -0.14334301715898221 -0.074859018030624863 0 -0.12930964035960699 -0.069761515268982097 0 -0.13903100861317999 -0.090330850909877913 0 -0.1377651409738101 -0.093700562061298426 0 -0.13903100861317999 -0.090330850909877913 0 -0.11893842975153809 -0.10446969177473921 0 -0.1377651409738101 -0.093700562061298426 0 -0.12736410167423581 -0.1213878944680517 0 -0.1377651409738101 -0.093700562061298426 0 -0.12736410167423581 -0.1213878944680517 0 -0.11893842975153809 -0.10446969177473921 0 -0.1189291253072135 -0.086669643832799348 0 -0.1377651409738101 -0.093700562061298426 0 -0.1377651409738101 -0.093700562061298426 0 -0.12736410167423581 -0.1213878944680517 0 -0.14737054533773081 -0.1208951937003558 0 -0.16647442841019139 -0.11035058163789351 0 -0.14737054533773081 -0.1208951937003558 0 -0.15171862691764881 -0.097019712797942706 0 -0.1377651409738101 -0.093700562061298426 0 -0.14737054533773081 -0.1208951937003558 0 -0.15171862691764881 -0.097019712797942706 0 -0.1377651409738101 -0.093700562061298426 0 -0.14737054533773081 -0.1208951937003558 0 -0.14925834278157041 -0.027771983247297551 0 -0.15381676672243971 -0.0048344028756085976 0 -0.16158573310271521 -0.019122381719964599 0 -0.14925834278157041 -0.027771983247297551 0 -0.15381676672243971 -0.0048344028756085976 0 -0.14925834278157041 -0.027771983247297551 0 -0.13622810944285851 -0.025664644749336048 0 -0.13728148428220571 -0.03631729474545041 0 -0.15381676672243971 -0.0048344028756085976 0 -0.13373576905839379 -0.01378162565115138 0 -0.13796817939809339 -7.5853332940862265e-05 0 -0.14925834278157041 -0.027771983247297551 0 -0.15381676672243971 -0.0048344028756085976 0 -0.13373576905839379 -0.01378162565115138 0 -0.1244522405185825 -0.00038769298458709092 0 -0.1246368416492639 -0.024787675353444869 0 -0.13373576905839379 -0.01378162565115138 0 -0.1244522405185825 -0.00038769298458709092 0 -0.13373576905839379 -0.01378162565115138 0 -0.13796817939809339 -7.5853332940862265e-05 0 -0.1244522405185825 -0.00038769298458709092 0 -0.13373576905839379 -0.01378162565115138 0 -0.1246368416492639 -0.024787675353444869 0 -0.13373576905839379 -0.01378162565115138 0 -0.13622810944285851 -0.025664644749336048 0 -0.14925834278157041 -0.027771983247297551 0 -0.13373576905839379 -0.01378162565115138 0 -0.13622810944285851 -0.025664644749336048 0 -0.1246368416492639 -0.024787675353444869 0 -0.13622810944285851 -0.025664644749336048 0 -0.13728148428220571 -0.03631729474545041 0 -0.1248214427799455 -0.0491876577223027 0 -0.1246368416492639 -0.024787675353444869 0 -0.13067566527459321 -0.039597081228004503 0 -0.1246368416492639 -0.024787675353444869 0 -0.13067566527459321 -0.039597081228004503 0 -0.13728148428220571 -0.03631729474545041 0 -0.1248214427799455 -0.0491876577223027 0 -0.13067566527459321 -0.039597081228004503 0 -0.1359628923869578 -0.048095697090820053 0 -0.13067566527459321 -0.039597081228004503 0 -0.13728148428220571 -0.03631729474545041 0 -0.1359628923869578 -0.048095697090820053 0 -0.13728148428220571 -0.03631729474545041 0 -0.1359628923869578 -0.048095697090820053 0 -0.14767594406259391 -0.049379474087132447 0 -0.1248214427799455 -0.0491876577223027 0 -0.12930964035960699 -0.069761515268982097 0 -0.13945189113323761 -0.059806177835795588 0 -0.1208541397454049 -0.045822468476665427 0 -0.12930964035960699 -0.069761515268982097 0 -0.1248214427799455 -0.0491876577223027 0 -0.1359628923869578 -0.048095697090820053 0 -0.13945189113323761 -0.059806177835795588 0 -0.1555984100513392 -0.067553704814911478 0 -0.13945189113323761 -0.059806177835795588 0 -0.14767594406259391 -0.049379474087132447 0 -0.1359628923869578 -0.048095697090820053 0 -0.13945189113323761 -0.059806177835795588 0 -0.14767594406259391 -0.049379474087132447 0 -0.14925834278157041 -0.027771983247297551 0 -0.14767594406259391 -0.049379474087132447 0 -0.16346190388351911 -0.035477368974388322 0 -0.14925834278157041 -0.027771983247297551 0 -0.13728148428220571 -0.03631729474545041 0 -0.14767594406259391 -0.049379474087132447 0 -0.14767594406259391 -0.049379474087132447 0 -0.16346190388351911 -0.035477368974388322 0 -0.16766997596840549 -0.055069670457126463 0 -0.16346190388351911 -0.035477368974388322 0 -0.16766997596840549 -0.055069670457126463 0 -0.1792130821544009 -0.041655239440509813 0 -0.1555984100513392 -0.067553704814911478 0 -0.14767594406259391 -0.049379474087132447 0 -0.16766997596840549 -0.055069670457126463 0 -0.16766997596840549 -0.055069670457126463 0 -0.18476368522970901 -0.060313507398174523 0 -0.1792130821544009 -0.041655239440509813 0 -0.18476368522970901 -0.060313507398174523 0 -0.1792130821544009 -0.041655239440509813 0 -0.19607578221694649 -0.043845816873478577 0 -0.16346190388351911 -0.035477368974388322 0 -0.1792130821544009 -0.041655239440509813 0 -0.1747539590121796 -0.02148713112583673 0 -0.1792130821544009 -0.041655239440509813 0 -0.1747539590121796 -0.02148713112583673 0 -0.18874747204970219 -0.028974905836781941 0 -0.1747539590121796 -0.02148713112583673 0 -0.18814241231787171 -0.014961103822567131 0 -0.18874747204970219 -0.028974905836781941 0 -0.14925834278157041 -0.027771983247297551 0 -0.16346190388351911 -0.035477368974388322 0 -0.16158573310271521 -0.019122381719964599 0 -0.16346190388351911 -0.035477368974388322 0 -0.1747539590121796 -0.02148713112583673 0 -0.16158573310271521 -0.019122381719964599 0 -0.1747539590121796 -0.02148713112583673 0 -0.16158573310271521 -0.019122381719964599 0 -0.1670666400728934 -0.0075955490013497832 0 -0.15381676672243971 -0.0048344028756085976 0 -0.1670666400728934 -0.0075955490013497832 0 -0.16872927738725291 0.0066655648670224509 0 -0.15381676672243971 -0.0048344028756085976 0 -0.16158573310271521 -0.019122381719964599 0 -0.1670666400728934 -0.0075955490013497832 0 -0.1670666400728934 -0.0075955490013497832 0 -0.1785064095432054 -0.0066611219507198768 0 -0.16872927738725291 0.0066655648670224509 0 -0.1747539590121796 -0.02148713112583673 0 -0.1670666400728934 -0.0075955490013497832 0 -0.1785064095432054 -0.0066611219507198768 0 -0.1747539590121796 -0.02148713112583673 0 -0.1785064095432054 -0.0066611219507198768 0 -0.18814241231787171 -0.014961103822567131 0 -0.1785064095432054 -0.0066611219507198768 0 -0.18814241231787171 -0.014961103822567131 0 -0.193034969706537 0.00064734206737222756 0 -0.20555212454711219 -0.022925237921517471 0 -0.20993853639106591 -0.0035380738047605968 0 -0.193034969706537 0.00064734206737222756 0 -0.18814241231787171 -0.014961103822567131 0 -0.20555212454711219 -0.022925237921517471 0 -0.193034969706537 0.00064734206737222756 0 -0.20555212454711219 -0.022925237921517471 0 -0.193034969706537 0.00064734206737222756 0 -0.20993853639106591 -0.0035380738047605968 0 -0.193034969706537 0.00064734206737222756 0 -0.18814241231787171 -0.014961103822567131 0 -0.18874747204970219 -0.028974905836781941 0 -0.20555212454711219 -0.022925237921517471 0 -0.20555212454711219 -0.022925237921517471 0 -0.21630961893328751 -0.01519709454307171 0 -0.22290571171937651 -0.026601576769118469 0 -0.20993853639106591 -0.0035380738047605968 0 -0.22684210307559549 -0.0077234896768903086 0 -0.21568563774484731 0.0082874278720449449 0 -0.20993853639106591 -0.0035380738047605968 0 -0.21630961893328751 -0.01519709454307171 0 -0.22684210307559549 -0.0077234896768903086 0 -0.20555212454711219 -0.022925237921517471 0 -0.20993853639106591 -0.0035380738047605968 0 -0.21630961893328751 -0.01519709454307171 0 -0.20993853639106591 -0.0035380738047605968 0 -0.22684210307559549 -0.0077234896768903086 0 -0.20335705558913081 -0.063140738221072371 0 -0.18476368522970901 -0.060313507398174523 0 -0.19607578221694649 -0.043845816873478577 0 -0.1792130821544009 -0.041655239440509813 0 -0.18874747204970219 -0.028974905836781941 0 -0.19607578221694649 -0.043845816873478577 0 -0.18874747204970219 -0.028974905836781941 0 -0.20555212454711219 -0.022925237921517471 0 -0.19607578221694649 -0.043845816873478577 0 -0.20555212454711219 -0.022925237921517471 0 -0.21856310265569601 -0.047427796698218422 0 -0.20555212454711219 -0.022925237921517471 0 -0.21856310265569601 -0.047427796698218422 0 -0.21896932036315811 -0.045479663861346789 0 -0.20555212454711219 -0.022925237921517471 0 -0.19607578221694649 -0.043845816873478577 0 -0.21856310265569601 -0.047427796698218422 0 -0.20555212454711219 -0.022925237921517471 0 -0.21896932036315811 -0.045479663861346789 0 -0.22290571171937651 -0.026601576769118469 0 -0.2137676172752207 -0.070425914128570383 0 -0.21856310265569601 -0.047427796698218422 0 -0.20335705558913081 -0.063140738221072371 0 -0.2137676172752207 -0.070425914128570383 0 -0.21856310265569601 -0.047427796698218422 0 -0.20335705558913081 -0.063140738221072371 0 -0.19607578221694649 -0.043845816873478577 0 -0.21856310265569601 -0.047427796698218422 0 -0.20335705558913081 -0.063140738221072371 0 -0.21856310265569601 -0.047427796698218422 0 -0.23144064811545881 -0.071679072189906365 0 -0.21856310265569601 -0.047427796698218422 0 -0.23092663332862359 -0.057189961691847993 0 -0.23144064811545881 -0.071679072189906365 0 -0.21856310265569601 -0.047427796698218422 0 -0.21856310265569601 -0.047427796698218422 0 -0.23092663332862359 -0.057189961691847993 0 -0.22458774444026389 -0.046948698447319907 0 -0.23092663332862359 -0.057189961691847993 0 -0.2320274706224234 -0.04981915803055513 0 -0.23892230415514151 -0.050781370399802413 0 -0.23092663332862359 -0.057189961691847993 0 -0.22458774444026389 -0.046948698447319907 0 -0.2320274706224234 -0.04981915803055513 0 -0.21896932036315811 -0.045479663861346789 0 -0.2306307955349908 -0.032287844280089482 0 -0.22290571171937651 -0.026601576769118469 0 -0.21896932036315811 -0.045479663861346789 0 -0.22290571171937651 -0.026601576769118469 0 -0.22458774444026389 -0.046948698447319907 0 -0.2320274706224234 -0.04981915803055513 0 -0.23529860714157019 -0.041169280456794459 0 -0.22458774444026389 -0.046948698447319907 0 -0.2306307955349908 -0.032287844280089482 0 -0.23529860714157019 -0.041169280456794459 0 -0.22458774444026389 -0.046948698447319907 0 -0.21896932036315811 -0.045479663861346789 0 -0.2306307955349908 -0.032287844280089482 0 -0.21856310265569601 -0.047427796698218422 0 -0.22458774444026389 -0.046948698447319907 0 -0.21896932036315811 -0.045479663861346789 0 -0.21856310265569601 -0.047427796698218422 0 -0.21896932036315811 -0.045479663861346789 0 -0.21896932036315811 -0.045479663861346789 0 -0.2306307955349908 -0.032287844280089482 0 -0.2306307955349908 -0.032287844280089482 0 -0.23529860714157019 -0.041169280456794459 0 -0.241537864008738 -0.030171217790278881 0 -0.24798951326795751 -0.035882587373858313 0 -0.23529860714157019 -0.041169280456794459 0 -0.241537864008738 -0.030171217790278881 0 -0.24798951326795751 -0.035882587373858313 0 -0.24357205858261219 -0.044359355700093257 0 -0.23529860714157019 -0.041169280456794459 0 -0.24798951326795751 -0.035882587373858313 0 -0.24357205858261219 -0.044359355700093257 0 -0.25238491957690051 -0.051022134359787842 0 -0.24357205858261219 -0.044359355700093257 0 -0.23529860714157019 -0.041169280456794459 0 -0.23892230415514151 -0.050781370399802413 0 -0.2466384096447127 -0.069214282175018252 0 -0.24006258296416741 -0.059977364163272567 0 -0.25238491957690051 -0.051022134359787842 0 -0.2320274706224234 -0.04981915803055513 0 -0.23529860714157019 -0.041169280456794459 0 -0.23892230415514151 -0.050781370399802413 0 -0.23892230415514151 -0.050781370399802413 0 -0.24006258296416741 -0.059977364163272567 0 -0.25238491957690051 -0.051022134359787842 0 -0.24357205858261219 -0.044359355700093257 0 -0.23892230415514151 -0.050781370399802413 0 -0.25238491957690051 -0.051022134359787842 0 -0.23092663332862359 -0.057189961691847993 0 -0.23892230415514151 -0.050781370399802413 0 -0.24006258296416741 -0.059977364163272567 0 -0.21630961893328751 -0.01519709454307171 0 -0.22684210307559549 -0.0077234896768903086 0 -0.22290571171937651 -0.026601576769118469 0 -0.22684210307559549 -0.0077234896768903086 0 -0.22290571171937651 -0.026601576769118469 0 -0.23226271327452069 -0.02198020745377605 0 -0.22684210307559549 -0.0077234896768903086 0 -0.22290571171937651 -0.026601576769118469 0 -0.2306307955349908 -0.032287844280089482 0 -0.22290571171937651 -0.026601576769118469 0 -0.23226271327452069 -0.02198020745377605 0 -0.22684210307559549 -0.0077234896768903086 0 -0.23226271327452069 -0.02198020745377605 0 -0.24229227070682269 -0.019096024698831499 0 -0.2306307955349908 -0.032287844280089482 0 -0.241537864008738 -0.030171217790278881 0 -0.24229227070682269 -0.019096024698831499 0 -0.2306307955349908 -0.032287844280089482 0 -0.23226271327452069 -0.02198020745377605 0 -0.24229227070682269 -0.019096024698831499 0 -0.2306307955349908 -0.032287844280089482 0 -0.24229227070682269 -0.019096024698831499 0 -0.24798951326795751 -0.035882587373858313 0 -0.241537864008738 -0.030171217790278881 0 -0.25387676547985721 -0.02452441136234379 0 -0.241537864008738 -0.030171217790278881 0 -0.24229227070682269 -0.019096024698831499 0 -0.25387676547985721 -0.02452441136234379 0 -0.24229227070682269 -0.019096024698831499 0 -0.24826461013585729 -0.013027819984466921 0 -0.25387676547985721 -0.02452441136234379 0 -0.22684210307559549 -0.0077234896768903086 0 -0.24826461013585729 -0.013027819984466921 0 -0.24598119983726671 0.0037338506766126851 0 -0.22684210307559549 -0.0077234896768903086 0 -0.24229227070682269 -0.019096024698831499 0 -0.24826461013585729 -0.013027819984466921 0 -0.22684210307559549 -0.0077234896768903086 0 -0.24826461013585729 -0.013027819984466921 0 -0.24826461013585729 -0.013027819984466921 0 -0.26003022337954462 -0.0038093911555793728 0 -0.24598119983726671 0.0037338506766126851 0 -0.24826461013585729 -0.013027819984466921 0 -0.26003022337954462 -0.0038093911555793728 0 -0.26968711719611937 -0.018332150292041979 0 -0.24826461013585729 -0.013027819984466921 0 -0.26968711719611937 -0.018332150292041979 0 -0.25387676547985721 -0.02452441136234379 0 -0.26968711719611937 -0.018332150292041979 0 -0.26155562347943467 -0.037861138146123199 0 -0.24826461013585729 -0.013027819984466921 0 -0.25387676547985721 -0.02452441136234379 0 -0.26968711719611937 -0.018332150292041979 0 -0.26968711719611937 -0.018332150292041979 0 -0.28953187906397732 -0.034281883787379987 0 -0.27524211720584768 -0.038538427260779863 0 -0.26003022337954462 -0.0038093911555793728 0 -0.26968711719611937 -0.018332150292041979 0 -0.27433688946420332 -0.0007833753365484626 0 -0.26968711719611937 -0.018332150292041979 0 -0.27433688946420332 -0.0007833753365484626 0 -0.28631392786639209 -0.0070506759659385472 0 -0.28631392786639209 -0.0070506759659385472 0 -0.29653674479957171 -0.021015146411400301 0 -0.3025805037907468 -0.0027432771802810229 0 -0.28631392786639209 -0.0070506759659385472 0 -0.3025805037907468 -0.0027432771802810229 0 -0.28842838408131971 0.0076205693905790281 0 -0.27433688946420332 -0.0007833753365484626 0 -0.28631392786639209 -0.0070506759659385472 0 -0.28842838408131971 0.0076205693905790281 0 -0.26968711719611937 -0.018332150292041979 0 -0.28631392786639209 -0.0070506759659385472 0 -0.29653674479957171 -0.021015146411400301 0 -0.26968711719611937 -0.018332150292041979 0 -0.29653674479957171 -0.021015146411400301 0 -0.28953187906397732 -0.034281883787379987 0 -0.29653674479957171 -0.021015146411400301 0 -0.28953187906397732 -0.034281883787379987 0 -0.31718310516035308 -0.038172790333745737 0 -0.29653674479957171 -0.021015146411400301 0 -0.31459326366374579 -0.01532774276474733 0 -0.31718310516035308 -0.038172790333745737 0 -0.29653674479957171 -0.021015146411400301 0 -0.3025805037907468 -0.0027432771802810229 0 -0.31459326366374579 -0.01532774276474733 0 -0.30229462048881822 -0.056161209871372138 0 -0.29850594913894141 -0.055440370537233663 0 -0.30849544073550722 -0.074776909133231664 0 -0.30229462048881822 -0.056161209871372138 0 -0.29366820665513949 -0.048519954280836622 0 -0.31370341578724742 -0.051143824177853653 0 -0.30229462048881822 -0.056161209871372138 0 -0.29850594913894141 -0.055440370537233663 0 -0.29366820665513949 -0.048519954280836622 0 -0.30229462048881822 -0.056161209871372138 0 -0.31629816603535338 -0.060261719535131632 0 -0.30229462048881822 -0.056161209871372138 0 -0.31178497446605258 -0.064623658022855565 0 -0.31629816603535338 -0.060261719535131632 0 -0.30229462048881822 -0.056161209871372138 0 -0.31370341578724742 -0.051143824177853653 0 -0.31629816603535338 -0.060261719535131632 0 -0.29366820665513949 -0.048519954280836622 0 -0.31718310516035308 -0.038172790333745737 0 -0.29366820665513949 -0.048519954280836622 0 -0.31718310516035308 -0.038172790333745737 0 -0.31370341578724742 -0.051143824177853653 0 -0.28953187906397732 -0.034281883787379987 0 -0.29366820665513949 -0.048519954280836622 0 -0.31718310516035308 -0.038172790333745737 0 -0.28953187906397732 -0.034281883787379987 0 -0.29366820665513949 -0.048519954280836622 0 -0.27524211720584768 -0.038538427260779863 0 -0.29366820665513949 -0.048519954280836622 0 -0.27015330814992611 -0.058867118227927437 0 -0.29366820665513949 -0.048519954280836622 0 -0.28660483069534037 -0.061918496488246169 0 -0.27015330814992611 -0.058867118227927437 0 -0.29850594913894141 -0.055440370537233663 0 -0.28660483069534037 -0.061918496488246169 0 -0.29557893925590151 -0.069462416794053169 0 -0.29850594913894141 -0.055440370537233663 0 -0.29366820665513949 -0.048519954280836622 0 -0.28660483069534037 -0.061918496488246169 0 -0.29366820665513949 -0.048519954280836622 0 -0.27015330814992611 -0.058867118227927437 0 -0.27524211720584768 -0.038538427260779863 0 -0.26968711719611937 -0.018332150292041979 0 -0.27524211720584768 -0.038538427260779863 0 -0.26155562347943467 -0.037861138146123199 0 -0.27015330814992611 -0.058867118227927437 0 -0.27524211720584768 -0.038538427260779863 0 -0.26155562347943467 -0.037861138146123199 0 -0.24798951326795751 -0.035882587373858313 0 -0.26155562347943467 -0.037861138146123199 0 -0.25238491957690051 -0.051022134359787842 0 -0.24798951326795751 -0.035882587373858313 0 -0.25387676547985721 -0.02452441136234379 0 -0.26155562347943467 -0.037861138146123199 0 -0.27015330814992611 -0.058867118227927437 0 -0.26155562347943467 -0.037861138146123199 0 -0.25238491957690051 -0.051022134359787842 0 -0.2466384096447127 -0.069214282175018252 0 -0.27015330814992611 -0.058867118227927437 0 -0.25238491957690051 -0.051022134359787842 0 -0.2466384096447127 -0.069214282175018252 0 -0.27015330814992611 -0.058867118227927437 0 -0.26102584033089798 -0.073534373921212107 0 -0.2466384096447127 -0.069214282175018252 0 -0.27015330814992611 -0.058867118227927437 0 -0.2466384096447127 -0.069214282175018252 0 -0.26102584033089798 -0.073534373921212107 0 -0.25106785873748549 -0.083001848322642804 0 -0.25106785873748549 -0.083001848322642804 0 -0.26431637422662529 -0.083961298504163229 0 -0.25687551172258971 -0.095275519396915032 0 -0.26431637422662529 -0.083961298504163229 0 -0.25687551172258971 -0.095275519396915032 0 -0.26922948176741379 -0.094556007429682482 0 -0.26102584033089798 -0.073534373921212107 0 -0.25106785873748549 -0.083001848322642804 0 -0.26431637422662529 -0.083961298504163229 0 -0.26431637422662529 -0.083961298504163229 0 -0.27622487875609619 -0.085738752979791055 0 -0.27411142324960069 -0.07331497732508381 0 -0.26431637422662529 -0.083961298504163229 0 -0.27622487875609619 -0.085738752979791055 0 -0.26922948176741379 -0.094556007429682482 0 -0.27622487875609619 -0.085738752979791055 0 -0.26922948176741379 -0.094556007429682482 0 -0.28208733676033698 -0.099544680508420066 0 -0.27622487875609619 -0.085738752979791055 0 -0.27411142324960069 -0.07331497732508381 0 -0.28634330733871821 -0.075869823829162894 0 -0.28660483069534037 -0.061918496488246169 0 -0.27015330814992611 -0.058867118227927437 0 -0.27411142324960069 -0.07331497732508381 0 -0.27015330814992611 -0.058867118227927437 0 -0.26102584033089798 -0.073534373921212107 0 -0.27411142324960069 -0.07331497732508381 0 -0.26102584033089798 -0.073534373921212107 0 -0.26431637422662529 -0.083961298504163229 0 -0.27411142324960069 -0.07331497732508381 0 -0.24959534238117709 -0.1078054475449232 0 -0.26009747564537128 -0.1202716976192799 0 -0.26511094786836592 -0.1069062435210571 0 -0.24959534238117709 -0.1078054475449232 0 -0.26511094786836592 -0.1069062435210571 0 -0.25687551172258971 -0.095275519396915032 0 -0.26511094786836592 -0.1069062435210571 0 -0.25687551172258971 -0.095275519396915032 0 -0.26922948176741379 -0.094556007429682482 0 -0.26511094786836592 -0.1069062435210571 0 -0.27676276389741278 -0.11052104179975 0 -0.28208733676033698 -0.099544680508420066 0 -0.26511094786836592 -0.1069062435210571 0 -0.26922948176741379 -0.094556007429682482 0 -0.28208733676033698 -0.099544680508420066 0 -0.26511094786836592 -0.1069062435210571 0 -0.28208733676033698 -0.099544680508420066 0 -0.26009747564537128 -0.1202716976192799 0 -0.28368315898475188 -0.1205679176925603 0 -0.26697405985724948 -0.1304210152969853 0 -0.26009747564537128 -0.1202716976192799 0 -0.27676276389741278 -0.11052104179975 0 -0.28368315898475188 -0.1205679176925603 0 -0.26009747564537128 -0.1202716976192799 0 -0.28368315898475188 -0.1205679176925603 0 -0.26009747564537128 -0.1202716976192799 0 -0.26511094786836592 -0.1069062435210571 0 -0.27676276389741278 -0.11052104179975 0 -0.28368315898475188 -0.1205679176925603 0 -0.30807566230962469 -0.12087427087378499 0 -0.28368315898475188 -0.1205679176925603 0 -0.29137344231852969 -0.1063755175941712 0 -0.30807566230962469 -0.12087427087378499 0 -0.27676276389741278 -0.11052104179975 0 -0.28368315898475188 -0.1205679176925603 0 -0.29137344231852969 -0.1063755175941712 0 -0.28368315898475188 -0.1205679176925603 0 -0.29137344231852969 -0.1063755175941712 0 -0.29137344231852969 -0.1063755175941712 0 -0.28208733676033698 -0.099544680508420066 0 -0.29906372565230788 -0.092183117495782341 0 -0.28208733676033698 -0.099544680508420066 0 -0.29906372565230788 -0.092183117495782341 0 -0.27676276389741278 -0.11052104179975 0 -0.29137344231852969 -0.1063755175941712 0 -0.28208733676033698 -0.099544680508420066 0 -0.29137344231852969 -0.1063755175941712 0 -0.29906372565230788 -0.092183117495782341 0 -0.30690970986333499 -0.10413412755240679 0 -0.29906372565230788 -0.092183117495782341 0 -0.31411573014289268 -0.085656035662949492 0 -0.29137344231852969 -0.1063755175941712 0 -0.30690970986333499 -0.10413412755240679 0 -0.29906372565230788 -0.092183117495782341 0 -0.28368315898475188 -0.1205679176925603 0 -0.30807566230962469 -0.12087427087378499 0 -0.30140371581860798 -0.1292511186866305 0 -0.29137344231852969 -0.1063755175941712 0 -0.30690970986333499 -0.10413412755240679 0 -0.30807566230962469 -0.12087427087378499 0 -0.29557893925590151 -0.069462416794053169 0 -0.28634330733871821 -0.075869823829162894 0 -0.29528406594296941 -0.079953964946478426 0 -0.28660483069534037 -0.061918496488246169 0 -0.29557893925590151 -0.069462416794053169 0 -0.28634330733871821 -0.075869823829162894 0 -0.28660483069534037 -0.061918496488246169 0 -0.27411142324960069 -0.07331497732508381 0 -0.28634330733871821 -0.075869823829162894 0 -0.27622487875609619 -0.085738752979791055 0 -0.28634330733871821 -0.075869823829162894 0 -0.28693891673241251 -0.08747755748016231 0 -0.28208733676033698 -0.099544680508420066 0 -0.28693891673241251 -0.08747755748016231 0 -0.29906372565230788 -0.092183117495782341 0 -0.27622487875609619 -0.085738752979791055 0 -0.28208733676033698 -0.099544680508420066 0 -0.28693891673241251 -0.08747755748016231 0 -0.28693891673241251 -0.08747755748016231 0 -0.29528406594296941 -0.079953964946478426 0 -0.29906372565230788 -0.092183117495782341 0 -0.28634330733871821 -0.075869823829162894 0 -0.28693891673241251 -0.08747755748016231 0 -0.29528406594296941 -0.079953964946478426 0 -0.29528406594296941 -0.079953964946478426 0 -0.29906372565230788 -0.092183117495782341 0 -0.30849544073550722 -0.074776909133231664 0 -0.29906372565230788 -0.092183117495782341 0 -0.30849544073550722 -0.074776909133231664 0 -0.29906372565230788 -0.092183117495782341 0 -0.30849544073550722 -0.074776909133231664 0 -0.31411573014289268 -0.085656035662949492 0 -0.29906372565230788 -0.092183117495782341 0 -0.31411573014289268 -0.085656035662949492 0 -0.30849544073550722 -0.074776909133231664 0 -0.31411573014289268 -0.085656035662949492 0 -0.30229462048881822 -0.056161209871372138 0 -0.30849544073550722 -0.074776909133231664 0 -0.31178497446605258 -0.064623658022855565 0 -0.29850594913894141 -0.055440370537233663 0 -0.29557893925590151 -0.069462416794053169 0 -0.30849544073550722 -0.074776909133231664 0 -0.30849544073550722 -0.074776909133231664 0 -0.31286059459191501 -0.066721027791507209 0 -0.29850594913894141 -0.055440370537233663 0 -0.30849544073550722 -0.074776909133231664 0 -0.29557893925590151 -0.069462416794053169 0 -0.29528406594296941 -0.079953964946478426 0 -0.30849544073550722 -0.074776909133231664 0 -0.30849544073550722 -0.074776909133231664 0 -0.31178497446605258 -0.064623658022855565 0 -0.31286059459191501 -0.066721027791507209 0 -0.31178497446605258 -0.064623658022855565 0 -0.31286059459191501 -0.066721027791507209 0 -0.31286059459191501 -0.066721027791507209 0 -0.32103296817657878 -0.082656476452658639 0 -0.31286059459191501 -0.066721027791507209 0 -0.32103296817657878 -0.082656476452658639 0 -0.32352590008436471 -0.062378140209921912 0 -0.31178497446605258 -0.064623658022855565 0 -0.31286059459191501 -0.066721027791507209 0 -0.31629816603535338 -0.060261719535131632 0 -0.30849544073550722 -0.074776909133231664 0 -0.31286059459191501 -0.066721027791507209 0 -0.32103296817657878 -0.082656476452658639 0 -0.31286059459191501 -0.066721027791507209 0 -0.31629816603535338 -0.060261719535131632 0 -0.31286059459191501 -0.066721027791507209 0 -0.31629816603535338 -0.060261719535131632 0 -0.32352590008436471 -0.062378140209921912 0 -0.32103296817657878 -0.082656476452658639 0 -0.33093834944883532 -0.101971145942244 0 -0.30849544073550722 -0.074776909133231664 0 -0.31411573014289268 -0.085656035662949492 0 -0.32103296817657878 -0.082656476452658639 0 -0.31411573014289268 -0.085656035662949492 0 -0.32103296817657878 -0.082656476452658639 0 -0.32329194788869442 -0.1034183298589804 0 -0.31411573014289268 -0.085656035662949492 0 -0.32103296817657878 -0.082656476452658639 0 -0.32103296817657878 -0.082656476452658639 0 -0.33692687914299491 -0.089632102483736459 0 -0.33093834944883532 -0.101971145942244 0 -0.32103296817657878 -0.082656476452658639 0 -0.33692687914299491 -0.089632102483736459 0 -0.3453529791357649 -0.07211045902320197 0 -0.32103296817657878 -0.082656476452658639 0 -0.3453529791357649 -0.07211045902320197 0 -0.32352590008436471 -0.062378140209921912 0 -0.34475717967991132 -0.068595070548471249 0 -0.3453529791357649 -0.07211045902320197 0 -0.32352590008436471 -0.062378140209921912 0 -0.34475717967991132 -0.068595070548471249 0 -0.32352590008436471 -0.062378140209921912 0 -0.32103296817657878 -0.082656476452658639 0 -0.3453529791357649 -0.07211045902320197 0 -0.30807566230962469 -0.12087427087378499 0 -0.32329194788869442 -0.1034183298589804 0 -0.33246816563449738 -0.1211806240550105 0 -0.30807566230962469 -0.12087427087378499 0 -0.33246816563449738 -0.1211806240550105 0 -0.30807566230962469 -0.12087427087378499 0 -0.32007374605487132 -0.12494213909402439 0 -0.33246816563449738 -0.1211806240550105 0 -0.30690970986333499 -0.10413412755240679 0 -0.30807566230962469 -0.12087427087378499 0 -0.32329194788869442 -0.1034183298589804 0 -0.32329194788869442 -0.1034183298589804 0 -0.33246816563449738 -0.1211806240550105 0 -0.32007374605487132 -0.12494213909402439 0 -0.33441303965894859 -0.1249452932850653 0 -0.30690970986333499 -0.10413412755240679 0 -0.31411573014289268 -0.085656035662949492 0 -0.32329194788869442 -0.1034183298589804 0 -0.32103296817657878 -0.082656476452658639 0 -0.32329194788869442 -0.1034183298589804 0 -0.33093834944883532 -0.101971145942244 0 -0.31411573014289268 -0.085656035662949492 0 -0.32329194788869442 -0.1034183298589804 0 -0.32329194788869442 -0.1034183298589804 0 -0.33093834944883532 -0.101971145942244 0 -0.33246816563449738 -0.1211806240550105 0 -0.33692687914299491 -0.089632102483736459 0 -0.33093834944883532 -0.101971145942244 0 -0.35038321981080389 -0.10179032851684799 0 -0.33093834944883532 -0.101971145942244 0 -0.34773438721257438 -0.1121772477149196 0 -0.35038321981080389 -0.10179032851684799 0 -0.33093834944883532 -0.101971145942244 0 -0.3408437307210912 -0.1212858154318297 0 -0.33093834944883532 -0.101971145942244 0 -0.3408437307210912 -0.1212858154318297 0 -0.33246816563449738 -0.1211806240550105 0 -0.33093834944883532 -0.101971145942244 0 -0.3408437307210912 -0.1212858154318297 0 -0.34773438721257438 -0.1121772477149196 0 -0.34272140335036932 -0.124947120862287 0 -0.3408437307210912 -0.1212858154318297 0 -0.33441303965894859 -0.1249452932850653 0 -0.3408437307210912 -0.1212858154318297 0 -0.33246816563449738 -0.1211806240550105 0 -0.34272140335036932 -0.124947120862287 0 -0.33441303965894859 -0.1249452932850653 0 -0.34272140335036932 -0.124947120862287 0 -0.3408437307210912 -0.1212858154318297 0 -0.32007374605487132 -0.12494213909402439 0 -0.33441303965894859 -0.1249452932850653 0 -0.33246816563449738 -0.1211806240550105 0 -0.3408437307210912 -0.1212858154318297 0 -0.33441303965894859 -0.1249452932850653 0 -0.33246816563449738 -0.1211806240550105 0 -0.33441303965894859 -0.1249452932850653 0 -0.33246816563449738 -0.1211806240550105 0 -0.34272140335036932 -0.124947120862287 0 -0.35433435295871402 -0.1214552484327875 0 -0.36893450279197471 -0.1249528869149899 0 -0.34272140335036932 -0.124947120862287 0 -0.36893450279197471 -0.1249528869149899 0 -0.3408437307210912 -0.1212858154318297 0 -0.35433435295871402 -0.1214552484327875 0 -0.3408437307210912 -0.1212858154318297 0 -0.35433435295871402 -0.1214552484327875 0 -0.34773438721257438 -0.1121772477149196 0 -0.34272140335036932 -0.124947120862287 0 -0.3408437307210912 -0.1212858154318297 0 -0.35433435295871402 -0.1214552484327875 0 -0.35433435295871402 -0.1214552484327875 0 -0.34773438721257438 -0.1121772477149196 0 -0.3623387343604032 -0.1125517513480446 0 -0.34773438721257438 -0.1121772477149196 0 -0.35038321981080389 -0.10179032851684799 0 -0.3623387343604032 -0.1125517513480446 0 -0.37380044498630338 -0.100392191664622 0 -0.3623387343604032 -0.1125517513480446 0 -0.3789649235099295 -0.11270856972454819 0 -0.35038321981080389 -0.10179032851684799 0 -0.37380044498630338 -0.100392191664622 0 -0.36747037526515469 -0.088210616938563927 0 -0.35038321981080389 -0.10179032851684799 0 -0.37380044498630338 -0.100392191664622 0 -0.3623387343604032 -0.1125517513480446 0 -0.3623387343604032 -0.1125517513480446 0 -0.36893450279197471 -0.1249528869149899 0 -0.3789649235099295 -0.11270856972454819 0 -0.35433435295871402 -0.1214552484327875 0 -0.3623387343604032 -0.1125517513480446 0 -0.36893450279197471 -0.1249528869149899 0 -0.34995192587724822 -0.070116192960804249 0 -0.35645509357982358 -0.081628608772215283 0 -0.36843110820579178 -0.075527255856609146 0 -0.34995192587724822 -0.070116192960804249 0 -0.36608399240098949 -0.063120758007335118 0 -0.35494834161021771 -0.06194377696909157 0 -0.34995192587724822 -0.070116192960804249 0 -0.36843110820579178 -0.075527255856609146 0 -0.34995192587724822 -0.070116192960804249 0 -0.36608399240098949 -0.063120758007335118 0 -0.34995192587724822 -0.070116192960804249 0 -0.34475717967991132 -0.068595070548471249 0 -0.35494834161021771 -0.06194377696909157 0 -0.34995192587724822 -0.070116192960804249 0 -0.34475717967991132 -0.068595070548471249 0 -0.34995192587724822 -0.070116192960804249 0 -0.34475717967991132 -0.068595070548471249 0 -0.3453529791357649 -0.07211045902320197 0 -0.34995192587724822 -0.070116192960804249 0 -0.3453529791357649 -0.07211045902320197 0 -0.34995192587724822 -0.070116192960804249 0 -0.3453529791357649 -0.07211045902320197 0 -0.35645509357982358 -0.081628608772215283 0 -0.34475717967991132 -0.068595070548471249 0 -0.3453529791357649 -0.07211045902320197 0 -0.35038321981080389 -0.10179032851684799 0 -0.35645509357982358 -0.081628608772215283 0 -0.36747037526515469 -0.088210616938563927 0 -0.35038321981080389 -0.10179032851684799 0 -0.3453529791357649 -0.07211045902320197 0 -0.35645509357982358 -0.081628608772215283 0 -0.33692687914299491 -0.089632102483736459 0 -0.35038321981080389 -0.10179032851684799 0 -0.3453529791357649 -0.07211045902320197 0 -0.35038321981080389 -0.10179032851684799 0 -0.3453529791357649 -0.07211045902320197 0 -0.36747037526515469 -0.088210616938563927 0 -0.36843110820579178 -0.075527255856609146 0 -0.38691029053433551 -0.080938318752413793 0 -0.35645509357982358 -0.081628608772215283 0 -0.36747037526515469 -0.088210616938563927 0 -0.36843110820579178 -0.075527255856609146 0 -0.34995192587724822 -0.070116192960804249 0 -0.36843110820579178 -0.075527255856609146 0 -0.36608399240098949 -0.063120758007335118 0 -0.36843110820579178 -0.075527255856609146 0 -0.36608399240098949 -0.063120758007335118 0 -0.37978412082390189 -0.068029865631836883 0 -0.36608399240098949 -0.063120758007335118 0 -0.37085155020467431 -0.050438611479832557 0 -0.38221605892473098 -0.056125323053866277 0 -0.36608399240098949 -0.063120758007335118 0 -0.38221605892473098 -0.056125323053866277 0 -0.37085155020467431 -0.050438611479832557 0 -0.36177701350261748 -0.054750595911384127 0 -0.36329546327126672 -0.041142767418341691 0 -0.36608399240098949 -0.063120758007335118 0 -0.36177701350261748 -0.054750595911384127 0 -0.35494834161021771 -0.06194377696909157 0 -0.36608399240098949 -0.063120758007335118 0 -0.37085155020467431 -0.050438611479832557 0 -0.36177701350261748 -0.054750595911384127 0 -0.36177701350261748 -0.054750595911384127 0 -0.35494834161021771 -0.06194377696909157 0 -0.35217159659032232 -0.05313626741746251 0 -0.34475717967991132 -0.068595070548471249 0 -0.35217159659032232 -0.05313626741746251 0 -0.34008173660725832 -0.04100860914713586 0 -0.36177701350261748 -0.054750595911384127 0 -0.35217159659032232 -0.05313626741746251 0 -0.36329546327126672 -0.041142767418341691 0 -0.34475717967991132 -0.068595070548471249 0 -0.35494834161021771 -0.06194377696909157 0 -0.35217159659032232 -0.05313626741746251 0 -0.35217159659032232 -0.05313626741746251 0 -0.35233090603521772 -0.034345905606361089 0 -0.36329546327126672 -0.041142767418341691 0 -0.35217159659032232 -0.05313626741746251 0 -0.35233090603521772 -0.034345905606361089 0 -0.34008173660725832 -0.04100860914713586 0 -0.35233090603521772 -0.034345905606361089 0 -0.34677261788783459 -0.022263095799622792 0 -0.34008173660725832 -0.04100860914713586 0 -0.35233090603521772 -0.034345905606361089 0 -0.36329546327126672 -0.041142767418341691 0 -0.36125368123050811 -0.029816691131076791 0 -0.36329546327126672 -0.041142767418341691 0 -0.37015544225173291 -0.03012439130571171 0 -0.36125368123050811 -0.029816691131076791 0 -0.37085155020467431 -0.050438611479832557 0 -0.36329546327126672 -0.041142767418341691 0 -0.37439980638912518 -0.038891661293645137 0 -0.36329546327126672 -0.041142767418341691 0 -0.37439980638912518 -0.038891661293645137 0 -0.37015544225173291 -0.03012439130571171 0 -0.37439980638912518 -0.038891661293645137 0 -0.37015544225173291 -0.03012439130571171 0 -0.37866743010551202 -0.02906954498465647 0 -0.37015544225173291 -0.03012439130571171 0 -0.37402384376206249 -0.023759624541515059 0 -0.37866743010551202 -0.02906954498465647 0 -0.37015544225173291 -0.03012439130571171 0 -0.37402384376206249 -0.023759624541515059 0 -0.36652472594663232 -0.022500501643346649 0 -0.37402384376206249 -0.023759624541515059 0 -0.37465439862472261 -0.016787835852634068 0 -0.36652472594663232 -0.022500501643346649 0 -0.37465439862472261 -0.016787835852634068 0 -0.36652472594663232 -0.022500501643346649 0 -0.3596530522362773 -0.017262546391789129 0 -0.36652472594663232 -0.022500501643346649 0 -0.3596530522362773 -0.017262546391789129 0 -0.35649867437881472 -0.022585523222405649 0 -0.36652472594663232 -0.022500501643346649 0 -0.36125368123050811 -0.029816691131076791 0 -0.35649867437881472 -0.022585523222405649 0 -0.37015544225173291 -0.03012439130571171 0 -0.36652472594663232 -0.022500501643346649 0 -0.36125368123050811 -0.029816691131076791 0 -0.37465439862472261 -0.016787835852634068 0 -0.3596530522362773 -0.017262546391789129 0 -0.34857824671955512 -0.007874197240844389 0 -0.37465439862472261 -0.016787835852634068 0 -0.3597652811465577 -0.0058215117475868012 0 -0.34857824671955512 -0.007874197240844389 0 -0.37465439862472261 -0.016787835852634068 0 -0.34857824671955512 -0.007874197240844389 0 -0.37126952376897032 -0.00085078512189483576 0 -0.36867541047690239 -0.006920070417115203 0 -0.36494834593608783 -0.001298186014321303 0 -0.37126952376897032 -0.00085078512189483576 0 -0.37464851222799189 -0.0076089195940836872 0 -0.37774077980655368 -0.001289555558904682 0 -0.37126952376897032 -0.00085078512189483576 0 -0.37464851222799189 -0.0076089195940836872 0 -0.36867541047690239 -0.006920070417115203 0 -0.37465439862472261 -0.016787835852634068 0 -0.36867541047690239 -0.006920070417115203 0 -0.3597652811465577 -0.0058215117475868012 0 -0.37465439862472261 -0.016787835852634068 0 -0.37464851222799189 -0.0076089195940836872 0 -0.36867541047690239 -0.006920070417115203 0 -0.36867541047690239 -0.006920070417115203 0 -0.3597652811465577 -0.0058215117475868012 0 -0.36494834593608783 -0.001298186014321303 0 -0.3597652811465577 -0.0058215117475868012 0 -0.36494834593608783 -0.001298186014321303 0 -0.35900139338342918 0.0020097317905480609 0 -0.3597652811465577 -0.0058215117475868012 0 -0.35221409618436439 -0.0049109655465913588 0 -0.34857824671955512 -0.007874197240844389 0 -0.3597652811465577 -0.0058215117475868012 0 -0.35509488683577939 -0.0004162838960613095 0 -0.35900139338342918 0.0020097317905480609 0 -0.3597652811465577 -0.0058215117475868012 0 -0.35509488683577939 -0.0004162838960613095 0 -0.35221409618436439 -0.0049109655465913588 0 -0.3596530522362773 -0.017262546391789129 0 -0.34857824671955512 -0.007874197240844389 0 -0.35200921551166209 -0.0165646739997149 0 -0.34857824671955512 -0.007874197240844389 0 -0.34618108527798752 -0.01472783018749277 0 -0.35200921551166209 -0.0165646739997149 0 -0.35233090603521772 -0.034345905606361089 0 -0.36125368123050811 -0.029816691131076791 0 -0.35649867437881472 -0.022585523222405649 0 -0.35233090603521772 -0.034345905606361089 0 -0.35649867437881472 -0.022585523222405649 0 -0.34677261788783459 -0.022263095799622792 0 -0.35649867437881472 -0.022585523222405649 0 -0.35200921551166209 -0.0165646739997149 0 -0.34677261788783459 -0.022263095799622792 0 -0.3596530522362773 -0.017262546391789129 0 -0.35649867437881472 -0.022585523222405649 0 -0.35200921551166209 -0.0165646739997149 0 -0.34618108527798752 -0.01472783018749277 0 -0.35200921551166209 -0.0165646739997149 0 -0.34677261788783459 -0.022263095799622792 0 -0.33540629353460438 -0.01342214774580049 0 -0.31718310516035308 -0.038172790333745737 0 -0.34008173660725832 -0.04100860914713586 0 -0.33540629353460438 -0.01342214774580049 0 -0.34008173660725832 -0.04100860914713586 0 -0.34677261788783459 -0.022263095799622792 0 -0.33540629353460438 -0.01342214774580049 0 -0.34008173660725832 -0.04100860914713586 0 -0.34618108527798752 -0.01472783018749277 0 -0.34677261788783459 -0.022263095799622792 0 -0.33540629353460438 -0.01342214774580049 0 -0.33540629353460438 -0.01342214774580049 0 -0.3204068892458079 -0.0014125807301150939 0 -0.33073085046195078 0.01416431365553468 0 -0.34857824671955512 -0.007874197240844389 0 -0.33540629353460438 -0.01342214774580049 0 -0.33073085046195078 0.01416431365553468 0 -0.34857824671955512 -0.007874197240844389 0 -0.34618108527798752 -0.01472783018749277 0 -0.33540629353460438 -0.01342214774580049 0 -0.3025805037907468 -0.0027432771802810229 0 -0.31459326366374579 -0.01532774276474733 0 -0.3204068892458079 -0.0014125807301150939 0 -0.33540629353460438 -0.01342214774580049 0 -0.31459326366374579 -0.01532774276474733 0 -0.3204068892458079 -0.0014125807301150939 0 -0.33540629353460438 -0.01342214774580049 0 -0.31459326366374579 -0.01532774276474733 0 -0.31718310516035308 -0.038172790333745737 0 -0.31718310516035308 -0.038172790333745737 0 -0.3268834079531176 -0.05023453433316457 0 -0.34008173660725832 -0.04100860914713586 0 -0.31718310516035308 -0.038172790333745737 0 -0.31370341578724742 -0.051143824177853653 0 -0.3268834079531176 -0.05023453433316457 0 -0.31370341578724742 -0.051143824177853653 0 -0.31629816603535338 -0.060261719535131632 0 -0.32352590008436471 -0.062378140209921912 0 -0.31629816603535338 -0.060261719535131632 0 -0.32352590008436471 -0.062378140209921912 0 -0.32352590008436471 -0.062378140209921912 0 -0.3268834079531176 -0.05023453433316457 0 -0.33381205608116321 -0.055554088559673351 0 -0.31370341578724742 -0.051143824177853653 0 -0.32352590008436471 -0.062378140209921912 0 -0.3268834079531176 -0.05023453433316457 0 -0.34475717967991132 -0.068595070548471249 0 -0.32352590008436471 -0.062378140209921912 0 -0.33381205608116321 -0.055554088559673351 0 -0.34475717967991132 -0.068595070548471249 0 -0.33381205608116321 -0.055554088559673351 0 -0.34008173660725832 -0.04100860914713586 0 -0.3268834079531176 -0.05023453433316457 0 -0.33381205608116321 -0.055554088559673351 0 -0.34008173660725832 -0.04100860914713586 0 -0.34475717967991132 -0.068595070548471249 0 -0.34008173660725832 -0.04100860914713586 0 -0.29131753467172561 -0.25675805269722002 0 -0.30769212114973271 -0.24578220261295139 0 -0.29241592956139478 -0.23974284613727589 0 -0.30769212114973271 -0.24578220261295139 0 -0.30829656048542242 -0.23127198481015249 0 -0.29241592956139478 -0.23974284613727589 0 -0.30829656048542242 -0.23127198481015249 0 -0.29279532374442052 -0.2217612167757172 0 -0.3129652712195421 -0.2114706657937139 0 -0.30829656048542242 -0.23127198481015249 0 -0.29279532374442052 -0.2217612167757172 0 -0.29241592956139478 -0.23974284613727589 0 -0.29279532374442052 -0.2217612167757172 0 -0.29241592956139478 -0.23974284613727589 0 -0.27798049023744681 -0.23352671123603991 0 -0.29279532374442052 -0.2217612167757172 0 -0.27798049023744681 -0.23352671123603991 0 -0.27449661508218531 -0.21747639879007349 0 -0.29131753467172561 -0.25675805269722002 0 -0.29241592956139478 -0.23974284613727589 0 -0.27722523139620658 -0.24922189107985179 0 -0.29241592956139478 -0.23974284613727589 0 -0.27722523139620658 -0.24922189107985179 0 -0.27798049023744681 -0.23352671123603991 0 -0.27722523139620658 -0.24922189107985179 0 -0.25992972331208369 -0.2410680052130979 0 -0.27798049023744681 -0.23352671123603991 0 -0.26398002587916253 -0.25656090854441049 0 -0.27722523139620658 -0.24922189107985179 0 -0.25992972331208369 -0.2410680052130979 0 -0.25992972331208369 -0.2410680052130979 0 -0.25674041691710447 -0.22108212323078871 0 -0.27798049023744681 -0.23352671123603991 0 -0.2377451423251814 -0.23136366228574551 0 -0.25992972331208369 -0.2410680052130979 0 -0.25674041691710447 -0.22108212323078871 0 -0.25674041691710447 -0.22108212323078871 0 -0.27798049023744681 -0.23352671123603991 0 -0.27449661508218531 -0.21747639879007349 0 -0.27449661508218531 -0.21747639879007349 0 -0.25644706280453389 -0.1995927939493197 0 -0.27817485521465529 -0.19463925610534399 0 -0.27449661508218531 -0.21747639879007349 0 -0.27817485521465529 -0.19463925610534399 0 -0.25674041691710447 -0.22108212323078871 0 -0.27449661508218531 -0.21747639879007349 0 -0.25644706280453389 -0.1995927939493197 0 -0.25644706280453389 -0.1995927939493197 0 -0.27817485521465529 -0.19463925610534399 0 -0.26629571781906192 -0.18034234132084431 0 -0.27817485521465529 -0.19463925610534399 0 -0.29367807880863189 -0.20345752952089671 0 -0.29386082525749962 -0.1848532680646672 0 -0.27449661508218531 -0.21747639879007349 0 -0.27817485521465529 -0.19463925610534399 0 -0.29367807880863189 -0.20345752952089671 0 -0.29279532374442052 -0.2217612167757172 0 -0.27449661508218531 -0.21747639879007349 0 -0.29367807880863189 -0.20345752952089671 0 -0.29279532374442052 -0.2217612167757172 0 -0.29367807880863189 -0.20345752952089671 0 -0.3129652712195421 -0.2114706657937139 0 -0.29367807880863189 -0.20345752952089671 0 -0.30717411826112789 -0.1920401195635244 0 -0.29386082525749962 -0.1848532680646672 0 -0.29367807880863189 -0.20345752952089671 0 -0.30717411826112789 -0.1920401195635244 0 -0.3129652712195421 -0.2114706657937139 0 -0.30551265723832022 -0.17938492804960809 0 -0.29677214667513702 -0.1677956617280158 0 -0.29386082525749962 -0.1848532680646672 0 -0.30717411826112789 -0.1920401195635244 0 -0.30551265723832022 -0.17938492804960809 0 -0.29386082525749962 -0.1848532680646672 0 -0.30717411826112789 -0.1920401195635244 0 -0.30551265723832022 -0.17938492804960809 0 -0.31489114071409963 -0.18333745750317351 0 -0.30551265723832022 -0.17938492804960809 0 -0.31220508881165993 -0.16846949012138551 0 -0.29677214667513702 -0.1677956617280158 0 -0.30551265723832022 -0.17938492804960809 0 -0.31220508881165993 -0.16846949012138551 0 -0.31489114071409963 -0.18333745750317351 0 -0.31220508881165993 -0.16846949012138551 0 -0.2949530938874384 -0.15245549241185349 0 -0.31498630483336881 -0.15987728715749039 0 -0.31220508881165993 -0.16846949012138551 0 -0.2949530938874384 -0.15245549241185349 0 -0.31220508881165993 -0.16846949012138551 0 -0.29677214667513702 -0.1677956617280158 0 -0.2949530938874384 -0.15245549241185349 0 -0.28185309534712533 -0.17180211342061449 0 -0.28553133547959519 -0.14896497073588499 0 -0.29677214667513702 -0.1677956617280158 0 -0.28185309534712533 -0.17180211342061449 0 -0.2949530938874384 -0.15245549241185349 0 -0.28185309534712533 -0.17180211342061449 0 -0.28553133547959519 -0.14896497073588499 0 -0.2949530938874384 -0.15245549241185349 0 -0.27817485521465529 -0.19463925610534399 0 -0.28185309534712533 -0.17180211342061449 0 -0.29386082525749962 -0.1848532680646672 0 -0.29677214667513702 -0.1677956617280158 0 -0.28185309534712533 -0.17180211342061449 0 -0.29386082525749962 -0.1848532680646672 0 -0.27817485521465529 -0.19463925610534399 0 -0.28185309534712533 -0.17180211342061449 0 -0.27817485521465529 -0.19463925610534399 0 -0.28185309534712533 -0.17180211342061449 0 -0.26629571781906192 -0.18034234132084431 0 -0.26629571781906192 -0.18034234132084431 0 -0.25029992488695979 -0.1782534950292988 0 -0.25761979100978533 -0.16665415002795461 0 -0.25644706280453389 -0.1995927939493197 0 -0.26629571781906192 -0.18034234132084431 0 -0.25029992488695979 -0.1782534950292988 0 -0.26629571781906192 -0.18034234132084431 0 -0.25761979100978533 -0.16665415002795461 0 -0.26933386928146391 -0.16300442301689841 0 -0.24825300788518309 -0.1555077779107997 0 -0.25761979100978533 -0.16665415002795461 0 -0.26108146703715113 -0.15708396540124031 0 -0.25761979100978533 -0.16665415002795461 0 -0.26108146703715113 -0.15708396540124031 0 -0.26933386928146391 -0.16300442301689841 0 -0.28185309534712533 -0.17180211342061449 0 -0.27598770130958522 -0.15333886838191951 0 -0.28553133547959519 -0.14896497073588499 0 -0.28185309534712533 -0.17180211342061449 0 -0.26629571781906192 -0.18034234132084431 0 -0.26933386928146391 -0.16300442301689841 0 -0.26108146703715113 -0.15708396540124031 0 -0.26933386928146391 -0.16300442301689841 0 -0.26726071412102442 -0.15087550168963329 0 -0.28185309534712533 -0.17180211342061449 0 -0.26933386928146391 -0.16300442301689841 0 -0.27598770130958522 -0.15333886838191951 0 -0.27598770130958522 -0.15333886838191951 0 -0.271177428866754 -0.14364721368904659 0 -0.28553133547959519 -0.14896497073588499 0 -0.271177428866754 -0.14364721368904659 0 -0.28662611268527088 -0.1421678116724244 0 -0.28553133547959519 -0.14896497073588499 0 -0.271177428866754 -0.14364721368904659 0 -0.28553133547959519 -0.14896497073588499 0 -0.271177428866754 -0.14364721368904659 0 -0.26726071412102442 -0.15087550168963329 0 -0.25891484533836889 -0.13910423861407881 0 -0.271177428866754 -0.14364721368904659 0 -0.26726071412102442 -0.15087550168963329 0 -0.27598770130958522 -0.15333886838191951 0 -0.271177428866754 -0.14364721368904659 0 -0.26726071412102442 -0.15087550168963329 0 -0.26933386928146391 -0.16300442301689841 0 -0.27598770130958522 -0.15333886838191951 0 -0.26726071412102442 -0.15087550168963329 0 -0.2405789555143194 -0.1375116727892334 0 -0.25601133851015478 -0.1487044986697981 0 -0.25891484533836889 -0.13910423861407881 0 -0.26108146703715113 -0.15708396540124031 0 -0.26726071412102442 -0.15087550168963329 0 -0.25601133851015478 -0.1487044986697981 0 -0.271177428866754 -0.14364721368904659 0 -0.25891484533836889 -0.13910423861407881 0 -0.26726071412102442 -0.15087550168963329 0 -0.25601133851015478 -0.1487044986697981 0 -0.25891484533836889 -0.13910423861407881 0 -0.24825300788518309 -0.1555077779107997 0 -0.26108146703715113 -0.15708396540124031 0 -0.25601133851015478 -0.1487044986697981 0 -0.26009747564537128 -0.1202716976192799 0 -0.25054446979338107 -0.12912519928877991 0 -0.26697405985724948 -0.1304210152969853 0 -0.25054446979338107 -0.12912519928877991 0 -0.25891484533836889 -0.13910423861407881 0 -0.26697405985724948 -0.1304210152969853 0 -0.2405789555143194 -0.1375116727892334 0 -0.25054446979338107 -0.12912519928877991 0 -0.25891484533836889 -0.13910423861407881 0 -0.28368315898475188 -0.1205679176925603 0 -0.271177428866754 -0.14364721368904659 0 -0.26697405985724948 -0.1304210152969853 0 -0.28368315898475188 -0.1205679176925603 0 -0.271177428866754 -0.14364721368904659 0 -0.28514813781506088 -0.1345929107172644 0 -0.28368315898475188 -0.1205679176925603 0 -0.271177428866754 -0.14364721368904659 0 -0.271177428866754 -0.14364721368904659 0 -0.25891484533836889 -0.13910423861407881 0 -0.26697405985724948 -0.1304210152969853 0 -0.271177428866754 -0.14364721368904659 0 -0.28514813781506088 -0.1345929107172644 0 -0.28662611268527088 -0.1421678116724244 0 -0.28368315898475188 -0.1205679176925603 0 -0.29492821592448881 -0.13453805291007029 0 -0.28514813781506088 -0.1345929107172644 0 -0.28368315898475188 -0.1205679176925603 0 -0.29492821592448881 -0.13453805291007029 0 -0.30140371581860798 -0.1292511186866305 0 -0.29492821592448881 -0.13453805291007029 0 -0.2912775948780732 -0.1389862943003273 0 -0.28514813781506088 -0.1345929107172644 0 -0.29657756063899582 -0.140013172184488 0 -0.29492821592448881 -0.13453805291007029 0 -0.2912775948780732 -0.1389862943003273 0 -0.2912775948780732 -0.1389862943003273 0 -0.28514813781506088 -0.1345929107172644 0 -0.28662611268527088 -0.1421678116724244 0 -0.28662611268527088 -0.1421678116724244 0 -0.28553133547959519 -0.14896497073588499 0 -0.28662611268527088 -0.1421678116724244 0 -0.28553133547959519 -0.14896497073588499 0 -0.28937009998544028 -0.14621975116982991 0 -0.28553133547959519 -0.14896497073588499 0 -0.2922536480049423 -0.1499497578362777 0 -0.28937009998544028 -0.14621975116982991 0 -0.28553133547959519 -0.14896497073588499 0 -0.2922536480049423 -0.1499497578362777 0 -0.2949530938874384 -0.15245549241185349 0 -0.28553133547959519 -0.14896497073588499 0 -0.2949530938874384 -0.15245549241185349 0 -0.2922536480049423 -0.1499497578362777 0 -0.2949530938874384 -0.15245549241185349 0 -0.29617843115691228 -0.14802272380236281 0 -0.2922536480049423 -0.1499497578362777 0 -0.2949530938874384 -0.15245549241185349 0 -0.2912775948780732 -0.1389862943003273 0 -0.28662611268527088 -0.1421678116724244 0 -0.29310794732654949 -0.1436195240173895 0 -0.28662611268527088 -0.1421678116724244 0 -0.28937009998544028 -0.14621975116982991 0 -0.29310794732654949 -0.1436195240173895 0 -0.2922536480049423 -0.1499497578362777 0 -0.28937009998544028 -0.14621975116982991 0 -0.29310794732654949 -0.1436195240173895 0 -0.29617843115691228 -0.14802272380236281 0 -0.29310794732654949 -0.1436195240173895 0 -0.29956135480037449 -0.14472193576336759 0 -0.2922536480049423 -0.1499497578362777 0 -0.29617843115691228 -0.14802272380236281 0 -0.29310794732654949 -0.1436195240173895 0 -0.29657756063899582 -0.140013172184488 0 -0.2912775948780732 -0.1389862943003273 0 -0.29310794732654949 -0.1436195240173895 0 -0.29657756063899582 -0.140013172184488 0 -0.29310794732654949 -0.1436195240173895 0 -0.29956135480037449 -0.14472193576336759 0 -0.29956135480037449 -0.14472193576336759 0 -0.30554397810907652 -0.146919348525368 0 -0.30456114821214081 -0.13888567554976469 0 -0.2949530938874384 -0.15245549241185349 0 -0.30620642865757891 -0.15285211384445899 0 -0.31498630483336881 -0.15987728715749039 0 -0.2949530938874384 -0.15245549241185349 0 -0.31498630483336881 -0.15987728715749039 0 -0.29657756063899582 -0.140013172184488 0 -0.29956135480037449 -0.14472193576336759 0 -0.30456114821214081 -0.13888567554976469 0 -0.29617843115691228 -0.14802272380236281 0 -0.29956135480037449 -0.14472193576336759 0 -0.30052761464898298 -0.14908162957255741 0 -0.29956135480037449 -0.14472193576336759 0 -0.30052761464898298 -0.14908162957255741 0 -0.30554397810907652 -0.146919348525368 0 -0.2949530938874384 -0.15245549241185349 0 -0.30052761464898298 -0.14908162957255741 0 -0.30620642865757891 -0.15285211384445899 0 -0.2949530938874384 -0.15245549241185349 0 -0.29617843115691228 -0.14802272380236281 0 -0.30052761464898298 -0.14908162957255741 0 -0.30052761464898298 -0.14908162957255741 0 -0.30620642865757891 -0.15285211384445899 0 -0.30554397810907652 -0.146919348525368 0 -0.30620642865757891 -0.15285211384445899 0 -0.31211863317072019 -0.1538765410016501 0 -0.31498630483336881 -0.15987728715749039 0 -0.30620642865757891 -0.15285211384445899 0 -0.31071230574427161 -0.15022116190891349 0 -0.30554397810907652 -0.146919348525368 0 -0.30620642865757891 -0.15285211384445899 0 -0.31071230574427161 -0.15022116190891349 0 -0.31211863317072019 -0.1538765410016501 0 -0.31246836027323899 -0.14497521722301901 0 -0.31246708178415561 -0.13872402753426441 0 -0.30456114821214081 -0.13888567554976469 0 -0.30554397810907652 -0.146919348525368 0 -0.31246836027323899 -0.14497521722301901 0 -0.30456114821214081 -0.13888567554976469 0 -0.31071230574427161 -0.15022116190891349 0 -0.30554397810907652 -0.146919348525368 0 -0.31246836027323899 -0.14497521722301901 0 -0.30140371581860798 -0.1292511186866305 0 -0.30456114821214081 -0.13888567554976469 0 -0.31280589771709483 -0.13181614145056869 0 -0.31246708178415561 -0.13872402753426441 0 -0.30456114821214081 -0.13888567554976469 0 -0.31280589771709483 -0.13181614145056869 0 -0.30807566230962469 -0.12087427087378499 0 -0.30140371581860798 -0.1292511186866305 0 -0.31280589771709483 -0.13181614145056869 0 -0.29657756063899582 -0.140013172184488 0 -0.29492821592448881 -0.13453805291007029 0 -0.30456114821214081 -0.13888567554976469 0 -0.29492821592448881 -0.13453805291007029 0 -0.30140371581860798 -0.1292511186866305 0 -0.30456114821214081 -0.13888567554976469 0 -0.3226930215385343 -0.13395567837890529 0 -0.31855308997834159 -0.13934265221991729 0 -0.32506280578504959 -0.14064102607364051 0 -0.3226930215385343 -0.13395567837890529 0 -0.32506280578504959 -0.14064102607364051 0 -0.33047387389575927 -0.1369340691945744 0 -0.3226930215385343 -0.13395567837890529 0 -0.32807010768985068 -0.12986880773923029 0 -0.33047387389575927 -0.1369340691945744 0 -0.32007374605487132 -0.12494213909402439 0 -0.33441303965894859 -0.1249452932850653 0 -0.32807010768985068 -0.12986880773923029 0 -0.32007374605487132 -0.12494213909402439 0 -0.3226930215385343 -0.13395567837890529 0 -0.32807010768985068 -0.12986880773923029 0 -0.32007374605487132 -0.12494213909402439 0 -0.3226930215385343 -0.13395567837890529 0 -0.31280589771709483 -0.13181614145056869 0 -0.30807566230962469 -0.12087427087378499 0 -0.32007374605487132 -0.12494213909402439 0 -0.31280589771709483 -0.13181614145056869 0 -0.3226930215385343 -0.13395567837890529 0 -0.31280589771709483 -0.13181614145056869 0 -0.31855308997834159 -0.13934265221991729 0 -0.31246708178415561 -0.13872402753426441 0 -0.31280589771709483 -0.13181614145056869 0 -0.31855308997834159 -0.13934265221991729 0 -0.31246836027323899 -0.14497521722301901 0 -0.31246708178415561 -0.13872402753426441 0 -0.31855308997834159 -0.13934265221991729 0 -0.31246836027323899 -0.14497521722301901 0 -0.31855308997834159 -0.13934265221991729 0 -0.32096396999162452 -0.14503749675666289 0 -0.31246836027323899 -0.14497521722301901 0 -0.31722412851074311 -0.15248258895007169 0 -0.32096396999162452 -0.14503749675666289 0 -0.31211863317072019 -0.1538765410016501 0 -0.31722412851074311 -0.15248258895007169 0 -0.31498630483336881 -0.15987728715749039 0 -0.31071230574427161 -0.15022116190891349 0 -0.31246836027323899 -0.14497521722301901 0 -0.31722412851074311 -0.15248258895007169 0 -0.31071230574427161 -0.15022116190891349 0 -0.31211863317072019 -0.1538765410016501 0 -0.31722412851074311 -0.15248258895007169 0 -0.32096396999162452 -0.14503749675666289 0 -0.32506280578504959 -0.14064102607364051 0 -0.33039285730051032 -0.1475567648151897 0 -0.31722412851074311 -0.15248258895007169 0 -0.32096396999162452 -0.14503749675666289 0 -0.33039285730051032 -0.1475567648151897 0 -0.31855308997834159 -0.13934265221991729 0 -0.32096396999162452 -0.14503749675666289 0 -0.32506280578504959 -0.14064102607364051 0 -0.33039285730051032 -0.1475567648151897 0 -0.33813688440009898 -0.15615522653291031 0 -0.34198145815712638 -0.1395953898376964 0 -0.32506280578504959 -0.14064102607364051 0 -0.33039285730051032 -0.1475567648151897 0 -0.33047387389575927 -0.1369340691945744 0 -0.31722412851074311 -0.15248258895007169 0 -0.33039285730051032 -0.1475567648151897 0 -0.33813688440009898 -0.15615522653291031 0 -0.33039285730051032 -0.1475567648151897 0 -0.34198145815712638 -0.1395953898376964 0 -0.33047387389575927 -0.1369340691945744 0 -0.33813688440009898 -0.15615522653291031 0 -0.34198145815712638 -0.1395953898376964 0 -0.34954987665533299 -0.15424548639031271 0 -0.34198145815712638 -0.1395953898376964 0 -0.3337346198504213 -0.1328358900141379 0 -0.33047387389575927 -0.1369340691945744 0 -0.32807010768985068 -0.12986880773923029 0 -0.3337346198504213 -0.1328358900141379 0 -0.33047387389575927 -0.1369340691945744 0 -0.33441303965894859 -0.1249452932850653 0 -0.32807010768985068 -0.12986880773923029 0 -0.3337346198504213 -0.1328358900141379 0 -0.33441303965894859 -0.1249452932850653 0 -0.34198145815712638 -0.1395953898376964 0 -0.34272140335036932 -0.124947120862287 0 -0.33441303965894859 -0.1249452932850653 0 -0.34198145815712638 -0.1395953898376964 0 -0.33441303965894859 -0.1249452932850653 0 -0.34198145815712638 -0.1395953898376964 0 -0.3337346198504213 -0.1328358900141379 0 -0.34272140335036932 -0.124947120862287 0 -0.35413341494744088 -0.14719959415449421 0 -0.34272140335036932 -0.124947120862287 0 -0.35599685079288468 -0.13305792836185981 0 -0.35413341494744088 -0.14719959415449421 0 -0.34272140335036932 -0.124947120862287 0 -0.34198145815712638 -0.1395953898376964 0 -0.35413341494744088 -0.14719959415449421 0 -0.34272140335036932 -0.124947120862287 0 -0.36893450279197471 -0.1249528869149899 0 -0.35599685079288468 -0.13305792836185981 0 -0.35599685079288468 -0.13305792836185981 0 -0.36484224068191412 -0.14157370685753851 0 -0.35413341494744088 -0.14719959415449421 0 -0.36893450279197471 -0.1249528869149899 0 -0.35599685079288468 -0.13305792836185981 0 -0.36484224068191412 -0.14157370685753851 0 -0.36893450279197471 -0.1249528869149899 0 -0.36484224068191412 -0.14157370685753851 0 -0.3777566452334315 -0.14913711856379011 0 -0.3679743334396014 -0.15408772885571331 0 -0.37696591512674532 -0.1609827341034305 0 -0.3777566452334315 -0.14913711856379011 0 -0.3679743334396014 -0.15408772885571331 0 -0.36484224068191412 -0.14157370685753851 0 -0.3777566452334315 -0.14913711856379011 0 -0.3679743334396014 -0.15408772885571331 0 -0.36484224068191412 -0.14157370685753851 0 -0.35413341494744088 -0.14719959415449421 0 -0.35413341494744088 -0.14719959415449421 0 -0.34954987665533299 -0.15424548639031271 0 -0.35445721343992059 -0.1619675590177023 0 -0.34198145815712638 -0.1395953898376964 0 -0.34954987665533299 -0.15424548639031271 0 -0.34198145815712638 -0.1395953898376964 0 -0.35413341494744088 -0.14719959415449421 0 -0.34954987665533299 -0.15424548639031271 0 -0.33813688440009898 -0.15615522653291031 0 -0.34954987665533299 -0.15424548639031271 0 -0.34648545334868369 -0.16311147615285329 0 -0.34648545334868369 -0.16311147615285329 0 -0.35788001493839611 -0.17576831496813999 0 -0.33501951577929873 -0.16729908190312789 0 -0.34954987665533299 -0.15424548639031271 0 -0.34648545334868369 -0.16311147615285329 0 -0.35445721343992059 -0.1619675590177023 0 -0.35413341494744088 -0.14719959415449421 0 -0.35445721343992059 -0.1619675590177023 0 -0.36554542654456429 -0.16945206744667471 0 -0.35788001493839611 -0.17576831496813999 0 -0.33501951577929873 -0.16729908190312789 0 -0.34648545334868369 -0.16311147615285329 0 -0.35445721343992059 -0.1619675590177023 0 -0.35788001493839611 -0.17576831496813999 0 -0.35445721343992059 -0.1619675590177023 0 -0.36554542654456429 -0.16945206744667471 0 -0.35788001493839611 -0.17576831496813999 0 -0.35413341494744088 -0.14719959415449421 0 -0.36554542654456429 -0.16945206744667471 0 -0.3679743334396014 -0.15408772885571331 0 -0.35413341494744088 -0.14719959415449421 0 -0.36554542654456429 -0.16945206744667471 0 -0.3679743334396014 -0.15408772885571331 0 -0.36554542654456429 -0.16945206744667471 0 -0.37696591512674532 -0.1609827341034305 0 -0.37016556171889331 -0.18126023377528719 0 -0.3536864721015115 -0.18284124587119119 0 -0.37235342842372432 -0.19838340983925429 0 -0.36554542654456429 -0.16945206744667471 0 -0.37016556171889331 -0.18126023377528719 0 -0.38426477739238413 -0.17192867897072969 0 -0.37016556171889331 -0.18126023377528719 0 -0.3536864721015115 -0.18284124587119119 0 -0.35788001493839611 -0.17576831496813999 0 -0.36554542654456429 -0.16945206744667471 0 -0.37016556171889331 -0.18126023377528719 0 -0.35788001493839611 -0.17576831496813999 0 -0.3536864721015115 -0.18284124587119119 0 -0.33501951577929873 -0.16729908190312789 0 -0.3536864721015115 -0.18284124587119119 0 -0.35788001493839611 -0.17576831496813999 0 -0.33501951577929873 -0.16729908190312789 0 -0.3536864721015115 -0.18284124587119119 0 -0.32945708373588178 -0.18448348783091689 0 -0.33501951577929873 -0.16729908190312789 0 -0.31722412851074311 -0.15248258895007169 0 -0.33813688440009898 -0.15615522653291031 0 -0.33501951577929873 -0.16729908190312789 0 -0.33813688440009898 -0.15615522653291031 0 -0.34648545334868369 -0.16311147615285329 0 -0.33501951577929873 -0.16729908190312789 0 -0.31722412851074311 -0.15248258895007169 0 -0.33501951577929873 -0.16729908190312789 0 -0.31722412851074311 -0.15248258895007169 0 -0.33501951577929873 -0.16729908190312789 0 -0.31498630483336881 -0.15987728715749039 0 -0.31220508881165993 -0.16846949012138551 0 -0.33501951577929873 -0.16729908190312789 0 -0.31498630483336881 -0.15987728715749039 0 -0.33501951577929873 -0.16729908190312789 0 -0.31498630483336881 -0.15987728715749039 0 -0.31220508881165993 -0.16846949012138551 0 -0.32945708373588178 -0.18448348783091689 0 -0.31489114071409963 -0.18333745750317351 0 -0.31220508881165993 -0.16846949012138551 0 -0.32945708373588178 -0.18448348783091689 0 -0.31220508881165993 -0.16846949012138551 0 -0.32945708373588178 -0.18448348783091689 0 -0.33501951577929873 -0.16729908190312789 0 -0.32945708373588178 -0.18448348783091689 0 -0.31489114071409963 -0.18333745750317351 0 -0.32010675552350842 -0.19230926195043291 0 -0.30717411826112789 -0.1920401195635244 0 -0.32010675552350842 -0.19230926195043291 0 -0.3129652712195421 -0.2114706657937139 0 -0.32945708373588178 -0.18448348783091689 0 -0.32010675552350842 -0.19230926195043291 0 -0.32566449460190838 -0.20326261146105551 0 -0.32010675552350842 -0.19230926195043291 0 -0.3129652712195421 -0.2114706657937139 0 -0.32566449460190838 -0.20326261146105551 0 -0.30717411826112789 -0.1920401195635244 0 -0.31489114071409963 -0.18333745750317351 0 -0.32010675552350842 -0.19230926195043291 0 -0.3129652712195421 -0.2114706657937139 0 -0.32566449460190838 -0.20326261146105551 0 -0.33208474862113468 -0.21873250337862821 0 -0.33208474862113468 -0.21873250337862821 0 -0.34670907866010381 -0.20049748554044841 0 -0.34896881396179619 -0.22434135344573131 0 -0.32566449460190838 -0.20326261146105551 0 -0.33208474862113468 -0.21873250337862821 0 -0.34670907866010381 -0.20049748554044841 0 -0.3536864721015115 -0.18284124587119119 0 -0.32945708373588178 -0.18448348783091689 0 -0.34670907866010381 -0.20049748554044841 0 -0.32945708373588178 -0.18448348783091689 0 -0.32566449460190838 -0.20326261146105551 0 -0.34670907866010381 -0.20049748554044841 0 -0.32945708373588178 -0.18448348783091689 0 -0.34670907866010381 -0.20049748554044841 0 -0.3536864721015115 -0.18284124587119119 0 -0.35917751319241631 -0.19955840612521841 0 -0.34670907866010381 -0.20049748554044841 0 -0.3536864721015115 -0.18284124587119119 0 -0.37235342842372432 -0.19838340983925429 0 -0.3536864721015115 -0.18284124587119119 0 -0.35917751319241631 -0.19955840612521841 0 -0.37235342842372432 -0.19838340983925429 0 -0.37235342842372432 -0.19838340983925429 0 -0.36396107358432572 -0.21651148324997979 0 -0.37772562505684643 -0.22219038377974651 0 -0.35917751319241631 -0.19955840612521841 0 -0.37235342842372432 -0.19838340983925429 0 -0.36396107358432572 -0.21651148324997979 0 -0.34670907866010381 -0.20049748554044841 0 -0.36396107358432572 -0.21651148324997979 0 -0.34896881396179619 -0.22434135344573131 0 -0.34670907866010381 -0.20049748554044841 0 -0.36396107358432572 -0.21651148324997979 0 -0.35917751319241631 -0.19955840612521841 0 -0.34670907866010381 -0.20049748554044841 0 -0.36396107358432572 -0.21651148324997979 0 -0.34896881396179619 -0.22434135344573131 0 -0.36764811873304098 -0.23322730847002751 0 -0.35305879752332059 -0.24486073726717009 0 -0.36396107358432572 -0.21651148324997979 0 -0.36764811873304098 -0.23322730847002751 0 -0.37772562505684643 -0.22219038377974651 0 -0.36396107358432572 -0.21651148324997979 0 -0.34896881396179619 -0.22434135344573131 0 -0.36764811873304098 -0.23322730847002751 0 -0.37533687834285862 -0.25417213976024849 0 -0.36764811873304098 -0.23322730847002751 0 -0.35305879752332059 -0.24486073726717009 0 -0.34896881396179619 -0.22434135344573131 0 -0.35305879752332059 -0.24486073726717009 0 -0.33568364413539042 -0.23615154195274179 0 -0.33623326073948312 -0.25365348176558788 0 -0.33568364413539042 -0.23615154195274179 0 -0.32213598881581812 -0.2442700999577708 0 -0.33623326073948312 -0.25365348176558788 0 -0.35305879752332059 -0.24486073726717009 0 -0.33568364413539042 -0.23615154195274179 0 -0.33208474862113468 -0.21873250337862821 0 -0.33568364413539042 -0.23615154195274179 0 -0.32219037366776621 -0.22897372759534659 0 -0.33208474862113468 -0.21873250337862821 0 -0.34896881396179619 -0.22434135344573131 0 -0.33568364413539042 -0.23615154195274179 0 -0.30829656048542242 -0.23127198481015249 0 -0.3129652712195421 -0.2114706657937139 0 -0.32219037366776621 -0.22897372759534659 0 -0.3129652712195421 -0.2114706657937139 0 -0.33208474862113468 -0.21873250337862821 0 -0.32219037366776621 -0.22897372759534659 0 -0.30769212114973271 -0.24578220261295139 0 -0.30829656048542242 -0.23127198481015249 0 -0.32213598881581812 -0.2442700999577708 0 -0.30829656048542242 -0.23127198481015249 0 -0.32219037366776621 -0.22897372759534659 0 -0.32213598881581812 -0.2442700999577708 0 -0.31968345090478489 -0.25798973640781447 0 -0.30769212114973271 -0.24578220261295139 0 -0.32213598881581812 -0.2442700999577708 0 -0.33568364413539042 -0.23615154195274179 0 -0.32219037366776621 -0.22897372759534659 0 -0.32213598881581812 -0.2442700999577708 0 -0.43598079583492633 -0.24721882136819351 0 -0.42311134176242837 -0.2304528026464861 0 -0.41615383063077721 -0.2466412503256647 0 -0.43598079583492633 -0.24721882136819351 0 -0.42311134176242837 -0.2304528026464861 0 -0.43908324849522451 -0.2287046610080686 0 -0.42311134176242837 -0.2304528026464861 0 -0.41411505562058892 -0.2091502018577929 0 -0.42948217154750851 -0.21815887616964899 0 -0.42311134176242837 -0.2304528026464861 0 -0.42948217154750851 -0.21815887616964899 0 -0.43908324849522451 -0.2287046610080686 0 -0.42948217154750851 -0.21815887616964899 0 -0.43955036875351089 -0.21658504913102711 0 -0.43908324849522451 -0.2287046610080686 0 -0.40619246279161347 -0.2313797712556602 0 -0.41411505562058892 -0.2091502018577929 0 -0.42311134176242837 -0.2304528026464861 0 -0.40619246279161347 -0.2313797712556602 0 -0.41411505562058892 -0.2091502018577929 0 -0.39826986996263802 -0.25360934065352753 0 -0.41615383063077721 -0.2466412503256647 0 -0.40619246279161347 -0.2313797712556602 0 -0.42311134176242837 -0.2304528026464861 0 -0.41615383063077721 -0.2466412503256647 0 -0.40619246279161347 -0.2313797712556602 0 -0.39826986996263802 -0.25360934065352753 0 -0.38632210934187061 -0.2364082567837591 0 -0.40619246279161347 -0.2313797712556602 0 -0.39826986996263802 -0.25360934065352753 0 -0.40619246279161347 -0.2313797712556602 0 -0.37533687834285862 -0.25417213976024849 0 -0.36764811873304098 -0.23322730847002751 0 -0.38632210934187061 -0.2364082567837591 0 -0.37533687834285862 -0.25417213976024849 0 -0.39826986996263802 -0.25360934065352753 0 -0.38632210934187061 -0.2364082567837591 0 -0.36764811873304098 -0.23322730847002751 0 -0.38632210934187061 -0.2364082567837591 0 -0.37772562505684643 -0.22219038377974651 0 -0.38632210934187061 -0.2364082567837591 0 -0.37772562505684643 -0.22219038377974651 0 -0.39102038474593709 -0.2139255738073175 0 -0.38632210934187061 -0.2364082567837591 0 -0.40619246279161347 -0.2313797712556602 0 -0.39102038474593709 -0.2139255738073175 0 -0.39102038474593709 -0.2139255738073175 0 -0.40351751052996843 -0.1957217498792192 0 -0.41411505562058892 -0.2091502018577929 0 -0.40619246279161347 -0.2313797712556602 0 -0.39102038474593709 -0.2139255738073175 0 -0.41411505562058892 -0.2091502018577929 0 -0.37235342842372432 -0.19838340983925429 0 -0.39102038474593709 -0.2139255738073175 0 -0.37235342842372432 -0.19838340983925429 0 -0.37772562505684643 -0.22219038377974651 0 -0.39102038474593709 -0.2139255738073175 0 -0.37016556171889331 -0.18126023377528719 0 -0.37235342842372432 -0.19838340983925429 0 -0.38726325091278008 -0.18918768555573329 0 -0.37235342842372432 -0.19838340983925429 0 -0.39102038474593709 -0.2139255738073175 0 -0.38726325091278008 -0.18918768555573329 0 -0.38726325091278008 -0.18918768555573329 0 -0.40351751052996843 -0.1957217498792192 0 -0.40315121292097328 -0.17942465571532731 0 -0.39102038474593709 -0.2139255738073175 0 -0.38726325091278008 -0.18918768555573329 0 -0.40351751052996843 -0.1957217498792192 0 -0.41411505562058892 -0.2091502018577929 0 -0.42203764844956237 -0.18692063245992491 0 -0.40351751052996843 -0.1957217498792192 0 -0.41411505562058892 -0.2091502018577929 0 -0.42203764844956237 -0.18692063245992491 0 -0.41411505562058892 -0.2091502018577929 0 -0.42948217154750851 -0.21815887616964899 0 -0.43155084310578928 -0.2059016662048701 0 -0.42948217154750851 -0.21815887616964899 0 -0.43155084310578928 -0.2059016662048701 0 -0.43955036875351089 -0.21658504913102711 0 -0.42203764844956237 -0.18692063245992491 0 -0.44484374680150301 -0.19597231310248839 0 -0.41411505562058892 -0.2091502018577929 0 -0.43155084310578928 -0.2059016662048701 0 -0.42203764844956237 -0.18692063245992491 0 -0.43155084310578928 -0.2059016662048701 0 -0.42203764844956237 -0.18692063245992491 0 -0.44484374680150301 -0.19597231310248839 0 -0.42203764844956237 -0.18692063245992491 0 -0.44134853753678083 -0.18159229851429221 0 -0.44484374680150301 -0.19597231310248839 0 -0.42203764844956237 -0.18692063245992491 0 -0.42880774722037651 -0.1679247830322266 0 -0.42203764844956237 -0.18692063245992491 0 -0.42880774722037651 -0.1679247830322266 0 -0.44134853753678083 -0.18159229851429221 0 -0.42880774722037651 -0.1679247830322266 0 -0.43557784599118871 -0.14892893360452769 0 -0.44631139980808621 -0.1631836851414229 0 -0.42880774722037651 -0.1679247830322266 0 -0.43557784599118871 -0.14892893360452769 0 -0.42880774722037651 -0.1679247830322266 0 -0.41236960909879722 -0.16540507401591409 0 -0.42079860369606048 -0.15043713941075901 0 -0.42203764844956237 -0.18692063245992491 0 -0.42880774722037651 -0.1679247830322266 0 -0.41236960909879722 -0.16540507401591409 0 -0.40351751052996843 -0.1957217498792192 0 -0.42203764844956237 -0.18692063245992491 0 -0.40315121292097328 -0.17942465571532731 0 -0.42203764844956237 -0.18692063245992491 0 -0.40315121292097328 -0.17942465571532731 0 -0.42203764844956237 -0.18692063245992491 0 -0.41236960909879722 -0.16540507401591409 0 -0.40315121292097328 -0.17942465571532731 0 -0.38726325091278008 -0.18918768555573329 0 -0.40315121292097328 -0.17942465571532731 0 -0.38426477739238413 -0.17192867897072969 0 -0.40315121292097328 -0.17942465571532731 0 -0.38426477739238413 -0.17192867897072969 0 -0.37016556171889331 -0.18126023377528719 0 -0.38726325091278008 -0.18918768555573329 0 -0.38426477739238413 -0.17192867897072969 0 -0.36554542654456429 -0.16945206744667471 0 -0.38426477739238413 -0.17192867897072969 0 -0.37696591512674532 -0.1609827341034305 0 -0.38426477739238413 -0.17192867897072969 0 -0.37696591512674532 -0.1609827341034305 0 -0.39230106084837368 -0.15838844905994759 0 -0.40315121292097328 -0.17942465571532731 0 -0.38426477739238413 -0.17192867897072969 0 -0.39230106084837368 -0.15838844905994759 0 -0.41236960909879722 -0.16540507401591409 0 -0.39230106084837368 -0.15838844905994759 0 -0.40587711449475489 -0.1449624873806776 0 -0.41236960909879722 -0.16540507401591409 0 -0.40315121292097328 -0.17942465571532731 0 -0.39230106084837368 -0.15838844905994759 0 -0.39230106084837368 -0.15838844905994759 0 -0.39162863389564362 -0.14105630786861159 0 -0.40587711449475489 -0.1449624873806776 0 -0.39230106084837368 -0.15838844905994759 0 -0.39162863389564362 -0.14105630786861159 0 -0.3777566452334315 -0.14913711856379011 0 -0.37696591512674532 -0.1609827341034305 0 -0.39230106084837368 -0.15838844905994759 0 -0.3777566452334315 -0.14913711856379011 0 -0.36893450279197471 -0.1249528869149899 0 -0.39162863389564362 -0.14105630786861159 0 -0.3777566452334315 -0.14913711856379011 0 -0.36893450279197471 -0.1249528869149899 0 -0.39162863389564362 -0.14105630786861159 0 -0.39514760223357998 -0.1249586529677193 0 -0.39162863389564362 -0.14105630786861159 0 -0.40587711449475489 -0.1449624873806776 0 -0.39514760223357998 -0.1249586529677193 0 -0.40587711449475489 -0.1449624873806776 0 -0.39514760223357998 -0.1249586529677193 0 -0.42136070167518519 -0.1249644190204488 0 -0.40587711449475489 -0.1449624873806776 0 -0.42079860369606048 -0.15043713941075901 0 -0.42136070167518519 -0.1249644190204488 0 -0.41236960909879722 -0.16540507401591409 0 -0.40587711449475489 -0.1449624873806776 0 -0.42079860369606048 -0.15043713941075901 0 -0.42079860369606048 -0.15043713941075901 0 -0.43557784599118871 -0.14892893360452769 0 -0.42136070167518519 -0.1249644190204488 0 -0.42880774722037651 -0.1679247830322266 0 -0.42079860369606048 -0.15043713941075901 0 -0.43557784599118871 -0.14892893360452769 0 -0.43557784599118871 -0.14892893360452769 0 -0.42136070167518519 -0.1249644190204488 0 -0.44757380111679052 -0.12497018507317829 0 -0.43557784599118871 -0.14892893360452769 0 -0.45596445488588 -0.14427568033770541 0 -0.44757380111679052 -0.12497018507317829 0 -0.43557784599118871 -0.14892893360452769 0 -0.45596445488588 -0.14427568033770541 0 -0.44631139980808621 -0.1631836851414229 0 -0.45596445488588 -0.14427568033770541 0 -0.46278066629215481 -0.1610158872753634 0 -0.44631139980808621 -0.1631836851414229 0 -0.45596445488588 -0.14427568033770541 0 -0.47930750267908417 -0.1480635854121114 0 -0.46278066629215481 -0.1610158872753634 0 -0.45596445488588 -0.14427568033770541 0 -0.44757380111679052 -0.12497018507317829 0 -0.47378690055839578 -0.1249759511259078 0 -0.48827360080937021 -0.13531742911399189 0 -0.47930750267908417 -0.1480635854121114 0 -0.47378690055839578 -0.1249759511259078 0 -0.45596445488588 -0.14427568033770541 0 -0.47930750267908417 -0.1480635854121114 0 -0.47378690055839578 -0.1249759511259078 0 -0.48827360080937021 -0.13531742911399189 0 -0.5 -0.14324846273931111 0 -0.50000000000000111 -0.12498171717863731 0 -0.48827360080937021 -0.13531742911399189 0 -0.47378690055839578 -0.1249759511259078 0 -0.50000000000000111 -0.12498171717863731 0 -0.5 -0.14324846273931111 0 -0.47930750267908417 -0.1480635854121114 0 -0.49999999999999961 -0.161515208299985 0 -0.48827360080937021 -0.13531742911399189 0 -0.5 -0.14324846273931111 0 -0.47930750267908417 -0.1480635854121114 0 -0.47930750267908417 -0.1480635854121114 0 -0.47738728335761421 -0.1682509267597351 0 -0.46278066629215481 -0.1610158872753634 0 -0.47738728335761421 -0.1682509267597351 0 -0.49999999999999961 -0.161515208299985 0 -0.48839409620634278 -0.18039624849769001 0 -0.49999999999999961 -0.161515208299985 0 -0.48839409620634278 -0.18039624849769001 0 -0.47930750267908417 -0.1480635854121114 0 -0.47738728335761421 -0.1682509267597351 0 -0.49999999999999961 -0.161515208299985 0 -0.49999999999999961 -0.161515208299985 0 -0.5 -0.18618779176616679 0 -0.48839409620634278 -0.18039624849769001 0 -0.5 -0.18618779176616679 0 -0.48839409620634278 -0.18039624849769001 0 -0.48957789370491162 -0.19386933705848941 0 -0.47738728335761421 -0.1682509267597351 0 -0.48839409620634278 -0.18039624849769001 0 -0.47328693949397721 -0.18411760774338479 0 -0.47738728335761421 -0.1682509267597351 0 -0.47328693949397721 -0.18411760774338479 0 -0.45860677246597031 -0.17520894370368309 0 -0.47328693949397721 -0.18411760774338479 0 -0.45860677246597031 -0.17520894370368309 0 -0.45906836497473352 -0.19043479360484361 0 -0.47738728335761421 -0.1682509267597351 0 -0.45860677246597031 -0.17520894370368309 0 -0.46278066629215481 -0.1610158872753634 0 -0.45860677246597031 -0.17520894370368309 0 -0.46278066629215481 -0.1610158872753634 0 -0.44631139980808621 -0.1631836851414229 0 -0.42880774722037651 -0.1679247830322266 0 -0.44631139980808621 -0.1631836851414229 0 -0.44134853753678083 -0.18159229851429221 0 -0.45860677246597031 -0.17520894370368309 0 -0.44631139980808621 -0.1631836851414229 0 -0.44134853753678083 -0.18159229851429221 0 -0.45860677246597031 -0.17520894370368309 0 -0.44134853753678083 -0.18159229851429221 0 -0.45906836497473352 -0.19043479360484361 0 -0.44134853753678083 -0.18159229851429221 0 -0.45906836497473352 -0.19043479360484361 0 -0.44134853753678083 -0.18159229851429221 0 -0.44484374680150301 -0.19597231310248839 0 -0.45906836497473352 -0.19043479360484361 0 -0.43155084310578928 -0.2059016662048701 0 -0.44484374680150301 -0.19597231310248839 0 -0.44343463088850471 -0.20721188330797369 0 -0.43155084310578928 -0.2059016662048701 0 -0.44343463088850471 -0.20721188330797369 0 -0.43955036875351089 -0.21658504913102711 0 -0.44343463088850471 -0.20721188330797369 0 -0.43955036875351089 -0.21658504913102711 0 -0.44966782191270221 -0.21345696714665749 0 -0.44966782191270221 -0.21345696714665749 0 -0.45691127413918359 -0.218140336649912 0 -0.44903912237987481 -0.22310222333220869 0 -0.43955036875351089 -0.21658504913102711 0 -0.44966782191270221 -0.21345696714665749 0 -0.44903912237987481 -0.22310222333220869 0 -0.44484374680150301 -0.19597231310248839 0 -0.44343463088850471 -0.20721188330797369 0 -0.45285363365211462 -0.2065344908709397 0 -0.44343463088850471 -0.20721188330797369 0 -0.44966782191270221 -0.21345696714665749 0 -0.45285363365211462 -0.2065344908709397 0 -0.45285363365211462 -0.2065344908709397 0 -0.4586721235044201 -0.2110072970525271 0 -0.46764984515344349 -0.20502399374505181 0 -0.44966782191270221 -0.21345696714665749 0 -0.45285363365211462 -0.2065344908709397 0 -0.4586721235044201 -0.2110072970525271 0 -0.44966782191270221 -0.21345696714665749 0 -0.4586721235044201 -0.2110072970525271 0 -0.45691127413918359 -0.218140336649912 0 -0.4586721235044201 -0.2110072970525271 0 -0.45691127413918359 -0.218140336649912 0 -0.46757130244775341 -0.21427176676618889 0 -0.4586721235044201 -0.2110072970525271 0 -0.46757130244775341 -0.21427176676618889 0 -0.46764984515344349 -0.20502399374505181 0 -0.44484374680150301 -0.19597231310248839 0 -0.46764984515344349 -0.20502399374505181 0 -0.45906836497473352 -0.19043479360484361 0 -0.44484374680150301 -0.19597231310248839 0 -0.45285363365211462 -0.2065344908709397 0 -0.46764984515344349 -0.20502399374505181 0 -0.45906836497473352 -0.19043479360484361 0 -0.47678819241268611 -0.1992772886953951 0 -0.44484374680150301 -0.19597231310248839 0 -0.46764984515344349 -0.20502399374505181 0 -0.46764984515344349 -0.20502399374505181 0 -0.45906836497473352 -0.19043479360484361 0 -0.47678819241268611 -0.1992772886953951 0 -0.47328693949397721 -0.18411760774338479 0 -0.45906836497473352 -0.19043479360484361 0 -0.47678819241268611 -0.1992772886953951 0 -0.48839409620634278 -0.18039624849769001 0 -0.47328693949397721 -0.18411760774338479 0 -0.47678819241268611 -0.1992772886953951 0 -0.48839409620634278 -0.18039624849769001 0 -0.47678819241268611 -0.1992772886953951 0 -0.47678819241268611 -0.1992772886953951 0 -0.48957789370491162 -0.19386933705848941 0 -0.50000000000000222 -0.21086037523234849 0 -0.48839409620634278 -0.18039624849769001 0 -0.47678819241268611 -0.1992772886953951 0 -0.48957789370491162 -0.19386933705848941 0 -0.5 -0.18618779176616679 0 -0.48957789370491162 -0.19386933705848941 0 -0.50000000000000222 -0.21086037523234849 0 -0.50000000000000222 -0.21086037523234849 0 -0.48101414991814051 -0.21220490785157131 0 -0.4775447229854059 -0.22535576830415929 0 -0.47678819241268611 -0.1992772886953951 0 -0.50000000000000222 -0.21086037523234849 0 -0.47678819241268611 -0.1992772886953951 0 -0.50000000000000222 -0.21086037523234849 0 -0.48101414991814051 -0.21220490785157131 0 -0.46757130244775341 -0.21427176676618889 0 -0.47678819241268611 -0.1992772886953951 0 -0.48101414991814051 -0.21220490785157131 0 -0.46757130244775341 -0.21427176676618889 0 -0.47678819241268611 -0.1992772886953951 0 -0.46757130244775341 -0.21427176676618889 0 -0.46764984515344349 -0.20502399374505181 0 -0.47678819241268611 -0.1992772886953951 0 -0.46757130244775341 -0.21427176676618889 0 -0.48101414991814051 -0.21220490785157131 0 -0.4775447229854059 -0.22535576830415929 0 -0.46757130244775341 -0.21427176676618889 0 -0.4775447229854059 -0.22535576830415929 0 -0.46571952953094348 -0.22577651025912229 0 -0.4775447229854059 -0.22535576830415929 0 -0.4726071657750785 -0.240360200228666 0 -0.45676275941016609 -0.23628729483617639 0 -0.50000000000000222 -0.21086037523234849 0 -0.4775447229854059 -0.22535576830415929 0 -0.48548116721245049 -0.23774912910784329 0 -0.50000000000000222 -0.21086037523234849 0 -0.5 -0.2401545466321974 0 -0.48548116721245049 -0.23774912910784329 0 -0.48050148842732221 -0.25523221810557922 0 -0.5 -0.2401545466321974 0 -0.48548116721245049 -0.23774912910784329 0 -0.48050148842732221 -0.25523221810557922 0 -0.4726071657750785 -0.240360200228666 0 -0.46267023581878858 -0.24817136713935201 0 -0.48050148842732221 -0.25523221810557922 0 -0.48548116721245049 -0.23774912910784329 0 -0.4726071657750785 -0.240360200228666 0 -0.4775447229854059 -0.22535576830415929 0 -0.48548116721245049 -0.23774912910784329 0 -0.4726071657750785 -0.240360200228666 0 -0.4726071657750785 -0.240360200228666 0 -0.46267023581878858 -0.24817136713935201 0 -0.45676275941016609 -0.23628729483617639 0 -0.46267023581878858 -0.24817136713935201 0 -0.45676275941016609 -0.23628729483617639 0 -0.45139902778349827 -0.24711062934306771 0 -0.4775447229854059 -0.22535576830415929 0 -0.45676275941016609 -0.23628729483617639 0 -0.46571952953094348 -0.22577651025912229 0 -0.4775447229854059 -0.22535576830415929 0 -0.45676275941016609 -0.23628729483617639 0 -0.46757130244775341 -0.21427176676618889 0 -0.45835441248282049 -0.22926624483698249 0 -0.45691127413918359 -0.218140336649912 0 -0.46757130244775341 -0.21427176676618889 0 -0.45835441248282049 -0.22926624483698249 0 -0.46757130244775341 -0.21427176676618889 0 -0.46571952953094348 -0.22577651025912229 0 -0.45835441248282049 -0.22926624483698249 0 -0.45691127413918359 -0.218140336649912 0 -0.45835441248282049 -0.22926624483698249 0 -0.44903912237987481 -0.22310222333220869 0 -0.45676275941016609 -0.23628729483617639 0 -0.46571952953094348 -0.22577651025912229 0 -0.45835441248282049 -0.22926624483698249 0 -0.45676275941016609 -0.23628729483617639 0 -0.45835441248282049 -0.22926624483698249 0 -0.44784406772060242 -0.23291584907632601 0 -0.45835441248282049 -0.22926624483698249 0 -0.44784406772060242 -0.23291584907632601 0 -0.44903912237987481 -0.22310222333220869 0 -0.44784406772060242 -0.23291584907632601 0 -0.44903912237987481 -0.22310222333220869 0 -0.43908324849522451 -0.2287046610080686 0 -0.43955036875351089 -0.21658504913102711 0 -0.44903912237987481 -0.22310222333220869 0 -0.43908324849522451 -0.2287046610080686 0 -0.43598079583492633 -0.24721882136819351 0 -0.44784406772060242 -0.23291584907632601 0 -0.43908324849522451 -0.2287046610080686 0 -0.43598079583492633 -0.24721882136819351 0 -0.45676275941016609 -0.23628729483617639 0 -0.45139902778349827 -0.24711062934306771 0 -0.43598079583492633 -0.24721882136819351 0 -0.45676275941016609 -0.23628729483617639 0 -0.44784406772060242 -0.23291584907632601 0 -0.43598079583492633 -0.24721882136819351 0 -0.45676275941016609 -0.23628729483617639 0 -0.41513049604948221 -0.033942569896895612 0 -0.42680670243505803 -0.034615113076212713 0 -0.40073055052989021 -0.025701474464423758 0 -0.41513049604948221 -0.033942569896895612 0 -0.42462943043776058 -0.041038039404546971 0 -0.40237332615973681 -0.030676944162886681 0 -0.42462943043776058 -0.041038039404546971 0 -0.40237332615973681 -0.030676944162886681 0 -0.41105872637709778 -0.041104419315527559 0 -0.42462943043776058 -0.041038039404546971 0 -0.40237332615973681 -0.030676944162886681 0 -0.41795689190558921 -0.046390941043723911 0 -0.41105872637709778 -0.041104419315527559 0 -0.42462943043776058 -0.041038039404546971 0 -0.41513049604948221 -0.033942569896895612 0 -0.42462943043776058 -0.041038039404546971 0 -0.4243569293735685 -0.037306081984415762 0 -0.41105872637709778 -0.041104419315527559 0 -0.4050251302254127 -0.045922345921936697 0 -0.40306291723554027 -0.039039715031688543 0 -0.41795689190558921 -0.046390941043723911 0 -0.41105872637709778 -0.041104419315527559 0 -0.41174405323292163 -0.047949206462353358 0 -0.41105872637709778 -0.041104419315527559 0 -0.41174405323292163 -0.047949206462353358 0 -0.4050251302254127 -0.045922345921936697 0 -0.41174405323292163 -0.047949206462353358 0 -0.4050251302254127 -0.045922345921936697 0 -0.40603099279739802 -0.054788986838451827 0 -0.41174405323292163 -0.047949206462353358 0 -0.4187470457232762 -0.053937065845881961 0 -0.40603099279739802 -0.054788986838451827 0 -0.4187470457232762 -0.053937065845881961 0 -0.40603099279739802 -0.054788986838451827 0 -0.41284572228237681 -0.064006668923108523 0 -0.4187470457232762 -0.053937065845881961 0 -0.41284572228237681 -0.064006668923108523 0 -0.42746868386642678 -0.066478460468227696 0 -0.41795689190558921 -0.046390941043723911 0 -0.41174405323292163 -0.047949206462353358 0 -0.4187470457232762 -0.053937065845881961 0 -0.41795689190558921 -0.046390941043723911 0 -0.4187470457232762 -0.053937065845881961 0 -0.42320145590089769 -0.048540393412862697 0 -0.42320145590089769 -0.048540393412862697 0 -0.43147245553696489 -0.05279552735729795 0 -0.42462943043776058 -0.041038039404546971 0 -0.4187470457232762 -0.053937065845881961 0 -0.42320145590089769 -0.048540393412862697 0 -0.43147245553696489 -0.05279552735729795 0 -0.43147245553696489 -0.05279552735729795 0 -0.42462943043776058 -0.041038039404546971 0 -0.44688553471578463 -0.051399134646207288 0 -0.4187470457232762 -0.053937065845881961 0 -0.43147245553696489 -0.05279552735729795 0 -0.42746868386642678 -0.066478460468227696 0 -0.43147245553696489 -0.05279552735729795 0 -0.42746868386642678 -0.066478460468227696 0 -0.43950717444435422 -0.063784996514660589 0 -0.42818951741271921 -0.038310772776573528 0 -0.43628267576141971 -0.035329403205585218 0 -0.44688553471578463 -0.051399134646207288 0 -0.42462943043776058 -0.041038039404546971 0 -0.42818951741271921 -0.038310772776573528 0 -0.44688553471578463 -0.051399134646207288 0 -0.42462943043776058 -0.041038039404546971 0 -0.44688553471578463 -0.051399134646207288 0 -0.41795689190558921 -0.046390941043723911 0 -0.42320145590089769 -0.048540393412862697 0 -0.42462943043776058 -0.041038039404546971 0 -0.41513049604948221 -0.033942569896895612 0 -0.4243569293735685 -0.037306081984415762 0 -0.42680670243505803 -0.034615113076212713 0 -0.42462943043776058 -0.041038039404546971 0 -0.4243569293735685 -0.037306081984415762 0 -0.42818951741271921 -0.038310772776573528 0 -0.42818951741271921 -0.038310772776573528 0 -0.42680670243505803 -0.034615113076212713 0 -0.4243569293735685 -0.037306081984415762 0 -0.42818951741271921 -0.038310772776573528 0 -0.42680670243505803 -0.034615113076212713 0 -0.42818951741271921 -0.038310772776573528 0 -0.42680670243505803 -0.034615113076212713 0 -0.42995577540377822 -0.032900560567165532 0 -0.42818951741271921 -0.038310772776573528 0 -0.42995577540377822 -0.032900560567165532 0 -0.43628267576141971 -0.035329403205585218 0 -0.42995577540377822 -0.032900560567165532 0 -0.43628267576141971 -0.035329403205585218 0 -0.4327931004709421 -0.029092843067932112 0 -0.42680670243505803 -0.034615113076212713 0 -0.4285090787839364 -0.025262373234060161 0 -0.41794895562780338 -0.01094222954485795 0 -0.42680670243505803 -0.034615113076212713 0 -0.41794895562780338 -0.01094222954485795 0 -0.43628267576141971 -0.035329403205585218 0 -0.4327931004709421 -0.029092843067932112 0 -0.43710875721387199 -0.026668229939385779 0 -0.42995577540377822 -0.032900560567165532 0 -0.4327931004709421 -0.029092843067932112 0 -0.4285090787839364 -0.025262373234060161 0 -0.43210921519170409 -0.025303648393463829 0 -0.43710875721387199 -0.026668229939385779 0 -0.43108579893039811 -0.01948839847471974 0 -0.4327931004709421 -0.029092843067932112 0 -0.43210921519170409 -0.025303648393463829 0 -0.4285090787839364 -0.025262373234060161 0 -0.4327931004709421 -0.029092843067932112 0 -0.43210921519170409 -0.025303648393463829 0 -0.43710875721387199 -0.026668229939385779 0 -0.43108579893039811 -0.01948839847471974 0 -0.43397544616601241 -0.014244232554068349 0 -0.43928417642389239 -0.017661557407765791 0 -0.43710875721387199 -0.026668229939385779 0 -0.43108579893039811 -0.01948839847471974 0 -0.43928417642389239 -0.017661557407765791 0 -0.43210921519170409 -0.025303648393463829 0 -0.43108579893039811 -0.01948839847471974 0 -0.4285090787839364 -0.025262373234060161 0 -0.43108579893039811 -0.01948839847471974 0 -0.4285090787839364 -0.025262373234060161 0 -0.41794895562780338 -0.01094222954485795 0 -0.42680670243505803 -0.034615113076212713 0 -0.42995577540377822 -0.032900560567165532 0 -0.4285090787839364 -0.025262373234060161 0 -0.43591977417237449 -0.008065469867085449 0 -0.42907061680018699 -0.010664914002041091 0 -0.42583279771702431 0.00046528033667210148 0 -0.43108579893039811 -0.01948839847471974 0 -0.43397544616601241 -0.014244232554068349 0 -0.42907061680018699 -0.010664914002041091 0 -0.43591977417237449 -0.008065469867085449 0 -0.43397544616601241 -0.014244232554068349 0 -0.43928417642389239 -0.017661557407765791 0 -0.43591977417237449 -0.008065469867085449 0 -0.43397544616601241 -0.014244232554068349 0 -0.42907061680018699 -0.010664914002041091 0 -0.43108579893039811 -0.01948839847471974 0 -0.42907061680018699 -0.010664914002041091 0 -0.41794895562780338 -0.01094222954485795 0 -0.42907061680018699 -0.010664914002041091 0 -0.41794895562780338 -0.01094222954485795 0 -0.42583279771702431 0.00046528033667210148 0 -0.41794895562780338 -0.01094222954485795 0 -0.4102220184461346 -0.019351118920435541 0 -0.40021295305484711 -0.013852611056198059 0 -0.41794895562780338 -0.01094222954485795 0 -0.40352261506359649 -0.001038070178381474 0 -0.40021295305484711 -0.013852611056198059 0 -0.42680670243505803 -0.034615113076212713 0 -0.41794895562780338 -0.01094222954485795 0 -0.4102220184461346 -0.019351118920435541 0 -0.42680670243505803 -0.034615113076212713 0 -0.4102220184461346 -0.019351118920435541 0 -0.40073055052989021 -0.025701474464423758 0 -0.42680670243505803 -0.034615113076212713 0 -0.40073055052989021 -0.025701474464423758 0 -0.41513049604948221 -0.033942569896895612 0 -0.40073055052989021 -0.025701474464423758 0 -0.40237332615973681 -0.030676944162886681 0 -0.40073055052989021 -0.025701474464423758 0 -0.40237332615973681 -0.030676944162886681 0 -0.38011722188171299 -0.020315848921226409 0 -0.40237332615973681 -0.030676944162886681 0 -0.38011722188171299 -0.020315848921226409 0 -0.4102220184461346 -0.019351118920435541 0 -0.40073055052989021 -0.025701474464423758 0 -0.40021295305484711 -0.013852611056198059 0 -0.40073055052989021 -0.025701474464423758 0 -0.40021295305484711 -0.013852611056198059 0 -0.38745402304870558 -0.01483805838738575 0 -0.40352261506359649 -0.001038070178381474 0 -0.40021295305484711 -0.013852611056198059 0 -0.39408165103759368 -0.0019794594859314238 0 -0.40021295305484711 -0.013852611056198059 0 -0.39408165103759368 -0.0019794594859314238 0 -0.39005949432245718 -0.0085411321607220259 0 -0.40021295305484711 -0.013852611056198059 0 -0.39005949432245718 -0.0085411321607220259 0 -0.38745402304870558 -0.01483805838738575 0 -0.39408165103759368 -0.0019794594859314238 0 -0.3848191179490616 -0.0027051675553946518 0 -0.39005949432245718 -0.0085411321607220259 0 -0.3848191179490616 -0.0027051675553946518 0 -0.38372972652207787 -0.0093303643187002475 0 -0.39005949432245718 -0.0085411321607220259 0 -0.38372972652207787 -0.0093303643187002475 0 -0.38745402304870558 -0.01483805838738575 0 -0.3791207175096093 -0.01135650732177081 0 -0.38372972652207787 -0.0093303643187002475 0 -0.39005949432245718 -0.0085411321607220259 0 -0.38745402304870558 -0.01483805838738575 0 -0.37465439862472261 -0.016787835852634068 0 -0.37464851222799189 -0.0076089195940836872 0 -0.3791207175096093 -0.01135650732177081 0 -0.37465439862472261 -0.016787835852634068 0 -0.38745402304870558 -0.01483805838738575 0 -0.3791207175096093 -0.01135650732177081 0 -0.37464851222799189 -0.0076089195940836872 0 -0.3791207175096093 -0.01135650732177081 0 -0.37960876280762101 -0.0064231604720931881 0 -0.38372972652207787 -0.0093303643187002475 0 -0.3791207175096093 -0.01135650732177081 0 -0.37960876280762101 -0.0064231604720931881 0 -0.3848191179490616 -0.0027051675553946518 0 -0.38372972652207787 -0.0093303643187002475 0 -0.37960876280762101 -0.0064231604720931881 0 -0.37464851222799189 -0.0076089195940836872 0 -0.37960876280762101 -0.0064231604720931881 0 -0.37774077980655368 -0.001289555558904682 0 -0.3848191179490616 -0.0027051675553946518 0 -0.37960876280762101 -0.0064231604720931881 0 -0.37774077980655368 -0.001289555558904682 0 -0.37465439862472261 -0.016787835852634068 0 -0.40073055052989021 -0.025701474464423758 0 -0.38745402304870558 -0.01483805838738575 0 -0.40237332615973681 -0.030676944162886681 0 -0.38781453024876661 -0.02996800237218563 0 -0.38011722188171299 -0.020315848921226409 0 -0.37465439862472261 -0.016787835852634068 0 -0.40073055052989021 -0.025701474464423758 0 -0.38011722188171299 -0.020315848921226409 0 -0.37465439862472261 -0.016787835852634068 0 -0.40073055052989021 -0.025701474464423758 0 -0.37402384376206249 -0.023759624541515059 0 -0.37465439862472261 -0.016787835852634068 0 -0.38011722188171299 -0.020315848921226409 0 -0.37402384376206249 -0.023759624541515059 0 -0.38011722188171299 -0.020315848921226409 0 -0.37866743010551202 -0.02906954498465647 0 -0.38781453024876661 -0.02996800237218563 0 -0.38011722188171299 -0.020315848921226409 0 -0.37866743010551202 -0.02906954498465647 0 -0.37439980638912518 -0.038891661293645137 0 -0.37866743010551202 -0.02906954498465647 0 -0.38394575501216083 -0.036535335565972972 0 -0.37439980638912518 -0.038891661293645137 0 -0.37993408630244868 -0.045501240077299353 0 -0.38394575501216083 -0.036535335565972972 0 -0.37085155020467431 -0.050438611479832557 0 -0.37439980638912518 -0.038891661293645137 0 -0.37993408630244868 -0.045501240077299353 0 -0.37993408630244868 -0.045501240077299353 0 -0.38895054345211377 -0.045335196083553769 0 -0.38394575501216083 -0.036535335565972972 0 -0.38895054345211377 -0.045335196083553769 0 -0.38394575501216083 -0.036535335565972972 0 -0.39396365166307989 -0.03445798481758762 0 -0.38781453024876661 -0.02996800237218563 0 -0.38394575501216083 -0.036535335565972972 0 -0.39396365166307989 -0.03445798481758762 0 -0.38781453024876661 -0.02996800237218563 0 -0.37866743010551202 -0.02906954498465647 0 -0.38394575501216083 -0.036535335565972972 0 -0.40237332615973681 -0.030676944162886681 0 -0.38781453024876661 -0.02996800237218563 0 -0.39396365166307989 -0.03445798481758762 0 -0.39396365166307989 -0.03445798481758762 0 -0.39750411751227832 -0.042292212187568533 0 -0.39928834571923882 -0.035924112998793431 0 -0.38895054345211377 -0.045335196083553769 0 -0.39396365166307989 -0.03445798481758762 0 -0.39750411751227832 -0.042292212187568533 0 -0.39750411751227832 -0.042292212187568533 0 -0.4050251302254127 -0.045922345921936697 0 -0.40306291723554027 -0.039039715031688543 0 -0.39750411751227832 -0.042292212187568533 0 -0.40306291723554027 -0.039039715031688543 0 -0.39928834571923882 -0.035924112998793431 0 -0.40237332615973681 -0.030676944162886681 0 -0.39396365166307989 -0.03445798481758762 0 -0.39928834571923882 -0.035924112998793431 0 -0.41105872637709778 -0.041104419315527559 0 -0.40237332615973681 -0.030676944162886681 0 -0.40306291723554027 -0.039039715031688543 0 -0.40237332615973681 -0.030676944162886681 0 -0.40306291723554027 -0.039039715031688543 0 -0.39928834571923882 -0.035924112998793431 0 -0.40603099279739802 -0.054788986838451827 0 -0.39527915405366182 -0.064437672488960096 0 -0.41284572228237681 -0.064006668923108523 0 -0.40603099279739802 -0.054788986838451827 0 -0.39443592701229091 -0.053019652188425637 0 -0.39527915405366182 -0.064437672488960096 0 -0.4050251302254127 -0.045922345921936697 0 -0.40603099279739802 -0.054788986838451827 0 -0.39443592701229091 -0.053019652188425637 0 -0.39750411751227832 -0.042292212187568533 0 -0.4050251302254127 -0.045922345921936697 0 -0.39443592701229091 -0.053019652188425637 0 -0.38895054345211377 -0.045335196083553769 0 -0.39750411751227832 -0.042292212187568533 0 -0.39443592701229091 -0.053019652188425637 0 -0.39443592701229091 -0.053019652188425637 0 -0.38221605892473098 -0.056125323053866277 0 -0.39527915405366182 -0.064437672488960096 0 -0.36608399240098949 -0.063120758007335118 0 -0.38221605892473098 -0.056125323053866277 0 -0.37978412082390189 -0.068029865631836883 0 -0.38895054345211377 -0.045335196083553769 0 -0.39443592701229091 -0.053019652188425637 0 -0.38221605892473098 -0.056125323053866277 0 -0.37993408630244868 -0.045501240077299353 0 -0.38895054345211377 -0.045335196083553769 0 -0.38221605892473098 -0.056125323053866277 0 -0.37085155020467431 -0.050438611479832557 0 -0.37993408630244868 -0.045501240077299353 0 -0.38221605892473098 -0.056125323053866277 0 -0.36843110820579178 -0.075527255856609146 0 -0.37978412082390189 -0.068029865631836883 0 -0.38691029053433551 -0.080938318752413793 0 -0.37978412082390189 -0.068029865631836883 0 -0.38691029053433551 -0.080938318752413793 0 -0.39527915405366182 -0.064437672488960096 0 -0.38221605892473098 -0.056125323053866277 0 -0.37978412082390189 -0.068029865631836883 0 -0.39527915405366182 -0.064437672488960096 0 -0.37380044498630338 -0.100392191664622 0 -0.36747037526515469 -0.088210616938563927 0 -0.38691029053433551 -0.080938318752413793 0 -0.36843110820579178 -0.075527255856609146 0 -0.38691029053433551 -0.080938318752413793 0 -0.40007542381043809 -0.086939242353532731 0 -0.39460333317738627 -0.1006873657273652 0 -0.41352047356827321 -0.0909948847898496 0 -0.38691029053433551 -0.080938318752413793 0 -0.40007542381043809 -0.086939242353532731 0 -0.40767355229219521 -0.074626636544090755 0 -0.38691029053433551 -0.080938318752413793 0 -0.40007542381043809 -0.086939242353532731 0 -0.39460333317738627 -0.1006873657273652 0 -0.38691029053433551 -0.080938318752413793 0 -0.39527915405366182 -0.064437672488960096 0 -0.40767355229219521 -0.074626636544090755 0 -0.39527915405366182 -0.064437672488960096 0 -0.41284572228237681 -0.064006668923108523 0 -0.40767355229219521 -0.074626636544090755 0 -0.36893450279197471 -0.1249528869149899 0 -0.3789649235099295 -0.11270856972454819 0 -0.39514760223357998 -0.1249586529677193 0 -0.36893450279197471 -0.1249528869149899 0 -0.39514760223357998 -0.1249586529677193 0 -0.3789649235099295 -0.11270856972454819 0 -0.39460333317738627 -0.1006873657273652 0 -0.39514760223357998 -0.1249586529677193 0 -0.37380044498630338 -0.100392191664622 0 -0.38691029053433551 -0.080938318752413793 0 -0.39460333317738627 -0.1006873657273652 0 -0.37380044498630338 -0.100392191664622 0 -0.3789649235099295 -0.11270856972454819 0 -0.39460333317738627 -0.1006873657273652 0 -0.39460333317738627 -0.1006873657273652 0 -0.39514760223357998 -0.1249586529677193 0 -0.4114708495464785 -0.1093321351213095 0 -0.42136070167518519 -0.1249644190204488 0 -0.4114708495464785 -0.1093321351213095 0 -0.43272213707796769 -0.1050553531011644 0 -0.39514760223357998 -0.1249586529677193 0 -0.42136070167518519 -0.1249644190204488 0 -0.39514760223357998 -0.1249586529677193 0 -0.42136070167518519 -0.1249644190204488 0 -0.4114708495464785 -0.1093321351213095 0 -0.39460333317738627 -0.1006873657273652 0 -0.4114708495464785 -0.1093321351213095 0 -0.41352047356827321 -0.0909948847898496 0 -0.4114708495464785 -0.1093321351213095 0 -0.43272213707796769 -0.1050553531011644 0 -0.41352047356827321 -0.0909948847898496 0 -0.42136070167518519 -0.1249644190204488 0 -0.43272213707796769 -0.1050553531011644 0 -0.44757380111679052 -0.12497018507317829 0 -0.42136070167518519 -0.1249644190204488 0 -0.44757380111679052 -0.12497018507317829 0 -0.42023793718526542 -0.076451056482049876 0 -0.41284572228237681 -0.064006668923108523 0 -0.42746868386642678 -0.066478460468227696 0 -0.42023793718526542 -0.076451056482049876 0 -0.41284572228237681 -0.064006668923108523 0 -0.40767355229219521 -0.074626636544090755 0 -0.42023793718526542 -0.076451056482049876 0 -0.40767355229219521 -0.074626636544090755 0 -0.41352047356827321 -0.0909948847898496 0 -0.40007542381043809 -0.086939242353532731 0 -0.40767355229219521 -0.074626636544090755 0 -0.41352047356827321 -0.0909948847898496 0 -0.42023793718526542 -0.076451056482049876 0 -0.41352047356827321 -0.0909948847898496 0 -0.43051036701793649 -0.083964229305721505 0 -0.43272213707796769 -0.1050553531011644 0 -0.41352047356827321 -0.0909948847898496 0 -0.43051036701793649 -0.083964229305721505 0 -0.43272213707796769 -0.1050553531011644 0 -0.43051036701793649 -0.083964229305721505 0 -0.44869793539396702 -0.090613631575090198 0 -0.43051036701793649 -0.083964229305721505 0 -0.42746868386642678 -0.066478460468227696 0 -0.43938561630945938 -0.075374003134316428 0 -0.42023793718526542 -0.076451056482049876 0 -0.43051036701793649 -0.083964229305721505 0 -0.42746868386642678 -0.066478460468227696 0 -0.42746868386642678 -0.066478460468227696 0 -0.43950717444435422 -0.063784996514660589 0 -0.43938561630945938 -0.075374003134316428 0 -0.43950717444435422 -0.063784996514660589 0 -0.45074392082461212 -0.072028697807882153 0 -0.43938561630945938 -0.075374003134316428 0 -0.43051036701793649 -0.083964229305721505 0 -0.43938561630945938 -0.075374003134316428 0 -0.44869793539396702 -0.090613631575090198 0 -0.45074392082461212 -0.072028697807882153 0 -0.43938561630945938 -0.075374003134316428 0 -0.44869793539396702 -0.090613631575090198 0 -0.45074392082461212 -0.072028697807882153 0 -0.44869793539396702 -0.090613631575090198 0 -0.4647336852437608 -0.080388630180202481 0 -0.44869793539396702 -0.090613631575090198 0 -0.4647336852437608 -0.080388630180202481 0 -0.47380622041468068 -0.096022360055862885 0 -0.4647336852437608 -0.080388630180202481 0 -0.46264955769922828 -0.069236149835977229 0 -0.47254815090776853 -0.069469283055039688 0 -0.45074392082461212 -0.072028697807882153 0 -0.46264955769922828 -0.069236149835977229 0 -0.44688553471578463 -0.051399134646207288 0 -0.46264955769922828 -0.069236149835977229 0 -0.47254815090776853 -0.069469283055039688 0 -0.46914163899380801 -0.061760229887868598 0 -0.45074392082461212 -0.072028697807882153 0 -0.4647336852437608 -0.080388630180202481 0 -0.46264955769922828 -0.069236149835977229 0 -0.43272213707796769 -0.1050553531011644 0 -0.44757380111679052 -0.12497018507317829 0 -0.46022938895027038 -0.10869066194517669 0 -0.43272213707796769 -0.1050553531011644 0 -0.44869793539396702 -0.090613631575090198 0 -0.46022938895027038 -0.10869066194517669 0 -0.44869793539396702 -0.090613631575090198 0 -0.46022938895027038 -0.10869066194517669 0 -0.47380622041468068 -0.096022360055862885 0 -0.44757380111679052 -0.12497018507317829 0 -0.47378690055839578 -0.1249759511259078 0 -0.44757380111679052 -0.12497018507317829 0 -0.46022938895027038 -0.10869066194517669 0 -0.47378690055839578 -0.1249759511259078 0 -0.46022938895027038 -0.10869066194517669 0 -0.47378690055839578 -0.1249759511259078 0 -0.48374478807960558 -0.1092121363906397 0 -0.46022938895027038 -0.10869066194517669 0 -0.48374478807960558 -0.1092121363906397 0 -0.47380622041468068 -0.096022360055862885 0 -0.48374478807960558 -0.1092121363906397 0 -0.47380622041468068 -0.096022360055862885 0 -0.48832582805197727 -0.092109142267116931 0 -0.48374478807960558 -0.1092121363906397 0 -0.5 -0.10055386622176241 0 -0.48832582805197727 -0.092109142267116931 0 -0.47378690055839578 -0.1249759511259078 0 -0.48374478807960558 -0.1092121363906397 0 -0.50000000000000111 -0.12498171717863731 0 -0.48374478807960558 -0.1092121363906397 0 -0.5 -0.10055386622176241 0 -0.50000000000000111 -0.12498171717863731 0 -0.47378690055839578 -0.1249759511259078 0 -0.50000000000000111 -0.12498171717863731 0 -0.47254815090776853 -0.069469283055039688 0 -0.47913967023945842 -0.082463322467565006 0 -0.48457081949690362 -0.068943122576377761 0 -0.47913967023945842 -0.082463322467565006 0 -0.48808502354595151 -0.080031310268457945 0 -0.48457081949690362 -0.068943122576377761 0 -0.48457081949690362 -0.068943122576377761 0 -0.46914163899380801 -0.061760229887868598 0 -0.48457081949690362 -0.068943122576377761 0 -0.48230491698392047 -0.057318093012348498 0 -0.46914163899380801 -0.061760229887868598 0 -0.47254815090776853 -0.069469283055039688 0 -0.48457081949690362 -0.068943122576377761 0 -0.46914163899380801 -0.061760229887868598 0 -0.47254815090776853 -0.069469283055039688 0 -0.46914163899380801 -0.061760229887868598 0 -0.4647336852437608 -0.080388630180202481 0 -0.47254815090776853 -0.069469283055039688 0 -0.47913967023945842 -0.082463322467565006 0 -0.4647336852437608 -0.080388630180202481 0 -0.47380622041468068 -0.096022360055862885 0 -0.47913967023945842 -0.082463322467565006 0 -0.47380622041468068 -0.096022360055862885 0 -0.47913967023945842 -0.082463322467565006 0 -0.48832582805197727 -0.092109142267116931 0 -0.5 -0.10055386622176241 0 -0.48832582805197727 -0.092109142267116931 0 -0.499999999999999 -0.07612601526488752 0 -0.48808502354595151 -0.080031310268457945 0 -0.48832582805197727 -0.092109142267116931 0 -0.499999999999999 -0.07612601526488752 0 -0.47913967023945842 -0.082463322467565006 0 -0.48808502354595151 -0.080031310268457945 0 -0.48832582805197727 -0.092109142267116931 0 -0.499999999999999 -0.07612601526488752 0 -0.48457081949690362 -0.068943122576377761 0 -0.499999999999999 -0.07612601526488752 0 -0.48457081949690362 -0.068943122576377761 0 -0.5 -0.055081012739928707 0 -0.48808502354595151 -0.080031310268457945 0 -0.499999999999999 -0.07612601526488752 0 -0.48457081949690362 -0.068943122576377761 0 -0.48457081949690362 -0.068943122576377761 0 -0.5 -0.055081012739928707 0 -0.48230491698392047 -0.057318093012348498 0 -0.5 -0.055081012739928707 0 -0.48157039955536241 -0.044558511477442143 0 -0.48230491698392047 -0.057318093012348498 0 -0.5 -0.055081012739928707 0 -0.500000000000004 -0.034036010214970061 0 -0.48157039955536241 -0.044558511477442143 0 -0.500000000000004 -0.034036010214970061 0 -0.48157039955536241 -0.044558511477442143 0 -0.48148290990478199 -0.029591545163434652 0 -0.48157039955536241 -0.044558511477442143 0 -0.45768975774058179 -0.035844230274481748 0 -0.48148290990478199 -0.029591545163434652 0 -0.48157039955536241 -0.044558511477442143 0 -0.46914163899380801 -0.061760229887868598 0 -0.45768975774058179 -0.035844230274481748 0 -0.48157039955536241 -0.044558511477442143 0 -0.48230491698392047 -0.057318093012348498 0 -0.46914163899380801 -0.061760229887868598 0 -0.46914163899380801 -0.061760229887868598 0 -0.45768975774058179 -0.035844230274481748 0 -0.44688553471578463 -0.051399134646207288 0 -0.46914163899380801 -0.061760229887868598 0 -0.45768975774058179 -0.035844230274481748 0 -0.46264955769922828 -0.069236149835977229 0 -0.46914163899380801 -0.061760229887868598 0 -0.44688553471578463 -0.051399134646207288 0 -0.46914163899380801 -0.061760229887868598 0 -0.44688553471578463 -0.051399134646207288 0 -0.43628267576141971 -0.035329403205585218 0 -0.44354830351403418 -0.034418653902415733 0 -0.44688553471578463 -0.051399134646207288 0 -0.45768975774058179 -0.035844230274481748 0 -0.44354830351403418 -0.034418653902415733 0 -0.44688553471578463 -0.051399134646207288 0 -0.45768975774058179 -0.035844230274481748 0 -0.44354830351403418 -0.034418653902415733 0 -0.44312252706978628 -0.024928407146411868 0 -0.43628267576141971 -0.035329403205585218 0 -0.43710875721387199 -0.026668229939385779 0 -0.44354830351403418 -0.034418653902415733 0 -0.43950717444435422 -0.063784996514660589 0 -0.45074392082461212 -0.072028697807882153 0 -0.44688553471578463 -0.051399134646207288 0 -0.43147245553696489 -0.05279552735729795 0 -0.43950717444435422 -0.063784996514660589 0 -0.44688553471578463 -0.051399134646207288 0 -0.43591977417237449 -0.008065469867085449 0 -0.44623787648735791 -0.0099282306610938807 0 -0.43740981058492812 0.01004998492246997 0 -0.43591977417237449 -0.008065469867085449 0 -0.44623787648735791 -0.0099282306610938807 0 -0.43928417642389239 -0.017661557407765791 0 -0.43591977417237449 -0.008065469867085449 0 -0.44623787648735791 -0.0099282306610938807 0 -0.43710875721387199 -0.026668229939385779 0 -0.43928417642389239 -0.017661557407765791 0 -0.44312252706978628 -0.024928407146411868 0 -0.45768975774058179 -0.035844230274481748 0 -0.44623787648735791 -0.0099282306610938807 0 -0.44312252706978628 -0.024928407146411868 0 -0.45768975774058179 -0.035844230274481748 0 -0.44623787648735791 -0.0099282306610938807 0 -0.44623787648735791 -0.0099282306610938807 0 -0.43928417642389239 -0.017661557407765791 0 -0.44312252706978628 -0.024928407146411868 0 -0.43710875721387199 -0.026668229939385779 0 -0.44354830351403418 -0.034418653902415733 0 -0.44312252706978628 -0.024928407146411868 0 -0.45768975774058179 -0.035844230274481748 0 -0.44623787648735791 -0.0099282306610938807 0 -0.47146408957177099 -0.01448240150379307 0 -0.44623787648735791 -0.0099282306610938807 0 -0.47146408957177099 -0.01448240150379307 0 -0.44623787648735791 -0.0099282306610938807 0 -0.47146408957177099 -0.01448240150379307 0 -0.46048772545436639 0.0043098071123656434 0 -0.47146408957177099 -0.01448240150379307 0 -0.47882554305316488 -0.0018417715126103191 0 -0.46048772545436639 0.0043098071123656434 0 -0.47146408957177099 -0.01448240150379307 0 -0.47882554305316488 -0.0018417715126103191 0 -0.49669030265618502 -0.01903657234648758 0 -0.47146408957177099 -0.01448240150379307 0 -0.49669030265618502 -0.01903657234648758 0 -0.47146408957177099 -0.01448240150379307 0 -0.48148290990478199 -0.029591545163434652 0 -0.49669030265618502 -0.01903657234648758 0 -0.45768975774058179 -0.035844230274481748 0 -0.47146408957177099 -0.01448240150379307 0 -0.48148290990478199 -0.029591545163434652 0 -0.500000000000004 -0.034036010214970061 0 -0.48148290990478199 -0.029591545163434652 0 -0.49669030265618502 -0.01903657234648758 0 -0.49669030265618502 -0.01903657234648758 0 -0.50000000000000056 -0.019634082844440681 0 -0.500000000000004 -0.034036010214970061 0 -0.49669030265618502 -0.01903657234648758 0 -0.500000000000004 -0.034036010214970061 0 -0.49669030265618502 -0.01903657234648758 0 -0.50000000000000056 -0.019634082844440681 0 -0.47882554305316488 -0.0018417715126103191 0 -0.49669030265618502 -0.01903657234648758 0 -0.49160980924365538 0.0039880541876541054 0 -0.49669030265618502 -0.01903657234648758 0 -0.49160980924365538 0.0039880541876541054 0 -0.49669030265618502 -0.01903657234648758 0 -0.50000000000000056 -0.019634082844440681 0 -0.49160980924365538 0.0039880541876541054 0 -0.50000000000000056 -0.019634082844440681 0 -0.49160980924365538 0.0039880541876541054 0 -0.50000000000000033 0.009303662189531537 0 -0.49160980924365538 0.0039880541876541054 0 -0.48652931583112352 0.027012680721795381 0 -0.49160980924365538 0.0039880541876541054 0 -0.50000000000000033 0.009303662189531537 0 -0.48652931583112352 0.027012680721795381 0 -0.50000000000000033 0.009303662189531537 0 -0.5 0.03611151152349279 0 -0.49175907743105379 0.031398254416965428 0 -0.50000000000000033 0.009303662189531537 0 -0.49175907743105379 0.031398254416965428 0 -0.50000000000000033 0.009303662189531537 0 -0.48652931583112352 0.027012680721795381 0 -0.49175907743105379 0.031398254416965428 0 -0.48652931583112352 0.027012680721795381 0 -0.47387578833984401 0.016012254987208822 0 -0.46815351836101687 0.031449839152918539 0 -0.49160980924365538 0.0039880541876541054 0 -0.48652931583112352 0.027012680721795381 0 -0.47387578833984401 0.016012254987208822 0 -0.47882554305316488 -0.0018417715126103191 0 -0.49160980924365538 0.0039880541876541054 0 -0.47387578833984401 0.016012254987208822 0 -0.47882554305316488 -0.0018417715126103191 0 -0.47387578833984401 0.016012254987208822 0 -0.46048772545436639 0.0043098071123656434 0 -0.49282352307895688 0.045257754500502748 0 -0.5 0.03611151152349279 0 -0.5 0.062919360857453976 0 -0.49282352307895688 0.045257754500502748 0 -0.48351815486210709 0.053492846644399093 0 -0.5 0.062919360857453976 0 -0.49175907743105379 0.031398254416965428 0 -0.48144882241859149 0.050037307255936581 0 -0.48351815486210709 0.053492846644399093 0 -0.48652931583112352 0.027012680721795381 0 -0.49175907743105379 0.031398254416965428 0 -0.48144882241859149 0.050037307255936581 0 -0.49175907743105379 0.031398254416965428 0 -0.48351815486210709 0.053492846644399093 0 -0.49282352307895688 0.045257754500502748 0 -0.49175907743105379 0.031398254416965428 0 -0.48351815486210709 0.053492846644399093 0 -0.49282352307895688 0.045257754500502748 0 -0.5 0.03611151152349279 0 -0.49175907743105379 0.031398254416965428 0 -0.48144882241859149 0.050037307255936581 0 -0.4639696453013944 0.043374392403556838 0 -0.46815351836101687 0.031449839152918539 0 -0.48652931583112352 0.027012680721795381 0 -0.48144882241859149 0.050037307255936581 0 -0.48652931583112352 0.027012680721795381 0 -0.48144882241859149 0.050037307255936581 0 -0.46815351836101687 0.031449839152918539 0 -0.48144882241859149 0.050037307255936581 0 -0.45709786057011947 0.055708105081253657 0 -0.47636832900606041 0.073061933790077832 0 -0.48144882241859149 0.050037307255936581 0 -0.48351815486210709 0.053492846644399093 0 -0.47636832900606041 0.073061933790077832 0 -0.48144882241859149 0.050037307255936581 0 -0.47636832900606041 0.073061933790077832 0 -0.48144882241859149 0.050037307255936581 0 -0.45709786057011947 0.055708105081253657 0 -0.4639696453013944 0.043374392403556838 0 -0.45709786057011947 0.055708105081253657 0 -0.4639696453013944 0.043374392403556838 0 -0.45299045524759751 0.034902057762674861 0 -0.4639696453013944 0.043374392403556838 0 -0.46815351836101687 0.031449839152918539 0 -0.45299045524759751 0.034902057762674861 0 -0.46815351836101687 0.031449839152918539 0 -0.45299045524759751 0.034902057762674861 0 -0.45709786057011947 0.055708105081253657 0 -0.45299045524759751 0.034902057762674861 0 -0.43782739213417787 0.038354276372430232 0 -0.45299045524759751 0.034902057762674861 0 -0.43782739213417787 0.038354276372430232 0 -0.45299045524759751 0.034902057762674861 0 -0.43782739213417787 0.038354276372430232 0 -0.44297011017848281 0.02707887027054981 0 -0.45709786057011947 0.055708105081253657 0 -0.43782739213417787 0.038354276372430232 0 -0.43187248081207541 0.055496176207803817 0 -0.45709786057011947 0.055708105081253657 0 -0.43782739213417787 0.038354276372430232 0 -0.45709786057011947 0.055708105081253657 0 -0.43187248081207541 0.055496176207803817 0 -0.43763284036668942 0.072255399145110422 0 -0.47387578833984401 0.016012254987208822 0 -0.46048772545436639 0.0043098071123656434 0 -0.45598123469437257 0.020633802368031268 0 -0.47387578833984401 0.016012254987208822 0 -0.46815351836101687 0.031449839152918539 0 -0.45598123469437257 0.020633802368031268 0 -0.46815351836101687 0.031449839152918539 0 -0.45299045524759751 0.034902057762674861 0 -0.45598123469437257 0.020633802368031268 0 -0.45598123469437257 0.020633802368031268 0 -0.44297011017848281 0.02707887027054981 0 -0.43740981058492812 0.01004998492246997 0 -0.45299045524759751 0.034902057762674861 0 -0.45598123469437257 0.020633802368031268 0 -0.44297011017848281 0.02707887027054981 0 -0.46048772545436639 0.0043098071123656434 0 -0.45598123469437257 0.020633802368031268 0 -0.43740981058492812 0.01004998492246997 0 -0.44623787648735791 -0.0099282306610938807 0 -0.46048772545436639 0.0043098071123656434 0 -0.43740981058492812 0.01004998492246997 0 -0.44623787648735791 -0.0099282306610938807 0 -0.43740981058492812 0.01004998492246997 0 -0.43591977417237449 -0.008065469867085449 0 -0.43740981058492812 0.01004998492246997 0 -0.42583279771702431 0.00046528033667210148 0 -0.43740981058492812 0.01004998492246997 0 -0.42292027786463471 0.01349413118407828 0 -0.42583279771702431 0.00046528033667210148 0 -0.41794895562780338 -0.01094222954485795 0 -0.40909120882054839 0.01273065398649661 0 -0.41794895562780338 -0.01094222954485795 0 -0.40352261506359649 -0.001038070178381474 0 -0.40909120882054839 0.01273065398649661 0 -0.42292027786463471 0.01349413118407828 0 -0.42583279771702431 0.00046528033667210148 0 -0.40909120882054839 0.01273065398649661 0 -0.41794895562780338 -0.01094222954485795 0 -0.42583279771702431 0.00046528033667210148 0 -0.40909120882054839 0.01273065398649661 0 -0.40909120882054839 0.01273065398649661 0 -0.41494363987246979 0.023236645495722939 0 -0.40023346201329341 0.036403537517851137 0 -0.41494363987246979 0.023236645495722939 0 -0.41436175989852531 0.033604495869393458 0 -0.40023346201329341 0.036403537517851137 0 -0.42292027786463471 0.01349413118407828 0 -0.41494363987246979 0.023236645495722939 0 -0.424969395700869 0.026775135554755129 0 -0.42292027786463471 0.01349413118407828 0 -0.40909120882054839 0.01273065398649661 0 -0.41494363987246979 0.023236645495722939 0 -0.41494363987246979 0.023236645495722939 0 -0.41896391809246269 0.029132761591660509 0 -0.41436175989852531 0.033604495869393458 0 -0.41494363987246979 0.023236645495722939 0 -0.41896391809246269 0.029132761591660509 0 -0.424969395700869 0.026775135554755129 0 -0.41896391809246269 0.029132761591660509 0 -0.424969395700869 0.026775135554755129 0 -0.42158087689798668 0.032914769446770492 0 -0.424969395700869 0.026775135554755129 0 -0.42858174468249838 0.030028200506033911 0 -0.42158087689798668 0.032914769446770492 0 -0.44297011017848281 0.02707887027054981 0 -0.43740981058492812 0.01004998492246997 0 -0.42858174468249838 0.030028200506033911 0 -0.43740981058492812 0.01004998492246997 0 -0.42292027786463471 0.01349413118407828 0 -0.424969395700869 0.026775135554755129 0 -0.43740981058492812 0.01004998492246997 0 -0.42858174468249838 0.030028200506033911 0 -0.43740981058492812 0.01004998492246997 0 -0.424969395700869 0.026775135554755129 0 -0.42858174468249838 0.030028200506033911 0 -0.424969395700869 0.026775135554755129 0 -0.42858174468249838 0.030028200506033911 0 -0.43782739213417787 0.038354276372430232 0 -0.44297011017848281 0.02707887027054981 0 -0.42858174468249838 0.030028200506033911 0 -0.43782739213417787 0.038354276372430232 0 -0.42858174468249838 0.030028200506033911 0 -0.42345682706553001 0.041626064651069543 0 -0.43782739213417787 0.038354276372430232 0 -0.42345682706553001 0.041626064651069543 0 -0.43187248081207541 0.055496176207803817 0 -0.43782739213417787 0.038354276372430232 0 -0.42858174468249838 0.030028200506033911 0 -0.43782739213417787 0.038354276372430232 0 -0.42345682706553001 0.041626064651069543 0 -0.42858174468249838 0.030028200506033911 0 -0.42345682706553001 0.041626064651069543 0 -0.42158087689798668 0.032914769446770492 0 -0.42858174468249838 0.030028200506033911 0 -0.42345682706553001 0.041626064651069543 0 -0.42345682706553001 0.041626064651069543 0 -0.43187248081207541 0.055496176207803817 0 -0.4177568865966339 0.054525225210098782 0 -0.43187248081207541 0.055496176207803817 0 -0.4177568865966339 0.054525225210098782 0 -0.41753301535116211 0.067129086497859855 0 -0.42345682706553001 0.041626064651069543 0 -0.4177568865966339 0.054525225210098782 0 -0.40276573021624068 0.046336866753853997 0 -0.4177568865966339 0.054525225210098782 0 -0.40750332447406851 0.057375884956624552 0 -0.41753301535116211 0.067129086497859855 0 -0.42345682706553001 0.041626064651069543 0 -0.4177568865966339 0.054525225210098782 0 -0.4177568865966339 0.054525225210098782 0 -0.40750332447406851 0.057375884956624552 0 -0.40276573021624068 0.046336866753853997 0 -0.42345682706553001 0.041626064651069543 0 -0.40276573021624068 0.046336866753853997 0 -0.42345682706553001 0.041626064651069543 0 -0.41020444479839763 0.039492741198042178 0 -0.40276573021624068 0.046336866753853997 0 -0.42345682706553001 0.041626064651069543 0 -0.41436175989852531 0.033604495869393458 0 -0.42158087689798668 0.032914769446770492 0 -0.42345682706553001 0.041626064651069543 0 -0.41436175989852531 0.033604495869393458 0 -0.41020444479839763 0.039492741198042178 0 -0.41896391809246269 0.029132761591660509 0 -0.41436175989852531 0.033604495869393458 0 -0.42158087689798668 0.032914769446770492 0 -0.41436175989852531 0.033604495869393458 0 -0.41020444479839763 0.039492741198042178 0 -0.40023346201329341 0.036403537517851137 0 -0.40276573021624068 0.046336866753853997 0 -0.38207463336695202 0.051047668856640811 0 -0.38772007791329738 0.03985096685417347 0 -0.41020444479839763 0.039492741198042178 0 -0.40023346201329341 0.036403537517851137 0 -0.40276573021624068 0.046336866753853997 0 -0.40023346201329341 0.036403537517851137 0 -0.40276573021624068 0.046336866753853997 0 -0.38772007791329738 0.03985096685417347 0 -0.40023346201329341 0.036403537517851137 0 -0.38772007791329738 0.03985096685417347 0 -0.38925836826538629 0.030805614435688099 0 -0.40276573021624068 0.046336866753853997 0 -0.38207463336695202 0.051047668856640811 0 -0.40276573021624068 0.046336866753853997 0 -0.39689466156197101 0.057407184083191301 0 -0.38207463336695202 0.051047668856640811 0 -0.40750332447406851 0.057375884956624552 0 -0.39689466156197101 0.057407184083191301 0 -0.40210564328563447 0.066115584712721373 0 -0.40750332447406851 0.057375884956624552 0 -0.40276573021624068 0.046336866753853997 0 -0.39689466156197101 0.057407184083191301 0 -0.38207463336695202 0.051047668856640811 0 -0.38848633305814179 0.065600711414542545 0 -0.36891219827968119 0.060077996683558232 0 -0.39689466156197101 0.057407184083191301 0 -0.38207463336695202 0.051047668856640811 0 -0.38848633305814179 0.065600711414542545 0 -0.38772007791329738 0.03985096685417347 0 -0.37937813184432773 0.031366277704107569 0 -0.38925836826538629 0.030805614435688099 0 -0.38207463336695202 0.051047668856640811 0 -0.38772007791329738 0.03985096685417347 0 -0.37261014177358448 0.043145835856899219 0 -0.38772007791329738 0.03985096685417347 0 -0.37937813184432773 0.031366277704107569 0 -0.37261014177358448 0.043145835856899219 0 -0.37937813184432773 0.031366277704107569 0 -0.38391758338059062 0.022870450659759161 0 -0.37479293228070759 0.022502646493578662 0 -0.37937813184432773 0.031366277704107569 0 -0.38925836826538629 0.030805614435688099 0 -0.38391758338059062 0.022870450659759161 0 -0.38925836826538629 0.030805614435688099 0 -0.38391758338059062 0.022870450659759161 0 -0.3946160130735708 0.021551959563878339 0 -0.38391758338059062 0.022870450659759161 0 -0.38667067902898572 0.013842153393714489 0 -0.3946160130735708 0.021551959563878339 0 -0.38391758338059062 0.022870450659759161 0 -0.3778438638662554 0.014761087644765769 0 -0.38667067902898572 0.013842153393714489 0 -0.38391758338059062 0.022870450659759161 0 -0.3778438638662554 0.014761087644765769 0 -0.37479293228070759 0.022502646493578662 0 -0.3778438638662554 0.014761087644765769 0 -0.38165634421242611 0.0056742618597281089 0 -0.38667067902898572 0.013842153393714489 0 -0.3778438638662554 0.014761087644765769 0 -0.38165634421242611 0.0056742618597281089 0 -0.37464316483836829 0.0066416053135349984 0 -0.37774077980655368 -0.001289555558904682 0 -0.38165634421242611 0.0056742618597281089 0 -0.37464316483836829 0.0066416053135349984 0 -0.3848191179490616 -0.0027051675553946518 0 -0.37774077980655368 -0.001289555558904682 0 -0.38165634421242611 0.0056742618597281089 0 -0.3848191179490616 -0.0027051675553946518 0 -0.38165634421242611 0.0056742618597281089 0 -0.38845980705381639 0.0057813395070211177 0 -0.39408165103759368 -0.0019794594859314238 0 -0.3848191179490616 -0.0027051675553946518 0 -0.38845980705381639 0.0057813395070211177 0 -0.38845980705381639 0.0057813395070211177 0 -0.38667067902898572 0.013842153393714489 0 -0.39627830677719 0.008853295208583448 0 -0.38165634421242611 0.0056742618597281089 0 -0.38845980705381639 0.0057813395070211177 0 -0.38667067902898572 0.013842153393714489 0 -0.38667067902898572 0.013842153393714489 0 -0.39627830677719 0.008853295208583448 0 -0.3946160130735708 0.021551959563878339 0 -0.39408165103759368 -0.0019794594859314238 0 -0.38845980705381639 0.0057813395070211177 0 -0.39627830677719 0.008853295208583448 0 -0.40352261506359649 -0.001038070178381474 0 -0.39408165103759368 -0.0019794594859314238 0 -0.39627830677719 0.008853295208583448 0 -0.40352261506359649 -0.001038070178381474 0 -0.40909120882054839 0.01273065398649661 0 -0.39627830677719 0.008853295208583448 0 -0.40909120882054839 0.01273065398649661 0 -0.39627830677719 0.008853295208583448 0 -0.3946160130735708 0.021551959563878339 0 -0.40909120882054839 0.01273065398649661 0 -0.40023346201329341 0.036403537517851137 0 -0.3946160130735708 0.021551959563878339 0 -0.40909120882054839 0.01273065398649661 0 -0.40023346201329341 0.036403537517851137 0 -0.40023346201329341 0.036403537517851137 0 -0.38925836826538629 0.030805614435688099 0 -0.3946160130735708 0.021551959563878339 0 -0.38696142946532958 0.1003701901717608 0 -0.40164011277457379 0.081352107660276216 0 -0.40864304721671202 0.1107171055473533 0 -0.38750957741872682 0.11885909540365321 0 -0.40864304721671202 0.1107171055473533 0 -0.39401402549175851 0.1361747599337243 0 -0.38750957741872682 0.11885909540365321 0 -0.38696142946532958 0.1003701901717608 0 -0.40864304721671202 0.1107171055473533 0 -0.38750957741872682 0.11885909540365321 0 -0.38696142946532958 0.1003701901717608 0 -0.36904533532088801 0.1177582563576956 0 -0.38696142946532958 0.1003701901717608 0 -0.37090825683648998 0.098456277756480637 0 -0.36904533532088801 0.1177582563576956 0 -0.37929074908003868 0.077603726490867345 0 -0.40164011277457379 0.081352107660276216 0 -0.38696142946532958 0.1003701901717608 0 -0.37929074908003868 0.077603726490867345 0 -0.40164011277457379 0.081352107660276216 0 -0.38696142946532958 0.1003701901717608 0 -0.37929074908003868 0.077603726490867345 0 -0.37090825683648998 0.098456277756480637 0 -0.37929074908003868 0.077603726490867345 0 -0.38848633305814179 0.065600711414542545 0 -0.36891219827968119 0.060077996683558232 0 -0.37929074908003868 0.077603726490867345 0 -0.38848633305814179 0.065600711414542545 0 -0.40164011277457379 0.081352107660276216 0 -0.38848633305814179 0.065600711414542545 0 -0.40210564328563447 0.066115584712721373 0 -0.40164011277457379 0.081352107660276216 0 -0.39689466156197101 0.057407184083191301 0 -0.38848633305814179 0.065600711414542545 0 -0.40210564328563447 0.066115584712721373 0 -0.40164011277457379 0.081352107660276216 0 -0.42398947646910912 0.085100488829685086 0 -0.40164011277457379 0.081352107660276216 0 -0.42398947646910912 0.085100488829685086 0 -0.40864304721671202 0.1107171055473533 0 -0.40210564328563447 0.066115584712721373 0 -0.40164011277457379 0.081352107660276216 0 -0.41753301535116211 0.067129086497859855 0 -0.40164011277457379 0.081352107660276216 0 -0.41753301535116211 0.067129086497859855 0 -0.42398947646910912 0.085100488829685086 0 -0.40750332447406851 0.057375884956624552 0 -0.40210564328563447 0.066115584712721373 0 -0.41753301535116211 0.067129086497859855 0 -0.41753301535116211 0.067129086497859855 0 -0.42398947646910912 0.085100488829685086 0 -0.43763284036668942 0.072255399145110422 0 -0.43187248081207541 0.055496176207803817 0 -0.41753301535116211 0.067129086497859855 0 -0.43763284036668942 0.072255399145110422 0 -0.42398947646910912 0.085100488829685086 0 -0.44633884016364428 0.088848869999093971 0 -0.42398947646910912 0.085100488829685086 0 -0.43763284036668942 0.072255399145110422 0 -0.44633884016364428 0.088848869999093971 0 -0.42398947646910912 0.085100488829685086 0 -0.42906186480059683 0.10519001099972999 0 -0.44633884016364428 0.088848869999093971 0 -0.42398947646910912 0.085100488829685086 0 -0.42906186480059683 0.10519001099972999 0 -0.40864304721671202 0.1107171055473533 0 -0.40864304721671202 0.1107171055473533 0 -0.43267942878230348 0.12559175737704789 0 -0.42906186480059683 0.10519001099972999 0 -0.40864304721671202 0.1107171055473533 0 -0.43267942878230348 0.12559175737704789 0 -0.42906186480059683 0.10519001099972999 0 -0.4489383204882843 0.11104189391905871 0 -0.43267942878230348 0.12559175737704789 0 -0.4489383204882843 0.11104189391905871 0 -0.45289828098281221 0.1241297055338681 0 -0.43267942878230348 0.12559175737704789 0 -0.4489383204882843 0.11104189391905871 0 -0.43267942878230348 0.12559175737704789 0 -0.42906186480059683 0.10519001099972999 0 -0.4489383204882843 0.11104189391905871 0 -0.44633884016364428 0.088848869999093971 0 -0.4489383204882843 0.11104189391905871 0 -0.44633884016364428 0.088848869999093971 0 -0.47121921728662652 0.096397536200283296 0 -0.46607010556719342 0.11973313861048911 0 -0.47121921728662652 0.096397536200283296 0 -0.4489383204882843 0.11104189391905871 0 -0.46607010556719342 0.11973313861048911 0 -0.47121921728662652 0.096397536200283296 0 -0.4489383204882843 0.11104189391905871 0 -0.45289828098281221 0.1241297055338681 0 -0.46607010556719342 0.11973313861048911 0 -0.45709786057011947 0.055708105081253657 0 -0.43763284036668942 0.072255399145110422 0 -0.45544766770060358 0.07348919590478746 0 -0.43763284036668942 0.072255399145110422 0 -0.44633884016364428 0.088848869999093971 0 -0.45544766770060358 0.07348919590478746 0 -0.44633884016364428 0.088848869999093971 0 -0.45544766770060358 0.07348919590478746 0 -0.47121921728662652 0.096397536200283296 0 -0.45544766770060358 0.07348919590478746 0 -0.47636832900606041 0.073061933790077832 0 -0.47121921728662652 0.096397536200283296 0 -0.45709786057011947 0.055708105081253657 0 -0.47636832900606041 0.073061933790077832 0 -0.45709786057011947 0.055708105081253657 0 -0.45544766770060358 0.07348919590478746 0 -0.47636832900606041 0.073061933790077832 0 -0.48351815486210709 0.053492846644399093 0 -0.47636832900606041 0.073061933790077832 0 -0.49140909277123612 0.074197219851226057 0 -0.47636832900606041 0.073061933790077832 0 -0.48274454235378189 0.091705374172880549 0 -0.47121921728662652 0.096397536200283296 0 -0.47636832900606041 0.073061933790077832 0 -0.47121921728662652 0.096397536200283296 0 -0.47636832900606041 0.073061933790077832 0 -0.49715897998801373 0.091784747772784503 0 -0.5 0.089727210191415163 0 -0.49715897998801373 0.091784747772784503 0 -0.49140909277123612 0.074197219851226057 0 -0.47636832900606041 0.073061933790077832 0 -0.48274454235378189 0.091705374172880549 0 -0.49715897998801373 0.091784747772784503 0 -0.47636832900606041 0.073061933790077832 0 -0.49715897998801373 0.091784747772784503 0 -0.49140909277123612 0.074197219851226057 0 -0.5 0.089727210191415163 0 -0.5 0.062919360857453976 0 -0.49140909277123612 0.074197219851226057 0 -0.48351815486210709 0.053492846644399093 0 -0.5 0.062919360857453976 0 -0.49140909277123612 0.074197219851226057 0 -0.46607010556719342 0.11973313861048911 0 -0.48623164313442779 0.1055772789283768 0 -0.48453668432005692 0.123143207324586 0 -0.46607010556719342 0.11973313861048911 0 -0.47121921728662652 0.096397536200283296 0 -0.48623164313442779 0.1055772789283768 0 -0.48274454235378189 0.091705374172880549 0 -0.47121921728662652 0.096397536200283296 0 -0.48623164313442779 0.1055772789283768 0 -0.5 0.089727210191415163 0 -0.49715897998801373 0.091784747772784503 0 -0.5 0.1165350595253765 0 -0.49715897998801373 0.091784747772784503 0 -0.48623164313442779 0.1055772789283768 0 -0.5 0.1165350595253765 0 -0.48274454235378189 0.091705374172880549 0 -0.49715897998801373 0.091784747772784503 0 -0.48623164313442779 0.1055772789283768 0 -0.48623164313442779 0.1055772789283768 0 -0.5 0.1165350595253765 0 -0.48453668432005692 0.123143207324586 0 -0.5 0.1165350595253765 0 -0.48453668432005692 0.123143207324586 0 -0.5 0.1433429088593379 0 -0.48453668432005692 0.123143207324586 0 -0.48049738108946538 0.1379484740379 0 -0.5 0.1433429088593379 0 -0.46607010556719342 0.11973313861048911 0 -0.48453668432005692 0.123143207324586 0 -0.48049738108946538 0.1379484740379 0 -0.46607010556719342 0.11973313861048911 0 -0.48049738108946538 0.1379484740379 0 -0.46092099384776192 0.14306874102069511 0 -0.48464943840857888 0.15775282940309851 0 -0.46990863904630059 0.1670362475492525 0 -0.46092099384776192 0.14306874102069511 0 -0.48464943840857888 0.15775282940309851 0 -0.46092099384776192 0.14306874102069511 0 -0.48049738108946538 0.1379484740379 0 -0.48464943840857888 0.15775282940309851 0 -0.46092099384776192 0.14306874102069511 0 -0.48049738108946538 0.1379484740379 0 -0.5 0.1433429088593379 0 -0.48464943840857888 0.15775282940309851 0 -0.48464943840857888 0.15775282940309851 0 -0.5 0.17015075819329931 0 -0.4898809761324775 0.17912292006808481 0 -0.5 0.1433429088593379 0 -0.48464943840857888 0.15775282940309851 0 -0.5 0.17015075819329931 0 -0.48464943840857888 0.15775282940309851 0 -0.4898809761324775 0.17912292006808481 0 -0.47865635922375932 0.17909963177513319 0 -0.5 0.17015075819329931 0 -0.4898809761324775 0.17912292006808481 0 -0.5 0.19695860752726069 0 -0.4898809761324775 0.17912292006808481 0 -0.47865635922375932 0.17909963177513319 0 -0.48609908303004917 0.1916527734416324 0 -0.47865635922375932 0.17909963177513319 0 -0.47279817792341111 0.1948006201282925 0 -0.47865635922375932 0.17909963177513319 0 -0.46589335310649882 0.18744802338852329 0 -0.47279817792341111 0.1948006201282925 0 -0.47865635922375932 0.17909963177513319 0 -0.46927870962167312 0.17493875400548389 0 -0.46990863904630059 0.1670362475492525 0 -0.47865635922375932 0.17909963177513319 0 -0.46927870962167312 0.17493875400548389 0 -0.46555461593459269 0.18128722400797501 0 -0.47865635922375932 0.17909963177513319 0 -0.46589335310649882 0.18744802338852329 0 -0.46555461593459269 0.18128722400797501 0 -0.48464943840857888 0.15775282940309851 0 -0.47865635922375932 0.17909963177513319 0 -0.46990863904630059 0.1670362475492525 0 -0.45742932361540911 0.15889287394486271 0 -0.45393765338305497 0.17471700686903011 0 -0.46990863904630059 0.1670362475492525 0 -0.45742932361540911 0.15889287394486271 0 -0.46092099384776192 0.14306874102069511 0 -0.45742932361540911 0.15889287394486271 0 -0.46299522428203971 0.17233191268957501 0 -0.45393765338305497 0.17471700686903011 0 -0.46927870962167312 0.17493875400548389 0 -0.46990863904630059 0.1670362475492525 0 -0.46299522428203971 0.17233191268957501 0 -0.46990863904630059 0.1670362475492525 0 -0.45742932361540911 0.15889287394486271 0 -0.46299522428203971 0.17233191268957501 0 -0.46589335310649882 0.18744802338852329 0 -0.46555461593459269 0.18128722400797501 0 -0.45393765338305497 0.17471700686903011 0 -0.46589335310649882 0.18744802338852329 0 -0.46555461593459269 0.18128722400797501 0 -0.46927870962167312 0.17493875400548389 0 -0.46555461593459269 0.18128722400797501 0 -0.46299522428203971 0.17233191268957501 0 -0.46555461593459269 0.18128722400797501 0 -0.46299522428203971 0.17233191268957501 0 -0.45393765338305497 0.17471700686903011 0 -0.46589335310649882 0.18744802338852329 0 -0.45393765338305497 0.17471700686903011 0 -0.45393765338305497 0.17471700686903011 0 -0.44047241453070329 0.18324079402305421 0 -0.44820564853932793 0.20069426145875721 0 -0.45393765338305497 0.17471700686903011 0 -0.44047241453070329 0.18324079402305421 0 -0.44174290600336708 0.16173144065936321 0 -0.45742932361540911 0.15889287394486271 0 -0.44174290600336708 0.16173144065936321 0 -0.44616928685712581 0.1494742970518641 0 -0.45742932361540911 0.15889287394486271 0 -0.45393765338305497 0.17471700686903011 0 -0.44174290600336708 0.16173144065936321 0 -0.45393765338305497 0.17471700686903011 0 -0.44174290600336708 0.16173144065936321 0 -0.44174290600336708 0.16173144065936321 0 -0.44616928685712581 0.1494742970518641 0 -0.43187713239064979 0.1573343508491826 0 -0.44616928685712581 0.1494742970518641 0 -0.43700896048386301 0.14249666109927989 0 -0.43187713239064979 0.1573343508491826 0 -0.44616928685712581 0.1494742970518641 0 -0.44680021131503311 0.13433024919887079 0 -0.46092099384776192 0.14306874102069511 0 -0.44616928685712581 0.1494742970518641 0 -0.44680021131503311 0.13433024919887079 0 -0.43700896048386301 0.14249666109927989 0 -0.45289828098281221 0.1241297055338681 0 -0.44680021131503311 0.13433024919887079 0 -0.43267942878230348 0.12559175737704789 0 -0.44680021131503311 0.13433024919887079 0 -0.43267942878230348 0.12559175737704789 0 -0.43700896048386301 0.14249666109927989 0 -0.44680021131503311 0.13433024919887079 0 -0.43267942878230348 0.12559175737704789 0 -0.45289828098281221 0.1241297055338681 0 -0.44680021131503311 0.13433024919887079 0 -0.46092099384776192 0.14306874102069511 0 -0.46607010556719342 0.11973313861048911 0 -0.46092099384776192 0.14306874102069511 0 -0.45289828098281221 0.1241297055338681 0 -0.46607010556719342 0.11973313861048911 0 -0.46092099384776192 0.14306874102069511 0 -0.44680021131503311 0.13433024919887079 0 -0.46092099384776192 0.14306874102069511 0 -0.45742932361540911 0.15889287394486271 0 -0.46092099384776192 0.14306874102069511 0 -0.45742932361540911 0.15889287394486271 0 -0.44616928685712581 0.1494742970518641 0 -0.46092099384776192 0.14306874102069511 0 -0.46853242371352971 0.23544625301742969 0 -0.46993231893463527 0.26090691788180947 0 -0.48177750529808522 0.24619974485466931 0 -0.46853242371352971 0.23544625301742969 0 -0.46993231893463527 0.26090691788180947 0 -0.48177750529808522 0.24619974485466931 0 -0.48375626182904402 0.22755154475287301 0 -0.46853242371352971 0.23544625301742969 0 -0.48177750529808522 0.24619974485466931 0 -0.5 0.2461359573144368 0 -0.48375626182904402 0.22755154475287301 0 -0.5 0.2461359573144368 0 -0.48375626182904402 0.22755154475287301 0 -0.49999999999999978 0.22376645686122221 0 -0.48375626182904402 0.22755154475287301 0 -0.48639908896170481 0.20928353849475789 0 -0.5 0.2461359573144368 0 -0.49999999999999978 0.22376645686122221 0 -0.48375626182904402 0.22755154475287301 0 -0.47173343442327142 0.22048762952866541 0 -0.46713252849242448 0.20998558815304991 0 -0.46853242371352971 0.23544625301742969 0 -0.48375626182904402 0.22755154475287301 0 -0.47173343442327142 0.22048762952866541 0 -0.4670472636537164 0.20843482960316059 0 -0.48375626182904402 0.22755154475287301 0 -0.47173343442327142 0.22048762952866541 0 -0.46853242371352971 0.23544625301742969 0 -0.48375626182904402 0.22755154475287301 0 -0.4670472636537164 0.20843482960316059 0 -0.48639908896170481 0.20928353849475789 0 -0.47279817792341111 0.1948006201282925 0 -0.4670472636537164 0.20843482960316059 0 -0.48375626182904402 0.22755154475287301 0 -0.48639908896170481 0.20928353849475789 0 -0.4670472636537164 0.20843482960316059 0 -0.49999999999999978 0.22376645686122221 0 -0.48639908896170481 0.20928353849475789 0 -0.5 0.19695860752726069 0 -0.49999999999999978 0.22376645686122221 0 -0.48639908896170481 0.20928353849475789 0 -0.48639908896170481 0.20928353849475789 0 -0.5 0.19695860752726069 0 -0.48609908303004917 0.1916527734416324 0 -0.4898809761324775 0.17912292006808481 0 -0.5 0.19695860752726069 0 -0.48609908303004917 0.1916527734416324 0 -0.48639908896170481 0.20928353849475789 0 -0.48609908303004917 0.1916527734416324 0 -0.47279817792341111 0.1948006201282925 0 -0.47865635922375932 0.17909963177513319 0 -0.48609908303004917 0.1916527734416324 0 -0.47279817792341111 0.1948006201282925 0 -0.48639908896170481 0.20928353849475789 0 -0.47279817792341111 0.1948006201282925 0 -0.47279817792341111 0.1948006201282925 0 -0.4670472636537164 0.20843482960316059 0 -0.46589335310649882 0.18744802338852329 0 -0.47279817792341111 0.1948006201282925 0 -0.46589335310649882 0.18744802338852329 0 -0.4603250720810298 0.20074399020462361 0 -0.4670472636537164 0.20843482960316059 0 -0.46589335310649882 0.18744802338852329 0 -0.45393765338305497 0.17471700686903011 0 -0.44820564853932793 0.20069426145875721 0 -0.46589335310649882 0.18744802338852329 0 -0.4603250720810298 0.20074399020462361 0 -0.44820564853932793 0.20069426145875721 0 -0.46589335310649882 0.18744802338852329 0 -0.47279817792341111 0.1948006201282925 0 -0.4670472636537164 0.20843482960316059 0 -0.46589335310649882 0.18744802338852329 0 -0.4670472636537164 0.20843482960316059 0 -0.45393765338305497 0.17471700686903011 0 -0.44820564853932793 0.20069426145875721 0 -0.44820564853932793 0.20069426145875721 0 -0.45427794118362658 0.21265328965042851 0 -0.44247364369559788 0.22667151604848371 0 -0.44820564853932793 0.20069426145875721 0 -0.44247364369559788 0.22667151604848371 0 -0.44820564853932793 0.20069426145875721 0 -0.44247364369559788 0.22667151604848371 0 -0.42336320141575168 0.21609666274764849 0 -0.45880341375183131 0.2186303689721085 0 -0.45427794118362658 0.21265328965042851 0 -0.46188137931700068 0.21002659871962689 0 -0.45880341375183131 0.2186303689721085 0 -0.45427794118362658 0.21265328965042851 0 -0.4536201791639074 0.2236252940046442 0 -0.4603250720810298 0.20074399020462361 0 -0.45427794118362658 0.21265328965042851 0 -0.46188137931700068 0.21002659871962689 0 -0.4603250720810298 0.20074399020462361 0 -0.44820564853932793 0.20069426145875721 0 -0.45427794118362658 0.21265328965042851 0 -0.4603250720810298 0.20074399020462361 0 -0.46188137931700068 0.21002659871962689 0 -0.4670472636537164 0.20843482960316059 0 -0.4603250720810298 0.20074399020462361 0 -0.4670472636537164 0.20843482960316059 0 -0.46188137931700068 0.21002659871962689 0 -0.4670472636537164 0.20843482960316059 0 -0.46713252849242448 0.20998558815304991 0 -0.4670472636537164 0.20843482960316059 0 -0.46713252849242448 0.20998558815304991 0 -0.47173343442327142 0.22048762952866541 0 -0.4670472636537164 0.20843482960316059 0 -0.46713252849242448 0.20998558815304991 0 -0.45880341375183131 0.2186303689721085 0 -0.46188137931700068 0.21002659871962689 0 -0.46713252849242448 0.20998558815304991 0 -0.46713252849242448 0.20998558815304991 0 -0.45710504060219709 0.23686107433279269 0 -0.46713252849242448 0.20998558815304991 0 -0.45710504060219709 0.23686107433279269 0 -0.46853242371352971 0.23544625301742969 0 -0.45880341375183131 0.2186303689721085 0 -0.46713252849242448 0.20998558815304991 0 -0.45710504060219709 0.23686107433279269 0 -0.45880341375183131 0.2186303689721085 0 -0.4536201791639074 0.2236252940046442 0 -0.45710504060219709 0.23686107433279269 0 -0.46713252849242448 0.20998558815304991 0 -0.46853242371352971 0.23544625301742969 0 -0.45427794118362658 0.21265328965042851 0 -0.4536201791639074 0.2236252940046442 0 -0.44247364369559788 0.22667151604848371 0 -0.4536201791639074 0.2236252940046442 0 -0.44247364369559788 0.22667151604848371 0 -0.45710504060219709 0.23686107433279269 0 -0.44247364369559788 0.22667151604848371 0 -0.4367416388518679 0.25264877063821017 0 -0.44247364369559788 0.22667151604848371 0 -0.45710504060219709 0.23686107433279269 0 -0.4367416388518679 0.25264877063821017 0 -0.45710504060219709 0.23686107433279269 0 -0.46853242371352971 0.23544625301742969 0 -0.46993231893463527 0.26090691788180947 0 -0.41931835140954682 0.23739665832436521 0 -0.40367044579520373 0.24132688110038639 0 -0.41175872593851298 0.2549478601346914 0 -0.41931835140954682 0.23739665832436521 0 -0.40790513800462019 0.22799805468035339 0 -0.40367044579520373 0.24132688110038639 0 -0.41931835140954682 0.23739665832436521 0 -0.4367416388518679 0.25264877063821017 0 -0.41175872593851298 0.2549478601346914 0 -0.44247364369559788 0.22667151604848371 0 -0.41931835140954682 0.23739665832436521 0 -0.4367416388518679 0.25264877063821017 0 -0.44247364369559788 0.22667151604848371 0 -0.41931835140954682 0.23739665832436521 0 -0.42336320141575168 0.21609666274764849 0 -0.41931835140954682 0.23739665832436521 0 -0.40790513800462019 0.22799805468035339 0 -0.42336320141575168 0.21609666274764849 0 -0.40790513800462019 0.22799805468035339 0 -0.42336320141575168 0.21609666274764849 0 -0.40538393777915788 0.2123952851453417 0 -0.42336320141575168 0.21609666274764849 0 -0.42071240458675369 0.1920614743917832 0 -0.40538393777915788 0.2123952851453417 0 -0.44820564853932793 0.20069426145875721 0 -0.42336320141575168 0.21609666274764849 0 -0.42071240458675369 0.1920614743917832 0 -0.44047241453070329 0.18324079402305421 0 -0.44820564853932793 0.20069426145875721 0 -0.42071240458675369 0.1920614743917832 0 -0.42071240458675369 0.1920614743917832 0 -0.40538393777915788 0.2123952851453417 0 -0.42071240458675369 0.1920614743917832 0 -0.4022878927449296 0.1970928012265635 0 -0.40298680868332198 0.18508216307238631 0 -0.42071240458675369 0.1920614743917832 0 -0.4022878927449296 0.1970928012265635 0 -0.40538393777915788 0.2123952851453417 0 -0.4022878927449296 0.1970928012265635 0 -0.39286614404695941 0.1920732104686422 0 -0.40298680868332198 0.18508216307238631 0 -0.4022878927449296 0.1970928012265635 0 -0.39286614404695941 0.1920732104686422 0 -0.39380007669083689 0.206464460861051 0 -0.38422654444444693 0.2008322729754812 0 -0.38088029112643113 0.1825210369279657 0 -0.38422654444444693 0.2008322729754812 0 -0.38088029112643113 0.1825210369279657 0 -0.36802074197771562 0.19700904511440151 0 -0.38422654444444693 0.2008322729754812 0 -0.37368745339656201 0.20924711939208951 0 -0.36802074197771562 0.19700904511440151 0 -0.39286614404695941 0.1920732104686422 0 -0.38422654444444693 0.2008322729754812 0 -0.38088029112643113 0.1825210369279657 0 -0.39286614404695941 0.1920732104686422 0 -0.38422654444444693 0.2008322729754812 0 -0.39380007669083689 0.206464460861051 0 -0.38422654444444693 0.2008322729754812 0 -0.38757279776246373 0.21914350902299659 0 -0.38757279776246373 0.21914350902299659 0 -0.36800338097472479 0.22147713987588341 0 -0.37368745339656201 0.20924711939208951 0 -0.38422654444444693 0.2008322729754812 0 -0.39380007669083689 0.206464460861051 0 -0.38757279776246373 0.21914350902299659 0 -0.38422654444444693 0.2008322729754812 0 -0.38757279776246373 0.21914350902299659 0 -0.37368745339656201 0.20924711939208951 0 -0.39141353052387118 0.2186855059784025 0 -0.39380007669083689 0.206464460861051 0 -0.38757279776246373 0.21914350902299659 0 -0.39141353052387118 0.2186855059784025 0 -0.39380007669083689 0.206464460861051 0 -0.40538393777915788 0.2123952851453417 0 -0.4022878927449296 0.1970928012265635 0 -0.39380007669083689 0.206464460861051 0 -0.40538393777915788 0.2123952851453417 0 -0.40790513800462019 0.22799805468035339 0 -0.39005547097156312 0.23272909589890109 0 -0.40367044579520373 0.24132688110038639 0 -0.39141353052387118 0.2186855059784025 0 -0.40538393777915788 0.2123952851453417 0 -0.39005547097156312 0.23272909589890109 0 -0.40790513800462019 0.22799805468035339 0 -0.40538393777915788 0.2123952851453417 0 -0.39005547097156312 0.23272909589890109 0 -0.40538393777915788 0.2123952851453417 0 -0.39005547097156312 0.23272909589890109 0 -0.38757279776246373 0.21914350902299659 0 -0.39005547097156312 0.23272909589890109 0 -0.38757279776246373 0.21914350902299659 0 -0.36800338097472479 0.22147713987588341 0 -0.39141353052387118 0.2186855059784025 0 -0.38757279776246373 0.21914350902299659 0 -0.39005547097156312 0.23272909589890109 0 -0.38757279776246373 0.21914350902299659 0 -0.37939186114838758 0.22424627805714001 0 -0.36800338097472479 0.22147713987588341 0 -0.38757279776246373 0.21914350902299659 0 -0.37939186114838758 0.22424627805714001 0 -0.39005547097156312 0.23272909589890109 0 -0.39141353052387118 0.2186855059784025 0 -0.38757279776246373 0.21914350902299659 0 -0.37939186114838758 0.22424627805714001 0 -0.37477717689163992 0.25299635056682518 0 -0.39005547097156312 0.23272909589890109 0 -0.39384597734802013 0.25347135609337229 0 -0.37477717689163992 0.25299635056682518 0 -0.37939186114838758 0.22424627805714001 0 -0.39005547097156312 0.23272909589890109 0 -0.37477717689163992 0.25299635056682518 0 -0.39005547097156312 0.23272909589890109 0 -0.37477717689163992 0.25299635056682518 0 -0.40367044579520373 0.24132688110038639 0 -0.41175872593851298 0.2549478601346914 0 -0.39384597734802013 0.25347135609337229 0 -0.39005547097156312 0.23272909589890109 0 -0.39384597734802013 0.25347135609337229 0 -0.39005547097156312 0.23272909589890109 0 -0.40367044579520373 0.24132688110038639 0 -0.39384597734802013 0.25347135609337229 0 -0.41485942150404181 0.14153864215909739 0 -0.41553858058260518 0.15317901213210369 0 -0.42574561826610652 0.14613969243370301 0 -0.41553858058260518 0.15317901213210369 0 -0.42574561826610652 0.14613969243370301 0 -0.42127399236650492 0.15770626544657529 0 -0.41485942150404181 0.14153864215909739 0 -0.41553858058260518 0.15317901213210369 0 -0.4044664398419977 0.15594807455379561 0 -0.40864304721671202 0.1107171055473533 0 -0.41485942150404181 0.14153864215909739 0 -0.43267942878230348 0.12559175737704789 0 -0.41485942150404181 0.14153864215909739 0 -0.43267942878230348 0.12559175737704789 0 -0.42574561826610652 0.14613969243370301 0 -0.43267942878230348 0.12559175737704789 0 -0.43700896048386301 0.14249666109927989 0 -0.42574561826610652 0.14613969243370301 0 -0.41485942150404181 0.14153864215909739 0 -0.43267942878230348 0.12559175737704789 0 -0.42574561826610652 0.14613969243370301 0 -0.43187713239064979 0.1573343508491826 0 -0.42127399236650492 0.15770626544657529 0 -0.43700896048386301 0.14249666109927989 0 -0.42574561826610652 0.14613969243370301 0 -0.43187713239064979 0.1573343508491826 0 -0.43187713239064979 0.1573343508491826 0 -0.42946357341586749 0.17496324995209989 0 -0.4216380035134229 0.16659483191912641 0 -0.44174290600336708 0.16173144065936321 0 -0.43187713239064979 0.1573343508491826 0 -0.42946357341586749 0.17496324995209989 0 -0.43187713239064979 0.1573343508491826 0 -0.42127399236650492 0.15770626544657529 0 -0.4216380035134229 0.16659483191912641 0 -0.44047241453070329 0.18324079402305421 0 -0.44174290600336708 0.16173144065936321 0 -0.42946357341586749 0.17496324995209989 0 -0.44047241453070329 0.18324079402305421 0 -0.42071240458675369 0.1920614743917832 0 -0.42946357341586749 0.17496324995209989 0 -0.42071240458675369 0.1920614743917832 0 -0.42946357341586749 0.17496324995209989 0 -0.41235879422937732 0.17543682721938669 0 -0.42071240458675369 0.1920614743917832 0 -0.41235879422937732 0.17543682721938669 0 -0.40298680868332198 0.18508216307238631 0 -0.42946357341586749 0.17496324995209989 0 -0.41235879422937732 0.17543682721938669 0 -0.4216380035134229 0.16659483191912641 0 -0.41553858058260518 0.15317901213210369 0 -0.42127399236650492 0.15770626544657529 0 -0.41302135350813218 0.1630654313638546 0 -0.42127399236650492 0.15770626544657529 0 -0.4216380035134229 0.16659483191912641 0 -0.41302135350813218 0.1630654313638546 0 -0.41235879422937732 0.17543682721938669 0 -0.4216380035134229 0.16659483191912641 0 -0.41302135350813218 0.1630654313638546 0 -0.41235879422937732 0.17543682721938669 0 -0.41302135350813218 0.1630654313638546 0 -0.40449990094882532 0.16792382984329149 0 -0.41302135350813218 0.1630654313638546 0 -0.40449990094882532 0.16792382984329149 0 -0.4044664398419977 0.15594807455379561 0 -0.41553858058260518 0.15317901213210369 0 -0.41302135350813218 0.1630654313638546 0 -0.4044664398419977 0.15594807455379561 0 -0.3926733654842145 0.1692345557408807 0 -0.4044664398419977 0.15594807455379561 0 -0.40449990094882532 0.16792382984329149 0 -0.3926733654842145 0.1692345557408807 0 -0.40078474618547688 0.17571320347163299 0 -0.40449990094882532 0.16792382984329149 0 -0.3926733654842145 0.1692345557408807 0 -0.4044664398419977 0.15594807455379561 0 -0.3926733654842145 0.1692345557408807 0 -0.39703941422577987 0.15748552694114659 0 -0.4044664398419977 0.15594807455379561 0 -0.40298680868332198 0.18508216307238631 0 -0.40078474618547688 0.17571320347163299 0 -0.39301525059178999 0.18044652774840561 0 -0.41235879422937732 0.17543682721938669 0 -0.40298680868332198 0.18508216307238631 0 -0.40078474618547688 0.17571320347163299 0 -0.41235879422937732 0.17543682721938669 0 -0.40449990094882532 0.16792382984329149 0 -0.40078474618547688 0.17571320347163299 0 -0.3926733654842145 0.1692345557408807 0 -0.40078474618547688 0.17571320347163299 0 -0.39301525059178999 0.18044652774840561 0 -0.39286614404695941 0.1920732104686422 0 -0.40298680868332198 0.18508216307238631 0 -0.39301525059178999 0.18044652774840561 0 -0.39286614404695941 0.1920732104686422 0 -0.39301525059178999 0.18044652774840561 0 -0.38088029112643113 0.1825210369279657 0 -0.3926733654842145 0.1692345557408807 0 -0.38088029112643113 0.1825210369279657 0 -0.3926733654842145 0.1692345557408807 0 -0.39301525059178999 0.18044652774840561 0 -0.38088029112643113 0.1825210369279657 0 -0.3926733654842145 0.1692345557408807 0 -0.37921940694751782 0.17343241172319571 0 -0.38088029112643113 0.1825210369279657 0 -0.37921940694751782 0.17343241172319571 0 -0.38088029112643113 0.1825210369279657 0 -0.37921940694751782 0.17343241172319571 0 -0.38088029112643113 0.1825210369279657 0 -0.37283571032282492 0.1791450959532255 0 -0.3784015845151173 0.16895715591276281 0 -0.37283571032282492 0.1791450959532255 0 -0.37921940694751782 0.17343241172319571 0 -0.3784015845151173 0.16895715591276281 0 -0.37283571032282492 0.1791450959532255 0 -0.37921940694751782 0.17343241172319571 0 -0.37283571032282492 0.1791450959532255 0 -0.39703941422577987 0.15748552694114659 0 -0.37921940694751782 0.17343241172319571 0 -0.38193020105096481 0.16249827228531991 0 -0.3784015845151173 0.16895715591276281 0 -0.38193020105096481 0.16249827228531991 0 -0.37372345991800282 0.14335770613522919 0 -0.39703941422577987 0.15748552694114659 0 -0.37921940694751782 0.17343241172319571 0 -0.3926733654842145 0.1692345557408807 0 -0.39703941422577987 0.15748552694114659 0 -0.37921940694751782 0.17343241172319571 0 -0.39703941422577987 0.15748552694114659 0 -0.38193020105096481 0.16249827228531991 0 -0.38598126975628672 0.1494316781992327 0 -0.37921940694751782 0.17343241172319571 0 -0.3784015845151173 0.16895715591276281 0 -0.38193020105096481 0.16249827228531991 0 -0.3784015845151173 0.16895715591276281 0 -0.38193020105096481 0.16249827228531991 0 -0.37921940694751782 0.17343241172319571 0 -0.3784015845151173 0.16895715591276281 0 -0.38598126975628672 0.1494316781992327 0 -0.39401402549175851 0.1361747599337243 0 -0.37372345991800282 0.14335770613522919 0 -0.38193020105096481 0.16249827228531991 0 -0.38598126975628672 0.1494316781992327 0 -0.37372345991800282 0.14335770613522919 0 -0.3784015845151173 0.16895715591276281 0 -0.37372345991800282 0.14335770613522919 0 -0.39703941422577987 0.15748552694114659 0 -0.38598126975628672 0.1494316781992327 0 -0.39401402549175851 0.1361747599337243 0 -0.41485942150404181 0.14153864215909739 0 -0.39703941422577987 0.15748552694114659 0 -0.39401402549175851 0.1361747599337243 0 -0.41485942150404181 0.14153864215909739 0 -0.39703941422577987 0.15748552694114659 0 -0.4044664398419977 0.15594807455379561 0 -0.41485942150404181 0.14153864215909739 0 -0.39703941422577987 0.15748552694114659 0 -0.40864304721671202 0.1107171055473533 0 -0.41485942150404181 0.14153864215909739 0 -0.39401402549175851 0.1361747599337243 0 -0.38750957741872682 0.11885909540365321 0 -0.37372345991800282 0.14335770613522919 0 -0.36904533532088801 0.1177582563576956 0 -0.38750957741872682 0.11885909540365321 0 -0.39401402549175851 0.1361747599337243 0 -0.37372345991800282 0.14335770613522919 0 -0.35823941519022368 0.13573745574644491 0 -0.37372345991800282 0.14335770613522919 0 -0.36904533532088801 0.1177582563576956 0 -0.37372345991800282 0.14335770613522919 0 -0.36904533532088801 0.1177582563576956 0 -0.35823941519022368 0.13573745574644491 0 -0.34455851703438989 0.13305210298766909 0 -0.35158166360451942 0.11704707172714621 0 -0.35823941519022368 0.13573745574644491 0 -0.34455851703438989 0.13305210298766909 0 -0.34873147585397152 0.15030858297792049 0 -0.35823941519022368 0.13573745574644491 0 -0.34873147585397152 0.15030858297792049 0 -0.36179603940957061 0.15290101429300901 0 -0.34873147585397152 0.15030858297792049 0 -0.34720568730415252 0.1616956217090188 0 -0.33647431770126862 0.14798842126345041 0 -0.34873147585397152 0.15030858297792049 0 -0.36179603940957061 0.15290101429300901 0 -0.35552330674067661 0.16014073544654131 0 -0.35823941519022368 0.13573745574644491 0 -0.36179603940957061 0.15290101429300901 0 -0.37372345991800282 0.14335770613522919 0 -0.3784015845151173 0.16895715591276281 0 -0.36179603940957061 0.15290101429300901 0 -0.37372345991800282 0.14335770613522919 0 -0.3784015845151173 0.16895715591276281 0 -0.36179603940957061 0.15290101429300901 0 -0.3628088848288224 0.16705289795690309 0 -0.3784015845151173 0.16895715591276281 0 -0.3628088848288224 0.16705289795690309 0 -0.36959790597703868 0.17377317275203899 0 -0.36179603940957061 0.15290101429300901 0 -0.3628088848288224 0.16705289795690309 0 -0.35552330674067661 0.16014073544654131 0 -0.38088029112643113 0.1825210369279657 0 -0.37283571032282492 0.1791450959532255 0 -0.36802074197771562 0.19700904511440151 0 -0.37283571032282492 0.1791450959532255 0 -0.36399845157591232 0.19532107462703119 0 -0.37283571032282492 0.1791450959532255 0 -0.36261880381503758 0.18828806813974089 0 -0.3784015845151173 0.16895715591276281 0 -0.36959790597703868 0.17377317275203899 0 -0.37283571032282492 0.1791450959532255 0 -0.36959790597703868 0.17377317275203899 0 -0.37283571032282492 0.1791450959532255 0 -0.36409588864576692 0.17933358541092431 0 -0.3628088848288224 0.16705289795690309 0 -0.36959790597703868 0.17377317275203899 0 -0.36409588864576692 0.17933358541092431 0 -0.3628088848288224 0.16705289795690309 0 -0.36409588864576692 0.17933358541092431 0 -0.35614161380151321 0.17761165346375071 0 -0.36409588864576692 0.17933358541092431 0 -0.35797279878738592 0.18411861580098379 0 -0.35614161380151321 0.17761165346375071 0 -0.36409588864576692 0.17933358541092431 0 -0.35797279878738592 0.18411861580098379 0 -0.36261880381503758 0.18828806813974089 0 -0.37283571032282492 0.1791450959532255 0 -0.36409588864576692 0.17933358541092431 0 -0.36261880381503758 0.18828806813974089 0 -0.35797279878738592 0.18411861580098379 0 -0.35614161380151321 0.17761165346375071 0 -0.35065229879255438 0.18593262723135329 0 -0.35797279878738592 0.18411861580098379 0 -0.35065229879255438 0.18593262723135329 0 -0.35645772166264922 0.19211102842263869 0 -0.35614161380151321 0.17761165346375071 0 -0.34811061985946878 0.17434540014992381 0 -0.35436851446084039 0.1683048517912053 0 -0.35614161380151321 0.17761165346375071 0 -0.34811061985946878 0.17434540014992381 0 -0.35065229879255438 0.18593262723135329 0 -0.35065229879255438 0.18593262723135329 0 -0.34227569468909552 0.1811403169530669 0 -0.33993633525554889 0.19055096072852831 0 -0.34811061985946878 0.17434540014992381 0 -0.35065229879255438 0.18593262723135329 0 -0.34227569468909552 0.1811403169530669 0 -0.35552330674067661 0.16014073544654131 0 -0.35436851446084039 0.1683048517912053 0 -0.34720568730415252 0.1616956217090188 0 -0.3628088848288224 0.16705289795690309 0 -0.35614161380151321 0.17761165346375071 0 -0.35436851446084039 0.1683048517912053 0 -0.3628088848288224 0.16705289795690309 0 -0.35552330674067661 0.16014073544654131 0 -0.35436851446084039 0.1683048517912053 0 -0.34811061985946878 0.17434540014992381 0 -0.34720568730415252 0.1616956217090188 0 -0.33801991010865667 0.17138732975114751 0 -0.34811061985946878 0.17434540014992381 0 -0.35436851446084039 0.1683048517912053 0 -0.34720568730415252 0.1616956217090188 0 -0.34873147585397152 0.15030858297792049 0 -0.35552330674067661 0.16014073544654131 0 -0.34720568730415252 0.1616956217090188 0 -0.34720568730415252 0.1616956217090188 0 -0.33801991010865667 0.17138732975114751 0 -0.33092539158612982 0.1609515407851054 0 -0.34720568730415252 0.1616956217090188 0 -0.33092539158612982 0.1609515407851054 0 -0.33647431770126862 0.14798842126345041 0 -0.33801991010865667 0.17138732975114751 0 -0.33092539158612982 0.1609515407851054 0 -0.3265778886375873 0.17202186172735501 0 -0.34227569468909552 0.1811403169530669 0 -0.33183788287013261 0.1831818366374682 0 -0.33993633525554889 0.19055096072852831 0 -0.34811061985946878 0.17434540014992381 0 -0.33801991010865667 0.17138732975114751 0 -0.34227569468909552 0.1811403169530669 0 -0.33801991010865667 0.17138732975114751 0 -0.34227569468909552 0.1811403169530669 0 -0.33183788287013261 0.1831818366374682 0 -0.33801991010865667 0.17138732975114751 0 -0.33183788287013261 0.1831818366374682 0 -0.3265778886375873 0.17202186172735501 0 -0.3265778886375873 0.17202186172735501 0 -0.31632076704925127 0.18575639557221951 0 -0.3167678101826048 0.16359462978275929 0 -0.33183788287013261 0.1831818366374682 0 -0.3265778886375873 0.17202186172735501 0 -0.31632076704925127 0.18575639557221951 0 -0.33092539158612982 0.1609515407851054 0 -0.3167678101826048 0.16359462978275929 0 -0.32050673558250908 0.1490213804769015 0 -0.33092539158612982 0.1609515407851054 0 -0.3265778886375873 0.17202186172735501 0 -0.3167678101826048 0.16359462978275929 0 -0.32050673558250908 0.1490213804769015 0 -0.30739524272803709 0.15185112365938391 0 -0.31211500736378339 0.1240031522641292 0 -0.3167678101826048 0.16359462978275929 0 -0.32050673558250908 0.1490213804769015 0 -0.30739524272803709 0.15185112365938391 0 -0.32050673558250908 0.1490213804769015 0 -0.30739524272803709 0.15185112365938391 0 -0.32919359534549508 0.13424827028365749 0 -0.31211500736378339 0.1240031522641292 0 -0.33231339904552459 0.1171762944261375 0 -0.32050673558250908 0.1490213804769015 0 -0.32919359534549508 0.13424827028365749 0 -0.31211500736378339 0.1240031522641292 0 -0.34455851703438989 0.13305210298766909 0 -0.32919359534549508 0.13424827028365749 0 -0.33231339904552459 0.1171762944261375 0 -0.34455851703438989 0.13305210298766909 0 -0.32919359534549508 0.13424827028365749 0 -0.33647431770126862 0.14798842126345041 0 -0.32050673558250908 0.1490213804769015 0 -0.32919359534549508 0.13424827028365749 0 -0.33647431770126862 0.14798842126345041 0 -0.33092539158612982 0.1609515407851054 0 -0.32050673558250908 0.1490213804769015 0 -0.33647431770126862 0.14798842126345041 0 -0.34455851703438989 0.13305210298766909 0 -0.34873147585397152 0.15030858297792049 0 -0.33647431770126862 0.14798842126345041 0 -0.35416421148584648 0.23888623464626721 0 -0.34843396418698602 0.22381077072877051 0 -0.33845336435013867 0.242079554605789 0 -0.35416421148584648 0.23888623464626721 0 -0.33845336435013867 0.242079554605789 0 -0.35464358931248319 0.25491115920099722 0 -0.37939186114838758 0.22424627805714001 0 -0.37013679196984273 0.23750613219799629 0 -0.37477717689163992 0.25299635056682518 0 -0.37013679196984273 0.23750613219799629 0 -0.35464358931248319 0.25491115920099722 0 -0.37477717689163992 0.25299635056682518 0 -0.35416421148584648 0.23888623464626721 0 -0.37013679196984273 0.23750613219799629 0 -0.35464358931248319 0.25491115920099722 0 -0.35416421148584648 0.23888623464626721 0 -0.37013679196984273 0.23750613219799629 0 -0.36148561266771267 0.2305011068434443 0 -0.36148561266771267 0.2305011068434443 0 -0.36975441169016687 0.228432664243616 0 -0.36800338097472479 0.22147713987588341 0 -0.37013679196984273 0.23750613219799629 0 -0.36148561266771267 0.2305011068434443 0 -0.36975441169016687 0.228432664243616 0 -0.37939186114838758 0.22424627805714001 0 -0.37013679196984273 0.23750613219799629 0 -0.36975441169016687 0.228432664243616 0 -0.37939186114838758 0.22424627805714001 0 -0.36975441169016687 0.228432664243616 0 -0.36800338097472479 0.22147713987588341 0 -0.36800338097472479 0.22147713987588341 0 -0.34843396418698602 0.22381077072877051 0 -0.35516119282899983 0.21149705330083701 0 -0.36148561266771267 0.2305011068434443 0 -0.36800338097472479 0.22147713987588341 0 -0.34843396418698602 0.22381077072877051 0 -0.36800338097472479 0.22147713987588341 0 -0.34843396418698602 0.22381077072877051 0 -0.35416421148584648 0.23888623464626721 0 -0.36148561266771267 0.2305011068434443 0 -0.34843396418698602 0.22381077072877051 0 -0.34843396418698602 0.22381077072877051 0 -0.34802604401402371 0.21953575615482759 0 -0.33982416592956399 0.21665757569738961 0 -0.34802604401402371 0.21953575615482759 0 -0.34581283434165899 0.20861347152532789 0 -0.33982416592956399 0.21665757569738961 0 -0.34802604401402371 0.21953575615482759 0 -0.34581283434165899 0.20861347152532789 0 -0.35516119282899983 0.21149705330083701 0 -0.34843396418698602 0.22381077072877051 0 -0.34802604401402371 0.21953575615482759 0 -0.35516119282899983 0.21149705330083701 0 -0.34581283434165899 0.20861347152532789 0 -0.35516119282899983 0.21149705330083701 0 -0.35389383475621161 0.20092716755479181 0 -0.34802604401402371 0.21953575615482759 0 -0.35516119282899983 0.21149705330083701 0 -0.34843396418698602 0.22381077072877051 0 -0.35516119282899983 0.21149705330083701 0 -0.36800338097472479 0.22147713987588341 0 -0.35516119282899983 0.21149705330083701 0 -0.37368745339656201 0.20924711939208951 0 -0.35516119282899983 0.21149705330083701 0 -0.37368745339656201 0.20924711939208951 0 -0.36802074197771562 0.19700904511440151 0 -0.35516119282899983 0.21149705330083701 0 -0.36399845157591232 0.19532107462703119 0 -0.35516119282899983 0.21149705330083701 0 -0.36802074197771562 0.19700904511440151 0 -0.37283571032282492 0.1791450959532255 0 -0.36399845157591232 0.19532107462703119 0 -0.36261880381503758 0.18828806813974089 0 -0.37283571032282492 0.1791450959532255 0 -0.36399845157591232 0.19532107462703119 0 -0.36802074197771562 0.19700904511440151 0 -0.35516119282899983 0.21149705330083701 0 -0.36399845157591232 0.19532107462703119 0 -0.36802074197771562 0.19700904511440151 0 -0.38088029112643113 0.1825210369279657 0 -0.36802074197771562 0.19700904511440151 0 -0.36399845157591232 0.19532107462703119 0 -0.36261880381503758 0.18828806813974089 0 -0.35645772166264922 0.19211102842263869 0 -0.35797279878738592 0.18411861580098379 0 -0.36261880381503758 0.18828806813974089 0 -0.35645772166264922 0.19211102842263869 0 -0.35065229879255438 0.18593262723135329 0 -0.35645772166264922 0.19211102842263869 0 -0.34803897337183792 0.19709320989812409 0 -0.35516119282899983 0.21149705330083701 0 -0.36399845157591232 0.19532107462703119 0 -0.35389383475621161 0.20092716755479181 0 -0.35645772166264922 0.19211102842263869 0 -0.35389383475621161 0.20092716755479181 0 -0.34803897337183792 0.19709320989812409 0 -0.36399845157591232 0.19532107462703119 0 -0.35645772166264922 0.19211102842263869 0 -0.35389383475621161 0.20092716755479181 0 -0.34581283434165899 0.20861347152532789 0 -0.35389383475621161 0.20092716755479181 0 -0.34803897337183792 0.19709320989812409 0 -0.34581283434165899 0.20861347152532789 0 -0.34803897337183792 0.19709320989812409 0 -0.33933674095816863 0.19971543786353729 0 -0.35065229879255438 0.18593262723135329 0 -0.34803897337183792 0.19709320989812409 0 -0.33993633525554889 0.19055096072852831 0 -0.33993633525554889 0.19055096072852831 0 -0.33933674095816863 0.19971543786353729 0 -0.33069942903629101 0.19625725860753851 0 -0.34803897337183792 0.19709320989812409 0 -0.33993633525554889 0.19055096072852831 0 -0.33933674095816863 0.19971543786353729 0 -0.33933674095816863 0.19971543786353729 0 -0.33069942903629101 0.19625725860753851 0 -0.33422481296465362 0.2080963853910347 0 -0.33183788287013261 0.1831818366374682 0 -0.33993633525554889 0.19055096072852831 0 -0.33069942903629101 0.19625725860753851 0 -0.31632076704925127 0.18575639557221951 0 -0.33069942903629101 0.19625725860753851 0 -0.32036655352850157 0.2095523693350691 0 -0.33183788287013261 0.1831818366374682 0 -0.31632076704925127 0.18575639557221951 0 -0.33069942903629101 0.19625725860753851 0 -0.32036655352850157 0.2095523693350691 0 -0.32458589997660492 0.2266546254550818 0 -0.30779163400160159 0.21927945841494459 0 -0.32036655352850157 0.2095523693350691 0 -0.32934906837639222 0.21536895119528529 0 -0.32458589997660492 0.2266546254550818 0 -0.32036655352850157 0.2095523693350691 0 -0.32934906837639222 0.21536895119528529 0 -0.33422481296465362 0.2080963853910347 0 -0.32934906837639222 0.21536895119528529 0 -0.33422481296465362 0.2080963853910347 0 -0.33982416592956399 0.21665757569738961 0 -0.33069942903629101 0.19625725860753851 0 -0.32036655352850157 0.2095523693350691 0 -0.33422481296465362 0.2080963853910347 0 -0.34581283434165899 0.20861347152532789 0 -0.33933674095816863 0.19971543786353729 0 -0.33422481296465362 0.2080963853910347 0 -0.34581283434165899 0.20861347152532789 0 -0.33422481296465362 0.2080963853910347 0 -0.33982416592956399 0.21665757569738961 0 -0.34843396418698602 0.22381077072877051 0 -0.33982416592956399 0.21665757569738961 0 -0.32458589997660492 0.2266546254550818 0 -0.34843396418698602 0.22381077072877051 0 -0.32458589997660492 0.2266546254550818 0 -0.34843396418698602 0.22381077072877051 0 -0.32458589997660492 0.2266546254550818 0 -0.33845336435013867 0.242079554605789 0 -0.34843396418698602 0.22381077072877051 0 -0.33845336435013867 0.242079554605789 0 -0.32934906837639222 0.21536895119528529 0 -0.33982416592956399 0.21665757569738961 0 -0.32458589997660492 0.2266546254550818 0 -0.32458589997660492 0.2266546254550818 0 -0.30073783576622393 0.22949848018139329 0 -0.32458589997660492 0.2266546254550818 0 -0.32455092720978362 0.24357057421839101 0 -0.31122576982003303 0.23714335435801151 0 -0.32455092720978362 0.24357057421839101 0 -0.311575650220281 0.24878047680599949 0 -0.31122576982003303 0.23714335435801151 0 -0.32458589997660492 0.2266546254550818 0 -0.32455092720978362 0.24357057421839101 0 -0.33845336435013867 0.242079554605789 0 -0.32455092720978362 0.24357057421839101 0 -0.33845336435013867 0.242079554605789 0 -0.32847276451329022 0.26034833848280681 0 -0.29310990672191722 0.23613872254877591 0 -0.29467853592727078 0.23721261512919359 0 -0.28985028671148488 0.25537141990030859 0 -0.29310990672191722 0.23613872254877591 0 -0.27131573767068418 0.22826101281380451 0 -0.28058301219108422 0.24181621635705669 0 -0.29310990672191722 0.23613872254877591 0 -0.28985028671148488 0.25537141990030859 0 -0.29310990672191722 0.23613872254877591 0 -0.28058301219108422 0.24181621635705669 0 -0.28985028671148488 0.25537141990030859 0 -0.28058301219108422 0.24181621635705669 0 -0.28985028671148488 0.25537141990030859 0 -0.29310990672191722 0.23613872254877591 0 -0.29467853592727078 0.23721261512919359 0 -0.29467853592727078 0.23721261512919359 0 -0.31122576982003303 0.23714335435801151 0 -0.30073783576622393 0.22949848018139329 0 -0.29467853592727078 0.23721261512919359 0 -0.311575650220281 0.24878047680599949 0 -0.31122576982003303 0.23714335435801151 0 -0.29467853592727078 0.23721261512919359 0 -0.311575650220281 0.24878047680599949 0 -0.29467853592727078 0.23721261512919359 0 -0.311575650220281 0.24878047680599949 0 -0.29523766041035199 0.26325150879709891 0 -0.32458589997660492 0.2266546254550818 0 -0.30073783576622393 0.22949848018139329 0 -0.30779163400160159 0.21927945841494459 0 -0.32458589997660492 0.2266546254550818 0 -0.31122576982003303 0.23714335435801151 0 -0.30073783576622393 0.22949848018139329 0 -0.30073783576622393 0.22949848018139329 0 -0.30779163400160159 0.21927945841494459 0 -0.29448167989639912 0.22804486553003031 0 -0.29310990672191722 0.23613872254877591 0 -0.29448167989639912 0.22804486553003031 0 -0.27369133376421262 0.22284465576077489 0 -0.29448167989639912 0.22804486553003031 0 -0.2838712618875629 0.21479465795795599 0 -0.27369133376421262 0.22284465576077489 0 -0.29448167989639912 0.22804486553003031 0 -0.29413635243235581 0.21196267741475219 0 -0.29310990672191722 0.23613872254877591 0 -0.27369133376421262 0.22284465576077489 0 -0.29467853592727078 0.23721261512919359 0 -0.30073783576622393 0.22949848018139329 0 -0.29448167989639912 0.22804486553003031 0 -0.29310990672191722 0.23613872254877591 0 -0.29467853592727078 0.23721261512919359 0 -0.29448167989639912 0.22804486553003031 0 -0.29467853592727078 0.23721261512919359 0 -0.29448167989639912 0.22804486553003031 0 -0.29310990672191722 0.23613872254877591 0 -0.29448167989639912 0.22804486553003031 0 -0.29413635243235581 0.21196267741475219 0 -0.29878620084027852 0.20264695157314819 0 -0.29379102496831272 0.19588048929947419 0 -0.29448167989639912 0.22804486553003031 0 -0.29413635243235581 0.21196267741475219 0 -0.29878620084027852 0.20264695157314819 0 -0.29448167989639912 0.22804486553003031 0 -0.29878620084027852 0.20264695157314819 0 -0.29413635243235581 0.21196267741475219 0 -0.29379102496831272 0.19588048929947419 0 -0.28522308967114912 0.20452327137286261 0 -0.29413635243235581 0.21196267741475219 0 -0.29379102496831272 0.19588048929947419 0 -0.29448167989639912 0.22804486553003031 0 -0.2838712618875629 0.21479465795795599 0 -0.29413635243235581 0.21196267741475219 0 -0.2838712618875629 0.21479465795795599 0 -0.28522308967114912 0.20452327137286261 0 -0.29413635243235581 0.21196267741475219 0 -0.32036655352850157 0.2095523693350691 0 -0.30779163400160159 0.21927945841494459 0 -0.29878620084027852 0.20264695157314819 0 -0.30779163400160159 0.21927945841494459 0 -0.29448167989639912 0.22804486553003031 0 -0.29878620084027852 0.20264695157314819 0 -0.29878620084027852 0.20264695157314819 0 -0.29379102496831272 0.19588048929947419 0 -0.30309072178415769 0.17724903761626601 0 -0.31632076704925127 0.18575639557221951 0 -0.29878620084027852 0.20264695157314819 0 -0.30309072178415769 0.17724903761626601 0 -0.31632076704925127 0.18575639557221951 0 -0.32036655352850157 0.2095523693350691 0 -0.29878620084027852 0.20264695157314819 0 -0.29878620084027852 0.20264695157314819 0 -0.30309072178415769 0.17724903761626601 0 -0.28522308967114912 0.20452327137286261 0 -0.29379102496831272 0.19588048929947419 0 -0.28124953787461371 0.1935735916895788 0 -0.29379102496831272 0.19588048929947419 0 -0.28124953787461371 0.1935735916895788 0 -0.28752446549241689 0.1832489647230989 0 -0.28124953787461371 0.1935735916895788 0 -0.2659766044530758 0.19238405035351089 0 -0.27494974420821611 0.1793112011395637 0 -0.28522308967114912 0.20452327137286261 0 -0.28124953787461371 0.1935735916895788 0 -0.27431068871210279 0.20621206129374381 0 -0.28124953787461371 0.1935735916895788 0 -0.2659766044530758 0.19238405035351089 0 -0.27431068871210279 0.20621206129374381 0 -0.25427276080650663 0.20955058897277601 0 -0.24947341468037071 0.1874691479585941 0 -0.2659766044530758 0.19238405035351089 0 -0.25427276080650663 0.20955058897277601 0 -0.24947341468037071 0.1874691479585941 0 -0.2659766044530758 0.19238405035351089 0 -0.25427276080650663 0.20955058897277601 0 -0.27431068871210279 0.20621206129374381 0 -0.25427276080650663 0.20955058897277601 0 -0.27369133376421262 0.22284465576077489 0 -0.25427276080650663 0.20955058897277601 0 -0.25977281016601761 0.2185578892770178 0 -0.27369133376421262 0.22284465576077489 0 -0.25427276080650663 0.20955058897277601 0 -0.25561524088587501 0.21572724177218369 0 -0.25977281016601761 0.2185578892770178 0 -0.25427276080650663 0.20955058897277601 0 -0.25561524088587501 0.21572724177218369 0 -0.24333230173327219 0.21221501244476959 0 -0.25427276080650663 0.20955058897277601 0 -0.25561524088587501 0.21572724177218369 0 -0.25427276080650663 0.20955058897277601 0 -0.27431068871210279 0.20621206129374381 0 -0.27369133376421262 0.22284465576077489 0 -0.2838712618875629 0.21479465795795599 0 -0.27431068871210279 0.20621206129374381 0 -0.27369133376421262 0.22284465576077489 0 -0.2838712618875629 0.21479465795795599 0 -0.28522308967114912 0.20452327137286261 0 -0.27431068871210279 0.20621206129374381 0 -0.29310990672191722 0.23613872254877591 0 -0.27369133376421262 0.22284465576077489 0 -0.27131573767068418 0.22826101281380451 0 -0.27131573767068418 0.22826101281380451 0 -0.26439065681250729 0.2289784260688752 0 -0.26819560602517328 0.23507842756581021 0 -0.27131573767068418 0.22826101281380451 0 -0.26675876456119929 0.22568570462696191 0 -0.26439065681250729 0.2289784260688752 0 -0.27369133376421262 0.22284465576077489 0 -0.26675876456119929 0.22568570462696191 0 -0.26371349664181459 0.22286429712754721 0 -0.25977281016601761 0.2185578892770178 0 -0.27369133376421262 0.22284465576077489 0 -0.26371349664181459 0.22286429712754721 0 -0.27369133376421262 0.22284465576077489 0 -0.27131573767068418 0.22826101281380451 0 -0.26675876456119929 0.22568570462696191 0 -0.26675876456119929 0.22568570462696191 0 -0.26371349664181459 0.22286429712754721 0 -0.26068259791677789 0.22548013136380779 0 -0.26068259791677789 0.22548013136380779 0 -0.25678634991227811 0.22260498734460241 0 -0.2574101570832959 0.22971939663687391 0 -0.26371349664181459 0.22286429712754721 0 -0.26068259791677789 0.22548013136380779 0 -0.25678634991227811 0.22260498734460241 0 -0.25977281016601761 0.2185578892770178 0 -0.26371349664181459 0.22286429712754721 0 -0.25678634991227811 0.22260498734460241 0 -0.25561524088587501 0.21572724177218369 0 -0.25977281016601761 0.2185578892770178 0 -0.25678634991227811 0.22260498734460241 0 -0.25678634991227811 0.22260498734460241 0 -0.249817319625419 0.2274340479663062 0 -0.24904636230289101 0.22050689045355901 0 -0.25561524088587501 0.21572724177218369 0 -0.25678634991227811 0.22260498734460241 0 -0.24904636230289101 0.22050689045355901 0 -0.25109603964961891 0.234366577265785 0 -0.2574101570832959 0.22971939663687391 0 -0.249817319625419 0.2274340479663062 0 -0.25678634991227811 0.22260498734460241 0 -0.2574101570832959 0.22971939663687391 0 -0.249817319625419 0.2274340479663062 0 -0.2574101570832959 0.22971939663687391 0 -0.26439065681250729 0.2289784260688752 0 -0.26193406046231932 0.2344272911270443 0 -0.26068259791677789 0.22548013136380779 0 -0.2574101570832959 0.22971939663687391 0 -0.26439065681250729 0.2289784260688752 0 -0.26675876456119929 0.22568570462696191 0 -0.26068259791677789 0.22548013136380779 0 -0.26439065681250729 0.2289784260688752 0 -0.26439065681250729 0.2289784260688752 0 -0.26193406046231932 0.2344272911270443 0 -0.26819560602517328 0.23507842756581021 0 -0.26193406046231932 0.2344272911270443 0 -0.26614348890836192 0.24293385421211869 0 -0.26819560602517328 0.23507842756581021 0 -0.2574101570832959 0.22971939663687391 0 -0.26193406046231932 0.2344272911270443 0 -0.25699538715464082 0.23905233796863981 0 -0.26193406046231932 0.2344272911270443 0 -0.25699538715464082 0.23905233796863981 0 -0.26614348890836192 0.24293385421211869 0 -0.25109603964961891 0.234366577265785 0 -0.25699538715464082 0.23905233796863981 0 -0.2470081454867771 0.2422065880623451 0 -0.25109603964961891 0.234366577265785 0 -0.2574101570832959 0.22971939663687391 0 -0.25699538715464082 0.23905233796863981 0 -0.25699538715464082 0.23905233796863981 0 -0.25693865295534157 0.25278860643768353 0 -0.2470081454867771 0.2422065880623451 0 -0.25699538715464082 0.23905233796863981 0 -0.26614348890836192 0.24293385421211869 0 -0.25693865295534157 0.25278860643768353 0 -0.26614348890836192 0.24293385421211869 0 -0.2724296921133022 0.25217156250687062 0 -0.25693865295534157 0.25278860643768353 0 -0.26614348890836192 0.24293385421211869 0 -0.28058301219108422 0.24181621635705669 0 -0.2724296921133022 0.25217156250687062 0 -0.28058301219108422 0.24181621635705669 0 -0.28985028671148488 0.25537141990030859 0 -0.2724296921133022 0.25217156250687062 0 -0.26614348890836192 0.24293385421211869 0 -0.26819560602517328 0.23507842756581021 0 -0.28058301219108422 0.24181621635705669 0 -0.27131573767068418 0.22826101281380451 0 -0.26819560602517328 0.23507842756581021 0 -0.28058301219108422 0.24181621635705669 0 -0.27131573767068418 0.22826101281380451 0 -0.28058301219108422 0.24181621635705669 0 -0.29326612220823411 0.13512644163735801 0 -0.28648818467010168 0.15636331808772699 0 -0.27141175194646833 0.1445184244171912 0 -0.29326612220823411 0.13512644163735801 0 -0.30739524272803709 0.15185112365938391 0 -0.28648818467010168 0.15636331808772699 0 -0.30739524272803709 0.15185112365938391 0 -0.31211500736378339 0.1240031522641292 0 -0.29326612220823411 0.13512644163735801 0 -0.30739524272803709 0.15185112365938391 0 -0.31211500736378339 0.1240031522641292 0 -0.30739524272803709 0.15185112365938391 0 -0.28648818467010168 0.15636331808772699 0 -0.30739524272803709 0.15185112365938391 0 -0.30309072178415769 0.17724903761626601 0 -0.3167678101826048 0.16359462978275929 0 -0.30739524272803709 0.15185112365938391 0 -0.30309072178415769 0.17724903761626601 0 -0.30739524272803709 0.15185112365938391 0 -0.30309072178415769 0.17724903761626601 0 -0.28648818467010168 0.15636331808772699 0 -0.31632076704925127 0.18575639557221951 0 -0.3167678101826048 0.16359462978275929 0 -0.30309072178415769 0.17724903761626601 0 -0.30309072178415769 0.17724903761626601 0 -0.28752446549241689 0.1832489647230989 0 -0.28381669143151822 0.17107272026056419 0 -0.29379102496831272 0.19588048929947419 0 -0.30309072178415769 0.17724903761626601 0 -0.28752446549241689 0.1832489647230989 0 -0.28752446549241689 0.1832489647230989 0 -0.28381669143151822 0.17107272026056419 0 -0.27494974420821611 0.1793112011395637 0 -0.30309072178415769 0.17724903761626601 0 -0.28648818467010168 0.15636331808772699 0 -0.28381669143151822 0.17107272026056419 0 -0.28648818467010168 0.15636331808772699 0 -0.28381669143151822 0.17107272026056419 0 -0.26558112661216632 0.16087551251606999 0 -0.28381669143151822 0.17107272026056419 0 -0.27494974420821611 0.1793112011395637 0 -0.26558112661216632 0.16087551251606999 0 -0.28648818467010168 0.15636331808772699 0 -0.26558112661216632 0.16087551251606999 0 -0.27494974420821611 0.1793112011395637 0 -0.26084394980388648 0.17618123618614701 0 -0.26558112661216632 0.16087551251606999 0 -0.2659766044530758 0.19238405035351089 0 -0.27494974420821611 0.1793112011395637 0 -0.26084394980388648 0.17618123618614701 0 -0.28124953787461371 0.1935735916895788 0 -0.28752446549241689 0.1832489647230989 0 -0.27494974420821611 0.1793112011395637 0 -0.2659766044530758 0.19238405035351089 0 -0.26084394980388648 0.17618123618614701 0 -0.24947341468037071 0.1874691479585941 0 -0.26084394980388648 0.17618123618614701 0 -0.24467406855423091 0.1653877069444131 0 -0.24947341468037071 0.1874691479585941 0 -0.26558112661216632 0.16087551251606999 0 -0.24467406855423091 0.1653877069444131 0 -0.26558112661216632 0.16087551251606999 0 -0.2543915534089356 0.15018751405662761 0 -0.24467406855423091 0.1653877069444131 0 -0.26084394980388648 0.17618123618614701 0 -0.26558112661216632 0.16087551251606999 0 -0.24467406855423091 0.1653877069444131 0 -0.26558112661216632 0.16087551251606999 0 -0.2543915534089356 0.15018751405662761 0 -0.27141175194646833 0.1445184244171912 0 -0.2543915534089356 0.15018751405662761 0 -0.27141175194646833 0.1445184244171912 0 -0.25477231595188199 0.13792181725732239 0 -0.28648818467010168 0.15636331808772699 0 -0.26558112661216632 0.16087551251606999 0 -0.27141175194646833 0.1445184244171912 0 -0.29326612220823411 0.13512644163735801 0 -0.27141175194646833 0.1445184244171912 0 -0.27545980130109921 0.1239996051278405 0 -0.27141175194646833 0.1445184244171912 0 -0.25477231595188199 0.13792181725732239 0 -0.27545980130109921 0.1239996051278405 0 -0.25477231595188199 0.13792181725732239 0 -0.27545980130109921 0.1239996051278405 0 -0.25477231595188199 0.13792181725732239 0 -0.27545980130109921 0.1239996051278405 0 -0.2495823492922267 0.12121763785839371 0 -0.25610310449345419 0.1041046972302731 0 -0.27545980130109921 0.1239996051278405 0 -0.2495823492922267 0.12121763785839371 0 -0.25610310449345419 0.1041046972302731 0 -0.25413031243694739 0.089521027236778197 0 -0.2427234934652894 0.090762762990284518 0 -0.25610310449345419 0.1041046972302731 0 -0.26471001572300679 0.091779207982481292 0 -0.25413031243694739 0.089521027236778197 0 -0.25610310449345419 0.1041046972302731 0 -0.27632390472144541 0.10600366135062909 0 -0.26471001572300679 0.091779207982481292 0 -0.27632390472144541 0.10600366135062909 0 -0.27815219556391091 0.091433986845849968 0 -0.26471001572300679 0.091779207982481292 0 -0.27632390472144541 0.10600366135062909 0 -0.28783094919658059 0.096999283795453681 0 -0.27815219556391091 0.091433986845849968 0 -0.25610310449345419 0.1041046972302731 0 -0.27632390472144541 0.10600366135062909 0 -0.27545980130109921 0.1239996051278405 0 -0.27545980130109921 0.1239996051278405 0 -0.29614728665031642 0.1100773929983587 0 -0.29326612220823411 0.13512644163735801 0 -0.27545980130109921 0.1239996051278405 0 -0.29614728665031642 0.1100773929983587 0 -0.27632390472144541 0.10600366135062909 0 -0.27545980130109921 0.1239996051278405 0 -0.29614728665031642 0.1100773929983587 0 -0.27632390472144541 0.10600366135062909 0 -0.29614728665031642 0.1100773929983587 0 -0.28783094919658059 0.096999283795453681 0 -0.29614728665031642 0.1100773929983587 0 -0.28783094919658059 0.096999283795453681 0 -0.29903425758953422 0.090155638130954882 0 -0.29614728665031642 0.1100773929983587 0 -0.29903425758953422 0.090155638130954882 0 -0.31683477199953253 0.096155180868875256 0 -0.29614728665031642 0.1100773929983587 0 -0.31683477199953253 0.096155180868875256 0 -0.29614728665031642 0.1100773929983587 0 -0.31211500736378339 0.1240031522641292 0 -0.31683477199953253 0.096155180868875256 0 -0.29326612220823411 0.13512644163735801 0 -0.29614728665031642 0.1100773929983587 0 -0.31211500736378339 0.1240031522641292 0 -0.30635830999651792 0.07761242167179265 0 -0.30189037325813839 0.060543452134012458 0 -0.32146679815367007 0.068824891797761426 0 -0.30635830999651792 0.07761242167179265 0 -0.29256534898171721 0.072382945427359638 0 -0.30189037325813839 0.060543452134012458 0 -0.30635830999651792 0.07761242167179265 0 -0.29903425758953422 0.090155638130954882 0 -0.29256534898171721 0.072382945427359638 0 -0.30635830999651792 0.07761242167179265 0 -0.29903425758953422 0.090155638130954882 0 -0.31683477199953253 0.096155180868875256 0 -0.29903425758953422 0.090155638130954882 0 -0.28572263353681682 0.08337299634339973 0 -0.29256534898171721 0.072382945427359638 0 -0.28783094919658059 0.096999283795453681 0 -0.29903425758953422 0.090155638130954882 0 -0.28572263353681682 0.08337299634339973 0 -0.28783094919658059 0.096999283795453681 0 -0.28572263353681682 0.08337299634339973 0 -0.27815219556391091 0.091433986845849968 0 -0.28572263353681682 0.08337299634339973 0 -0.29256534898171721 0.072382945427359638 0 -0.28059357561043269 0.073644623599786935 0 -0.29256534898171721 0.072382945427359638 0 -0.29088471103165969 0.062671374321780771 0 -0.30189037325813839 0.060543452134012458 0 -0.29256534898171721 0.072382945427359638 0 -0.29088471103165969 0.062671374321780771 0 -0.28261649390190829 0.064291953838756216 0 -0.29256534898171721 0.072382945427359638 0 -0.28261649390190829 0.064291953838756216 0 -0.28059357561043269 0.073644623599786935 0 -0.28261649390190829 0.064291953838756216 0 -0.27678196032587499 0.069585006034529676 0 -0.27195195811963518 0.06635492754641531 0 -0.26855373331756138 0.063547936276670339 0 -0.27195195811963518 0.06635492754641531 0 -0.25743728825439521 0.07924270920583569 0 -0.28261649390190829 0.064291953838756216 0 -0.27678196032587499 0.069585006034529676 0 -0.28059357561043269 0.073644623599786935 0 -0.27678196032587499 0.069585006034529676 0 -0.27196581367152378 0.074048519153160283 0 -0.27195195811963518 0.06635492754641531 0 -0.27678196032587499 0.069585006034529676 0 -0.28059357561043269 0.073644623599786935 0 -0.27196581367152378 0.074048519153160283 0 -0.28059357561043269 0.073644623599786935 0 -0.27196581367152378 0.074048519153160283 0 -0.27303575277029413 0.081855029780232597 0 -0.27196581367152378 0.074048519153160283 0 -0.27195195811963518 0.06635492754641531 0 -0.25743728825439521 0.07924270920583569 0 -0.28572263353681682 0.08337299634339973 0 -0.27815219556391091 0.091433986845849968 0 -0.27303575277029413 0.081855029780232597 0 -0.28572263353681682 0.08337299634339973 0 -0.28059357561043269 0.073644623599786935 0 -0.27303575277029413 0.081855029780232597 0 -0.27196581367152378 0.074048519153160283 0 -0.27303575277029413 0.081855029780232597 0 -0.25743728825439521 0.07924270920583569 0 -0.27815219556391091 0.091433986845849968 0 -0.27303575277029413 0.081855029780232597 0 -0.26471001572300679 0.091779207982481292 0 -0.26471001572300679 0.091779207982481292 0 -0.25743728825439521 0.07924270920583569 0 -0.25413031243694739 0.089521027236778197 0 -0.27303575277029413 0.081855029780232597 0 -0.26471001572300679 0.091779207982481292 0 -0.25743728825439521 0.07924270920583569 0 -0.25743728825439521 0.07924270920583569 0 -0.25064083865024739 0.073628726666345984 0 -0.24857020570659841 0.081659589420377987 0 -0.25743728825439521 0.07924270920583569 0 -0.25413031243694739 0.089521027236778197 0 -0.24857020570659841 0.081659589420377987 0 -0.26855373331756138 0.063547936276670339 0 -0.25743728825439521 0.07924270920583569 0 -0.25064083865024739 0.073628726666345984 0 -0.26855373331756138 0.063547936276670339 0 -0.25064083865024739 0.073628726666345984 0 -0.2562734301216873 0.062061687155910393 0 -0.26855373331756138 0.063547936276670339 0 -0.25064083865024739 0.073628726666345984 0 -0.27195195811963518 0.06635492754641531 0 -0.25743728825439521 0.07924270920583569 0 -0.25064083865024739 0.073628726666345984 0 -0.2562734301216873 0.062061687155910393 0 -0.24829977196364941 0.065213336215906109 0 -0.2623477931936597 0.053657636987073307 0 -0.25116276906762952 0.054241108780248931 0 -0.26153642505613889 0.036367366133998442 0 -0.2562734301216873 0.062061687155910393 0 -0.2623477931936597 0.053657636987073307 0 -0.25116276906762952 0.054241108780248931 0 -0.2562734301216873 0.062061687155910393 0 -0.25116276906762952 0.054241108780248931 0 -0.24829977196364941 0.065213336215906109 0 -0.26855373331756138 0.063547936276670339 0 -0.2562734301216873 0.062061687155910393 0 -0.2623477931936597 0.053657636987073307 0 -0.25116276906762952 0.054241108780248931 0 -0.26153642505613889 0.036367366133998442 0 -0.239388393447095 0.04766651035075449 0 -0.2623477931936597 0.053657636987073307 0 -0.26153642505613889 0.036367366133998442 0 -0.27323710809808138 0.049716314049096537 0 -0.26153642505613889 0.036367366133998442 0 -0.28732673365434691 0.040933413293477772 0 -0.26153642505613889 0.036367366133998442 0 -0.2825074511423824 0.030310297232740709 0 -0.28732673365434691 0.040933413293477772 0 -0.26153642505613889 0.036367366133998442 0 -0.27323710809808138 0.049716314049096537 0 -0.28732673365434691 0.040933413293477772 0 -0.26855373331756138 0.063547936276670339 0 -0.27195195811963518 0.06635492754641531 0 -0.28646662798487532 0.053467145886994819 0 -0.26855373331756138 0.063547936276670339 0 -0.28646662798487532 0.053467145886994819 0 -0.26855373331756138 0.063547936276670339 0 -0.27323710809808138 0.049716314049096537 0 -0.28646662798487532 0.053467145886994819 0 -0.27195195811963518 0.06635492754641531 0 -0.28646662798487532 0.053467145886994819 0 -0.28261649390190829 0.064291953838756216 0 -0.27195195811963518 0.06635492754641531 0 -0.28646662798487532 0.053467145886994819 0 -0.26855373331756138 0.063547936276670339 0 -0.2623477931936597 0.053657636987073307 0 -0.27323710809808138 0.049716314049096537 0 -0.26176261374782622 0.0098260211376069873 0 -0.24854849079604721 0.020569936005881421 0 -0.24598119983726671 0.0037338506766126851 0 -0.26003022337954462 -0.0038093911555793728 0 -0.26176261374782622 0.0098260211376069873 0 -0.24598119983726671 0.0037338506766126851 0 -0.26003022337954462 -0.0038093911555793728 0 -0.27433688946420332 -0.0007833753365484626 0 -0.26176261374782622 0.0098260211376069873 0 -0.26153642505613889 0.036367366133998442 0 -0.26176261374782622 0.0098260211376069873 0 -0.24854849079604721 0.020569936005881421 0 -0.26153642505613889 0.036367366133998442 0 -0.26176261374782622 0.0098260211376069873 0 -0.27684491432135683 0.017453585025194441 0 -0.26153642505613889 0.036367366133998442 0 -0.27684491432135683 0.017453585025194441 0 -0.2825074511423824 0.030310297232740709 0 -0.27433688946420332 -0.0007833753365484626 0 -0.26176261374782622 0.0098260211376069873 0 -0.27684491432135683 0.017453585025194441 0 -0.27433688946420332 -0.0007833753365484626 0 -0.27684491432135683 0.017453585025194441 0 -0.28842838408131971 0.0076205693905790281 0 -0.28842838408131971 0.0076205693905790281 0 -0.29131927560690712 0.022062190579302341 0 -0.29989828236451899 0.011495108916467369 0 -0.27684491432135683 0.017453585025194441 0 -0.29131927560690712 0.022062190579302341 0 -0.2825074511423824 0.030310297232740709 0 -0.27684491432135683 0.017453585025194441 0 -0.28842838408131971 0.0076205693905790281 0 -0.29131927560690712 0.022062190579302341 0 -0.29131927560690712 0.022062190579302341 0 -0.2825074511423824 0.030310297232740709 0 -0.29550990707316249 0.034734931131730561 0 -0.29131927560690712 0.022062190579302341 0 -0.30587597075389272 0.02137954460474218 0 -0.29550990707316249 0.034734931131730561 0 -0.30587597075389272 0.02137954460474218 0 -0.29550990707316249 0.034734931131730561 0 -0.30859873922341308 0.03381572977126493 0 -0.29131927560690712 0.022062190579302341 0 -0.30587597075389272 0.02137954460474218 0 -0.29989828236451899 0.011495108916467369 0 -0.3025805037907468 -0.0027432771802810229 0 -0.3204068892458079 -0.0014125807301150939 0 -0.31128727758972891 0.0091565171879943417 0 -0.30587597075389272 0.02137954460474218 0 -0.29989828236451899 0.011495108916467369 0 -0.31128727758972891 0.0091565171879943417 0 -0.3025805037907468 -0.0027432771802810229 0 -0.29989828236451899 0.011495108916467369 0 -0.31128727758972891 0.0091565171879943417 0 -0.3025805037907468 -0.0027432771802810229 0 -0.28842838408131971 0.0076205693905790281 0 -0.29989828236451899 0.011495108916467369 0 -0.28646662798487532 0.053467145886994819 0 -0.304010183261538 0.043594207608826187 0 -0.29088471103165969 0.062671374321780771 0 -0.28646662798487532 0.053467145886994819 0 -0.30189037325813839 0.060543452134012458 0 -0.29088471103165969 0.062671374321780771 0 -0.28261649390190829 0.064291953838756216 0 -0.28646662798487532 0.053467145886994819 0 -0.27323710809808138 0.049716314049096537 0 -0.28646662798487532 0.053467145886994819 0 -0.28732673365434691 0.040933413293477772 0 -0.28646662798487532 0.053467145886994819 0 -0.29550990707316249 0.034734931131730561 0 -0.30859873922341308 0.03381572977126493 0 -0.28646662798487532 0.053467145886994819 0 -0.28732673365434691 0.040933413293477772 0 -0.29550990707316249 0.034734931131730561 0 -0.2825074511423824 0.030310297232740709 0 -0.28732673365434691 0.040933413293477772 0 -0.29550990707316249 0.034734931131730561 0 -0.28646662798487532 0.053467145886994819 0 -0.30859873922341308 0.03381572977126493 0 -0.28646662798487532 0.053467145886994819 0 -0.304010183261538 0.043594207608826187 0 -0.30859873922341308 0.03381572977126493 0 -0.304010183261538 0.043594207608826187 0 -0.30859873922341308 0.03381572977126493 0 -0.32155373853820057 0.033721269330657687 0 -0.304010183261538 0.043594207608826187 0 -0.3137915997446068 0.051476736654279882 0 -0.31549181974187701 0.042926529004151233 0 -0.28646662798487532 0.053467145886994819 0 -0.304010183261538 0.043594207608826187 0 -0.30189037325813839 0.060543452134012458 0 -0.30189037325813839 0.060543452134012458 0 -0.3137915997446068 0.051476736654279882 0 -0.32146679815367007 0.068824891797761426 0 -0.304010183261538 0.043594207608826187 0 -0.30189037325813839 0.060543452134012458 0 -0.3137915997446068 0.051476736654279882 0 -0.3137915997446068 0.051476736654279882 0 -0.32609882430781029 0.041494602726648067 0 -0.32146679815367007 0.068824891797761426 0 -0.32609882430781029 0.041494602726648067 0 -0.32146679815367007 0.068824891797761426 0 -0.3137915997446068 0.051476736654279882 0 -0.31549181974187701 0.042926529004151233 0 -0.32609882430781029 0.041494602726648067 0 -0.304010183261538 0.043594207608826187 0 -0.31549181974187701 0.042926529004151233 0 -0.32155373853820057 0.033721269330657687 0 -0.304010183261538 0.043594207608826187 0 -0.32155373853820057 0.033721269330657687 0 -0.31549181974187701 0.042926529004151233 0 -0.32155373853820057 0.033721269330657687 0 -0.32609882430781029 0.041494602726648067 0 -0.32609882430781029 0.041494602726648067 0 -0.34385517732675519 0.031131612817745031 0 -0.35163198926140088 0.046228739452983239 0 -0.32609882430781029 0.041494602726648067 0 -0.338272543408071 0.060603673933957783 0 -0.32146679815367007 0.068824891797761426 0 -0.32609882430781029 0.041494602726648067 0 -0.338272543408071 0.060603673933957783 0 -0.35163198926140088 0.046228739452983239 0 -0.3204068892458079 -0.0014125807301150939 0 -0.31128727758972891 0.0091565171879943417 0 -0.33073085046195078 0.01416431365553468 0 -0.30587597075389272 0.02137954460474218 0 -0.31128727758972891 0.0091565171879943417 0 -0.33073085046195078 0.01416431365553468 0 -0.30859873922341308 0.03381572977126493 0 -0.33073085046195078 0.01416431365553468 0 -0.30587597075389272 0.02137954460474218 0 -0.30859873922341308 0.03381572977126493 0 -0.33073085046195078 0.01416431365553468 0 -0.32155373853820057 0.033721269330657687 0 -0.32609882430781029 0.041494602726648067 0 -0.33073085046195078 0.01416431365553468 0 -0.30859873922341308 0.03381572977126493 0 -0.32155373853820057 0.033721269330657687 0 -0.33073085046195078 0.01416431365553468 0 -0.32609882430781029 0.041494602726648067 0 -0.33073085046195078 0.01416431365553468 0 -0.33073085046195078 0.01416431365553468 0 -0.34385517732675519 0.031131612817745031 0 -0.35381837275022032 0.01853105722209741 0 -0.32609882430781029 0.041494602726648067 0 -0.33073085046195078 0.01416431365553468 0 -0.34385517732675519 0.031131612817745031 0 -0.33540629353460438 -0.01342214774580049 0 -0.33073085046195078 0.01416431365553468 0 -0.35221409618436439 -0.0049109655465913588 0 -0.33073085046195078 0.01416431365553468 0 -0.35221409618436439 -0.0049109655465913588 0 -0.34857824671955512 -0.007874197240844389 0 -0.33073085046195078 0.01416431365553468 0 -0.35221409618436439 -0.0049109655465913588 0 -0.33073085046195078 0.01416431365553468 0 -0.34939877662876639 0.0070576099193848619 0 -0.33073085046195078 0.01416431365553468 0 -0.34939877662876639 0.0070576099193848619 0 -0.35381837275022032 0.01853105722209741 0 -0.35900139338342918 0.0020097317905480609 0 -0.34939877662876639 0.0070576099193848619 0 -0.35834074471334648 0.0096788928264882005 0 -0.35509488683577939 -0.0004162838960613095 0 -0.35900139338342918 0.0020097317905480609 0 -0.34939877662876639 0.0070576099193848619 0 -0.35509488683577939 -0.0004162838960613095 0 -0.35221409618436439 -0.0049109655465913588 0 -0.34939877662876639 0.0070576099193848619 0 -0.34939877662876639 0.0070576099193848619 0 -0.35834074471334648 0.0096788928264882005 0 -0.35381837275022032 0.01853105722209741 0 -0.34385517732675519 0.031131612817745031 0 -0.35381837275022032 0.01853105722209741 0 -0.36551724687399623 0.028318485711261141 0 -0.37937813184432773 0.031366277704107569 0 -0.36551724687399623 0.028318485711261141 0 -0.37479293228070759 0.022502646493578662 0 -0.36551724687399623 0.028318485711261141 0 -0.37479293228070759 0.022502646493578662 0 -0.36730783543836809 0.01519693074799966 0 -0.3778438638662554 0.014761087644765769 0 -0.37479293228070759 0.022502646493578662 0 -0.36730783543836809 0.01519693074799966 0 -0.35381837275022032 0.01853105722209741 0 -0.36551724687399623 0.028318485711261141 0 -0.36730783543836809 0.01519693074799966 0 -0.35834074471334648 0.0096788928264882005 0 -0.36730783543836809 0.01519693074799966 0 -0.36603012090457948 0.0050917054244422654 0 -0.35834074471334648 0.0096788928264882005 0 -0.35381837275022032 0.01853105722209741 0 -0.36730783543836809 0.01519693074799966 0 -0.36730783543836809 0.01519693074799966 0 -0.37464316483836829 0.0066416053135349984 0 -0.36603012090457948 0.0050917054244422654 0 -0.3778438638662554 0.014761087644765769 0 -0.36730783543836809 0.01519693074799966 0 -0.37464316483836829 0.0066416053135349984 0 -0.37126952376897032 -0.00085078512189483576 0 -0.37774077980655368 -0.001289555558904682 0 -0.37464316483836829 0.0066416053135349984 0 -0.37126952376897032 -0.00085078512189483576 0 -0.37464316483836829 0.0066416053135349984 0 -0.36603012090457948 0.0050917054244422654 0 -0.37126952376897032 -0.00085078512189483576 0 -0.36494834593608783 -0.001298186014321303 0 -0.36603012090457948 0.0050917054244422654 0 -0.36494834593608783 -0.001298186014321303 0 -0.35900139338342918 0.0020097317905480609 0 -0.36603012090457948 0.0050917054244422654 0 -0.35900139338342918 0.0020097317905480609 0 -0.35834074471334648 0.0096788928264882005 0 -0.36603012090457948 0.0050917054244422654 0 -0.35163198926140088 0.046228739452983239 0 -0.36891219827968119 0.060077996683558232 0 -0.35298131256760962 0.063034912088641357 0 -0.338272543408071 0.060603673933957783 0 -0.35163198926140088 0.046228739452983239 0 -0.35298131256760962 0.063034912088641357 0 -0.34385517732675519 0.031131612817745031 0 -0.36551724687399623 0.028318485711261141 0 -0.35163198926140088 0.046228739452983239 0 -0.36551724687399623 0.028318485711261141 0 -0.35163198926140088 0.046228739452983239 0 -0.37261014177358448 0.043145835856899219 0 -0.37937813184432773 0.031366277704107569 0 -0.36551724687399623 0.028318485711261141 0 -0.37261014177358448 0.043145835856899219 0 -0.35163198926140088 0.046228739452983239 0 -0.37261014177358448 0.043145835856899219 0 -0.36891219827968119 0.060077996683558232 0 -0.38207463336695202 0.051047668856640811 0 -0.37261014177358448 0.043145835856899219 0 -0.36891219827968119 0.060077996683558232 0 -0.37929074908003868 0.077603726490867345 0 -0.35694138538550352 0.073855345321458488 0 -0.37929074908003868 0.077603726490867345 0 -0.36891219827968119 0.060077996683558232 0 -0.35694138538550352 0.073855345321458488 0 -0.36891219827968119 0.060077996683558232 0 -0.35298131256760962 0.063034912088641357 0 -0.35694138538550352 0.073855345321458488 0 -0.35298131256760962 0.063034912088641357 0 -0.35694138538550352 0.073855345321458488 0 -0.34914844650339177 0.074408805051249083 0 -0.35694138538550352 0.073855345321458488 0 -0.34914844650339177 0.074408805051249083 0 -0.35387282561504041 0.085789381247760657 0 -0.338272543408071 0.060603673933957783 0 -0.35298131256760962 0.063034912088641357 0 -0.34914844650339177 0.074408805051249083 0 -0.34914844650339177 0.074408805051249083 0 -0.35387282561504041 0.085789381247760657 0 -0.33299160925146271 0.085281992960062933 0 -0.35694138538550352 0.073855345321458488 0 -0.35387282561504041 0.085789381247760657 0 -0.36438159895332511 0.085691586513687634 0 -0.35387282561504041 0.085789381247760657 0 -0.36438159895332511 0.085691586513687634 0 -0.35579278546844412 0.098564625017930646 0 -0.37929074908003868 0.077603726490867345 0 -0.35694138538550352 0.073855345321458488 0 -0.36438159895332511 0.085691586513687634 0 -0.37929074908003868 0.077603726490867345 0 -0.36438159895332511 0.085691586513687634 0 -0.37090825683648998 0.098456277756480637 0 -0.37090825683648998 0.098456277756480637 0 -0.36904533532088801 0.1177582563576956 0 -0.35579278546844412 0.098564625017930646 0 -0.36438159895332511 0.085691586513687634 0 -0.37090825683648998 0.098456277756480637 0 -0.35579278546844412 0.098564625017930646 0 -0.35823941519022368 0.13573745574644491 0 -0.36904533532088801 0.1177582563576956 0 -0.35158166360451942 0.11704707172714621 0 -0.36904533532088801 0.1177582563576956 0 -0.35158166360451942 0.11704707172714621 0 -0.35579278546844412 0.098564625017930646 0 -0.35158166360451942 0.11704707172714621 0 -0.35579278546844412 0.098564625017930646 0 -0.34047962299512569 0.099373871294989508 0 -0.35387282561504041 0.085789381247760657 0 -0.35579278546844412 0.098564625017930646 0 -0.34047962299512569 0.099373871294989508 0 -0.34047962299512569 0.099373871294989508 0 -0.33231339904552459 0.1171762944261375 0 -0.31683477199953253 0.096155180868875256 0 -0.34455851703438989 0.13305210298766909 0 -0.35158166360451942 0.11704707172714621 0 -0.33231339904552459 0.1171762944261375 0 -0.35158166360451942 0.11704707172714621 0 -0.34047962299512569 0.099373871294989508 0 -0.33231339904552459 0.1171762944261375 0 -0.31211500736378339 0.1240031522641292 0 -0.31683477199953253 0.096155180868875256 0 -0.31211500736378339 0.1240031522641292 0 -0.33231339904552459 0.1171762944261375 0 -0.31683477199953253 0.096155180868875256 0 -0.30635830999651792 0.07761242167179265 0 -0.31683477199953253 0.096155180868875256 0 -0.32146679815367007 0.068824891797761426 0 -0.31683477199953253 0.096155180868875256 0 -0.32146679815367007 0.068824891797761426 0 -0.33299160925146271 0.085281992960062933 0 -0.31683477199953253 0.096155180868875256 0 -0.32146679815367007 0.068824891797761426 0 -0.31683477199953253 0.096155180868875256 0 -0.33299160925146271 0.085281992960062933 0 -0.338272543408071 0.060603673933957783 0 -0.32146679815367007 0.068824891797761426 0 -0.33576809196089219 0.072507027900731907 0 -0.32146679815367007 0.068824891797761426 0 -0.33576809196089219 0.072507027900731907 0 -0.33299160925146271 0.085281992960062933 0 -0.34914844650339177 0.074408805051249083 0 -0.33576809196089219 0.072507027900731907 0 -0.33299160925146271 0.085281992960062933 0 -0.338272543408071 0.060603673933957783 0 -0.34914844650339177 0.074408805051249083 0 -0.33576809196089219 0.072507027900731907 0 -0.35387282561504041 0.085789381247760657 0 -0.34047962299512569 0.099373871294989508 0 -0.33299160925146271 0.085281992960062933 0 -0.34914844650339177 0.074408805051249083 0 -0.33299160925146271 0.085281992960062933 0 -0.34047962299512569 0.099373871294989508 0 -0.31683477199953253 0.096155180868875256 0 -0.33299160925146271 0.085281992960062933 0 -0.3938434845513461 0.48000301234504228 0 -0.4154786193197833 0.47000451851756458 0 -0.40908183102320411 0.4845696213484928 0 -0.3938434845513461 0.48000301234504228 0 -0.40110135887996978 0.47332954189399812 0 -0.4154786193197833 0.47000451851756458 0 -0.3938434845513461 0.48000301234504228 0 -0.4154786193197833 0.47000451851756458 0 -0.3938434845513461 0.48000301234504228 0 -0.40110135887996978 0.47332954189399812 0 -0.38930270813857232 0.46778113184491188 0 -0.3938434845513461 0.48000301234504228 0 -0.39546946259238258 0.49128185561313598 0 -0.40908183102320411 0.4845696213484928 0 -0.40521342881326272 0.5 0 -0.39546946259238258 0.49128185561313598 0 -0.37789332191386737 0.5 0 -0.40521342881326272 0.5 0 -0.39546946259238258 0.49128185561313598 0 -0.40908183102320411 0.4845696213484928 0 -0.3938434845513461 0.48000301234504228 0 -0.39546946259238258 0.49128185561313598 0 -0.38517353549973538 0.49039659604947999 0 -0.3938434845513461 0.48000301234504228 0 -0.37220834978290879 0.49000150617251997 0 -0.39546946259238258 0.49128185561313598 0 -0.38517353549973538 0.49039659604947999 0 -0.37789332191386737 0.5 0 -0.3938434845513461 0.48000301234504228 0 -0.38517353549973538 0.49039659604947999 0 -0.37220834978290879 0.49000150617251997 0 -0.38517353549973538 0.49039659604947999 0 -0.37789332191386737 0.5 0 -0.37220834978290879 0.49000150617251997 0 -0.3938434845513461 0.48000301234504228 0 -0.37805640255927542 0.47903421333972468 0 -0.3842367001720054 0.47454362448235632 0 -0.3938434845513461 0.48000301234504228 0 -0.37805640255927542 0.47903421333972468 0 -0.37220834978290879 0.49000150617251997 0 -0.3842367001720054 0.47454362448235632 0 -0.37701653082709469 0.46900635458093531 0 -0.38930270813857232 0.46778113184491188 0 -0.3938434845513461 0.48000301234504228 0 -0.3842367001720054 0.47454362448235632 0 -0.38930270813857232 0.46778113184491188 0 -0.37805640255927542 0.47903421333972468 0 -0.3842367001720054 0.47454362448235632 0 -0.37701653082709469 0.46900635458093531 0 -0.37701653082709469 0.46900635458093531 0 -0.38677844954541418 0.45747132953460651 0 -0.37376195539900242 0.45249759326054367 0 -0.37701653082709469 0.46900635458093531 0 -0.38677844954541418 0.45747132953460651 0 -0.38930270813857232 0.46778113184491188 0 -0.38473584783684761 0.44354080077547992 0 -0.36778315087773072 0.43214877602771662 0 -0.37376195539900242 0.45249759326054367 0 -0.38677844954541418 0.45747132953460651 0 -0.38473584783684761 0.44354080077547992 0 -0.37376195539900242 0.45249759326054367 0 -0.38677844954541418 0.45747132953460651 0 -0.38473584783684761 0.44354080077547992 0 -0.39843898125590987 0.45231631840454728 0 -0.39843898125590987 0.45231631840454728 0 -0.4072920944712265 0.44499890251068641 0 -0.39856520721893041 0.43647578570475237 0 -0.38473584783684761 0.44354080077547992 0 -0.39843898125590987 0.45231631840454728 0 -0.39856520721893041 0.43647578570475237 0 -0.39843898125590987 0.45231631840454728 0 -0.39841490533913748 0.46178879282826651 0 -0.41709791082295028 0.45456801136960878 0 -0.40110135887996978 0.47332954189399812 0 -0.39841490533913748 0.46178879282826651 0 -0.41709791082295028 0.45456801136960878 0 -0.38677844954541418 0.45747132953460651 0 -0.38930270813857232 0.46778113184491188 0 -0.39841490533913748 0.46178879282826651 0 -0.40110135887996978 0.47332954189399812 0 -0.38930270813857232 0.46778113184491188 0 -0.39841490533913748 0.46178879282826651 0 -0.38677844954541418 0.45747132953460651 0 -0.39843898125590987 0.45231631840454728 0 -0.39841490533913748 0.46178879282826651 0 -0.40110135887996978 0.47332954189399812 0 -0.41709791082295028 0.45456801136960878 0 -0.4154786193197833 0.47000451851756458 0 -0.40110135887996978 0.47332954189399812 0 -0.41709791082295028 0.45456801136960878 0 -0.41709791082295028 0.45456801136960878 0 -0.42692569345801529 0.46340213249295897 0 -0.4154786193197833 0.47000451851756458 0 -0.41709791082295028 0.45456801136960878 0 -0.43309446276593089 0.43580648084521972 0 -0.41506627858711548 0.4366354945638371 0 -0.39843898125590987 0.45231631840454728 0 -0.41709791082295028 0.45456801136960878 0 -0.4072920944712265 0.44499890251068641 0 -0.4072920944712265 0.44499890251068641 0 -0.41506627858711548 0.4366354945638371 0 -0.39856520721893041 0.43647578570475237 0 -0.41709791082295028 0.45456801136960878 0 -0.4072920944712265 0.44499890251068641 0 -0.41506627858711548 0.4366354945638371 0 -0.41709791082295028 0.45456801136960878 0 -0.43251943231727258 0.45189802077753072 0 -0.43309446276593089 0.43580648084521972 0 -0.41709791082295028 0.45456801136960878 0 -0.43309446276593089 0.43580648084521972 0 -0.43251943231727258 0.45189802077753072 0 -0.44285055445462801 0.44408738363144917 0 -0.43309446276593089 0.43580648084521972 0 -0.43251943231727258 0.45189802077753072 0 -0.42692569345801529 0.46340213249295897 0 -0.44262854008483871 0.46162609554841733 0 -0.42692569345801529 0.46340213249295897 0 -0.43014133963940671 0.47900644757454591 0 -0.44262854008483871 0.46162609554841733 0 -0.41709791082295028 0.45456801136960878 0 -0.43251943231727258 0.45189802077753072 0 -0.42692569345801529 0.46340213249295897 0 -0.42692569345801529 0.46340213249295897 0 -0.43014133963940671 0.47900644757454591 0 -0.4154786193197833 0.47000451851756458 0 -0.43014133963940671 0.47900644757454591 0 -0.4154786193197833 0.47000451851756458 0 -0.40908183102320411 0.4845696213484928 0 -0.40521342881326272 0.5 0 -0.40908183102320411 0.4845696213484928 0 -0.43253353571265801 0.5 0 -0.43014133963940671 0.47900644757454591 0 -0.40908183102320411 0.4845696213484928 0 -0.43253353571265801 0.5 0 -0.43014133963940671 0.47900644757454591 0 -0.43253353571265801 0.5 0 -0.44984012809851409 0.48033494727474779 0 -0.43253353571265801 0.5 0 -0.44984012809851409 0.48033494727474779 0 -0.45985364261205308 0.50000000000000111 0 -0.43014133963940671 0.47900644757454591 0 -0.44984012809851409 0.48033494727474779 0 -0.44262854008483871 0.46162609554841733 0 -0.44984012809851409 0.48033494727474779 0 -0.47312811744354261 0.47395110078869013 0 -0.45820768181792781 0.46325373185340701 0 -0.45985364261205308 0.50000000000000111 0 -0.47312811744354261 0.47395110078869013 0 -0.44984012809851409 0.48033494727474779 0 -0.45985364261205308 0.50000000000000111 0 -0.47312811744354261 0.47395110078869013 0 -0.5 0.5 0 -0.47312811744354261 0.47395110078869013 0 -0.49999999999999972 0.44664233614409321 0 -0.45985364261205308 0.50000000000000111 0 -0.5 0.5 0 -0.47312811744354261 0.47395110078869013 0 -0.48640259227503152 0.44790220157737892 0 -0.49999999999999972 0.44664233614409321 0 -0.47883616718389621 0.43347798499105172 0 -0.49999999999999972 0.44664233614409321 0 -0.47883616718389621 0.43347798499105172 0 -0.47312811744354261 0.47395110078869013 0 -0.48640259227503152 0.44790220157737892 0 -0.49999999999999972 0.44664233614409321 0 -0.47312811744354261 0.47395110078869013 0 -0.48640259227503152 0.44790220157737892 0 -0.47312811744354261 0.47395110078869013 0 -0.48640259227503152 0.44790220157737892 0 -0.46932328621444303 0.45009797021529852 0 -0.46932328621444303 0.45009797021529852 0 -0.46288197751253979 0.435741310408158 0 -0.47883616718389621 0.43347798499105172 0 -0.48640259227503152 0.44790220157737892 0 -0.46932328621444303 0.45009797021529852 0 -0.47883616718389621 0.43347798499105172 0 -0.46932328621444303 0.45009797021529852 0 -0.45653044061400749 0.44574373859450739 0 -0.46288197751253979 0.435741310408158 0 -0.46932328621444303 0.45009797021529852 0 -0.45653044061400749 0.44574373859450739 0 -0.45820768181792781 0.46325373185340701 0 -0.45653044061400749 0.44574373859450739 0 -0.44988321330808601 0.43264183945635343 0 -0.46288197751253979 0.435741310408158 0 -0.47312811744354261 0.47395110078869013 0 -0.46932328621444303 0.45009797021529852 0 -0.45820768181792781 0.46325373185340701 0 -0.45653044061400749 0.44574373859450739 0 -0.45820768181792781 0.46325373185340701 0 -0.44262854008483871 0.46162609554841733 0 -0.44984012809851409 0.48033494727474779 0 -0.45820768181792781 0.46325373185340701 0 -0.44262854008483871 0.46162609554841733 0 -0.43251943231727258 0.45189802077753072 0 -0.44262854008483871 0.46162609554841733 0 -0.44285055445462801 0.44408738363144917 0 -0.45653044061400749 0.44574373859450739 0 -0.44262854008483871 0.46162609554841733 0 -0.44285055445462801 0.44408738363144917 0 -0.44285055445462801 0.44408738363144917 0 -0.44988321330808601 0.43264183945635343 0 -0.43309446276593089 0.43580648084521972 0 -0.45653044061400749 0.44574373859450739 0 -0.44285055445462801 0.44408738363144917 0 -0.44988321330808601 0.43264183945635343 0 -0.44909101470891138 0.41704495032083061 0 -0.43309446276593089 0.43580648084521972 0 -0.44988321330808601 0.43264183945635343 0 -0.44909101470891138 0.41704495032083061 0 -0.43309446276593089 0.43580648084521972 0 -0.44988321330808601 0.43264183945635343 0 -0.44909101470891138 0.41704495032083061 0 -0.45767233436779298 0.42031363383801013 0 -0.44909101470891138 0.41704495032083061 0 -0.43642708593841462 0.41129790334070748 0 -0.43309446276593089 0.43580648084521972 0 -0.44909101470891138 0.41704495032083061 0 -0.44923652684218601 0.40651161443480333 0 -0.43642708593841462 0.41129790334070748 0 -0.44909101470891138 0.41704495032083061 0 -0.46310762304278369 0.4136785712167641 0 -0.46508756665189233 0.39828341979644161 0 -0.44909101470891138 0.41704495032083061 0 -0.46508756665189233 0.39828341979644161 0 -0.44909101470891138 0.41704495032083061 0 -0.44923652684218601 0.40651161443480333 0 -0.46508756665189233 0.39828341979644161 0 -0.44909101470891138 0.41704495032083061 0 -0.45767233436779298 0.42031363383801013 0 -0.46310762304278369 0.4136785712167641 0 -0.45767233436779298 0.42031363383801013 0 -0.46310762304278369 0.4136785712167641 0 -0.4689935185142321 0.42014913325858988 0 -0.46310762304278369 0.4136785712167641 0 -0.47635794946245552 0.41312634298853379 0 -0.46508756665189233 0.39828341979644161 0 -0.45767233436779298 0.42031363383801013 0 -0.47883616718389621 0.43347798499105172 0 -0.4689935185142321 0.42014913325858988 0 -0.45767233436779298 0.42031363383801013 0 -0.46288197751253979 0.435741310408158 0 -0.47883616718389621 0.43347798499105172 0 -0.45767233436779298 0.42031363383801013 0 -0.47883616718389621 0.43347798499105172 0 -0.44988321330808601 0.43264183945635343 0 -0.45767233436779298 0.42031363383801013 0 -0.46288197751253979 0.435741310408158 0 -0.47883616718389621 0.43347798499105172 0 -0.47635794946245552 0.41312634298853379 0 -0.48714440641974271 0.42351608680749347 0 -0.47883616718389621 0.43347798499105172 0 -0.4689935185142321 0.42014913325858988 0 -0.47635794946245552 0.41312634298853379 0 -0.46310762304278369 0.4136785712167641 0 -0.4689935185142321 0.42014913325858988 0 -0.47635794946245552 0.41312634298853379 0 -0.47635794946245552 0.41312634298853379 0 -0.48901457958177968 0.41012265573874179 0 -0.48254378332594611 0.39722493186941499 0 -0.47635794946245552 0.41312634298853379 0 -0.48901457958177968 0.41012265573874179 0 -0.48714440641974271 0.42351608680749347 0 -0.48901457958177968 0.41012265573874179 0 -0.5 0.42140439004324071 0 -0.49999999999999978 0.39616644394238798 0 -0.48901457958177968 0.41012265573874179 0 -0.5 0.42140439004324071 0 -0.48714440641974271 0.42351608680749347 0 -0.49999999999999972 0.44664233614409321 0 -0.47883616718389621 0.43347798499105172 0 -0.48714440641974271 0.42351608680749347 0 -0.49999999999999972 0.44664233614409321 0 -0.5 0.42140439004324071 0 -0.48714440641974271 0.42351608680749347 0 -0.49007778645481631 0.38142997617552599 0 -0.49999999999999978 0.39616644394238798 0 -0.50000000000000311 0.3685517992903854 0 -0.49007778645481631 0.38142997617552599 0 -0.47611467569506138 0.38535029247959018 0 -0.48714178473823078 0.37241716516273898 0 -0.49999999999999978 0.39616644394238798 0 -0.48254378332594611 0.39722493186941499 0 -0.48901457958177968 0.41012265573874179 0 -0.49999999999999978 0.39616644394238798 0 -0.48254378332594611 0.39722493186941499 0 -0.49007778645481631 0.38142997617552599 0 -0.49999999999999978 0.39616644394238798 0 -0.48254378332594611 0.39722493186941499 0 -0.48254378332594611 0.39722493186941499 0 -0.46508756665189233 0.39828341979644161 0 -0.47635794946245552 0.41312634298853379 0 -0.48254378332594611 0.39722493186941499 0 -0.46508756665189233 0.39828341979644161 0 -0.48254378332594611 0.39722493186941499 0 -0.47611467569506138 0.38535029247959018 0 -0.46508756665189233 0.39828341979644161 0 -0.47611467569506138 0.38535029247959018 0 -0.46508756665189233 0.39828341979644161 0 -0.49007778645481631 0.38142997617552599 0 -0.48254378332594611 0.39722493186941499 0 -0.47611467569506138 0.38535029247959018 0 -0.47611467569506138 0.38535029247959018 0 -0.47397397291215421 0.37493689296344251 0 -0.48714178473823078 0.37241716516273898 0 -0.47611467569506138 0.38535029247959018 0 -0.48714178473823078 0.37241716516273898 0 -0.46871814716203669 0.37906981455344119 0 -0.46360543106569913 0.37231654924431878 0 -0.47397397291215421 0.37493689296344251 0 -0.47611467569506138 0.38535029247959018 0 -0.46871814716203669 0.37906981455344119 0 -0.47397397291215421 0.37493689296344251 0 -0.46871814716203669 0.37906981455344119 0 -0.46117850897523233 0.38367552352641338 0 -0.46360543106569913 0.37231654924431878 0 -0.47611467569506138 0.38535029247959018 0 -0.46871814716203669 0.37906981455344119 0 -0.46117850897523233 0.38367552352641338 0 -0.47611467569506138 0.38535029247959018 0 -0.46117850897523233 0.38367552352641338 0 -0.46508756665189233 0.39828341979644161 0 -0.46117850897523233 0.38367552352641338 0 -0.45400385251667602 0.39093091030285698 0 -0.45110956684876158 0.38402681738971201 0 -0.46117850897523233 0.38367552352641338 0 -0.45110956684876158 0.38402681738971201 0 -0.44813402172652672 0.37354371539476261 0 -0.46117850897523233 0.38367552352641338 0 -0.44813402172652672 0.37354371539476261 0 -0.46360543106569913 0.37231654924431878 0 -0.44923652684218601 0.40651161443480333 0 -0.46508756665189233 0.39828341979644161 0 -0.44634044006952572 0.39942018428123321 0 -0.46508756665189233 0.39828341979644161 0 -0.45400385251667602 0.39093091030285698 0 -0.44634044006952572 0.39942018428123321 0 -0.46508756665189233 0.39828341979644161 0 -0.44634044006952572 0.39942018428123321 0 -0.46117850897523233 0.38367552352641338 0 -0.46508756665189233 0.39828341979644161 0 -0.45400385251667602 0.39093091030285698 0 -0.45400385251667602 0.39093091030285698 0 -0.44634044006952572 0.39942018428123321 0 -0.44518347515021223 0.38837251913440451 0 -0.44634044006952572 0.39942018428123321 0 -0.44518347515021223 0.38837251913440451 0 -0.43728617553129168 0.39370672697544878 0 -0.44923652684218601 0.40651161443480333 0 -0.44634044006952572 0.39942018428123321 0 -0.43642708593841462 0.41129790334070748 0 -0.45110956684876158 0.38402681738971201 0 -0.44480856609964842 0.38185924381796288 0 -0.44813402172652672 0.37354371539476261 0 -0.45400385251667602 0.39093091030285698 0 -0.45110956684876158 0.38402681738971201 0 -0.44518347515021223 0.38837251913440451 0 -0.45110956684876158 0.38402681738971201 0 -0.44518347515021223 0.38837251913440451 0 -0.44480856609964842 0.38185924381796288 0 -0.44518347515021223 0.38837251913440451 0 -0.43913693036841173 0.38484964203092692 0 -0.43002747341826991 0.3864772557201327 0 -0.44518347515021223 0.38837251913440451 0 -0.43002747341826991 0.3864772557201327 0 -0.44518347515021223 0.38837251913440451 0 -0.43913693036841173 0.38484964203092692 0 -0.44480856609964842 0.38185924381796288 0 -0.44480856609964842 0.38185924381796288 0 -0.4393591315165738 0.37762743775392832 0 -0.44813402172652672 0.37354371539476261 0 -0.43913693036841173 0.38484964203092692 0 -0.44480856609964842 0.38185924381796288 0 -0.4393591315165738 0.37762743775392832 0 -0.43913693036841173 0.38484964203092692 0 -0.43173797726570751 0.37658334167695551 0 -0.43913693036841173 0.38484964203092692 0 -0.43173797726570751 0.37658334167695551 0 -0.43002747341826991 0.3864772557201327 0 -0.43913693036841173 0.38484964203092692 0 -0.4393591315165738 0.37762743775392832 0 -0.43173797726570751 0.37658334167695551 0 -0.4393591315165738 0.37762743775392832 0 -0.43173797726570751 0.37658334167695551 0 -0.4325639091043616 0.37180597819459837 0 -0.43173797726570751 0.37658334167695551 0 -0.43002747341826991 0.3864772557201327 0 -0.44518347515021223 0.38837251913440451 0 -0.43002747341826991 0.3864772557201327 0 -0.43728617553129168 0.39370672697544878 0 -0.43002747341826991 0.3864772557201327 0 -0.41472776448615789 0.38456402166930481 0 -0.42117367656598032 0.39254991666010941 0 -0.43002747341826991 0.3864772557201327 0 -0.41472776448615789 0.38456402166930481 0 -0.43002747341826991 0.3864772557201327 0 -0.42328890360694349 0.38021744503538613 0 -0.41472776448615789 0.38456402166930481 0 -0.43173797726570751 0.37658334167695551 0 -0.43002747341826991 0.3864772557201327 0 -0.42328890360694349 0.38021744503538613 0 -0.43173797726570751 0.37658334167695551 0 -0.42328890360694349 0.38021744503538613 0 -0.42689564018809201 0.37117335838025439 0 -0.40881671944059661 0.37920357314115732 0 -0.42689564018809201 0.37117335838025439 0 -0.42328890360694349 0.38021744503538613 0 -0.40881671944059661 0.37920357314115732 0 -0.42689564018809201 0.37117335838025439 0 -0.42328890360694349 0.38021744503538613 0 -0.41472776448615789 0.38456402166930481 0 -0.40881671944059661 0.37920357314115732 0 -0.41472776448615789 0.38456402166930481 0 -0.40724106840129259 0.39428871981441299 0 -0.42117367656598032 0.39254991666010941 0 -0.41472776448615789 0.38456402166930481 0 -0.40826438028753348 0.3817067557430866 0 -0.39942805555404642 0.38265078761847338 0 -0.41472776448615789 0.38456402166930481 0 -0.40724106840129259 0.39428871981441299 0 -0.39942805555404642 0.38265078761847338 0 -0.41472776448615789 0.38456402166930481 0 -0.39942805555404642 0.38265078761847338 0 -0.40881671944059661 0.37920357314115732 0 -0.39942805555404642 0.38265078761847338 0 -0.41098055992701871 0.3693971202961519 0 -0.40826438028753348 0.3817067557430866 0 -0.40881671944059661 0.37920357314115732 0 -0.41472776448615789 0.38456402166930481 0 -0.40826438028753348 0.3817067557430866 0 -0.40881671944059661 0.37920357314115732 0 -0.40724106840129259 0.39428871981441299 0 -0.4157685575788832 0.40127396331749671 0 -0.40157856791931718 0.40704460823596672 0 -0.42117367656598032 0.39254991666010941 0 -0.4157685575788832 0.40127396331749671 0 -0.42759331348715912 0.40055694876602499 0 -0.40724106840129259 0.39428871981441299 0 -0.42117367656598032 0.39254991666010941 0 -0.4157685575788832 0.40127396331749671 0 -0.4157685575788832 0.40127396331749671 0 -0.42759331348715912 0.40055694876602499 0 -0.44634044006952572 0.39942018428123321 0 -0.42759331348715912 0.40055694876602499 0 -0.44634044006952572 0.39942018428123321 0 -0.42759331348715912 0.40055694876602499 0 -0.43728617553129168 0.39370672697544878 0 -0.44634044006952572 0.39942018428123321 0 -0.42759331348715912 0.40055694876602499 0 -0.43642708593841462 0.41129790334070748 0 -0.43002747341826991 0.3864772557201327 0 -0.42117367656598032 0.39254991666010941 0 -0.42759331348715912 0.40055694876602499 0 -0.43002747341826991 0.3864772557201327 0 -0.42759331348715912 0.40055694876602499 0 -0.43002747341826991 0.3864772557201327 0 -0.42759331348715912 0.40055694876602499 0 -0.43728617553129168 0.39370672697544878 0 -0.43642708593841462 0.41129790334070748 0 -0.42449994900394461 0.41844961959922572 0 -0.43309446276593089 0.43580648084521972 0 -0.42759331348715912 0.40055694876602499 0 -0.43642708593841462 0.41129790334070748 0 -0.42449994900394461 0.41844961959922572 0 -0.4157685575788832 0.40127396331749671 0 -0.42759331348715912 0.40055694876602499 0 -0.42449994900394461 0.41844961959922572 0 -0.42759331348715912 0.40055694876602499 0 -0.42449994900394461 0.41844961959922572 0 -0.42449994900394461 0.41844961959922572 0 -0.43309446276593089 0.43580648084521972 0 -0.41506627858711548 0.4366354945638371 0 -0.42449994900394461 0.41844961959922572 0 -0.41506627858711548 0.4366354945638371 0 -0.40746949035714619 0.42222882353716701 0 -0.41506627858711548 0.4366354945638371 0 -0.40746949035714619 0.42222882353716701 0 -0.39856520721893041 0.43647578570475237 0 -0.42449994900394461 0.41844961959922572 0 -0.40746949035714619 0.42222882353716701 0 -0.41232914121482278 0.41224925367246401 0 -0.4157685575788832 0.40127396331749671 0 -0.42449994900394461 0.41844961959922572 0 -0.41232914121482278 0.41224925367246401 0 -0.4157685575788832 0.40127396331749671 0 -0.41232914121482278 0.41224925367246401 0 -0.40157856791931718 0.40704460823596672 0 -0.40746949035714619 0.42222882353716701 0 -0.41232914121482278 0.41224925367246401 0 -0.40157856791931718 0.40704460823596672 0 -0.40746949035714619 0.42222882353716701 0 -0.40157856791931718 0.40704460823596672 0 -0.39298749241221759 0.42119507937603923 0 -0.40746949035714619 0.42222882353716701 0 -0.39298749241221759 0.42119507937603923 0 -0.39856520721893041 0.43647578570475237 0 -0.39298749241221759 0.42119507937603923 0 -0.39856520721893041 0.43647578570475237 0 -0.38373994498284608 0.43043669407259588 0 -0.38373994498284608 0.43043669407259588 0 -0.37668454372729859 0.41206883315114529 0 -0.36778315087773072 0.43214877602771662 0 -0.38473584783684761 0.44354080077547992 0 -0.38373994498284608 0.43043669407259588 0 -0.36778315087773072 0.43214877602771662 0 -0.38473584783684761 0.44354080077547992 0 -0.39856520721893041 0.43647578570475237 0 -0.38373994498284608 0.43043669407259588 0 -0.40157856791931718 0.40704460823596672 0 -0.39298749241221759 0.42119507937603923 0 -0.37668454372729859 0.41206883315114529 0 -0.39298749241221759 0.42119507937603923 0 -0.38373994498284608 0.43043669407259588 0 -0.37668454372729859 0.41206883315114529 0 -0.40157856791931718 0.40704460823596672 0 -0.37668454372729859 0.41206883315114529 0 -0.37668454372729859 0.41206883315114529 0 -0.37844474563582792 0.390355182046278 0 -0.39076978830337122 0.39764902138512792 0 -0.40157856791931718 0.40704460823596672 0 -0.37668454372729859 0.41206883315114529 0 -0.39076978830337122 0.39764902138512792 0 -0.38141148745950948 0.38039780936179463 0 -0.39942805555404642 0.38265078761847338 0 -0.37844474563582792 0.390355182046278 0 -0.39942805555404642 0.38265078761847338 0 -0.38141148745950948 0.38039780936179463 0 -0.37844474563582792 0.390355182046278 0 -0.39942805555404642 0.38265078761847338 0 -0.37844474563582792 0.390355182046278 0 -0.39942805555404642 0.38265078761847338 0 -0.39076978830337122 0.39764902138512792 0 -0.38141148745950948 0.38039780936179463 0 -0.39942805555404642 0.38265078761847338 0 -0.39128338495032239 0.36719877308275878 0 -0.40826438028753348 0.3817067557430866 0 -0.40881671944059661 0.37920357314115732 0 -0.39942805555404642 0.38265078761847338 0 -0.40881671944059661 0.37920357314115732 0 -0.39942805555404642 0.38265078761847338 0 -0.40724106840129259 0.39428871981441299 0 -0.40157856791931718 0.40704460823596672 0 -0.39076978830337122 0.39764902138512792 0 -0.40724106840129259 0.39428871981441299 0 -0.39942805555404642 0.38265078761847338 0 -0.39076978830337122 0.39764902138512792 0 -0.39259889148010241 0.34864188780489069 0 -0.39999637464883392 0.35559476271013252 0 -0.38966798311544332 0.35610238881872369 0 -0.39259889148010241 0.34864188780489069 0 -0.39999637464883392 0.35559476271013252 0 -0.40046159691170069 0.34164056661102238 0 -0.39999637464883392 0.35559476271013252 0 -0.40046159691170069 0.34164056661102238 0 -0.41381361947694889 0.35655778899711688 0 -0.39999637464883392 0.35559476271013252 0 -0.40397412088998857 0.3623881668075713 0 -0.41381361947694889 0.35655778899711688 0 -0.39128338495032239 0.36719877308275878 0 -0.41098055992701871 0.3693971202961519 0 -0.40397412088998857 0.3623881668075713 0 -0.39128338495032239 0.36719877308275878 0 -0.41098055992701871 0.3693971202961519 0 -0.39942805555404642 0.38265078761847338 0 -0.39128338495032239 0.36719877308275878 0 -0.41098055992701871 0.3693971202961519 0 -0.39999637464883392 0.35559476271013252 0 -0.39128338495032239 0.36719877308275878 0 -0.38966798311544332 0.35610238881872369 0 -0.39999637464883392 0.35559476271013252 0 -0.40397412088998857 0.3623881668075713 0 -0.39128338495032239 0.36719877308275878 0 -0.39128338495032239 0.36719877308275878 0 -0.38070440212728118 0.35956436367519867 0 -0.38966798311544332 0.35610238881872369 0 -0.39128338495032239 0.36719877308275878 0 -0.38070440212728118 0.35956436367519867 0 -0.37158620997362618 0.36500042586936587 0 -0.39128338495032239 0.36719877308275878 0 -0.37158620997362618 0.36500042586936587 0 -0.38141148745950948 0.38039780936179463 0 -0.39128338495032239 0.36719877308275878 0 -0.37158620997362618 0.36500042586936587 0 -0.38070440212728118 0.35956436367519867 0 -0.38259242285128608 0.34975193996759602 0 -0.36960199921418602 0.35731180584905542 0 -0.38259242285128608 0.34975193996759602 0 -0.37580907906339922 0.33647878059299557 0 -0.36960199921418602 0.35731180584905542 0 -0.38070440212728118 0.35956436367519867 0 -0.38966798311544332 0.35610238881872369 0 -0.38259242285128608 0.34975193996759602 0 -0.39259889148010241 0.34864188780489069 0 -0.38966798311544332 0.35610238881872369 0 -0.38259242285128608 0.34975193996759602 0 -0.39259889148010241 0.34864188780489069 0 -0.38259242285128608 0.34975193996759602 0 -0.38794720083446621 0.34059934721089508 0 -0.38259242285128608 0.34975193996759602 0 -0.37580907906339922 0.33647878059299557 0 -0.38794720083446621 0.34059934721089508 0 -0.37580907906339922 0.33647878059299557 0 -0.38794720083446621 0.34059934721089508 0 -0.38710957434645199 0.32672334422492838 0 -0.37580907906339922 0.33647878059299557 0 -0.38201615891261242 0.31564575533693578 0 -0.38201615891261242 0.31564575533693578 0 -0.38336946241093189 0.30974931290420182 0 -0.36531193472093021 0.32454274932608829 0 -0.37580907906339922 0.33647878059299557 0 -0.38201615891261242 0.31564575533693578 0 -0.38710957434645199 0.32672334422492838 0 -0.38201615891261242 0.31564575533693578 0 -0.39350880394476312 0.31593875705230262 0 -0.38336946241093189 0.30974931290420182 0 -0.38201615891261242 0.31564575533693578 0 -0.38710957434645199 0.32672334422492838 0 -0.39350880394476312 0.31593875705230262 0 -0.38710957434645199 0.32672334422492838 0 -0.39350880394476312 0.31593875705230262 0 -0.39921774374196328 0.327754485124091 0 -0.39350880394476312 0.31593875705230262 0 -0.39921774374196328 0.327754485124091 0 -0.40602554896887638 0.32011992980008452 0 -0.39921774374196328 0.327754485124091 0 -0.40602554896887638 0.32011992980008452 0 -0.40814721749945931 0.33505042297199122 0 -0.38794720083446621 0.34059934721089508 0 -0.38710957434645199 0.32672334422492838 0 -0.40046159691170069 0.34164056661102238 0 -0.39259889148010241 0.34864188780489069 0 -0.38794720083446621 0.34059934721089508 0 -0.40046159691170069 0.34164056661102238 0 -0.38710957434645199 0.32672334422492838 0 -0.39921774374196328 0.327754485124091 0 -0.40046159691170069 0.34164056661102238 0 -0.38710957434645199 0.32672334422492838 0 -0.40046159691170069 0.34164056661102238 0 -0.39921774374196328 0.327754485124091 0 -0.40046159691170069 0.34164056661102238 0 -0.40814721749945931 0.33505042297199122 0 -0.40814721749945931 0.33505042297199122 0 -0.41954562432067788 0.33058053440738988 0 -0.41381361947694889 0.35655778899711688 0 -0.41954562432067788 0.33058053440738988 0 -0.41381361947694889 0.35655778899711688 0 -0.40602554896887638 0.32011992980008452 0 -0.40814721749945931 0.33505042297199122 0 -0.41954562432067788 0.33058053440738988 0 -0.40602554896887638 0.32011992980008452 0 -0.41954562432067788 0.33058053440738988 0 -0.42527762916440792 0.30460327981766322 0 -0.41954562432067788 0.33058053440738988 0 -0.42527762916440792 0.30460327981766322 0 -0.41954562432067788 0.33058053440738988 0 -0.44001701522470671 0.31606260091672289 0 -0.42527762916440792 0.30460327981766322 0 -0.41954562432067788 0.33058053440738988 0 -0.42420657124029282 0.3485159257420361 0 -0.43843079740841773 0.33787066219507811 0 -0.41954562432067788 0.33058053440738988 0 -0.43843079740841773 0.33787066219507811 0 -0.44001701522470671 0.31606260091672289 0 -0.42420657124029282 0.3485159257420361 0 -0.43459164588172849 0.36007712215754689 0 -0.43843079740841773 0.33787066219507811 0 -0.42420657124029282 0.3485159257420361 0 -0.41381361947694889 0.35655778899711688 0 -0.43459164588172849 0.36007712215754689 0 -0.41381361947694889 0.35655778899711688 0 -0.43459164588172849 0.36007712215754689 0 -0.43459164588172849 0.36007712215754689 0 -0.43843079740841773 0.33787066219507811 0 -0.40046159691170069 0.34164056661102238 0 -0.40814721749945931 0.33505042297199122 0 -0.41381361947694889 0.35655778899711688 0 -0.41954562432067788 0.33058053440738988 0 -0.42420657124029282 0.3485159257420361 0 -0.41381361947694889 0.35655778899711688 0 -0.39999637464883392 0.35559476271013252 0 -0.41381361947694889 0.35655778899711688 0 -0.40046159691170069 0.34164056661102238 0 -0.41381361947694889 0.35655778899711688 0 -0.41381361947694889 0.35655778899711688 0 -0.41098055992701871 0.3693971202961519 0 -0.42689564018809201 0.37117335838025439 0 -0.41098055992701871 0.3693971202961519 0 -0.42689564018809201 0.37117335838025439 0 -0.40881671944059661 0.37920357314115732 0 -0.41098055992701871 0.3693971202961519 0 -0.42689564018809201 0.37117335838025439 0 -0.40881671944059661 0.37920357314115732 0 -0.41098055992701871 0.3693971202961519 0 -0.40397412088998857 0.3623881668075713 0 -0.41381361947694889 0.35655778899711688 0 -0.41098055992701871 0.3693971202961519 0 -0.41381361947694889 0.35655778899711688 0 -0.41098055992701871 0.3693971202961519 0 -0.41381361947694889 0.35655778899711688 0 -0.42689564018809201 0.37117335838025439 0 -0.41381361947694889 0.35655778899711688 0 -0.42907199843085347 0.36486274908666949 0 -0.43459164588172849 0.36007712215754689 0 -0.42689564018809201 0.37117335838025439 0 -0.42907199843085347 0.36486274908666949 0 -0.42980351636605002 0.37149789839679431 0 -0.43173797726570751 0.37658334167695551 0 -0.42689564018809201 0.37117335838025439 0 -0.43173797726570751 0.37658334167695551 0 -0.42689564018809201 0.37117335838025439 0 -0.42980351636605002 0.37149789839679431 0 -0.42689564018809201 0.37117335838025439 0 -0.42980351636605002 0.37149789839679431 0 -0.41381361947694889 0.35655778899711688 0 -0.42689564018809201 0.37117335838025439 0 -0.42907199843085347 0.36486274908666949 0 -0.43459164588172849 0.36007712215754689 0 -0.4325639091043616 0.37180597819459837 0 -0.42907199843085347 0.36486274908666949 0 -0.43459164588172849 0.36007712215754689 0 -0.4325639091043616 0.37180597819459837 0 -0.43173797726570751 0.37658334167695551 0 -0.4325639091043616 0.37180597819459837 0 -0.43173797726570751 0.37658334167695551 0 -0.4325639091043616 0.37180597819459837 0 -0.42980351636605002 0.37149789839679431 0 -0.4325639091043616 0.37180597819459837 0 -0.42980351636605002 0.37149789839679431 0 -0.42907199843085347 0.36486274908666949 0 -0.4325639091043616 0.37180597819459837 0 -0.42980351636605002 0.37149789839679431 0 -0.4393591315165738 0.37762743775392832 0 -0.4325639091043616 0.37180597819459837 0 -0.44813402172652672 0.37354371539476261 0 -0.4325639091043616 0.37180597819459837 0 -0.44813402172652672 0.37354371539476261 0 -0.4325639091043616 0.37180597819459837 0 -0.44813402172652672 0.37354371539476261 0 -0.45404419213644692 0.3625975043188554 0 -0.43459164588172849 0.36007712215754689 0 -0.45404419213644692 0.3625975043188554 0 -0.43459164588172849 0.36007712215754689 0 -0.4325639091043616 0.37180597819459837 0 -0.45404419213644692 0.3625975043188554 0 -0.4325639091043616 0.37180597819459837 0 -0.45404419213644692 0.3625975043188554 0 -0.43459164588172849 0.36007712215754689 0 -0.44549025602952702 0.35300777224981977 0 -0.45404419213644692 0.3625975043188554 0 -0.44549025602952702 0.35300777224981977 0 -0.45575207180717081 0.34762579988211101 0 -0.43843079740841773 0.33787066219507811 0 -0.43459164588172849 0.36007712215754689 0 -0.44549025602952702 0.35300777224981977 0 -0.43843079740841773 0.33787066219507811 0 -0.44549025602952702 0.35300777224981977 0 -0.45575207180717081 0.34762579988211101 0 -0.45404419213644692 0.3625975043188554 0 -0.45575207180717081 0.34762579988211101 0 -0.46674234051517471 0.35793515390827568 0 -0.45404419213644692 0.3625975043188554 0 -0.45575207180717081 0.34762579988211101 0 -0.46674234051517471 0.35793515390827568 0 -0.46933267881425472 0.34565439271282838 0 -0.45404419213644692 0.3625975043188554 0 -0.47441064506165659 0.36523629740895902 0 -0.46674234051517471 0.35793515390827568 0 -0.45404419213644692 0.3625975043188554 0 -0.47441064506165659 0.36523629740895902 0 -0.45404419213644692 0.3625975043188554 0 -0.46360543106569913 0.37231654924431878 0 -0.47441064506165659 0.36523629740895902 0 -0.44813402172652672 0.37354371539476261 0 -0.45404419213644692 0.3625975043188554 0 -0.46360543106569913 0.37231654924431878 0 -0.46674234051517471 0.35793515390827568 0 -0.45404419213644692 0.3625975043188554 0 -0.46360543106569913 0.37231654924431878 0 -0.47397397291215421 0.37493689296344251 0 -0.47441064506165659 0.36523629740895902 0 -0.47441064506165659 0.36523629740895902 0 -0.48058358620238051 0.35168401037216412 0 -0.49477709798686631 0.36787509049906381 0 -0.47397397291215421 0.37493689296344251 0 -0.47441064506165659 0.36523629740895902 0 -0.48714178473823078 0.37241716516273898 0 -0.46674234051517471 0.35793515390827568 0 -0.47441064506165659 0.36523629740895902 0 -0.48058358620238051 0.35168401037216412 0 -0.46674234051517471 0.35793515390827568 0 -0.46933267881425472 0.34565439271282838 0 -0.48058358620238051 0.35168401037216412 0 -0.46933267881425472 0.34565439271282838 0 -0.48058358620238051 0.35168401037216412 0 -0.48121002056386808 0.3369363626790518 0 -0.48058358620238051 0.35168401037216412 0 -0.49703354506598713 0.34759711953555122 0 -0.48121002056386808 0.3369363626790518 0 -0.49703354506598713 0.34759711953555122 0 -0.5 0.34812631329607491 0 -0.49477709798686631 0.36787509049906381 0 -0.48058358620238051 0.35168401037216412 0 -0.49703354506598713 0.34759711953555122 0 -0.49477709798686631 0.36787509049906381 0 -0.49703354506598713 0.34759711953555122 0 -0.49477709798686631 0.36787509049906381 0 -0.5 0.34812631329607491 0 -0.50000000000000311 0.3685517992903854 0 -0.49477709798686631 0.36787509049906381 0 -0.47441064506165659 0.36523629740895902 0 -0.49477709798686631 0.36787509049906381 0 -0.48714178473823078 0.37241716516273898 0 -0.47441064506165659 0.36523629740895902 0 -0.49477709798686631 0.36787509049906381 0 -0.49007778645481631 0.38142997617552599 0 -0.50000000000000311 0.3685517992903854 0 -0.49477709798686631 0.36787509049906381 0 -0.50000000000000311 0.3685517992903854 0 -0.49477709798686631 0.36787509049906381 0 -0.49007778645481631 0.38142997617552599 0 -0.49477709798686631 0.36787509049906381 0 -0.48714178473823078 0.37241716516273898 0 -0.4992899921451075 0.32731914857203848 0 -0.47890896772952718 0.31636292681222472 0 -0.4992899921451075 0.32731914857203848 0 -0.48121002056386808 0.3369363626790518 0 -0.47890896772952718 0.31636292681222472 0 -0.49999999999999989 0.32093853419885771 0 -0.47890896772952718 0.31636292681222472 0 -0.48920120729889771 0.30786362236022019 0 -0.49999999999999989 0.32093853419885771 0 -0.4992899921451075 0.32731914857203848 0 -0.47890896772952718 0.31636292681222472 0 -0.49999999999999989 0.32093853419885771 0 -0.4992899921451075 0.32731914857203848 0 -0.49703354506598713 0.34759711953555122 0 -0.4992899921451075 0.32731914857203848 0 -0.49703354506598713 0.34759711953555122 0 -0.4992899921451075 0.32731914857203848 0 -0.48121002056386808 0.3369363626790518 0 -0.49703354506598713 0.34759711953555122 0 -0.5 0.34812631329607491 0 -0.4992899921451075 0.32731914857203848 0 -0.46933267881425472 0.34565439271282838 0 -0.48121002056386808 0.3369363626790518 0 -0.46237537498267961 0.3340906367225393 0 -0.48121002056386808 0.3369363626790518 0 -0.47890896772952718 0.31636292681222472 0 -0.46237537498267961 0.3340906367225393 0 -0.47890896772952718 0.31636292681222472 0 -0.45636509730576869 0.32029680939338251 0 -0.45852794331394758 0.30540670505240958 0 -0.47890896772952718 0.31636292681222472 0 -0.45636509730576869 0.32029680939338251 0 -0.46237537498267961 0.3340906367225393 0 -0.45575207180717081 0.34762579988211101 0 -0.46933267881425472 0.34565439271282838 0 -0.46237537498267961 0.3340906367225393 0 -0.45575207180717081 0.34762579988211101 0 -0.46237537498267961 0.3340906367225393 0 -0.43843079740841773 0.33787066219507811 0 -0.45636509730576869 0.32029680939338251 0 -0.46237537498267961 0.3340906367225393 0 -0.43843079740841773 0.33787066219507811 0 -0.45636509730576869 0.32029680939338251 0 -0.43843079740841773 0.33787066219507811 0 -0.44001701522470671 0.31606260091672289 0 -0.45636509730576869 0.32029680939338251 0 -0.44001701522470671 0.31606260091672289 0 -0.45852794331394758 0.30540670505240958 0 -0.4381469188983681 0.2944504832925946 0 -0.45852794331394758 0.30540670505240958 0 -0.44001701522470671 0.31606260091672289 0 -0.4381469188983681 0.2944504832925946 0 -0.45852794331394758 0.30540670505240958 0 -0.4381469188983681 0.2944504832925946 0 -0.4447805513699985 0.27737231294201392 0 -0.43100963400813791 0.27862602522793672 0 -0.4381469188983681 0.2944504832925946 0 -0.45724976864254441 0.28334965182257721 0 -0.4447805513699985 0.27737231294201392 0 -0.4381469188983681 0.2944504832925946 0 -0.45724976864254441 0.28334965182257721 0 -0.45852794331394758 0.30540670505240958 0 -0.45724976864254441 0.28334965182257721 0 -0.45852794331394758 0.30540670505240958 0 -0.47789586146606378 0.29814868652574811 0 -0.47890896772952718 0.31636292681222472 0 -0.45852794331394758 0.30540670505240958 0 -0.47890896772952718 0.31636292681222472 0 -0.47789586146606378 0.29814868652574811 0 -0.48920120729889771 0.30786362236022019 0 -0.47890896772952718 0.31636292681222472 0 -0.45852794331394758 0.30540670505240958 0 -0.47789586146606378 0.29814868652574811 0 -0.45724976864254441 0.28334965182257721 0 -0.47789586146606378 0.29814868652574811 0 -0.48102565218130672 0.27929705551177292 0 -0.5 0.29600434190405073 0 -0.5 0.27107014960924369 0 -0.48102565218130672 0.27929705551177292 0 -0.47789586146606378 0.29814868652574811 0 -0.5 0.29600434190405073 0 -0.48102565218130672 0.27929705551177292 0 -0.47789586146606378 0.29814868652574811 0 -0.5 0.29600434190405073 0 -0.48920120729889771 0.30786362236022019 0 -0.49999999999999989 0.32093853419885771 0 -0.5 0.29600434190405073 0 -0.48920120729889771 0.30786362236022019 0 -0.48177750529808522 0.24619974485466931 0 -0.5 0.2461359573144368 0 -0.48654709528280549 0.26072196503438649 0 -0.5 0.2461359573144368 0 -0.48654709528280549 0.26072196503438649 0 -0.5 0.27107014960924369 0 -0.48654709528280549 0.26072196503438649 0 -0.5 0.27107014960924369 0 -0.48102565218130672 0.27929705551177292 0 -0.48654709528280549 0.26072196503438649 0 -0.48102565218130672 0.27929705551177292 0 -0.46993231893463527 0.26090691788180947 0 -0.45724976864254441 0.28334965182257721 0 -0.48102565218130672 0.27929705551177292 0 -0.46993231893463527 0.26090691788180947 0 -0.48177750529808522 0.24619974485466931 0 -0.48654709528280549 0.26072196503438649 0 -0.46993231893463527 0.26090691788180947 0 -0.45710504060219709 0.23686107433279269 0 -0.46993231893463527 0.26090691788180947 0 -0.44707755271196942 0.2637365605125353 0 -0.45724976864254441 0.28334965182257721 0 -0.46993231893463527 0.26090691788180947 0 -0.44707755271196942 0.2637365605125353 0 -0.45724976864254441 0.28334965182257721 0 -0.4447805513699985 0.27737231294201392 0 -0.44707755271196942 0.2637365605125353 0 -0.4447805513699985 0.27737231294201392 0 -0.44707755271196942 0.2637365605125353 0 -0.43100963400813791 0.27862602522793672 0 -0.45710504060219709 0.23686107433279269 0 -0.44707755271196942 0.2637365605125353 0 -0.44707755271196942 0.2637365605125353 0 -0.4367416388518679 0.25264877063821017 0 -0.43100963400813791 0.27862602522793672 0 -0.45710504060219709 0.23686107433279269 0 -0.44707755271196942 0.2637365605125353 0 -0.4367416388518679 0.25264877063821017 0 -0.4367416388518679 0.25264877063821017 0 -0.41175872593851298 0.2549478601346914 0 -0.41885046316002428 0.26850948483906401 0 -0.41175872593851298 0.2549478601346914 0 -0.41885046316002428 0.26850948483906401 0 -0.3976364837244763 0.27421361628784369 0 -0.41885046316002428 0.26850948483906401 0 -0.41710583327712653 0.28211115190663788 0 -0.3976364837244763 0.27421361628784369 0 -0.41885046316002428 0.26850948483906401 0 -0.43100963400813791 0.27862602522793672 0 -0.41710583327712653 0.28211115190663788 0 -0.4367416388518679 0.25264877063821017 0 -0.43100963400813791 0.27862602522793672 0 -0.4367416388518679 0.25264877063821017 0 -0.41885046316002428 0.26850948483906401 0 -0.43100963400813791 0.27862602522793672 0 -0.4381469188983681 0.2944504832925946 0 -0.43100963400813791 0.27862602522793672 0 -0.42527762916440792 0.30460327981766322 0 -0.43100963400813791 0.27862602522793672 0 -0.42527762916440792 0.30460327981766322 0 -0.41710583327712653 0.28211115190663788 0 -0.43100963400813791 0.27862602522793672 0 -0.42527762916440792 0.30460327981766322 0 -0.44001701522470671 0.31606260091672289 0 -0.4381469188983681 0.2944504832925946 0 -0.42527762916440792 0.30460327981766322 0 -0.40602554896887638 0.32011992980008452 0 -0.42527762916440792 0.30460327981766322 0 -0.4014269901009333 0.29495587648231503 0 -0.41710583327712653 0.28211115190663788 0 -0.4014269901009333 0.29495587648231503 0 -0.42527762916440792 0.30460327981766322 0 -0.41710583327712653 0.28211115190663788 0 -0.4014269901009333 0.29495587648231503 0 -0.41710583327712653 0.28211115190663788 0 -0.4014269901009333 0.29495587648231503 0 -0.3976364837244763 0.27421361628784369 0 -0.4014269901009333 0.29495587648231503 0 -0.38389766901197209 0.2919764357376447 0 -0.3976364837244763 0.27421361628784369 0 -0.4014269901009333 0.29495587648231503 0 -0.3976364837244763 0.27421361628784369 0 -0.39350880394476312 0.31593875705230262 0 -0.40602554896887638 0.32011992980008452 0 -0.4014269901009333 0.29495587648231503 0 -0.4014269901009333 0.29495587648231503 0 -0.38336946241093189 0.30974931290420182 0 -0.40602554896887638 0.32011992980008452 0 -0.4014269901009333 0.29495587648231503 0 -0.39350880394476312 0.31593875705230262 0 -0.4014269901009333 0.29495587648231503 0 -0.38336946241093189 0.30974931290420182 0 -0.38336946241093189 0.30974931290420182 0 -0.38389766901197209 0.2919764357376447 0 -0.36596935852520629 0.30787018431111951 0 -0.4014269901009333 0.29495587648231503 0 -0.38336946241093189 0.30974931290420182 0 -0.38389766901197209 0.2919764357376447 0 -0.38389766901197209 0.2919764357376447 0 -0.3839238193794226 0.27871888045260418 0 -0.3976364837244763 0.27421361628784369 0 -0.38389766901197209 0.2919764357376447 0 -0.3839238193794226 0.27871888045260418 0 -0.3703732677084236 0.2804332674389724 0 -0.3839238193794226 0.27871888045260418 0 -0.38378785707281859 0.2682522023459562 0 -0.3703732677084236 0.2804332674389724 0 -0.38378785707281859 0.2682522023459562 0 -0.37477717689163992 0.25299635056682518 0 -0.3703732677084236 0.2804332674389724 0 -0.3839238193794226 0.27871888045260418 0 -0.38378785707281859 0.2682522023459562 0 -0.3976364837244763 0.27421361628784369 0 -0.38378785707281859 0.2682522023459562 0 -0.39384597734802013 0.25347135609337229 0 -0.37477717689163992 0.25299635056682518 0 -0.39384597734802013 0.25347135609337229 0 -0.3976364837244763 0.27421361628784369 0 -0.41175872593851298 0.2549478601346914 0 -0.39384597734802013 0.25347135609337229 0 -0.3976364837244763 0.27421361628784369 0 -0.38378785707281859 0.2682522023459562 0 -0.39384597734802013 0.25347135609337229 0 -0.3976364837244763 0.27421361628784369 0 -0.35834524103505527 0.27479395617319979 0 -0.34490227433735798 0.27909378963084902 0 -0.35045174428906722 0.28677843618767362 0 -0.35834524103505527 0.27479395617319979 0 -0.34490227433735798 0.27909378963084902 0 -0.34728570068091402 0.2661688508290645 0 -0.34728570068091402 0.2661688508290645 0 -0.35464358931248319 0.25491115920099722 0 -0.34150965816976359 0.25817059719828012 0 -0.33845336435013867 0.242079554605789 0 -0.35464358931248319 0.25491115920099722 0 -0.34150965816976359 0.25817059719828012 0 -0.35834524103505527 0.27479395617319979 0 -0.34728570068091402 0.2661688508290645 0 -0.35464358931248319 0.25491115920099722 0 -0.35834524103505527 0.27479395617319979 0 -0.37477717689163992 0.25299635056682518 0 -0.35834524103505527 0.27479395617319979 0 -0.35464358931248319 0.25491115920099722 0 -0.37477717689163992 0.25299635056682518 0 -0.37477717689163992 0.25299635056682518 0 -0.3703732677084236 0.2804332674389724 0 -0.35834524103505527 0.27479395617319979 0 -0.37477717689163992 0.25299635056682518 0 -0.3703732677084236 0.2804332674389724 0 -0.3703732677084236 0.2804332674389724 0 -0.36596935852520629 0.30787018431111951 0 -0.38389766901197209 0.2919764357376447 0 -0.3703732677084236 0.2804332674389724 0 -0.36596935852520629 0.30787018431111951 0 -0.35834524103505527 0.27479395617319979 0 -0.3703732677084236 0.2804332674389724 0 -0.35925388220638338 0.290827281626163 0 -0.3703732677084236 0.2804332674389724 0 -0.36596935852520629 0.30787018431111951 0 -0.35925388220638338 0.290827281626163 0 -0.36596935852520629 0.30787018431111951 0 -0.35645499353340299 0.30154574554434233 0 -0.35925388220638338 0.290827281626163 0 -0.36596935852520629 0.30787018431111951 0 -0.35645499353340299 0.30154574554434233 0 -0.35774913989266272 0.31391262040183171 0 -0.35645499353340299 0.30154574554434233 0 -0.35013945535461871 0.3105838988596446 0 -0.35774913989266272 0.31391262040183171 0 -0.35645499353340299 0.30154574554434233 0 -0.34780240298166087 0.30288468022079579 0 -0.35285886900803182 0.29452238055293539 0 -0.34780240298166087 0.30288468022079579 0 -0.34622635383862083 0.29383585221412489 0 -0.33932813284697128 0.29730713825443927 0 -0.34780240298166087 0.30288468022079579 0 -0.35285886900803182 0.29452238055293539 0 -0.34622635383862083 0.29383585221412489 0 -0.34780240298166087 0.30288468022079579 0 -0.34514961405368982 0.30758965292055213 0 -0.33997231501418312 0.30473657218964828 0 -0.35645499353340299 0.30154574554434233 0 -0.34780240298166087 0.30288468022079579 0 -0.35013945535461871 0.3105838988596446 0 -0.34780240298166087 0.30288468022079579 0 -0.34514961405368982 0.30758965292055213 0 -0.35013945535461871 0.3105838988596446 0 -0.34514961405368982 0.30758965292055213 0 -0.35013945535461871 0.3105838988596446 0 -0.34268428286429659 0.31215346041211978 0 -0.35834524103505527 0.27479395617319979 0 -0.35925388220638338 0.290827281626163 0 -0.35045174428906722 0.28677843618767362 0 -0.35645499353340299 0.30154574554434233 0 -0.35925388220638338 0.290827281626163 0 -0.35285886900803182 0.29452238055293539 0 -0.35925388220638338 0.290827281626163 0 -0.35285886900803182 0.29452238055293539 0 -0.35045174428906722 0.28677843618767362 0 -0.35285886900803182 0.29452238055293539 0 -0.34622635383862083 0.29383585221412489 0 -0.35045174428906722 0.28677843618767362 0 -0.34622635383862083 0.29383585221412489 0 -0.35045174428906722 0.28677843618767362 0 -0.34088660642111013 0.2879281286912172 0 -0.34490227433735798 0.27909378963084902 0 -0.35045174428906722 0.28677843618767362 0 -0.34088660642111013 0.2879281286912172 0 -0.34490227433735798 0.27909378963084902 0 -0.34088660642111013 0.2879281286912172 0 -0.33262910378125132 0.278293493462413 0 -0.34088660642111013 0.2879281286912172 0 -0.33227483086849752 0.29261385498347509 0 -0.33932813284697128 0.29730713825443927 0 -0.34622635383862083 0.29383585221412489 0 -0.34088660642111013 0.2879281286912172 0 -0.33932813284697128 0.29730713825443927 0 -0.33227483086849752 0.29261385498347509 0 -0.32398535199451511 0.28524421774589648 0 -0.33262910378125132 0.278293493462413 0 -0.34088660642111013 0.2879281286912172 0 -0.33227483086849752 0.29261385498347509 0 -0.33262910378125132 0.278293493462413 0 -0.33718535734333338 0.30882123026638569 0 -0.34268428286429659 0.31215346041211978 0 -0.33477104767585758 0.31524888829805342 0 -0.33718535734333338 0.30882123026638569 0 -0.34268428286429659 0.31215346041211978 0 -0.33997231501418312 0.30473657218964828 0 -0.34514961405368982 0.30758965292055213 0 -0.34268428286429659 0.31215346041211978 0 -0.33997231501418312 0.30473657218964828 0 -0.33718535734333338 0.30882123026638569 0 -0.33997231501418312 0.30473657218964828 0 -0.33396296217470239 0.30554582684384218 0 -0.33997231501418312 0.30473657218964828 0 -0.33932813284697128 0.29730713825443927 0 -0.33396296217470239 0.30554582684384218 0 -0.34780240298166087 0.30288468022079579 0 -0.33997231501418312 0.30473657218964828 0 -0.33932813284697128 0.29730713825443927 0 -0.33227483086849752 0.29261385498347509 0 -0.33396296217470239 0.30554582684384218 0 -0.32251037119006698 0.3031431883822347 0 -0.33227483086849752 0.29261385498347509 0 -0.33932813284697128 0.29730713825443927 0 -0.33396296217470239 0.30554582684384218 0 -0.33718535734333338 0.30882123026638569 0 -0.33396296217470239 0.30554582684384218 0 -0.33477104767585758 0.31524888829805342 0 -0.33396296217470239 0.30554582684384218 0 -0.32251037119006698 0.3031431883822347 0 -0.33219148171911272 0.31730370811833031 0 -0.32251037119006698 0.3031431883822347 0 -0.31456388983813333 0.31636814557902659 0 -0.33219148171911272 0.31730370811833031 0 -0.32251037119006698 0.3031431883822347 0 -0.31282926066102218 0.28898266864613842 0 -0.30402337591517081 0.3051012194244167 0 -0.32251037119006698 0.3031431883822347 0 -0.30402337591517081 0.3051012194244167 0 -0.31456388983813333 0.31636814557902659 0 -0.32251037119006698 0.3031431883822347 0 -0.33219148171911272 0.31730370811833031 0 -0.33227483086849752 0.29261385498347509 0 -0.32251037119006698 0.3031431883822347 0 -0.32398535199451511 0.28524421774589648 0 -0.32251037119006698 0.3031431883822347 0 -0.32398535199451511 0.28524421774589648 0 -0.31282926066102218 0.28898266864613842 0 -0.32251037119006698 0.3031431883822347 0 -0.31282926066102218 0.28898266864613842 0 -0.31282926066102218 0.28898266864613842 0 -0.32065101258715689 0.274665503564473 0 -0.32398535199451511 0.28524421774589648 0 -0.31282926066102218 0.28898266864613842 0 -0.32065101258715689 0.274665503564473 0 -0.32065101258715689 0.274665503564473 0 -0.32847276451329022 0.26034833848280681 0 -0.31199410965335322 0.26463258327439948 0 -0.32065101258715689 0.274665503564473 0 -0.33262910378125132 0.278293493462413 0 -0.32847276451329022 0.26034833848280681 0 -0.31282926066102218 0.28898266864613842 0 -0.32065101258715689 0.274665503564473 0 -0.30403346053568642 0.27611708872161922 0 -0.32065101258715689 0.274665503564473 0 -0.32847276451329022 0.26034833848280681 0 -0.32398535199451511 0.28524421774589648 0 -0.32065101258715689 0.274665503564473 0 -0.33262910378125132 0.278293493462413 0 -0.33262910378125132 0.278293493462413 0 -0.33869287199199061 0.26734508287274228 0 -0.32847276451329022 0.26034833848280681 0 -0.34490227433735798 0.27909378963084902 0 -0.34728570068091402 0.2661688508290645 0 -0.33869287199199061 0.26734508287274228 0 -0.34490227433735798 0.27909378963084902 0 -0.33262910378125132 0.278293493462413 0 -0.33869287199199061 0.26734508287274228 0 -0.33845336435013867 0.242079554605789 0 -0.34150965816976359 0.25817059719828012 0 -0.32847276451329022 0.26034833848280681 0 -0.33845336435013867 0.242079554605789 0 -0.32847276451329022 0.26034833848280681 0 -0.34728570068091402 0.2661688508290645 0 -0.33869287199199061 0.26734508287274228 0 -0.34150965816976359 0.25817059719828012 0 -0.33869287199199061 0.26734508287274228 0 -0.34150965816976359 0.25817059719828012 0 -0.32847276451329022 0.26034833848280681 0 -0.33869287199199061 0.26734508287274228 0 -0.32847276451329022 0.26034833848280681 0 -0.311575650220281 0.24878047680599949 0 -0.32847276451329022 0.26034833848280681 0 -0.311575650220281 0.24878047680599949 0 -0.32847276451329022 0.26034833848280681 0 -0.31199410965335322 0.26463258327439948 0 -0.32455092720978362 0.24357057421839101 0 -0.311575650220281 0.24878047680599949 0 -0.32847276451329022 0.26034833848280681 0 -0.311575650220281 0.24878047680599949 0 -0.31199410965335322 0.26463258327439948 0 -0.29523766041035199 0.26325150879709891 0 -0.30403346053568642 0.27611708872161922 0 -0.29523766041035199 0.26325150879709891 0 -0.29574151564778611 0.28671646758259889 0 -0.31199410965335322 0.26463258327439948 0 -0.30403346053568642 0.27611708872161922 0 -0.29523766041035199 0.26325150879709891 0 -0.32065101258715689 0.274665503564473 0 -0.31199410965335322 0.26463258327439948 0 -0.30403346053568642 0.27611708872161922 0 -0.30403346053568642 0.27611708872161922 0 -0.29523766041035199 0.26325150879709891 0 -0.28985028671148488 0.25537141990030859 0 -0.26863301980023729 0.26794771562718522 0 -0.28534189936007232 0.28197220440765719 0 -0.29523766041035199 0.26325150879709891 0 -0.29574151564778611 0.28671646758259889 0 -0.29523766041035199 0.26325150879709891 0 -0.29574151564778611 0.28671646758259889 0 -0.28534189936007232 0.28197220440765719 0 -0.28985028671148488 0.25537141990030859 0 -0.29523766041035199 0.26325150879709891 0 -0.28534189936007232 0.28197220440765719 0 -0.28985028671148488 0.25537141990030859 0 -0.28534189936007232 0.28197220440765719 0 -0.29467853592727078 0.23721261512919359 0 -0.29523766041035199 0.26325150879709891 0 -0.29467853592727078 0.23721261512919359 0 -0.28985028671148488 0.25537141990030859 0 -0.29523766041035199 0.26325150879709891 0 -0.28985028671148488 0.25537141990030859 0 -0.29523766041035199 0.26325150879709891 0 -0.28985028671148488 0.25537141990030859 0 -0.2724296921133022 0.25217156250687062 0 -0.26863301980023729 0.26794771562718522 0 -0.2724296921133022 0.25217156250687062 0 -0.26863301980023729 0.26794771562718522 0 -0.25693865295534157 0.25278860643768353 0 -0.26863301980023729 0.26794771562718522 0 -0.26277913973510902 0.29023342414179659 0 -0.28534189936007232 0.28197220440765719 0 -0.26277913973510902 0.29023342414179659 0 -0.2447247674615598 0.2718938593685879 0 -0.26863301980023729 0.26794771562718522 0 -0.26277913973510902 0.29023342414179659 0 -0.2447247674615598 0.2718938593685879 0 -0.26863301980023729 0.26794771562718522 0 -0.25693865295534157 0.25278860643768353 0 -0.2447247674615598 0.2718938593685879 0 -0.26277913973510902 0.29023342414179659 0 -0.25757488899104952 0.31786411623381933 0 -0.2366570207200871 0.30010935915934539 0 -0.26277913973510902 0.29023342414179659 0 -0.28083351200865853 0.30857298891500562 0 -0.28534189936007232 0.28197220440765719 0 -0.26277913973510902 0.29023342414179659 0 -0.28083351200865853 0.30857298891500562 0 -0.26277913973510902 0.29023342414179659 0 -0.28083351200865853 0.30857298891500562 0 -0.25757488899104952 0.31786411623381933 0 -0.28083351200865853 0.30857298891500562 0 -0.29574151564778611 0.28671646758259889 0 -0.30402337591517081 0.3051012194244167 0 -0.28083351200865853 0.30857298891500562 0 -0.29574151564778611 0.28671646758259889 0 -0.28534189936007232 0.28197220440765719 0 -0.28083351200865853 0.30857298891500562 0 -0.28534189936007232 0.28197220440765719 0 -0.31282926066102218 0.28898266864613842 0 -0.29574151564778611 0.28671646758259889 0 -0.30402337591517081 0.3051012194244167 0 -0.31282926066102218 0.28898266864613842 0 -0.30403346053568642 0.27611708872161922 0 -0.29574151564778611 0.28671646758259889 0 -0.31282926066102218 0.28898266864613842 0 -0.30403346053568642 0.27611708872161922 0 -0.31282926066102218 0.28898266864613842 0 -0.30402337591517081 0.3051012194244167 0 -0.30402337591517081 0.3051012194244167 0 -0.29932851783868691 0.32736014762988469 0 -0.31456388983813333 0.31636814557902659 0 -0.29932851783868691 0.32736014762988469 0 -0.31400963374603508 0.33178692824556621 0 -0.31456388983813333 0.31636814557902659 0 -0.29582778577295937 0.3462701483728044 0 -0.31354931950312093 0.34747342072874071 0 -0.31400963374603508 0.33178692824556621 0 -0.29582778577295937 0.3462701483728044 0 -0.31400963374603508 0.33178692824556621 0 -0.29932851783868691 0.32736014762988469 0 -0.29582778577295937 0.3462701483728044 0 -0.31400963374603508 0.33178692824556621 0 -0.29932851783868691 0.32736014762988469 0 -0.27670802547122531 0.33291454828341721 0 -0.29582778577295937 0.3462701483728044 0 -0.27670802547122531 0.33291454828341721 0 -0.29582778577295937 0.3462701483728044 0 -0.28186865011063378 0.34863084123191301 0 -0.28083351200865853 0.30857298891500562 0 -0.30402337591517081 0.3051012194244167 0 -0.29932851783868691 0.32736014762988469 0 -0.28083351200865853 0.30857298891500562 0 -0.29932851783868691 0.32736014762988469 0 -0.28083351200865853 0.30857298891500562 0 -0.29932851783868691 0.32736014762988469 0 -0.27670802547122531 0.33291454828341721 0 -0.28083351200865853 0.30857298891500562 0 -0.27670802547122531 0.33291454828341721 0 -0.25757488899104952 0.31786411623381933 0 -0.28083351200865853 0.30857298891500562 0 -0.27670802547122531 0.33291454828341721 0 -0.27670802547122531 0.33291454828341721 0 -0.25757488899104952 0.31786411623381933 0 -0.25368472498167011 0.34420349485172652 0 -0.2613799420943046 0.36179346951182628 0 -0.25453646971320443 0.37462232419521813 0 -0.26689531734350652 0.36931705260985792 0 -0.2613799420943046 0.36179346951182628 0 -0.25453646971320443 0.37462232419521813 0 -0.24822911175635759 0.36217347122335058 0 -0.25368472498167011 0.34420349485172652 0 -0.27258253893379292 0.35725610765182902 0 -0.2613799420943046 0.36179346951182628 0 -0.25368472498167011 0.34420349485172652 0 -0.24822911175635759 0.36217347122335058 0 -0.2613799420943046 0.36179346951182628 0 -0.25368472498167011 0.34420349485172652 0 -0.27258253893379292 0.35725610765182902 0 -0.27670802547122531 0.33291454828341721 0 -0.27258253893379292 0.35725610765182902 0 -0.27670802547122531 0.33291454828341721 0 -0.27258253893379292 0.35725610765182902 0 -0.28186865011063378 0.34863084123191301 0 -0.27670802547122531 0.33291454828341721 0 -0.25368472498167011 0.34420349485172652 0 -0.27258253893379292 0.35725610765182902 0 -0.27258253893379292 0.35725610765182902 0 -0.27764593779988228 0.36075336850004069 0 -0.28186865011063378 0.34863084123191301 0 -0.27258253893379292 0.35725610765182902 0 -0.27764593779988228 0.36075336850004069 0 -0.27764593779988228 0.36075336850004069 0 -0.27110701654299552 0.36596211494311248 0 -0.28943519450698252 0.3688961411714532 0 -0.27110701654299552 0.36596211494311248 0 -0.28943519450698252 0.3688961411714532 0 -0.27110701654299552 0.36596211494311248 0 -0.28943519450698252 0.3688961411714532 0 -0.28084635904778937 0.37544065550995409 0 -0.27258253893379292 0.35725610765182902 0 -0.27764593779988228 0.36075336850004069 0 -0.27110701654299552 0.36596211494311248 0 -0.27764593779988228 0.36075336850004069 0 -0.27110701654299552 0.36596211494311248 0 -0.2613799420943046 0.36179346951182628 0 -0.27258253893379292 0.35725610765182902 0 -0.27110701654299552 0.36596211494311248 0 -0.2613799420943046 0.36179346951182628 0 -0.27110701654299552 0.36596211494311248 0 -0.26689531734350652 0.36931705260985792 0 -0.27258253893379292 0.35725610765182902 0 -0.27110701654299552 0.36596211494311248 0 -0.27110701654299552 0.36596211494311248 0 -0.26689531734350652 0.36931705260985792 0 -0.27110701654299552 0.36596211494311248 0 -0.28084635904778937 0.37544065550995409 0 -0.27663284499009211 0.37939207802828528 0 -0.28943519450698252 0.3688961411714532 0 -0.28685204816290072 0.37621819500323123 0 -0.28084635904778937 0.37544065550995409 0 -0.27764593779988228 0.36075336850004069 0 -0.28943519450698252 0.3688961411714532 0 -0.29551252006441958 0.37309371542857861 0 -0.28943519450698252 0.3688961411714532 0 -0.28685204816290072 0.37621819500323123 0 -0.29551252006441958 0.37309371542857861 0 -0.28943519450698252 0.3688961411714532 0 -0.27764593779988228 0.36075336850004069 0 -0.29582778577295937 0.3462701483728044 0 -0.27764593779988228 0.36075336850004069 0 -0.29582778577295937 0.3462701483728044 0 -0.28186865011063378 0.34863084123191301 0 -0.28943519450698252 0.3688961411714532 0 -0.29582778577295937 0.3462701483728044 0 -0.30300283950081008 0.36051339397403093 0 -0.27764593779988228 0.36075336850004069 0 -0.28943519450698252 0.3688961411714532 0 -0.29582778577295937 0.3462701483728044 0 -0.29582778577295937 0.3462701483728044 0 -0.30300283950081008 0.36051339397403093 0 -0.31354931950312093 0.34747342072874071 0 -0.28943519450698252 0.3688961411714532 0 -0.31408843612631249 0.37197903781600761 0 -0.28943519450698252 0.3688961411714532 0 -0.30300283950081008 0.36051339397403093 0 -0.31408843612631249 0.37197903781600761 0 -0.29551252006441958 0.37309371542857861 0 -0.28943519450698252 0.3688961411714532 0 -0.31408843612631249 0.37197903781600761 0 -0.30300283950081008 0.36051339397403093 0 -0.31408843612631249 0.37197903781600761 0 -0.32472866683278162 0.35786931268145811 0 -0.31408843612631249 0.37197903781600761 0 -0.32472866683278162 0.35786931268145811 0 -0.33874167774564268 0.3750619344605613 0 -0.31408843612631249 0.37197903781600761 0 -0.33874167774564268 0.3750619344605613 0 -0.33942470910854639 0.36092010030626542 0 -0.32472866683278162 0.35786931268145811 0 -0.33874167774564268 0.3750619344605613 0 -0.33942470910854639 0.36092010030626542 0 -0.3497530714632448 0.36534695126967459 0 -0.33874167774564268 0.3750619344605613 0 -0.33815763529499693 0.35089104021064632 0 -0.32472866683278162 0.35786931268145811 0 -0.33017767166301859 0.34092732036984391 0 -0.33815763529499693 0.35089104021064632 0 -0.33017767166301859 0.34092732036984391 0 -0.34251680356524339 0.34321741671518669 0 -0.33815763529499693 0.35089104021064632 0 -0.3460879504978186 0.35511096805544279 0 -0.34556584107983002 0.34849125976349993 0 -0.33815763529499693 0.35089104021064632 0 -0.34251680356524339 0.34321741671518669 0 -0.34556584107983002 0.34849125976349993 0 -0.33942470910854639 0.36092010030626542 0 -0.33815763529499693 0.35089104021064632 0 -0.3460879504978186 0.35511096805544279 0 -0.33942470910854639 0.36092010030626542 0 -0.33815763529499693 0.35089104021064632 0 -0.32472866683278162 0.35786931268145811 0 -0.31354931950312093 0.34747342072874071 0 -0.32472866683278162 0.35786931268145811 0 -0.33017767166301859 0.34092732036984391 0 -0.30300283950081008 0.36051339397403093 0 -0.31354931950312093 0.34747342072874071 0 -0.32472866683278162 0.35786931268145811 0 -0.31400963374603508 0.33178692824556621 0 -0.33219148171911272 0.31730370811833031 0 -0.33017767166301859 0.34092732036984391 0 -0.31354931950312093 0.34747342072874071 0 -0.31400963374603508 0.33178692824556621 0 -0.33017767166301859 0.34092732036984391 0 -0.31400963374603508 0.33178692824556621 0 -0.33219148171911272 0.31730370811833031 0 -0.31400963374603508 0.33178692824556621 0 -0.31456388983813333 0.31636814557902659 0 -0.33219148171911272 0.31730370811833031 0 -0.33477104767585758 0.31524888829805342 0 -0.33219148171911272 0.31730370811833031 0 -0.34795343649956839 0.3209401758966518 0 -0.33219148171911272 0.31730370811833031 0 -0.34725440703092858 0.33933618574797492 0 -0.34795343649956839 0.3209401758966518 0 -0.33396296217470239 0.30554582684384218 0 -0.33477104767585758 0.31524888829805342 0 -0.33219148171911272 0.31730370811833031 0 -0.33477104767585758 0.31524888829805342 0 -0.33219148171911272 0.31730370811833031 0 -0.34268428286429659 0.31215346041211978 0 -0.33477104767585758 0.31524888829805342 0 -0.34795343649956839 0.3209401758966518 0 -0.33219148171911272 0.31730370811833031 0 -0.34725440703092858 0.33933618574797492 0 -0.33219148171911272 0.31730370811833031 0 -0.33017767166301859 0.34092732036984391 0 -0.34725440703092858 0.33933618574797492 0 -0.33017767166301859 0.34092732036984391 0 -0.34251680356524339 0.34321741671518669 0 -0.34725440703092858 0.33933618574797492 0 -0.34725440703092858 0.33933618574797492 0 -0.34795343649956839 0.3209401758966518 0 -0.36531193472093021 0.32454274932608829 0 -0.34251680356524339 0.34321741671518669 0 -0.35002774160894051 0.34339273059465159 0 -0.34725440703092858 0.33933618574797492 0 -0.34725440703092858 0.33933618574797492 0 -0.35848812135385522 0.33902175933596412 0 -0.36531193472093021 0.32454274932608829 0 -0.34725440703092858 0.33933618574797492 0 -0.36531193472093021 0.32454274932608829 0 -0.34251680356524339 0.34321741671518669 0 -0.34725440703092858 0.33933618574797492 0 -0.35002774160894051 0.34339273059465159 0 -0.34725440703092858 0.33933618574797492 0 -0.35002774160894051 0.34339273059465159 0 -0.35848812135385522 0.33902175933596412 0 -0.35712059876301439 0.34740413424876382 0 -0.35002774160894051 0.34339273059465159 0 -0.34725440703092858 0.33933618574797492 0 -0.35848812135385522 0.33902175933596412 0 -0.34795343649956839 0.3209401758966518 0 -0.35774913989266272 0.31391262040183171 0 -0.36531193472093021 0.32454274932608829 0 -0.35013945535461871 0.3105838988596446 0 -0.34268428286429659 0.31215346041211978 0 -0.34795343649956839 0.3209401758966518 0 -0.35013945535461871 0.3105838988596446 0 -0.34795343649956839 0.3209401758966518 0 -0.35774913989266272 0.31391262040183171 0 -0.38336946241093189 0.30974931290420182 0 -0.36596935852520629 0.30787018431111951 0 -0.36531193472093021 0.32454274932608829 0 -0.36596935852520629 0.30787018431111951 0 -0.35774913989266272 0.31391262040183171 0 -0.36531193472093021 0.32454274932608829 0 -0.37580907906339922 0.33647878059299557 0 -0.38201615891261242 0.31564575533693578 0 -0.36531193472093021 0.32454274932608829 0 -0.38336946241093189 0.30974931290420182 0 -0.36531193472093021 0.32454274932608829 0 -0.35848812135385522 0.33902175933596412 0 -0.36629538785756799 0.33494858662202331 0 -0.36491865814174967 0.34450616947628299 0 -0.35848812135385522 0.33902175933596412 0 -0.36491865814174967 0.34450616947628299 0 -0.35712059876301439 0.34740413424876382 0 -0.35848812135385522 0.33902175933596412 0 -0.36531193472093021 0.32454274932608829 0 -0.36629538785756799 0.33494858662202331 0 -0.37580907906339922 0.33647878059299557 0 -0.36531193472093021 0.32454274932608829 0 -0.36629538785756799 0.33494858662202331 0 -0.37580907906339922 0.33647878059299557 0 -0.36629538785756799 0.33494858662202331 0 -0.36491865814174967 0.34450616947628299 0 -0.37580907906339922 0.33647878059299557 0 -0.36491865814174967 0.34450616947628299 0 -0.36960199921418602 0.35731180584905542 0 -0.37580907906339922 0.33647878059299557 0 -0.36960199921418602 0.35731180584905542 0 -0.36491865814174967 0.34450616947628299 0 -0.36204010283369881 0.35293053614415609 0 -0.35712059876301439 0.34740413424876382 0 -0.36491865814174967 0.34450616947628299 0 -0.36204010283369881 0.35293053614415609 0 -0.36960199921418602 0.35731180584905542 0 -0.36231373349064938 0.3583368008115923 0 -0.36204010283369881 0.35293053614415609 0 -0.35577634304253192 0.35617190760009498 0 -0.36231373349064938 0.3583368008115923 0 -0.36204010283369881 0.35293053614415609 0 -0.36960199921418602 0.35731180584905542 0 -0.36960199921418602 0.35731180584905542 0 -0.36339491936497281 0.37814483110511521 0 -0.36960199921418602 0.35731180584905542 0 -0.37158620997362618 0.36500042586936587 0 -0.36339491936497281 0.37814483110511521 0 -0.36960199921418602 0.35731180584905542 0 -0.36108579844600058 0.36545797327707619 0 -0.36339491936497281 0.37814483110511521 0 -0.38141148745950948 0.38039780936179463 0 -0.37158620997362618 0.36500042586936587 0 -0.36339491936497281 0.37814483110511521 0 -0.38070440212728118 0.35956436367519867 0 -0.36960199921418602 0.35731180584905542 0 -0.37158620997362618 0.36500042586936587 0 -0.36231373349064938 0.3583368008115923 0 -0.36108579844600058 0.36545797327707619 0 -0.35577634304253192 0.35617190760009498 0 -0.36231373349064938 0.3583368008115923 0 -0.36960199921418602 0.35731180584905542 0 -0.36108579844600058 0.36545797327707619 0 -0.36108579844600058 0.36545797327707619 0 -0.3497530714632448 0.36534695126967459 0 -0.35577634304253192 0.35617190760009498 0 -0.3497530714632448 0.36534695126967459 0 -0.36339491936497281 0.37814483110511521 0 -0.33874167774564268 0.3750619344605613 0 -0.36108579844600058 0.36545797327707619 0 -0.3497530714632448 0.36534695126967459 0 -0.36339491936497281 0.37814483110511521 0 -0.33942470910854639 0.36092010030626542 0 -0.3497530714632448 0.36534695126967459 0 -0.3460879504978186 0.35511096805544279 0 -0.3497530714632448 0.36534695126967459 0 -0.3460879504978186 0.35511096805544279 0 -0.35577634304253192 0.35617190760009498 0 -0.3460879504978186 0.35511096805544279 0 -0.35103907443215082 0.34984414324157243 0 -0.35577634304253192 0.35617190760009498 0 -0.3460879504978186 0.35511096805544279 0 -0.34556584107983002 0.34849125976349993 0 -0.35103907443215082 0.34984414324157243 0 -0.34251680356524339 0.34321741671518669 0 -0.35002774160894051 0.34339273059465159 0 -0.34556584107983002 0.34849125976349993 0 -0.35002774160894051 0.34339273059465159 0 -0.34556584107983002 0.34849125976349993 0 -0.35103907443215082 0.34984414324157243 0 -0.35103907443215082 0.34984414324157243 0 -0.35712059876301439 0.34740413424876382 0 -0.35577634304253192 0.35617190760009498 0 -0.35002774160894051 0.34339273059465159 0 -0.35103907443215082 0.34984414324157243 0 -0.35712059876301439 0.34740413424876382 0 -0.36204010283369881 0.35293053614415609 0 -0.35712059876301439 0.34740413424876382 0 -0.35577634304253192 0.35617190760009498 0 -0.35746143571760969 0.39805957647408341 0 -0.33700984602307921 0.4055687403903776 0 -0.35746143571760969 0.39805957647408341 0 -0.36339491936497281 0.37814483110511521 0 -0.33874167774564268 0.3750619344605613 0 -0.36339491936497281 0.37814483110511521 0 -0.33874167774564268 0.3750619344605613 0 -0.38141148745950948 0.38039780936179463 0 -0.37844474563582792 0.390355182046278 0 -0.36339491936497281 0.37814483110511521 0 -0.37844474563582792 0.390355182046278 0 -0.35746143571760969 0.39805957647408341 0 -0.36339491936497281 0.37814483110511521 0 -0.35746143571760969 0.39805957647408341 0 -0.36339491936497281 0.37814483110511521 0 -0.38141148745950948 0.38039780936179463 0 -0.36339491936497281 0.37814483110511521 0 -0.37668454372729859 0.41206883315114529 0 -0.37844474563582792 0.390355182046278 0 -0.35746143571760969 0.39805957647408341 0 -0.37844474563582792 0.390355182046278 0 -0.35746143571760969 0.39805957647408341 0 -0.37668454372729859 0.41206883315114529 0 -0.36778315087773072 0.43214877602771662 0 -0.35179051953527918 0.41709305806631919 0 -0.37668454372729859 0.41206883315114529 0 -0.35746143571760969 0.39805957647408341 0 -0.35179051953527918 0.41709305806631919 0 -0.37668454372729859 0.41206883315114529 0 -0.35179051953527918 0.41709305806631919 0 -0.36778315087773072 0.43214877602771662 0 -0.35179051953527918 0.41709305806631919 0 -0.34355933144160938 0.44471966407244162 0 -0.35179051953527918 0.41709305806631919 0 -0.34355933144160938 0.44471966407244162 0 -0.35746143571760969 0.39805957647408341 0 -0.35179051953527918 0.41709305806631919 0 -0.33700984602307921 0.4055687403903776 0 -0.35746143571760969 0.39805957647408341 0 -0.35179051953527918 0.41709305806631919 0 -0.35179051953527918 0.41709305806631919 0 -0.33092261172728182 0.42130471390500562 0 -0.33700984602307921 0.4055687403903776 0 -0.35179051953527918 0.41709305806631919 0 -0.33092261172728182 0.42130471390500562 0 -0.33092261172728182 0.42130471390500562 0 -0.31655825632854873 0.41307790430667191 0 -0.33700984602307921 0.4055687403903776 0 -0.35179051953527918 0.41709305806631919 0 -0.33092261172728182 0.42130471390500562 0 -0.34355933144160938 0.44471966407244162 0 -0.33092261172728182 0.42130471390500562 0 -0.32304151796324199 0.43794530689545591 0 -0.34355933144160938 0.44471966407244162 0 -0.33092261172728182 0.42130471390500562 0 -0.31005470391928353 0.42551636974368717 0 -0.32304151796324199 0.43794530689545591 0 -0.33092261172728182 0.42130471390500562 0 -0.31005470391928353 0.42551636974368717 0 -0.31005470391928353 0.42551636974368717 0 -0.30636015846579262 0.44081646755455739 0 -0.32304151796324199 0.43794530689545591 0 -0.31655825632854873 0.41307790430667191 0 -0.32178824989383492 0.40044082628072353 0 -0.33700984602307921 0.4055687403903776 0 -0.33092261172728182 0.42130471390500562 0 -0.31655825632854873 0.41307790430667191 0 -0.31005470391928353 0.42551636974368717 0 -0.31655825632854873 0.41307790430667191 0 -0.33700984602307921 0.4055687403903776 0 -0.31655825632854873 0.41307790430667191 0 -0.32178824989383492 0.40044082628072353 0 -0.30820761894760612 0.40180007281058999 0 -0.31589124725359768 0.39098578459502642 0 -0.32178824989383492 0.40044082628072353 0 -0.30820761894760612 0.40180007281058999 0 -0.31589124725359768 0.39098578459502642 0 -0.32178824989383492 0.40044082628072353 0 -0.33127428091634248 0.39077162930095188 0 -0.35746143571760969 0.39805957647408341 0 -0.33127428091634248 0.39077162930095188 0 -0.33700984602307921 0.4055687403903776 0 -0.32178824989383492 0.40044082628072353 0 -0.33127428091634248 0.39077162930095188 0 -0.33700984602307921 0.4055687403903776 0 -0.35746143571760969 0.39805957647408341 0 -0.33127428091634248 0.39077162930095188 0 -0.33874167774564268 0.3750619344605613 0 -0.31408843612631249 0.37197903781600761 0 -0.33127428091634248 0.39077162930095188 0 -0.33874167774564268 0.3750619344605613 0 -0.31408843612631249 0.37197903781600761 0 -0.31589124725359768 0.39098578459502642 0 -0.33127428091634248 0.39077162930095188 0 -0.29551252006441958 0.37309371542857861 0 -0.31408843612631249 0.37197903781600761 0 -0.30568017353146049 0.38157918508743732 0 -0.31408843612631249 0.37197903781600761 0 -0.31589124725359768 0.39098578459502642 0 -0.30568017353146049 0.38157918508743732 0 -0.31589124725359768 0.39098578459502642 0 -0.30568017353146049 0.38157918508743732 0 -0.30603649680964828 0.39194203915736708 0 -0.30568017353146049 0.38157918508743732 0 -0.29743858983336929 0.38628170497916159 0 -0.30603649680964828 0.39194203915736708 0 -0.29551252006441958 0.37309371542857861 0 -0.30568017353146049 0.38157918508743732 0 -0.29743858983336929 0.38628170497916159 0 -0.31589124725359768 0.39098578459502642 0 -0.30820761894760612 0.40180007281058999 0 -0.30603649680964828 0.39194203915736708 0 -0.30820761894760612 0.40180007281058999 0 -0.30603649680964828 0.39194203915736708 0 -0.29604813782321171 0.40003827384795049 0 -0.29743858983336929 0.38628170497916159 0 -0.30603649680964828 0.39194203915736708 0 -0.29604813782321171 0.40003827384795049 0 -0.30820761894760612 0.40180007281058999 0 -0.29604813782321171 0.40003827384795049 0 -0.2987408814332651 0.40933989620534528 0 -0.29604813782321171 0.40003827384795049 0 -0.28905057763704689 0.40562835892549581 0 -0.28392778011776681 0.39892722844600809 0 -0.29604813782321171 0.40003827384795049 0 -0.28905057763704689 0.40562835892549581 0 -0.2987408814332651 0.40933989620534528 0 -0.29604813782321171 0.40003827384795049 0 -0.28980128107673031 0.39400368344191522 0 -0.28392778011776681 0.39892722844600809 0 -0.29743858983336929 0.38628170497916159 0 -0.29604813782321171 0.40003827384795049 0 -0.28980128107673031 0.39400368344191522 0 -0.28980128107673031 0.39400368344191522 0 -0.28179061653257348 0.3907675264945405 0 -0.28392778011776681 0.39892722844600809 0 -0.28905057763704689 0.40562835892549581 0 -0.28392778011776681 0.39892722844600809 0 -0.27817781655911977 0.40726136879628272 0 -0.29743858983336929 0.38628170497916159 0 -0.28980128107673031 0.39400368344191522 0 -0.28179061653257348 0.3907675264945405 0 -0.29743858983336929 0.38628170497916159 0 -0.28179061653257348 0.3907675264945405 0 -0.28819376848868639 0.38228739672622841 0 -0.29743858983336929 0.38628170497916159 0 -0.28179061653257348 0.3907675264945405 0 -0.29551252006441958 0.37309371542857861 0 -0.29743858983336929 0.38628170497916159 0 -0.28819376848868639 0.38228739672622841 0 -0.29551252006441958 0.37309371542857861 0 -0.28819376848868639 0.38228739672622841 0 -0.28685204816290072 0.37621819500323123 0 -0.28179061653257348 0.3907675264945405 0 -0.28158428542699082 0.38279668863870758 0 -0.28819376848868639 0.38228739672622841 0 -0.28158428542699082 0.38279668863870758 0 -0.28819376848868639 0.38228739672622841 0 -0.28685204816290072 0.37621819500323123 0 -0.28158428542699082 0.38279668863870758 0 -0.28685204816290072 0.37621819500323123 0 -0.28084635904778937 0.37544065550995409 0 -0.27110701654299552 0.36596211494311248 0 -0.26614264323177789 0.39525334800991979 0 -0.27110701654299552 0.36596211494311248 0 -0.27663284499009211 0.37939207802828528 0 -0.27229768174870289 0.38438446135480281 0 -0.27110701654299552 0.36596211494311248 0 -0.27229768174870289 0.38438446135480281 0 -0.26614264323177789 0.39525334800991979 0 -0.27110701654299552 0.36596211494311248 0 -0.26689531734350652 0.36931705260985792 0 -0.26614264323177789 0.39525334800991979 0 -0.28158428542699082 0.38279668863870758 0 -0.28084635904778937 0.37544065550995409 0 -0.27663284499009211 0.37939207802828528 0 -0.27229768174870289 0.38438446135480281 0 -0.27641046434025379 0.38710393959788297 0 -0.26614264323177789 0.39525334800991979 0 -0.28179061653257348 0.3907675264945405 0 -0.28158428542699082 0.38279668863870758 0 -0.27641046434025379 0.38710393959788297 0 -0.27663284499009211 0.37939207802828528 0 -0.27229768174870289 0.38438446135480281 0 -0.27641046434025379 0.38710393959788297 0 -0.28158428542699082 0.38279668863870758 0 -0.27663284499009211 0.37939207802828528 0 -0.27641046434025379 0.38710393959788297 0 -0.28179061653257348 0.3907675264945405 0 -0.27641046434025379 0.38710393959788297 0 -0.26614264323177789 0.39525334800991979 0 -0.28179061653257348 0.3907675264945405 0 -0.27661435207820328 0.39472461325581981 0 -0.26614264323177789 0.39525334800991979 0 -0.28179061653257348 0.3907675264945405 0 -0.28392778011776681 0.39892722844600809 0 -0.27661435207820328 0.39472461325581981 0 -0.28179061653257348 0.3907675264945405 0 -0.26614264323177789 0.39525334800991979 0 -0.28392778011776681 0.39892722844600809 0 -0.27661435207820328 0.39472461325581981 0 -0.27572094251528112 0.40196054452149499 0 -0.28392778011776681 0.39892722844600809 0 -0.27572094251528112 0.40196054452149499 0 -0.27817781655911977 0.40726136879628272 0 -0.27572094251528112 0.40196054452149499 0 -0.26416382130603389 0.40692896758786917 0 -0.27817781655911977 0.40726136879628272 0 -0.27661435207820328 0.39472461325581981 0 -0.27572094251528112 0.40196054452149499 0 -0.26416382130603389 0.40692896758786917 0 -0.27661435207820328 0.39472461325581981 0 -0.26614264323177789 0.39525334800991979 0 -0.26416382130603389 0.40692896758786917 0 -0.27661435207820328 0.39472461325581981 0 -0.26416382130603389 0.40692896758786917 0 -0.26614264323177789 0.39525334800991979 0 -0.24781733580734391 0.38604582424895789 0 -0.24388213391773941 0.40163479241199579 0 -0.26614264323177789 0.39525334800991979 0 -0.25157066981256843 0.40894445920752592 0 -0.24388213391773941 0.40163479241199579 0 -0.26614264323177789 0.39525334800991979 0 -0.24388213391773941 0.40163479241199579 0 -0.26614264323177789 0.39525334800991979 0 -0.26416382130603389 0.40692896758786917 0 -0.26614264323177789 0.39525334800991979 0 -0.25157066981256843 0.40894445920752592 0 -0.26416382130603389 0.40692896758786917 0 -0.25453646971320443 0.37462232419521813 0 -0.26614264323177789 0.39525334800991979 0 -0.24781733580734391 0.38604582424895789 0 -0.25453646971320443 0.37462232419521813 0 -0.26689531734350652 0.36931705260985792 0 -0.26614264323177789 0.39525334800991979 0 -0.26107936510946472 0.42512814796255138 0 -0.25799490891289278 0.4433273283372331 0 -0.26107936510946472 0.42512814796255138 0 -0.27138668263498972 0.43431468825499642 0 -0.25799490891289278 0.4433273283372331 0 -0.26107936510946472 0.42512814796255138 0 -0.25799490891289278 0.4433273283372331 0 -0.24263019791012411 0.42803682032005991 0 -0.25799490891289278 0.4433273283372331 0 -0.24263019791012411 0.42803682032005991 0 -0.26107936510946472 0.42512814796255138 0 -0.26416382130603389 0.40692896758786917 0 -0.26107936510946472 0.42512814796255138 0 -0.26416382130603389 0.40692896758786917 0 -0.24263019791012411 0.42803682032005991 0 -0.26416382130603389 0.40692896758786917 0 -0.24263019791012411 0.42803682032005991 0 -0.25157066981256843 0.40894445920752592 0 -0.26416382130603389 0.40692896758786917 0 -0.24263019791012411 0.42803682032005991 0 -0.26107936510946472 0.42512814796255138 0 -0.26416382130603389 0.40692896758786917 0 -0.27370875903762831 0.41905129137381081 0 -0.26416382130603389 0.40692896758786917 0 -0.27817781655911977 0.40726136879628272 0 -0.27370875903762831 0.41905129137381081 0 -0.27817781655911977 0.40726136879628272 0 -0.27370875903762831 0.41905129137381081 0 -0.28647403122915938 0.41490769911839809 0 -0.27370875903762831 0.41905129137381081 0 -0.27138668263498972 0.43431468825499642 0 -0.28359142860916292 0.42646623900898489 0 -0.26107936510946472 0.42512814796255138 0 -0.27370875903762831 0.41905129137381081 0 -0.27138668263498972 0.43431468825499642 0 -0.27138668263498972 0.43431468825499642 0 -0.28359142860916292 0.42646623900898489 0 -0.28426041238301858 0.43930471826406531 0 -0.28359142860916292 0.42646623900898489 0 -0.29576073289665422 0.43347565529899762 0 -0.28426041238301858 0.43930471826406531 0 -0.28359142860916292 0.42646623900898489 0 -0.29576073289665422 0.43347565529899762 0 -0.29610666663401819 0.4205870682229661 0 -0.28905057763704689 0.40562835892549581 0 -0.27817781655911977 0.40726136879628272 0 -0.28647403122915938 0.41490769911839809 0 -0.27370875903762831 0.41905129137381081 0 -0.28359142860916292 0.42646623900898489 0 -0.28647403122915938 0.41490769911839809 0 -0.28359142860916292 0.42646623900898489 0 -0.28647403122915938 0.41490769911839809 0 -0.29610666663401819 0.4205870682229661 0 -0.28647403122915938 0.41490769911839809 0 -0.29610666663401819 0.4205870682229661 0 -0.2987408814332651 0.40933989620534528 0 -0.28905057763704689 0.40562835892549581 0 -0.28647403122915938 0.41490769911839809 0 -0.2987408814332651 0.40933989620534528 0 -0.31655825632854873 0.41307790430667191 0 -0.29610666663401819 0.4205870682229661 0 -0.2987408814332651 0.40933989620534528 0 -0.31655825632854873 0.41307790430667191 0 -0.29610666663401819 0.4205870682229661 0 -0.31005470391928353 0.42551636974368717 0 -0.31655825632854873 0.41307790430667191 0 -0.29610666663401819 0.4205870682229661 0 -0.31655825632854873 0.41307790430667191 0 -0.30820761894760612 0.40180007281058999 0 -0.2987408814332651 0.40933989620534528 0 -0.29576073289665422 0.43347565529899762 0 -0.31005470391928353 0.42551636974368717 0 -0.30636015846579262 0.44081646755455739 0 -0.29576073289665422 0.43347565529899762 0 -0.29610666663401819 0.4205870682229661 0 -0.31005470391928353 0.42551636974368717 0 -0.29576073289665422 0.43347565529899762 0 -0.30636015846579262 0.44081646755455739 0 -0.2944743431310044 0.45228094752776682 0 -0.30636015846579262 0.44081646755455739 0 -0.30512100021830008 0.46490456032657962 0 -0.30636015846579262 0.44081646755455739 0 -0.30512100021830008 0.46490456032657962 0 -0.2944743431310044 0.45228094752776682 0 -0.30636015846579262 0.44081646755455739 0 -0.30512100021830008 0.46490456032657962 0 -0.32381548421637429 0.45642326981327008 0 -0.30512100021830008 0.46490456032657962 0 -0.2944743431310044 0.45228094752776682 0 -0.28858619761816889 0.47377087817814589 0 -0.2944743431310044 0.45228094752776682 0 -0.27329055326553048 0.45854910325768988 0 -0.28858619761816889 0.47377087817814589 0 -0.2944743431310044 0.45228094752776682 0 -0.28426041238301858 0.43930471826406531 0 -0.27329055326553048 0.45854910325768988 0 -0.29576073289665422 0.43347565529899762 0 -0.2944743431310044 0.45228094752776682 0 -0.28426041238301858 0.43930471826406531 0 -0.27138668263498972 0.43431468825499642 0 -0.28426041238301858 0.43930471826406531 0 -0.27329055326553048 0.45854910325768988 0 -0.27138668263498972 0.43431468825499642 0 -0.27329055326553048 0.45854910325768988 0 -0.25799490891289278 0.4433273283372331 0 -0.27329055326553048 0.45854910325768988 0 -0.25799490891289278 0.4433273283372331 0 -0.27329055326553048 0.45854910325768988 0 -0.28858619761816889 0.47377087817814589 0 -0.27329055326553048 0.45854910325768988 0 -0.25438198006151169 0.46464464965965441 0 -0.25799490891289278 0.4433273283372331 0 -0.27329055326553048 0.45854910325768988 0 -0.25438198006151169 0.46464464965965441 0 -0.26859377699614329 0.4811575177290362 0 -0.25438198006151169 0.46464464965965441 0 -0.25799490891289278 0.4433273283372331 0 -0.25438198006151169 0.46464464965965441 0 -0.25799490891289278 0.4433273283372331 0 -0.24356894722331929 0.44821508210096461 0 -0.25080144613104921 0.5 0 -0.26859377699614329 0.4811575177290362 0 -0.2467553297522557 0.48147402383551691 0 -0.25080144613104921 0.5 0 -0.26859377699614329 0.4811575177290362 0 -0.27705851983630159 0.5 0 -0.25438198006151169 0.46464464965965441 0 -0.26859377699614329 0.4811575177290362 0 -0.2467553297522557 0.48147402383551691 0 -0.27329055326553048 0.45854910325768988 0 -0.26859377699614329 0.4811575177290362 0 -0.28858619761816889 0.47377087817814589 0 -0.26859377699614329 0.4811575177290362 0 -0.27705851983630159 0.5 0 -0.28830299895955541 0.48893487857068268 0 -0.27705851983630159 0.5 0 -0.28830299895955541 0.48893487857068268 0 -0.30331559354155391 0.49999999999999939 0 -0.26859377699614329 0.4811575177290362 0 -0.28830299895955541 0.48893487857068268 0 -0.28858619761816889 0.47377087817814589 0 -0.28830299895955541 0.48893487857068268 0 -0.28858619761816889 0.47377087817814589 0 -0.30388184197080759 0.48899265309860168 0 -0.28858619761816889 0.47377087817814589 0 -0.30388184197080759 0.48899265309860168 0 -0.30512100021830008 0.46490456032657962 0 -0.30388184197080759 0.48899265309860168 0 -0.30512100021830008 0.46490456032657962 0 -0.30388184197080759 0.48899265309860168 0 -0.31654611508668351 0.48621885406126381 0 -0.30512100021830008 0.46490456032657962 0 -0.28858619761816889 0.47377087817814589 0 -0.30388184197080759 0.48899265309860168 0 -0.30331559354155391 0.49999999999999939 0 -0.30388184197080759 0.48899265309860168 0 -0.28830299895955541 0.48893487857068268 0 -0.30331559354155391 0.49999999999999939 0 -0.30388184197080759 0.48899265309860168 0 -0.30388184197080759 0.48899265309860168 0 -0.31494260619507058 0.500000000000002 0 -0.31654611508668351 0.48621885406126381 0 -0.30331559354155391 0.49999999999999939 0 -0.30388184197080759 0.48899265309860168 0 -0.31494260619507058 0.500000000000002 0 -0.30388184197080759 0.48899265309860168 0 -0.31494260619507058 0.500000000000002 0 -0.31654611508668351 0.48621885406126381 0 -0.33275791060477139 0.5 0 -0.32602721644446891 0.47719705688113462 0 -0.31494260619507058 0.500000000000002 0 -0.31654611508668351 0.48621885406126381 0 -0.33275791060477139 0.5 0 -0.33275791060477139 0.5 0 -0.34200011506365208 0.48331572161184322 0 -0.32602721644446891 0.47719705688113462 0 -0.33275791060477139 0.5 0 -0.34200011506365208 0.48331572161184322 0 -0.35057321501447208 0.49999999999999872 0 -0.34200011506365208 0.48331572161184322 0 -0.32602721644446891 0.47719705688113462 0 -0.33593075250063148 0.46750731867274542 0 -0.34200011506365208 0.48331572161184322 0 -0.33593075250063148 0.46750731867274542 0 -0.35201810675435108 0.4676562019538536 0 -0.30512100021830008 0.46490456032657962 0 -0.31654611508668351 0.48621885406126381 0 -0.32602721644446891 0.47719705688113462 0 -0.30512100021830008 0.46490456032657962 0 -0.32602721644446891 0.47719705688113462 0 -0.32381548421637429 0.45642326981327008 0 -0.30636015846579262 0.44081646755455739 0 -0.32381548421637429 0.45642326981327008 0 -0.32304151796324199 0.43794530689545591 0 -0.32381548421637429 0.45642326981327008 0 -0.32304151796324199 0.43794530689545591 0 -0.34355933144160938 0.44471966407244162 0 -0.32381548421637429 0.45642326981327008 0 -0.34355933144160938 0.44471966407244162 0 -0.33593075250063148 0.46750731867274542 0 -0.32602721644446891 0.47719705688113462 0 -0.32381548421637429 0.45642326981327008 0 -0.33593075250063148 0.46750731867274542 0 -0.35201810675435108 0.4676562019538536 0 -0.36028404822733179 0.44939908513577981 0 -0.36566353784044697 0.46257036423753561 0 -0.34355933144160938 0.44471966407244162 0 -0.35201810675435108 0.4676562019538536 0 -0.36028404822733179 0.44939908513577981 0 -0.34355933144160938 0.44471966407244162 0 -0.33593075250063148 0.46750731867274542 0 -0.35201810675435108 0.4676562019538536 0 -0.36778315087773072 0.43214877602771662 0 -0.34355933144160938 0.44471966407244162 0 -0.36028404822733179 0.44939908513577981 0 -0.36778315087773072 0.43214877602771662 0 -0.36028404822733179 0.44939908513577981 0 -0.37376195539900242 0.45249759326054367 0 -0.37701653082709469 0.46900635458093531 0 -0.37376195539900242 0.45249759326054367 0 -0.36566353784044697 0.46257036423753561 0 -0.36028404822733179 0.44939908513577981 0 -0.37376195539900242 0.45249759326054367 0 -0.36566353784044697 0.46257036423753561 0 -0.36552159823955549 0.47691699748014749 0 -0.37220834978290879 0.49000150617251997 0 -0.35595833756876799 0.48470827593500232 0 -0.37701653082709469 0.46900635458093531 0 -0.36566353784044697 0.46257036423753561 0 -0.36552159823955549 0.47691699748014749 0 -0.37805640255927542 0.47903421333972468 0 -0.37701653082709469 0.46900635458093531 0 -0.36552159823955549 0.47691699748014749 0 -0.35201810675435108 0.4676562019538536 0 -0.36566353784044697 0.46257036423753561 0 -0.36552159823955549 0.47691699748014749 0 -0.37805640255927542 0.47903421333972468 0 -0.36552159823955549 0.47691699748014749 0 -0.37220834978290879 0.49000150617251997 0 -0.37220834978290879 0.49000150617251997 0 -0.35057321501447208 0.49999999999999872 0 -0.35595833756876799 0.48470827593500232 0 -0.37789332191386737 0.5 0 -0.37220834978290879 0.49000150617251997 0 -0.35057321501447208 0.49999999999999872 0 -0.37220834978290879 0.49000150617251997 0 -0.35057321501447208 0.49999999999999872 0 -0.34200011506365208 0.48331572161184322 0 -0.35057321501447208 0.49999999999999872 0 -0.35595833756876799 0.48470827593500232 0 -0.34200011506365208 0.48331572161184322 0 -0.35201810675435108 0.4676562019538536 0 -0.35595833756876799 0.48470827593500232 0 -0.35201810675435108 0.4676562019538536 0 -0.36552159823955549 0.47691699748014749 0 -0.35595833756876799 0.48470827593500232 0 -0.142080771754234 0.48212662116497451 0 -0.14744519938683801 0.47523243684594829 0 -0.1380962150490555 0.47248515407185221 0 -0.142080771754234 0.48212662116497451 0 -0.14744519938683801 0.47523243684594829 0 -0.15313912830386001 0.48632871978955722 0 -0.14744519938683801 0.47523243684594829 0 -0.1380962150490555 0.47248515407185221 0 -0.1446941887002707 0.46454185114692792 0 -0.14744519938683801 0.47523243684594829 0 -0.1446941887002707 0.46454185114692792 0 -0.15815775643206659 0.473198332503178 0 -0.14744519938683801 0.47523243684594829 0 -0.15313912830386001 0.48632871978955722 0 -0.15815775643206659 0.473198332503178 0 -0.142080771754234 0.48212662116497451 0 -0.15313912830386001 0.48632871978955722 0 -0.13803845513632401 0.5 0 -0.15313912830386001 0.48632871978955722 0 -0.13803845513632401 0.5 0 -0.1663114266205577 0.50000000000000011 0 -0.142080771754234 0.48212662116497451 0 -0.13803845513632401 0.5 0 -0.12908554574303099 0.47755934496718438 0 -0.13803845513632401 0.5 0 -0.12908554574303099 0.47755934496718438 0 -0.1160402402672886 0.48503019582547341 0 -0.142080771754234 0.48212662116497451 0 -0.12908554574303099 0.47755934496718438 0 -0.1380962150490555 0.47248515407185221 0 -0.12908554574303099 0.47755934496718438 0 -0.1380962150490555 0.47248515407185221 0 -0.13097929143795109 0.46459511115351071 0 -0.12908554574303099 0.47755934496718438 0 -0.13097929143795109 0.46459511115351071 0 -0.1176294132596279 0.46872710166108278 0 -0.13097929143795109 0.46459511115351071 0 -0.1351896940807357 0.45304119368279389 0 -0.1204057133641486 0.45504160574272429 0 -0.13097929143795109 0.46459511115351071 0 -0.1351896940807357 0.45304119368279389 0 -0.1446941887002707 0.46454185114692792 0 -0.1380962150490555 0.47248515407185221 0 -0.13097929143795109 0.46459511115351071 0 -0.1446941887002707 0.46454185114692792 0 -0.1351896940807357 0.45304119368279389 0 -0.13889501351409689 0.43598263237980822 0 -0.1242648033483075 0.43981492828754482 0 -0.1351896940807357 0.45304119368279389 0 -0.1242648033483075 0.43981492828754482 0 -0.1204057133641486 0.45504160574272429 0 -0.15017718620881049 0.45777983735391498 0 -0.13889501351409689 0.43598263237980822 0 -0.1351896940807357 0.45304119368279389 0 -0.15017718620881049 0.45777983735391498 0 -0.13889501351409689 0.43598263237980822 0 -0.15995177900170021 0.44572512983606088 0 -0.15376963845050121 0.4328235067909087 0 -0.13889501351409689 0.43598263237980822 0 -0.15017718620881049 0.45777983735391498 0 -0.15995177900170021 0.44572512983606088 0 -0.13889501351409689 0.43598263237980822 0 -0.15017718620881049 0.45777983735391498 0 -0.15995177900170021 0.44572512983606088 0 -0.1446941887002707 0.46454185114692792 0 -0.15017718620881049 0.45777983735391498 0 -0.1351896940807357 0.45304119368279389 0 -0.1446941887002707 0.46454185114692792 0 -0.15017718620881049 0.45777983735391498 0 -0.1446941887002707 0.46454185114692792 0 -0.15017718620881049 0.45777983735391498 0 -0.15815775643206659 0.473198332503178 0 -0.15017718620881049 0.45777983735391498 0 -0.15868634814382429 0.46531473325554851 0 -0.15815775643206659 0.473198332503178 0 -0.15017718620881049 0.45777983735391498 0 -0.15815775643206659 0.473198332503178 0 -0.160558198289461 0.46047642425523388 0 -0.1655661766345953 0.45099185016729298 0 -0.16585225164495951 0.46980433890986678 0 -0.1655661766345953 0.45099185016729298 0 -0.17867327812258871 0.46114583139567922 0 -0.16585225164495951 0.46980433890986678 0 -0.1655661766345953 0.45099185016729298 0 -0.16585225164495951 0.46980433890986678 0 -0.15868634814382429 0.46531473325554851 0 -0.160558198289461 0.46047642425523388 0 -0.16585225164495951 0.46980433890986678 0 -0.15017718620881049 0.45777983735391498 0 -0.15868634814382429 0.46531473325554851 0 -0.160558198289461 0.46047642425523388 0 -0.15017718620881049 0.45777983735391498 0 -0.160558198289461 0.46047642425523388 0 -0.15995177900170021 0.44572512983606088 0 -0.15995177900170021 0.44572512983606088 0 -0.1655661766345953 0.45099185016729298 0 -0.1697263717945888 0.43367042231820602 0 -0.160558198289461 0.46047642425523388 0 -0.15995177900170021 0.44572512983606088 0 -0.1655661766345953 0.45099185016729298 0 -0.15995177900170021 0.44572512983606088 0 -0.1697263717945888 0.43367042231820602 0 -0.1655661766345953 0.45099185016729298 0 -0.1926513277646352 0.45119866261047992 0 -0.1697263717945888 0.43367042231820602 0 -0.1926513277646352 0.45119866261047992 0 -0.1697263717945888 0.43367042231820602 0 -0.1926513277646352 0.45119866261047992 0 -0.18693863061853061 0.43491447939059907 0 -0.1697263717945888 0.43367042231820602 0 -0.1655661766345953 0.45099185016729298 0 -0.17867327812258871 0.46114583139567922 0 -0.1926513277646352 0.45119866261047992 0 -0.17867327812258871 0.46114583139567922 0 -0.17876854714149509 0.47093865696285842 0 -0.16585225164495951 0.46980433890986678 0 -0.17867327812258871 0.46114583139567922 0 -0.1899884502156329 0.46461586120334353 0 -0.1926513277646352 0.45119866261047992 0 -0.17867327812258871 0.46114583139567922 0 -0.17876854714149509 0.47093865696285842 0 -0.1899884502156329 0.46461586120334353 0 -0.17876854714149509 0.47093865696285842 0 -0.19138341924764241 0.47827032896460842 0 -0.1899884502156329 0.46461586120334353 0 -0.1757986315986971 0.48088398659212228 0 -0.17876854714149509 0.47093865696285842 0 -0.19138341924764241 0.47827032896460842 0 -0.1757986315986971 0.48088398659212228 0 -0.17876854714149509 0.47093865696285842 0 -0.16585225164495951 0.46980433890986678 0 -0.16585225164495951 0.46980433890986678 0 -0.16613832665532341 0.48861682765244069 0 -0.16585225164495951 0.46980433890986678 0 -0.15815775643206659 0.473198332503178 0 -0.16613832665532341 0.48861682765244069 0 -0.1757986315986971 0.48088398659212228 0 -0.16585225164495951 0.46980433890986678 0 -0.16613832665532341 0.48861682765244069 0 -0.15313912830386001 0.48632871978955722 0 -0.15815775643206659 0.473198332503178 0 -0.16613832665532341 0.48861682765244069 0 -0.15815775643206659 0.473198332503178 0 -0.16613832665532341 0.48861682765244069 0 -0.15868634814382429 0.46531473325554851 0 -0.16585225164495951 0.46980433890986678 0 -0.15815775643206659 0.473198332503178 0 -0.15313912830386001 0.48632871978955722 0 -0.16613832665532341 0.48861682765244069 0 -0.1663114266205577 0.50000000000000011 0 -0.16613832665532341 0.48861682765244069 0 -0.1720302250152923 0.50000000000000022 0 -0.16613832665532341 0.48861682765244069 0 -0.1663114266205577 0.50000000000000011 0 -0.1720302250152923 0.50000000000000022 0 -0.16613832665532341 0.48861682765244069 0 -0.1663114266205577 0.50000000000000011 0 -0.16613832665532341 0.48861682765244069 0 -0.17430115969348189 0.49501483184612438 0 -0.1720302250152923 0.50000000000000022 0 -0.17430115969348189 0.49501483184612438 0 -0.1720302250152923 0.50000000000000022 0 -0.1982872987205446 0.5 0 -0.1757986315986971 0.48088398659212228 0 -0.17430115969348189 0.49501483184612438 0 -0.19138341924764241 0.47827032896460842 0 -0.17430115969348189 0.49501483184612438 0 -0.19138341924764241 0.47827032896460842 0 -0.1757986315986971 0.48088398659212228 0 -0.16613832665532341 0.48861682765244069 0 -0.17430115969348189 0.49501483184612438 0 -0.17430115969348189 0.49501483184612438 0 -0.1982872987205446 0.5 0 -0.19138341924764241 0.47827032896460842 0 -0.1982872987205446 0.5 0 -0.19138341924764241 0.47827032896460842 0 -0.21217809917650449 0.48030286392854288 0 -0.19138341924764241 0.47827032896460842 0 -0.208465678801803 0.46152582608309223 0 -0.19138341924764241 0.47827032896460842 0 -0.21217809917650449 0.48030286392854288 0 -0.208465678801803 0.46152582608309223 0 -0.1982872987205446 0.5 0 -0.21217809917650449 0.48030286392854288 0 -0.22454437242579681 0.5 0 -0.22454437242579681 0.5 0 -0.2288960980978284 0.47674808914996208 0 -0.2467553297522557 0.48147402383551691 0 -0.21217809917650449 0.48030286392854288 0 -0.22454437242579681 0.5 0 -0.2288960980978284 0.47674808914996208 0 -0.21217809917650449 0.48030286392854288 0 -0.2288960980978284 0.47674808914996208 0 -0.22325063631842021 0.46203708915627778 0 -0.25438198006151169 0.46464464965965441 0 -0.2467553297522557 0.48147402383551691 0 -0.2372897108761052 0.46028528898629889 0 -0.2288960980978284 0.47674808914996208 0 -0.2467553297522557 0.48147402383551691 0 -0.2372897108761052 0.46028528898629889 0 -0.25080144613104921 0.5 0 -0.22454437242579681 0.5 0 -0.2467553297522557 0.48147402383551691 0 -0.24356894722331929 0.44821508210096461 0 -0.22554793835596351 0.44478132320157598 0 -0.24263019791012411 0.42803682032005991 0 -0.24356894722331929 0.44821508210096461 0 -0.2372897108761052 0.46028528898629889 0 -0.22554793835596351 0.44478132320157598 0 -0.25799490891289278 0.4433273283372331 0 -0.24356894722331929 0.44821508210096461 0 -0.24263019791012411 0.42803682032005991 0 -0.25438198006151169 0.46464464965965441 0 -0.24356894722331929 0.44821508210096461 0 -0.2372897108761052 0.46028528898629889 0 -0.2288960980978284 0.47674808914996208 0 -0.2372897108761052 0.46028528898629889 0 -0.22325063631842021 0.46203708915627778 0 -0.2372897108761052 0.46028528898629889 0 -0.22325063631842021 0.46203708915627778 0 -0.22554793835596351 0.44478132320157598 0 -0.22325063631842021 0.46203708915627778 0 -0.22554793835596351 0.44478132320157598 0 -0.208465678801803 0.46152582608309223 0 -0.22554793835596351 0.44478132320157598 0 -0.20785557032720109 0.44518798724498809 0 -0.21437917226951189 0.43588067273166847 0 -0.22554793835596351 0.44478132320157598 0 -0.20785557032720109 0.44518798724498809 0 -0.208465678801803 0.46152582608309223 0 -0.22554793835596351 0.44478132320157598 0 -0.208465678801803 0.46152582608309223 0 -0.21217809917650449 0.48030286392854288 0 -0.22325063631842021 0.46203708915627778 0 -0.208465678801803 0.46152582608309223 0 -0.19138341924764241 0.47827032896460842 0 -0.208465678801803 0.46152582608309223 0 -0.1899884502156329 0.46461586120334353 0 -0.208465678801803 0.46152582608309223 0 -0.1899884502156329 0.46461586120334353 0 -0.1926513277646352 0.45119866261047992 0 -0.20785557032720109 0.44518798724498809 0 -0.1926513277646352 0.45119866261047992 0 -0.18693863061853061 0.43491447939059907 0 -0.20785557032720109 0.44518798724498809 0 -0.208465678801803 0.46152582608309223 0 -0.1926513277646352 0.45119866261047992 0 -0.19176926968858449 0.42488004754311998 0 -0.20430089696141959 0.42856004989685992 0 -0.18693863061853061 0.43491447939059907 0 -0.20785557032720109 0.44518798724498809 0 -0.20430089696141959 0.42856004989685992 0 -0.18693863061853061 0.43491447939059907 0 -0.19176926968858449 0.42488004754311998 0 -0.19667758679306771 0.41738623802377928 0 -0.20430089696141959 0.42856004989685992 0 -0.19667758679306771 0.41738623802377928 0 -0.19460267291041519 0.40299123798476227 0 -0.182164522352502 0.41833083015148409 0 -0.19460267291041519 0.40299123798476227 0 -0.182164522352502 0.41833083015148409 0 -0.19176926968858449 0.42488004754311998 0 -0.19667758679306771 0.41738623802377928 0 -0.182164522352502 0.41833083015148409 0 -0.19667758679306771 0.41738623802377928 0 -0.2074030129404133 0.4163894186605448 0 -0.20430089696141959 0.42856004989685992 0 -0.19667758679306771 0.41738623802377928 0 -0.2074030129404133 0.4163894186605448 0 -0.19460267291041519 0.40299123798476227 0 -0.2074030129404133 0.4163894186605448 0 -0.21981228343346321 0.42499333058324978 0 -0.22162162460370111 0.40801623681407218 0 -0.2074030129404133 0.4163894186605448 0 -0.22162162460370111 0.40801623681407218 0 -0.19460267291041519 0.40299123798476227 0 -0.20785557032720109 0.44518798724498809 0 -0.20430089696141959 0.42856004989685992 0 -0.21437917226951189 0.43588067273166847 0 -0.2074030129404133 0.4163894186605448 0 -0.20430089696141959 0.42856004989685992 0 -0.21981228343346321 0.42499333058324978 0 -0.20430089696141959 0.42856004989685992 0 -0.21437917226951189 0.43588067273166847 0 -0.21981228343346321 0.42499333058324978 0 -0.22554793835596351 0.44478132320157598 0 -0.24263019791012411 0.42803682032005991 0 -0.22554793835596351 0.44478132320157598 0 -0.2313941741476824 0.42795323546389102 0 -0.24263019791012411 0.42803682032005991 0 -0.22554793835596351 0.44478132320157598 0 -0.21437917226951189 0.43588067273166847 0 -0.21981228343346321 0.42499333058324978 0 -0.22554793835596351 0.44478132320157598 0 -0.2313941741476824 0.42795323546389102 0 -0.21981228343346321 0.42499333058324978 0 -0.2313941741476824 0.42795323546389102 0 -0.21981228343346321 0.42499333058324978 0 -0.2301621318308705 0.41771135234831969 0 -0.2313941741476824 0.42795323546389102 0 -0.2301621318308705 0.41771135234831969 0 -0.23881831920799079 0.42424335086624981 0 -0.21981228343346321 0.42499333058324978 0 -0.22162162460370111 0.40801623681407218 0 -0.2301621318308705 0.41771135234831969 0 -0.22162162460370111 0.40801623681407218 0 -0.2301621318308705 0.41771135234831969 0 -0.241034552697166 0.41286836770778501 0 -0.25157066981256843 0.40894445920752592 0 -0.241034552697166 0.41286836770778501 0 -0.24263019791012411 0.42803682032005991 0 -0.241034552697166 0.41286836770778501 0 -0.24263019791012411 0.42803682032005991 0 -0.23881831920799079 0.42424335086624981 0 -0.22162162460370111 0.40801623681407218 0 -0.241034552697166 0.41286836770778501 0 -0.24388213391773941 0.40163479241199579 0 -0.2301621318308705 0.41771135234831969 0 -0.241034552697166 0.41286836770778501 0 -0.23881831920799079 0.42424335086624981 0 -0.25157066981256843 0.40894445920752592 0 -0.241034552697166 0.41286836770778501 0 -0.24388213391773941 0.40163479241199579 0 -0.2313941741476824 0.42795323546389102 0 -0.24263019791012411 0.42803682032005991 0 -0.23881831920799079 0.42424335086624981 0 -0.24263019791012411 0.42803682032005991 0 -0.23881831920799079 0.42424335086624981 0 -0.25453646971320443 0.37462232419521813 0 -0.24781733580734391 0.38604582424895789 0 -0.23735930512057779 0.37349779701461089 0 -0.2365264908337599 0.38834162546439549 0 -0.24781733580734391 0.38604582424895789 0 -0.23735930512057779 0.37349779701461089 0 -0.2365264908337599 0.38834162546439549 0 -0.24781733580734391 0.38604582424895789 0 -0.24388213391773941 0.40163479241199579 0 -0.22162162460370111 0.40801623681407218 0 -0.24388213391773941 0.40163479241199579 0 -0.22162162460370111 0.40801623681407218 0 -0.2365264908337599 0.38834162546439549 0 -0.2225569648072106 0.38059728391652659 0 -0.22162162460370111 0.40801623681407218 0 -0.2365264908337599 0.38834162546439549 0 -0.24388213391773941 0.40163479241199579 0 -0.2365264908337599 0.38834162546439549 0 -0.2225569648072106 0.38059728391652659 0 -0.23735930512057779 0.37349779701461089 0 -0.2225569648072106 0.38059728391652659 0 -0.20545957084956781 0.38789926664213359 0 -0.1994770785436861 0.36691897370504389 0 -0.22162162460370111 0.40801623681407218 0 -0.2225569648072106 0.38059728391652659 0 -0.20545957084956781 0.38789926664213359 0 -0.22162162460370111 0.40801623681407218 0 -0.20545957084956781 0.38789926664213359 0 -0.19460267291041519 0.40299123798476227 0 -0.20545957084956781 0.38789926664213359 0 -0.19460267291041519 0.40299123798476227 0 -0.18736095772118591 0.3836472042370111 0 -0.20545957084956781 0.38789926664213359 0 -0.18736095772118591 0.3836472042370111 0 -0.1994770785436861 0.36691897370504389 0 -0.18736095772118591 0.3836472042370111 0 -0.16248792359233191 0.38534127627451031 0 -0.17644948136236779 0.3976803029940168 0 -0.18736095772118591 0.3836472042370111 0 -0.16248792359233191 0.38534127627451031 0 -0.1741500565645078 0.37123080613525078 0 -0.16248792359233191 0.38534127627451031 0 -0.16330635783110381 0.4038062271485704 0 -0.14438589058212131 0.3948348353259919 0 -0.16248792359233191 0.38534127627451031 0 -0.16330635783110381 0.4038062271485704 0 -0.17644948136236779 0.3976803029940168 0 -0.19460267291041519 0.40299123798476227 0 -0.17644948136236779 0.3976803029940168 0 -0.17778078602166139 0.40821888849324761 0 -0.19460267291041519 0.40299123798476227 0 -0.18736095772118591 0.3836472042370111 0 -0.17644948136236779 0.3976803029940168 0 -0.16330635783110381 0.4038062271485704 0 -0.17644948136236779 0.3976803029940168 0 -0.17778078602166139 0.40821888849324761 0 -0.19460267291041519 0.40299123798476227 0 -0.182164522352502 0.41833083015148409 0 -0.17778078602166139 0.40821888849324761 0 -0.182164522352502 0.41833083015148409 0 -0.1723808956519178 0.41828584418740389 0 -0.17778078602166139 0.40821888849324761 0 -0.19176926968858449 0.42488004754311998 0 -0.182164522352502 0.41833083015148409 0 -0.18693863061853061 0.43491447939059907 0 -0.182164522352502 0.41833083015148409 0 -0.18693863061853061 0.43491447939059907 0 -0.1697263717945888 0.43367042231820602 0 -0.182164522352502 0.41833083015148409 0 -0.1697263717945888 0.43367042231820602 0 -0.182164522352502 0.41833083015148409 0 -0.1723808956519178 0.41828584418740389 0 -0.1697263717945888 0.43367042231820602 0 -0.15995177900170021 0.44572512983606088 0 -0.1697263717945888 0.43367042231820602 0 -0.15376963845050121 0.4328235067909087 0 -0.1697263717945888 0.43367042231820602 0 -0.14650538949161929 0.41591584262955861 0 -0.15376963845050121 0.4328235067909087 0 -0.1697263717945888 0.43367042231820602 0 -0.14650538949161929 0.41591584262955861 0 -0.1723808956519178 0.41828584418740389 0 -0.1697263717945888 0.43367042231820602 0 -0.14650538949161929 0.41591584262955861 0 -0.1723808956519178 0.41828584418740389 0 -0.14650538949161929 0.41591584262955861 0 -0.16330635783110381 0.4038062271485704 0 -0.1723808956519178 0.41828584418740389 0 -0.14650538949161929 0.41591584262955861 0 -0.16330635783110381 0.4038062271485704 0 -0.1723808956519178 0.41828584418740389 0 -0.17778078602166139 0.40821888849324761 0 -0.14650538949161929 0.41591584262955861 0 -0.15376963845050121 0.4328235067909087 0 -0.13889501351409689 0.43598263237980822 0 -0.13889501351409689 0.43598263237980822 0 -0.12761284081938409 0.41418542740570108 0 -0.14650538949161929 0.41591584262955861 0 -0.13889501351409689 0.43598263237980822 0 -0.12761284081938409 0.41418542740570108 0 -0.13889501351409689 0.43598263237980822 0 -0.12761284081938409 0.41418542740570108 0 -0.1242648033483075 0.43981492828754482 0 -0.14650538949161929 0.41591584262955861 0 -0.12761284081938409 0.41418542740570108 0 -0.12644786621320531 0.40058001872868543 0 -0.14650538949161929 0.41591584262955861 0 -0.12644786621320531 0.40058001872868543 0 -0.14650538949161929 0.41591584262955861 0 -0.12761284081938409 0.41418542740570108 0 -0.14650538949161929 0.41591584262955861 0 -0.12644786621320531 0.40058001872868543 0 -0.14438589058212131 0.3948348353259919 0 -0.12644786621320531 0.40058001872868543 0 -0.12826940643264259 0.38638828685515292 0 -0.14438589058212131 0.3948348353259919 0 -0.1399268433138337 0.37661104245066729 0 -0.12826940643264259 0.38638828685515292 0 -0.1198206075896991 0.37069234566290138 0 -0.1399268433138337 0.37661104245066729 0 -0.12826940643264259 0.38638828685515292 0 -0.14438589058212131 0.3948348353259919 0 -0.16248792359233191 0.38534127627451031 0 -0.1399268433138337 0.37661104245066729 0 -0.1571746455416145 0.36408416689185819 0 -0.16248792359233191 0.38534127627451031 0 -0.1399268433138337 0.37661104245066729 0 -0.14438589058212131 0.3948348353259919 0 -0.16330635783110381 0.4038062271485704 0 -0.14650538949161929 0.41591584262955861 0 -0.14438589058212131 0.3948348353259919 0 -0.1367685514822152 0.35851885971508118 0 -0.13367478836053351 0.33932016938713638 0 -0.15331730601663701 0.3395623532820784 0 -0.1367685514822152 0.35851885971508118 0 -0.15331730601663701 0.3395623532820784 0 -0.1571746455416145 0.36408416689185819 0 -0.1399268433138337 0.37661104245066729 0 -0.1367685514822152 0.35851885971508118 0 -0.1571746455416145 0.36408416689185819 0 -0.1399268433138337 0.37661104245066729 0 -0.1367685514822152 0.35851885971508118 0 -0.1198206075896991 0.37069234566290138 0 -0.1367685514822152 0.35851885971508118 0 -0.13367478836053351 0.33932016938713638 0 -0.1173066256070304 0.35104950557859033 0 -0.13367478836053351 0.33932016938713638 0 -0.1262409447270301 0.3211703831111522 0 -0.1175879007316586 0.33497855513245622 0 -0.13367478836053351 0.33932016938713638 0 -0.1262409447270301 0.3211703831111522 0 -0.14995133854557879 0.31573290008088639 0 -0.1262409447270301 0.3211703831111522 0 -0.14995133854557879 0.31573290008088639 0 -0.13170636281121431 0.30540396541675668 0 -0.13367478836053351 0.33932016938713638 0 -0.14995133854557879 0.31573290008088639 0 -0.15331730601663701 0.3395623532820784 0 -0.15331730601663701 0.3395623532820784 0 -0.17079439025487569 0.32494122108339912 0 -0.1763971922801616 0.3532406634935612 0 -0.14995133854557879 0.31573290008088639 0 -0.17079439025487569 0.32494122108339912 0 -0.167164841548782 0.29891422322321631 0 -0.14995133854557879 0.31573290008088639 0 -0.15331730601663701 0.3395623532820784 0 -0.17079439025487569 0.32494122108339912 0 -0.17079439025487569 0.32494122108339912 0 -0.19256976679114979 0.33165381796875049 0 -0.19699128312530151 0.30504565645142051 0 -0.17079439025487569 0.32494122108339912 0 -0.1763971922801616 0.3532406634935612 0 -0.19256976679114979 0.33165381796875049 0 -0.15331730601663701 0.3395623532820784 0 -0.1763971922801616 0.3532406634935612 0 -0.1571746455416145 0.36408416689185819 0 -0.15331730601663701 0.3395623532820784 0 -0.1763971922801616 0.3532406634935612 0 -0.1763971922801616 0.3532406634935612 0 -0.1571746455416145 0.36408416689185819 0 -0.1741500565645078 0.37123080613525078 0 -0.16248792359233191 0.38534127627451031 0 -0.1571746455416145 0.36408416689185819 0 -0.1741500565645078 0.37123080613525078 0 -0.18736095772118591 0.3836472042370111 0 -0.1741500565645078 0.37123080613525078 0 -0.1994770785436861 0.36691897370504389 0 -0.1763971922801616 0.3532406634935612 0 -0.1741500565645078 0.37123080613525078 0 -0.1994770785436861 0.36691897370504389 0 -0.1763971922801616 0.3532406634935612 0 -0.1994770785436861 0.36691897370504389 0 -0.1763971922801616 0.3532406634935612 0 -0.20127160642404629 0.34878804965207372 0 -0.19256976679114979 0.33165381796875049 0 -0.1763971922801616 0.3532406634935612 0 -0.1994770785436861 0.36691897370504389 0 -0.20127160642404629 0.34878804965207372 0 -0.1994770785436861 0.36691897370504389 0 -0.20127160642404629 0.34878804965207372 0 -0.22480168799342179 0.35512276170724633 0 -0.20127160642404629 0.34878804965207372 0 -0.22480168799342179 0.35512276170724633 0 -0.2131123065118124 0.33700403138576668 0 -0.2225569648072106 0.38059728391652659 0 -0.1994770785436861 0.36691897370504389 0 -0.2225569648072106 0.38059728391652659 0 -0.1994770785436861 0.36691897370504389 0 -0.22480168799342179 0.35512276170724633 0 -0.2225569648072106 0.38059728391652659 0 -0.22480168799342179 0.35512276170724633 0 -0.23735930512057779 0.37349779701461089 0 -0.25368472498167011 0.34420349485172652 0 -0.22480168799342179 0.35512276170724633 0 -0.24822911175635759 0.36217347122335058 0 -0.22480168799342179 0.35512276170724633 0 -0.24822911175635759 0.36217347122335058 0 -0.23735930512057779 0.37349779701461089 0 -0.25453646971320443 0.37462232419521813 0 -0.24822911175635759 0.36217347122335058 0 -0.23735930512057779 0.37349779701461089 0 -0.25757488899104952 0.31786411623381933 0 -0.23478691102954721 0.33115088205162452 0 -0.2366570207200871 0.30010935915934539 0 -0.25368472498167011 0.34420349485172652 0 -0.22480168799342179 0.35512276170724633 0 -0.23478691102954721 0.33115088205162452 0 -0.25368472498167011 0.34420349485172652 0 -0.23478691102954721 0.33115088205162452 0 -0.25757488899104952 0.31786411623381933 0 -0.25368472498167011 0.34420349485172652 0 -0.23478691102954721 0.33115088205162452 0 -0.23478691102954721 0.33115088205162452 0 -0.2158890970774244 0.31809826925152251 0 -0.2131123065118124 0.33700403138576668 0 -0.22480168799342179 0.35512276170724633 0 -0.23478691102954721 0.33115088205162452 0 -0.2131123065118124 0.33700403138576668 0 -0.23478691102954721 0.33115088205162452 0 -0.2158890970774244 0.31809826925152251 0 -0.2366570207200871 0.30010935915934539 0 -0.23478691102954721 0.33115088205162452 0 -0.2158890970774244 0.31809826925152251 0 -0.2158890970774244 0.31809826925152251 0 -0.2131123065118124 0.33700403138576668 0 -0.19256976679114979 0.33165381796875049 0 -0.20127160642404629 0.34878804965207372 0 -0.2131123065118124 0.33700403138576668 0 -0.19256976679114979 0.33165381796875049 0 -0.2158890970774244 0.31809826925152251 0 -0.19256976679114979 0.33165381796875049 0 -0.19699128312530151 0.30504565645142051 0 -0.19699128312530151 0.30504565645142051 0 -0.2044220976180971 0.2747921468301005 0 -0.18537993383704029 0.28397978744787411 0 -0.19699128312530151 0.30504565645142051 0 -0.21636901433909059 0.29447561219915308 0 -0.2044220976180971 0.2747921468301005 0 -0.2158890970774244 0.31809826925152251 0 -0.19699128312530151 0.30504565645142051 0 -0.21636901433909059 0.29447561219915308 0 -0.2158890970774244 0.31809826925152251 0 -0.19699128312530151 0.30504565645142051 0 -0.2158890970774244 0.31809826925152251 0 -0.21636901433909059 0.29447561219915308 0 -0.2366570207200871 0.30010935915934539 0 -0.21636901433909059 0.29447561219915308 0 -0.2366570207200871 0.30010935915934539 0 -0.2235041758045673 0.27405874977876837 0 -0.26277913973510902 0.29023342414179659 0 -0.2366570207200871 0.30010935915934539 0 -0.2447247674615598 0.2718938593685879 0 -0.2366570207200871 0.30010935915934539 0 -0.2447247674615598 0.2718938593685879 0 -0.2235041758045673 0.27405874977876837 0 -0.25693865295534157 0.25278860643768353 0 -0.2416444700809012 0.25186566196455601 0 -0.2447247674615598 0.2718938593685879 0 -0.2416444700809012 0.25186566196455601 0 -0.2447247674615598 0.2718938593685879 0 -0.22667039518801041 0.25355429459537898 0 -0.2447247674615598 0.2718938593685879 0 -0.22667039518801041 0.25355429459537898 0 -0.2447247674615598 0.2718938593685879 0 -0.2235041758045673 0.27405874977876837 0 -0.22667039518801041 0.25355429459537898 0 -0.2235041758045673 0.27405874977876837 0 -0.22667039518801041 0.25355429459537898 0 -0.21218175950055909 0.24952722652004439 0 -0.2044220976180971 0.2747921468301005 0 -0.1929026130837673 0.25762258695206858 0 -0.21218175950055909 0.24952722652004439 0 -0.2044220976180971 0.2747921468301005 0 -0.21218175950055909 0.24952722652004439 0 -0.2235041758045673 0.27405874977876837 0 -0.2044220976180971 0.2747921468301005 0 -0.21218175950055909 0.24952722652004439 0 -0.21636901433909059 0.29447561219915308 0 -0.2235041758045673 0.27405874977876837 0 -0.2044220976180971 0.2747921468301005 0 -0.2044220976180971 0.2747921468301005 0 -0.1929026130837673 0.25762258695206858 0 -0.18537993383704029 0.28397978744787411 0 -0.1929026130837673 0.25762258695206858 0 -0.16582228118094081 0.26466105519565358 0 -0.18651378479530609 0.23505073182760211 0 -0.1929026130837673 0.25762258695206858 0 -0.16582228118094081 0.26466105519565358 0 -0.18537993383704029 0.28397978744787411 0 -0.16582228118094081 0.26466105519565358 0 -0.167164841548782 0.29891422322321631 0 -0.14136362158270599 0.28508793949713551 0 -0.16582228118094081 0.26466105519565358 0 -0.18537993383704029 0.28397978744787411 0 -0.167164841548782 0.29891422322321631 0 -0.19699128312530151 0.30504565645142051 0 -0.18537993383704029 0.28397978744787411 0 -0.167164841548782 0.29891422322321631 0 -0.17079439025487569 0.32494122108339912 0 -0.19699128312530151 0.30504565645142051 0 -0.167164841548782 0.29891422322321631 0 -0.167164841548782 0.29891422322321631 0 -0.14136362158270599 0.28508793949713551 0 -0.14995133854557879 0.31573290008088639 0 -0.167164841548782 0.29891422322321631 0 -0.14136362158270599 0.28508793949713551 0 -0.14995133854557879 0.31573290008088639 0 -0.14136362158270599 0.28508793949713551 0 -0.13170636281121431 0.30540396541675668 0 -0.1262409447270301 0.3211703831111522 0 -0.13170636281121431 0.30540396541675668 0 -0.1173504618646501 0.30916380798395637 0 -0.14136362158270599 0.28508793949713551 0 -0.13170636281121431 0.30540396541675668 0 -0.1202787732923796 0.29457691953651272 0 -0.14136362158270599 0.28508793949713551 0 -0.1196693143642453 0.28329908912575552 0 -0.1202787732923796 0.29457691953651272 0 -0.14136362158270599 0.28508793949713551 0 -0.1155624016166297 0.27126165577105521 0 -0.1196693143642453 0.28329908912575552 0 -0.14136362158270599 0.28508793949713551 0 -0.1155624016166297 0.27126165577105521 0 -0.12872708527658799 0.25991420809329241 0 -0.1416417428525672 0.26777243923482702 0 -0.1155624016166297 0.27126165577105521 0 -0.14136362158270599 0.28508793949713551 0 -0.1416417428525672 0.26777243923482702 0 -0.1155624016166297 0.27126165577105521 0 -0.12872708527658799 0.25991420809329241 0 -0.14534546737678511 0.25129379472131641 0 -0.1416417428525672 0.26777243923482702 0 -0.12872708527658799 0.25991420809329241 0 -0.14534546737678511 0.25129379472131641 0 -0.12470300375741469 0.2457033751303839 0 -0.16582228118094081 0.26466105519565358 0 -0.14534546737678511 0.25129379472131641 0 -0.1416417428525672 0.26777243923482702 0 -0.16582228118094081 0.26466105519565358 0 -0.14136362158270599 0.28508793949713551 0 -0.1416417428525672 0.26777243923482702 0 -0.1083690905562489 0.27746201143443072 0 -0.10470287070229969 0.27376422074294909 0 -0.09206590757372593 0.27740472432850488 0 -0.099741497972773749 0.27068482051400677 0 -0.1098053558875477 0.27272524579145851 0 -0.092391857727521592 0.25884509119311472 0 -0.1155624016166297 0.27126165577105521 0 -0.1098053558875477 0.27272524579145851 0 -0.092391857727521592 0.25884509119311472 0 -0.099741497972773749 0.27068482051400677 0 -0.09206590757372593 0.27740472432850488 0 -0.092391857727521592 0.25884509119311472 0 -0.10470287070229969 0.27376422074294909 0 -0.099741497972773749 0.27068482051400677 0 -0.1098053558875477 0.27272524579145851 0 -0.1083690905562489 0.27746201143443072 0 -0.1098053558875477 0.27272524579145851 0 -0.1083690905562489 0.27746201143443072 0 -0.10470287070229969 0.27376422074294909 0 -0.1098053558875477 0.27272524579145851 0 -0.10470287070229969 0.27376422074294909 0 -0.099741497972773749 0.27068482051400677 0 -0.09206590757372593 0.27740472432850488 0 -0.1155624016166297 0.27126165577105521 0 -0.092391857727521592 0.25884509119311472 0 -0.11076524853809321 0.25238606884059173 0 -0.1155624016166297 0.27126165577105521 0 -0.092391857727521592 0.25884509119311472 0 -0.11076524853809321 0.25238606884059173 0 -0.1199394347971814 0.25731632695883078 0 -0.1155624016166297 0.27126165577105521 0 -0.12872708527658799 0.25991420809329241 0 -0.1199394347971814 0.25731632695883078 0 -0.12470300375741469 0.2457033751303839 0 -0.11076524853809321 0.25238606884059173 0 -0.1199394347971814 0.25731632695883078 0 -0.12470300375741469 0.2457033751303839 0 -0.12872708527658799 0.25991420809329241 0 -0.1199394347971814 0.25731632695883078 0 -0.1155624016166297 0.27126165577105521 0 -0.12872708527658799 0.25991420809329241 0 -0.1155624016166297 0.27126165577105521 0 -0.1083690905562489 0.27746201143443072 0 -0.1155624016166297 0.27126165577105521 0 -0.1196693143642453 0.28329908912575552 0 -0.1083690905562489 0.27746201143443072 0 -0.1155624016166297 0.27126165577105521 0 -0.1098053558875477 0.27272524579145851 0 -0.1083690905562489 0.27746201143443072 0 -0.1155624016166297 0.27126165577105521 0 -0.1083690905562489 0.27746201143443072 0 -0.1202787732923796 0.29457691953651272 0 -0.1003457715998239 0.30392270831765028 0 -0.1083690905562489 0.27746201143443072 0 -0.1196693143642453 0.28329908912575552 0 -0.1202787732923796 0.29457691953651272 0 -0.1202787732923796 0.29457691953651272 0 -0.1173504618646501 0.30916380798395637 0 -0.1003457715998239 0.30392270831765028 0 -0.13170636281121431 0.30540396541675668 0 -0.1202787732923796 0.29457691953651272 0 -0.1173504618646501 0.30916380798395637 0 -0.1173504618646501 0.30916380798395637 0 -0.1003457715998239 0.30392270831765028 0 -0.1081804568928026 0.32074506353771021 0 -0.1083690905562489 0.27746201143443072 0 -0.08834593029567378 0.29472120043351602 0 -0.09206590757372593 0.27740472432850488 0 -0.1083690905562489 0.27746201143443072 0 -0.1003457715998239 0.30392270831765028 0 -0.08834593029567378 0.29472120043351602 0 -0.1083690905562489 0.27746201143443072 0 -0.1003457715998239 0.30392270831765028 0 -0.1083690905562489 0.27746201143443072 0 -0.08834593029567378 0.29472120043351602 0 -0.08834593029567378 0.29472120043351602 0 -0.079344374197139078 0.28508182268507098 0 -0.09206590757372593 0.27740472432850488 0 -0.08834593029567378 0.29472120043351602 0 -0.072463929930227558 0.29930610977545041 0 -0.077617967212061698 0.29366907382828078 0 -0.08834593029567378 0.29472120043351602 0 -0.079344374197139078 0.28508182268507098 0 -0.077617967212061698 0.29366907382828078 0 -0.08834593029567378 0.29472120043351602 0 -0.087527931766016032 0.31235393694025021 0 -0.08121949171140587 0.31012908581564408 0 -0.08834593029567378 0.29472120043351602 0 -0.068322770035098762 0.31198038943260148 0 -0.1003457715998239 0.30392270831765028 0 -0.08834593029567378 0.29472120043351602 0 -0.087527931766016032 0.31235393694025021 0 -0.08834593029567378 0.29472120043351602 0 -0.08121949171140587 0.31012908581564408 0 -0.069852456288818351 0.31207980665071 0 -0.08834593029567378 0.29472120043351602 0 -0.068322770035098762 0.31198038943260148 0 -0.069852456288818351 0.31207980665071 0 -0.08834593029567378 0.29472120043351602 0 -0.072463929930227558 0.29930610977545041 0 -0.068322770035098762 0.31198038943260148 0 -0.072463929930227558 0.29930610977545041 0 -0.064179569528432873 0.29754197169583518 0 -0.063962500348327456 0.30379626580195229 0 -0.072463929930227558 0.29930610977545041 0 -0.063962500348327456 0.30379626580195229 0 -0.068322770035098762 0.31198038943260148 0 -0.068322770035098762 0.31198038943260148 0 -0.069852456288818351 0.31207980665071 0 -0.079344374197139078 0.28508182268507098 0 -0.070510141993048517 0.29225124769799787 0 -0.067485792004003509 0.28106498521306011 0 -0.079344374197139078 0.28508182268507098 0 -0.077617967212061698 0.29366907382828078 0 -0.070510141993048517 0.29225124769799787 0 -0.072463929930227558 0.29930610977545041 0 -0.077617967212061698 0.29366907382828078 0 -0.070510141993048517 0.29225124769799787 0 -0.064179569528432873 0.29754197169583518 0 -0.070510141993048517 0.29225124769799787 0 -0.059799020663136082 0.29068729405280619 0 -0.072463929930227558 0.29930610977545041 0 -0.064179569528432873 0.29754197169583518 0 -0.070510141993048517 0.29225124769799787 0 -0.070510141993048517 0.29225124769799787 0 -0.067485792004003509 0.28106498521306011 0 -0.059799020663136082 0.29068729405280619 0 -0.079344374197139078 0.28508182268507098 0 -0.077112635008727601 0.26938653581869981 0 -0.067485792004003509 0.28106498521306011 0 -0.077112635008727601 0.26938653581869981 0 -0.067485792004003509 0.28106498521306011 0 -0.060296114269721542 0.26705395206363342 0 -0.079344374197139078 0.28508182268507098 0 -0.077112635008727601 0.26938653581869981 0 -0.09206590757372593 0.27740472432850488 0 -0.077112635008727601 0.26938653581869981 0 -0.09206590757372593 0.27740472432850488 0 -0.092391857727521592 0.25884509119311472 0 -0.092391857727521592 0.25884509119311472 0 -0.069221313838413207 0.24642852661517459 0 -0.077112635008727601 0.26938653581869981 0 -0.092391857727521592 0.25884509119311472 0 -0.069221313838413207 0.24642852661517459 0 -0.077112635008727601 0.26938653581869981 0 -0.060296114269721542 0.26705395206363342 0 -0.069221313838413207 0.24642852661517459 0 -0.048126263350958612 0.25465777805589501 0 -0.060296114269721542 0.26705395206363342 0 -0.069221313838413207 0.24642852661517459 0 -0.048126263350958612 0.25465777805589501 0 -0.060296114269721542 0.26705395206363342 0 -0.041784573477856593 0.2719242686623195 0 -0.055384127889045079 0.27986410773994991 0 -0.060296114269721542 0.26705395206363342 0 -0.041784573477856593 0.2719242686623195 0 -0.055384127889045079 0.27986410773994991 0 -0.041784573477856593 0.2719242686623195 0 -0.044370237993260717 0.29032640624232281 0 -0.067485792004003509 0.28106498521306011 0 -0.055384127889045079 0.27986410773994991 0 -0.060296114269721542 0.26705395206363342 0 -0.041784573477856593 0.2719242686623195 0 -0.028053557715267439 0.25838243531431121 0 -0.02550209953536561 0.27186686885002359 0 -0.041784573477856593 0.2719242686623195 0 -0.02550209953536561 0.27186686885002359 0 -0.031040102747703489 0.28267752730564011 0 -0.048126263350958612 0.25465777805589501 0 -0.041784573477856593 0.2719242686623195 0 -0.028053557715267439 0.25838243531431121 0 -0.048126263350958612 0.25465777805589501 0 -0.028053557715267439 0.25838243531431121 0 -0.033382390283993792 0.24359412621706661 0 -0.028053557715267439 0.25838243531431121 0 -0.01504563196256534 0.26333196488375049 0 -0.01778818590069102 0.2421293126167848 0 -0.01504563196256534 0.26333196488375049 0 -0.01778818590069102 0.2421293126167848 0 -0.028053557715267439 0.25838243531431121 0 -0.02550209953536561 0.27186686885002359 0 -0.01504563196256534 0.26333196488375049 0 -0.028053557715267439 0.25838243531431121 0 -0.01504563196256534 0.26333196488375049 0 -0.02550209953536561 0.27186686885002359 0 -0.01214761008608776 0.28573653795517551 0 -0.031040102747703489 0.28267752730564011 0 -0.02550209953536561 0.27186686885002359 0 -0.01504563196256534 0.26333196488375049 0 -0.01214761008608776 0.28573653795517551 0 -0.001267499687089951 0.2776013217203892 0 -0.01504563196256534 0.26333196488375049 0 -0.01214761008608776 0.28573653795517551 0 -0.01504563196256534 0.26333196488375049 0 -0.01214761008608776 0.28573653795517551 0 -0.00067809962666212902 0.26216505597133072 0 -0.01504563196256534 0.26333196488375049 0 0.010965700908337589 0.27322930467739909 0 -0.001267499687089951 0.2776013217203892 0 -0.01504563196256534 0.26333196488375049 0 0.010965700908337589 0.27322930467739909 0 -0.01504563196256534 0.26333196488375049 0 0.010965700908337589 0.27322930467739909 0 -0.0087132352456033638 0.25173417187717928 0 -0.01504563196256534 0.26333196488375049 0 -0.01778818590069102 0.2421293126167848 0 -0.00067809962666212902 0.26216505597133072 0 -0.0087132352456033638 0.25173417187717928 0 0.0027594708259384838 0.25829047161104352 0 -0.00067809962666212902 0.26216505597133072 0 -0.0087132352456033638 0.25173417187717928 0 -0.01504563196256534 0.26333196488375049 0 -0.009249588209606344 0.30814111102660002 0 -0.01214761008608776 0.28573653795517551 0 0.0038021096493471361 0.29689124930627131 0 -0.009249588209606344 0.30814111102660002 0 -0.01214761008608776 0.28573653795517551 0 -0.01214761008608776 0.28573653795517551 0 0.002380999114604244 0.28599596302517022 0 0.0038021096493471361 0.29689124930627131 0 -0.001267499687089951 0.2776013217203892 0 -0.01214761008608776 0.28573653795517551 0 0.002380999114604244 0.28599596302517022 0 -0.009249588209606344 0.30814111102660002 0 -0.01214761008608776 0.28573653795517551 0 -0.02711874363180217 0.2953884665518679 0 -0.01214761008608776 0.28573653795517551 0 -0.031040102747703489 0.28267752730564011 0 -0.02711874363180217 0.2953884665518679 0 -0.009249588209606344 0.30814111102660002 0 -0.02711874363180217 0.2953884665518679 0 -0.038786179122352507 0.31006075022960111 0 -0.009249588209606344 0.30814111102660002 0 -0.038786179122352507 0.31006075022960111 0 -0.02711874363180217 0.2953884665518679 0 -0.038786179122352507 0.31006075022960111 0 -0.044370237993260717 0.29032640624232281 0 -0.038786179122352507 0.31006075022960111 0 -0.044370237993260717 0.29032640624232281 0 -0.054162254707424723 0.30166894115096898 0 -0.031040102747703489 0.28267752730564011 0 -0.02711874363180217 0.2953884665518679 0 -0.044370237993260717 0.29032640624232281 0 -0.041784573477856593 0.2719242686623195 0 -0.031040102747703489 0.28267752730564011 0 -0.044370237993260717 0.29032640624232281 0 -0.055384127889045079 0.27986410773994991 0 -0.044370237993260717 0.29032640624232281 0 -0.059799020663136082 0.29068729405280619 0 -0.044370237993260717 0.29032640624232281 0 -0.059799020663136082 0.29068729405280619 0 -0.054162254707424723 0.30166894115096898 0 -0.064179569528432873 0.29754197169583518 0 -0.059799020663136082 0.29068729405280619 0 -0.054162254707424723 0.30166894115096898 0 -0.067485792004003509 0.28106498521306011 0 -0.055384127889045079 0.27986410773994991 0 -0.059799020663136082 0.29068729405280619 0 -0.068322770035098762 0.31198038943260148 0 -0.038786179122352507 0.31006075022960111 0 -0.068322770035098762 0.31198038943260148 0 -0.038786179122352507 0.31006075022960111 0 -0.054162254707424723 0.30166894115096898 0 -0.064179569528432873 0.29754197169583518 0 -0.063962500348327456 0.30379626580195229 0 -0.054162254707424723 0.30166894115096898 0 -0.063962500348327456 0.30379626580195229 0 -0.068322770035098762 0.31198038943260148 0 -0.054162254707424723 0.30166894115096898 0 -0.068322770035098762 0.31198038943260148 0 -0.038786179122352507 0.31006075022960111 0 -0.053879496619987192 0.32442993198196868 0 -0.068322770035098762 0.31198038943260148 0 -0.053879496619987192 0.32442993198196868 0 -0.059045099567240703 0.33862263320968672 0 -0.059976501396798443 0.34640013057040159 0 -0.068046633572776155 0.34513696516333192 0 -0.053879496619987192 0.32442993198196868 0 -0.059045099567240703 0.33862263320968672 0 -0.06815446288386498 0.3263880450875648 0 -0.053879496619987192 0.32442993198196868 0 -0.059045099567240703 0.33862263320968672 0 -0.049717572699208172 0.33977374392884352 0 -0.053879496619987192 0.32442993198196868 0 -0.049717572699208172 0.33977374392884352 0 -0.039436223204876379 0.33687947453133682 0 -0.059045099567240703 0.33862263320968672 0 -0.049717572699208172 0.33977374392884352 0 -0.052933118771744558 0.34753778728834739 0 -0.049717572699208172 0.33977374392884352 0 -0.039436223204876379 0.33687947453133682 0 -0.045752302425533672 0.34929255203680049 0 -0.053879496619987192 0.32442993198196868 0 -0.039436223204876379 0.33687947453133682 0 -0.039359444206513459 0.32419621080282812 0 -0.053879496619987192 0.32442993198196868 0 -0.039436223204876379 0.33687947453133682 0 -0.039436223204876379 0.33687947453133682 0 -0.039359444206513459 0.32419621080282812 0 -0.02531264429424256 0.33765677836634578 0 -0.039436223204876379 0.33687947453133682 0 -0.02531264429424256 0.33765677836634578 0 -0.034795741464765127 0.3466441775467104 0 -0.038786179122352507 0.31006075022960111 0 -0.053879496619987192 0.32442993198196868 0 -0.039359444206513459 0.32419621080282812 0 -0.038786179122352507 0.31006075022960111 0 -0.039359444206513459 0.32419621080282812 0 -0.024068293084679539 0.32272721199300619 0 -0.009249588209606344 0.30814111102660002 0 -0.038786179122352507 0.31006075022960111 0 -0.024068293084679539 0.32272721199300619 0 -0.024068293084679539 0.32272721199300619 0 -0.02531264429424256 0.33765677836634578 0 -0.005758602284471958 0.33512988219008361 0 -0.039359444206513459 0.32419621080282812 0 -0.024068293084679539 0.32272721199300619 0 -0.02531264429424256 0.33765677836634578 0 -0.005758602284471958 0.33512988219008361 0 -0.0077202170519437719 0.34710906184019069 0 0.0082446038140756572 0.34376242611402219 0 -0.02531264429424256 0.33765677836634578 0 -0.005758602284471958 0.33512988219008361 0 -0.0077202170519437719 0.34710906184019069 0 -0.009249588209606344 0.30814111102660002 0 -0.005758602284471958 0.33512988219008361 0 0.0094307060340404689 0.32376070079746733 0 -0.009249588209606344 0.30814111102660002 0 -0.005758602284471958 0.33512988219008361 0 -0.009249588209606344 0.30814111102660002 0 -0.024068293084679539 0.32272721199300619 0 -0.005758602284471958 0.33512988219008361 0 -0.0045677851665312944 0.36532665559408428 0 -0.0087141207398781558 0.37710904293520409 0 0.0077169544749549623 0.36306791211952738 0 -0.0045677851665312944 0.36532665559408428 0 -0.019623601183504629 0.35541479533684739 0 -0.0087141207398781558 0.37710904293520409 0 -0.0087141207398781558 0.37710904293520409 0 0.0077169544749549623 0.36306791211952738 0 -0.0077202170519437719 0.34710906184019069 0 -0.019623601183504629 0.35541479533684739 0 0.0038095970876644218 0.35606187191015221 0 -0.019623601183504629 0.35541479533684739 0 0.0038095970876644218 0.35606187191015221 0 -0.0045677851665312944 0.36532665559408428 0 -0.019623601183504629 0.35541479533684739 0 0.0038095970876644218 0.35606187191015221 0 -0.02531264429424256 0.33765677836634578 0 -0.019623601183504629 0.35541479533684739 0 -0.034795741464765127 0.3466441775467104 0 -0.02531264429424256 0.33765677836634578 0 -0.0077202170519437719 0.34710906184019069 0 -0.019623601183504629 0.35541479533684739 0 -0.019623601183504629 0.35541479533684739 0 -0.034100997704691827 0.37295894625721099 0 -0.0087141207398781558 0.37710904293520409 0 -0.019623601183504629 0.35541479533684739 0 -0.034100997704691827 0.37295894625721099 0 -0.043056799454673583 0.35476771876354157 0 -0.034100997704691827 0.37295894625721099 0 -0.047131069669461997 0.36807368878450081 0 -0.054593457040109393 0.3822816536988497 0 -0.034100997704691827 0.37295894625721099 0 -0.043056799454673583 0.35476771876354157 0 -0.034100997704691827 0.37295894625721099 0 -0.043056799454673583 0.35476771876354157 0 -0.047131069669461997 0.36807368878450081 0 -0.019623601183504629 0.35541479533684739 0 -0.043056799454673583 0.35476771876354157 0 -0.019623601183504629 0.35541479533684739 0 -0.034795741464765127 0.3466441775467104 0 -0.043056799454673583 0.35476771876354157 0 -0.043056799454673583 0.35476771876354157 0 -0.045752302425533672 0.34929255203680049 0 -0.039436223204876379 0.33687947453133682 0 -0.034795741464765127 0.3466441775467104 0 -0.045752302425533672 0.34929255203680049 0 -0.034795741464765127 0.3466441775467104 0 -0.043056799454673583 0.35476771876354157 0 -0.045752302425533672 0.34929255203680049 0 -0.043056799454673583 0.35476771876354157 0 -0.052933118771744558 0.34753778728834739 0 -0.059881153675432383 0.35430313662024071 0 -0.043056799454673583 0.35476771876354157 0 -0.059881153675432383 0.35430313662024071 0 -0.051828064233363932 0.36038047858465339 0 -0.043056799454673583 0.35476771876354157 0 -0.059881153675432383 0.35430313662024071 0 -0.043056799454673583 0.35476771876354157 0 -0.045752302425533672 0.34929255203680049 0 -0.052933118771744558 0.34753778728834739 0 -0.049717572699208172 0.33977374392884352 0 -0.045752302425533672 0.34929255203680049 0 -0.052933118771744558 0.34753778728834739 0 -0.059881153675432383 0.35430313662024071 0 -0.051828064233363932 0.36038047858465339 0 -0.058626870601395778 0.36023180910453118 0 -0.059045099567240703 0.33862263320968672 0 -0.052933118771744558 0.34753778728834739 0 -0.059976501396798443 0.34640013057040159 0 -0.052933118771744558 0.34753778728834739 0 -0.059881153675432383 0.35430313662024071 0 -0.059976501396798443 0.34640013057040159 0 -0.047131069669461997 0.36807368878450081 0 -0.054116187566776573 0.36544526432200969 0 -0.058148679921659119 0.37186744297544022 0 -0.047131069669461997 0.36807368878450081 0 -0.058148679921659119 0.37186744297544022 0 -0.054593457040109393 0.3822816536988497 0 -0.043056799454673583 0.35476771876354157 0 -0.047131069669461997 0.36807368878450081 0 -0.051828064233363932 0.36038047858465339 0 -0.047131069669461997 0.36807368878450081 0 -0.051828064233363932 0.36038047858465339 0 -0.054116187566776573 0.36544526432200969 0 -0.054116187566776573 0.36544526432200969 0 -0.058626870601395778 0.36023180910453118 0 -0.058148679921659119 0.37186744297544022 0 -0.051828064233363932 0.36038047858465339 0 -0.054116187566776573 0.36544526432200969 0 -0.058626870601395778 0.36023180910453118 0 -0.058626870601395778 0.36023180910453118 0 -0.058148679921659119 0.37186744297544022 0 -0.076275814730551866 0.38330479896731001 0 -0.058626870601395778 0.36023180910453118 0 -0.071157696118109362 0.36170448025062218 0 -0.076275814730551866 0.38330479896731001 0 -0.071157696118109362 0.36170448025062218 0 -0.084299133686975572 0.35684410208409001 0 -0.076275814730551866 0.38330479896731001 0 -0.058626870601395778 0.36023180910453118 0 -0.076275814730551866 0.38330479896731001 0 -0.084299133686975572 0.35684410208409001 0 -0.089436666146690338 0.3774527594588406 0 -0.076275814730551866 0.38330479896731001 0 -0.084299133686975572 0.35684410208409001 0 -0.076275814730551866 0.38330479896731001 0 -0.093494049974744503 0.36523362229143391 0 -0.084299133686975572 0.35684410208409001 0 -0.089436666146690338 0.3774527594588406 0 -0.084299133686975572 0.35684410208409001 0 -0.076705507896191183 0.35383855447693902 0 -0.080753986599573127 0.33990497651870988 0 -0.084299133686975572 0.35684410208409001 0 -0.092322452643399749 0.33038340520087017 0 -0.095141502753968779 0.35097174187852381 0 -0.093494049974744503 0.36523362229143391 0 -0.084299133686975572 0.35684410208409001 0 -0.095141502753968779 0.35097174187852381 0 -0.059881153675432383 0.35430313662024071 0 -0.071157696118109362 0.36170448025062218 0 -0.076705507896191183 0.35383855447693902 0 -0.076705507896191183 0.35383855447693902 0 -0.068046633572776155 0.34513696516333192 0 -0.080753986599573127 0.33990497651870988 0 -0.059881153675432383 0.35430313662024071 0 -0.076705507896191183 0.35383855447693902 0 -0.068046633572776155 0.34513696516333192 0 -0.059881153675432383 0.35430313662024071 0 -0.076705507896191183 0.35383855447693902 0 -0.071157696118109362 0.36170448025062218 0 -0.084299133686975572 0.35684410208409001 0 -0.076705507896191183 0.35383855447693902 0 -0.059881153675432383 0.35430313662024071 0 -0.058626870601395778 0.36023180910453118 0 -0.071157696118109362 0.36170448025062218 0 -0.059881153675432383 0.35430313662024071 0 -0.059976501396798443 0.34640013057040159 0 -0.068046633572776155 0.34513696516333192 0 -0.06815446288386498 0.3263880450875648 0 -0.079151648495115301 0.32136139923810009 0 -0.080753986599573127 0.33990497651870988 0 -0.068046633572776155 0.34513696516333192 0 -0.06815446288386498 0.3263880450875648 0 -0.080753986599573127 0.33990497651870988 0 -0.059045099567240703 0.33862263320968672 0 -0.068046633572776155 0.34513696516333192 0 -0.06815446288386498 0.3263880450875648 0 -0.068322770035098762 0.31198038943260148 0 -0.069852456288818351 0.31207980665071 0 -0.06815446288386498 0.3263880450875648 0 -0.068322770035098762 0.31198038943260148 0 -0.053879496619987192 0.32442993198196868 0 -0.06815446288386498 0.3263880450875648 0 -0.08121949171140587 0.31012908581564408 0 -0.069852456288818351 0.31207980665071 0 -0.079151648495115301 0.32136139923810009 0 -0.069852456288818351 0.31207980665071 0 -0.06815446288386498 0.3263880450875648 0 -0.079151648495115301 0.32136139923810009 0 -0.087527931766016032 0.31235393694025021 0 -0.079151648495115301 0.32136139923810009 0 -0.092322452643399749 0.33038340520087017 0 -0.1003457715998239 0.30392270831765028 0 -0.087527931766016032 0.31235393694025021 0 -0.092322452643399749 0.33038340520087017 0 -0.087527931766016032 0.31235393694025021 0 -0.08121949171140587 0.31012908581564408 0 -0.079151648495115301 0.32136139923810009 0 -0.084299133686975572 0.35684410208409001 0 -0.092322452643399749 0.33038340520087017 0 -0.079151648495115301 0.32136139923810009 0 -0.092322452643399749 0.33038340520087017 0 -0.080753986599573127 0.33990497651870988 0 -0.084299133686975572 0.35684410208409001 0 -0.092322452643399749 0.33038340520087017 0 -0.080753986599573127 0.33990497651870988 0 -0.092322452643399749 0.33038340520087017 0 -0.10472406897533799 0.34168768652513631 0 -0.095141502753968779 0.35097174187852381 0 -0.092322452643399749 0.33038340520087017 0 -0.10472406897533799 0.34168768652513631 0 -0.1081804568928026 0.32074506353771021 0 -0.1003457715998239 0.30392270831765028 0 -0.092322452643399749 0.33038340520087017 0 -0.1003457715998239 0.30392270831765028 0 -0.092322452643399749 0.33038340520087017 0 -0.1081804568928026 0.32074506353771021 0 -0.1262409447270301 0.3211703831111522 0 -0.1173504618646501 0.30916380798395637 0 -0.1081804568928026 0.32074506353771021 0 -0.1262409447270301 0.3211703831111522 0 -0.1081804568928026 0.32074506353771021 0 -0.1175879007316586 0.33497855513245622 0 -0.13367478836053351 0.33932016938713638 0 -0.1175879007316586 0.33497855513245622 0 -0.1173066256070304 0.35104950557859033 0 -0.10472406897533799 0.34168768652513631 0 -0.1081804568928026 0.32074506353771021 0 -0.1175879007316586 0.33497855513245622 0 -0.10472406897533799 0.34168768652513631 0 -0.1175879007316586 0.33497855513245622 0 -0.1173066256070304 0.35104950557859033 0 -0.1173066256070304 0.35104950557859033 0 -0.1198206075896991 0.37069234566290138 0 -0.1030551893938276 0.35978992576853291 0 -0.1367685514822152 0.35851885971508118 0 -0.1173066256070304 0.35104950557859033 0 -0.1198206075896991 0.37069234566290138 0 -0.1198206075896991 0.37069234566290138 0 -0.1030551893938276 0.35978992576853291 0 -0.10026372758235801 0.37465761506622741 0 -0.093494049974744503 0.36523362229143391 0 -0.10026372758235801 0.37465761506622741 0 -0.089436666146690338 0.3774527594588406 0 -0.093494049974744503 0.36523362229143391 0 -0.1030551893938276 0.35978992576853291 0 -0.10026372758235801 0.37465761506622741 0 -0.10472406897533799 0.34168768652513631 0 -0.1030551893938276 0.35978992576853291 0 -0.095141502753968779 0.35097174187852381 0 -0.093494049974744503 0.36523362229143391 0 -0.1030551893938276 0.35978992576853291 0 -0.095141502753968779 0.35097174187852381 0 -0.10472406897533799 0.34168768652513631 0 -0.1173066256070304 0.35104950557859033 0 -0.1030551893938276 0.35978992576853291 0 -0.101128536279416 0.3977608810528192 0 -0.11378235269799521 0.38746486633725291 0 -0.11258596611237601 0.40408595479252452 0 -0.101128536279416 0.3977608810528192 0 -0.095244926421122186 0.38729621463576269 0 -0.11378235269799521 0.38746486633725291 0 -0.101128536279416 0.3977608810528192 0 -0.11258596611237601 0.40408595479252452 0 -0.097808874238227678 0.41145560844912898 0 -0.101128536279416 0.3977608810528192 0 -0.097808874238227678 0.41145560844912898 0 -0.087042344484389883 0.39738020370821953 0 -0.101128536279416 0.3977608810528192 0 -0.095244926421122186 0.38729621463576269 0 -0.087042344484389883 0.39738020370821953 0 -0.10026372758235801 0.37465761506622741 0 -0.095244926421122186 0.38729621463576269 0 -0.11378235269799521 0.38746486633725291 0 -0.10026372758235801 0.37465761506622741 0 -0.095244926421122186 0.38729621463576269 0 -0.089436666146690338 0.3774527594588406 0 -0.1198206075896991 0.37069234566290138 0 -0.10026372758235801 0.37465761506622741 0 -0.11378235269799521 0.38746486633725291 0 -0.12826940643264259 0.38638828685515292 0 -0.1198206075896991 0.37069234566290138 0 -0.11378235269799521 0.38746486633725291 0 -0.12644786621320531 0.40058001872868543 0 -0.12826940643264259 0.38638828685515292 0 -0.11378235269799521 0.38746486633725291 0 -0.12761284081938409 0.41418542740570108 0 -0.11378235269799521 0.38746486633725291 0 -0.12761284081938409 0.41418542740570108 0 -0.12644786621320531 0.40058001872868543 0 -0.11378235269799521 0.38746486633725291 0 -0.12761284081938409 0.41418542740570108 0 -0.11378235269799521 0.38746486633725291 0 -0.11258596611237601 0.40408595479252452 0 -0.12761284081938409 0.41418542740570108 0 -0.11258596611237601 0.40408595479252452 0 -0.097808874238227678 0.41145560844912898 0 -0.12761284081938409 0.41418542740570108 0 -0.1126245701039178 0.4308246085444013 0 -0.097808874238227678 0.41145560844912898 0 -0.12761284081938409 0.41418542740570108 0 -0.097808874238227678 0.41145560844912898 0 -0.12761284081938409 0.41418542740570108 0 -0.1126245701039178 0.4308246085444013 0 -0.1242648033483075 0.43981492828754482 0 -0.1126245701039178 0.4308246085444013 0 -0.096605527178418776 0.42311346390882398 0 -0.097170403390676049 0.43571281837191522 0 -0.1126245701039178 0.4308246085444013 0 -0.097170403390676049 0.43571281837191522 0 -0.10338783084247161 0.44098956532991213 0 -0.1126245701039178 0.4308246085444013 0 -0.097808874238227678 0.41145560844912898 0 -0.1126245701039178 0.4308246085444013 0 -0.096605527178418776 0.42311346390882398 0 -0.097808874238227678 0.41145560844912898 0 -0.096605527178418776 0.42311346390882398 0 -0.097808874238227678 0.41145560844912898 0 -0.090623427087895073 0.41079747558654428 0 -0.097808874238227678 0.41145560844912898 0 -0.090623427087895073 0.41079747558654428 0 -0.096605527178418776 0.42311346390882398 0 -0.090623427087895073 0.41079747558654428 0 -0.084800361071377284 0.4267768085921303 0 -0.090623427087895073 0.41079747558654428 0 -0.084347825254610875 0.40943513047528779 0 -0.084800361071377284 0.4267768085921303 0 -0.084800361071377284 0.4267768085921303 0 -0.074925168374781331 0.40278603401425761 0 -0.084347825254610875 0.40943513047528779 0 -0.084800361071377284 0.4267768085921303 0 -0.074925168374781331 0.40278603401425761 0 -0.097808874238227678 0.41145560844912898 0 -0.090623427087895073 0.41079747558654428 0 -0.087042344484389883 0.39738020370821953 0 -0.096605527178418776 0.42311346390882398 0 -0.097170403390676049 0.43571281837191522 0 -0.084800361071377284 0.4267768085921303 0 -0.084800361071377284 0.4267768085921303 0 -0.077689053426030094 0.43734830183904833 0 -0.073740177733494089 0.43015549729097768 0 -0.084800361071377284 0.4267768085921303 0 -0.077689053426030094 0.43734830183904833 0 -0.085627028266785254 0.44117175463919189 0 -0.077689053426030094 0.43734830183904833 0 -0.073740177733494089 0.43015549729097768 0 -0.069373851585076945 0.43677151010665521 0 -0.084800361071377284 0.4267768085921303 0 -0.073740177733494089 0.43015549729097768 0 -0.074963529381557356 0.42372471124402672 0 -0.084800361071377284 0.4267768085921303 0 -0.074963529381557356 0.42372471124402672 0 -0.074207610301873977 0.415826985147286 0 -0.073740177733494089 0.43015549729097768 0 -0.07134827269677288 0.42521816639912852 0 -0.067010261651664849 0.42692585223643509 0 -0.073740177733494089 0.43015549729097768 0 -0.074963529381557356 0.42372471124402672 0 -0.07134827269677288 0.42521816639912852 0 -0.074963529381557356 0.42372471124402672 0 -0.07134827269677288 0.42521816639912852 0 -0.069903249343569923 0.42035209495099629 0 -0.06803153127557314 0.42418340705062968 0 -0.063864341410284964 0.42423751461595932 0 -0.069903249343569923 0.42035209495099629 0 -0.07134827269677288 0.42521816639912852 0 -0.06803153127557314 0.42418340705062968 0 -0.067010261651664849 0.42692585223643509 0 -0.07134827269677288 0.42521816639912852 0 -0.06803153127557314 0.42418340705062968 0 -0.069903249343569923 0.42035209495099629 0 -0.06803153127557314 0.42418340705062968 0 -0.063864341410284964 0.42423751461595932 0 -0.067010261651664849 0.42692585223643509 0 -0.063864341410284964 0.42423751461595932 0 -0.067010261651664849 0.42692585223643509 0 -0.067010261651664849 0.42692585223643509 0 -0.06657591115514655 0.43192586875325267 0 -0.062357688865182517 0.42920641545622512 0 -0.063864341410284964 0.42423751461595932 0 -0.067010261651664849 0.42692585223643509 0 -0.062357688865182517 0.42920641545622512 0 -0.063864341410284964 0.42423751461595932 0 -0.062357688865182517 0.42920641545622512 0 -0.073740177733494089 0.43015549729097768 0 -0.067010261651664849 0.42692585223643509 0 -0.06657591115514655 0.43192586875325267 0 -0.073740177733494089 0.43015549729097768 0 -0.06657591115514655 0.43192586875325267 0 -0.069373851585076945 0.43677151010665521 0 -0.06657591115514655 0.43192586875325267 0 -0.062750456602468974 0.43554137489064498 0 -0.062357688865182517 0.42920641545622512 0 -0.06657591115514655 0.43192586875325267 0 -0.062750456602468974 0.43554137489064498 0 -0.069373851585076945 0.43677151010665521 0 -0.063864341410284964 0.42423751461595932 0 -0.069903249343569923 0.42035209495099629 0 -0.070070078070418332 0.40377115679163461 0 -0.074207610301873977 0.415826985147286 0 -0.069903249343569923 0.42035209495099629 0 -0.070070078070418332 0.40377115679163461 0 -0.063864341410284964 0.42423751461595932 0 -0.070070078070418332 0.40377115679163461 0 -0.058881304157308093 0.40804381518971672 0 -0.063864341410284964 0.42423751461595932 0 -0.070070078070418332 0.40377115679163461 0 -0.084800361071377284 0.4267768085921303 0 -0.074207610301873977 0.415826985147286 0 -0.074925168374781331 0.40278603401425761 0 -0.074207610301873977 0.415826985147286 0 -0.070070078070418332 0.40377115679163461 0 -0.074925168374781331 0.40278603401425761 0 -0.074963529381557356 0.42372471124402672 0 -0.074207610301873977 0.415826985147286 0 -0.069903249343569923 0.42035209495099629 0 -0.070070078070418332 0.40377115679163461 0 -0.064506344576777661 0.39145758865641178 0 -0.076275814730551866 0.38330479896731001 0 -0.070070078070418332 0.40377115679163461 0 -0.074925168374781331 0.40278603401425761 0 -0.076275814730551866 0.38330479896731001 0 -0.070070078070418332 0.40377115679163461 0 -0.076275814730551866 0.38330479896731001 0 -0.070070078070418332 0.40377115679163461 0 -0.064506344576777661 0.39145758865641178 0 -0.057086028466031037 0.39647274516785291 0 -0.074925168374781331 0.40278603401425761 0 -0.087042344484389883 0.39738020370821953 0 -0.076275814730551866 0.38330479896731001 0 -0.084347825254610875 0.40943513047528779 0 -0.074925168374781331 0.40278603401425761 0 -0.087042344484389883 0.39738020370821953 0 -0.097808874238227678 0.41145560844912898 0 -0.087042344484389883 0.39738020370821953 0 -0.090623427087895073 0.41079747558654428 0 -0.084347825254610875 0.40943513047528779 0 -0.087042344484389883 0.39738020370821953 0 -0.087042344484389883 0.39738020370821953 0 -0.089436666146690338 0.3774527594588406 0 -0.076275814730551866 0.38330479896731001 0 -0.095244926421122186 0.38729621463576269 0 -0.087042344484389883 0.39738020370821953 0 -0.089436666146690338 0.3774527594588406 0 -0.087042344484389883 0.39738020370821953 0 -0.076275814730551866 0.38330479896731001 0 -0.064506344576777661 0.39145758865641178 0 -0.076275814730551866 0.38330479896731001 0 -0.054593457040109393 0.3822816536988497 0 -0.058148679921659119 0.37186744297544022 0 -0.076275814730551866 0.38330479896731001 0 -0.054593457040109393 0.3822816536988497 0 -0.064506344576777661 0.39145758865641178 0 -0.054593457040109393 0.3822816536988497 0 -0.057086028466031037 0.39647274516785291 0 -0.054593457040109393 0.3822816536988497 0 -0.057086028466031037 0.39647274516785291 0 -0.042391572779214973 0.39096282696345341 0 -0.057086028466031037 0.39647274516785291 0 -0.042391572779214973 0.39096282696345341 0 -0.044504768682498037 0.40769384418342008 0 -0.070070078070418332 0.40377115679163461 0 -0.057086028466031037 0.39647274516785291 0 -0.058881304157308093 0.40804381518971672 0 -0.057086028466031037 0.39647274516785291 0 -0.044504768682498037 0.40769384418342008 0 -0.058881304157308093 0.40804381518971672 0 -0.02514519595471108 0.39115017375088101 0 -0.044504768682498037 0.40769384418342008 0 -0.042391572779214973 0.39096282696345341 0 -0.02514519595471108 0.39115017375088101 0 -0.044504768682498037 0.40769384418342008 0 -0.034100997704691827 0.37295894625721099 0 -0.054593457040109393 0.3822816536988497 0 -0.042391572779214973 0.39096282696345341 0 -0.034100997704691827 0.37295894625721099 0 -0.042391572779214973 0.39096282696345341 0 -0.02514519595471108 0.39115017375088101 0 -0.034100997704691827 0.37295894625721099 0 -0.02514519595471108 0.39115017375088101 0 -0.034100997704691827 0.37295894625721099 0 -0.02514519595471108 0.39115017375088101 0 -0.0087141207398781558 0.37710904293520409 0 -0.02514519595471108 0.39115017375088101 0 -0.0087141207398781558 0.37710904293520409 0 -0.02514519595471108 0.39115017375088101 0 -0.014810785045769751 0.41214166341376801 0 -0.02514519595471108 0.39115017375088101 0 -0.014810785045769751 0.41214166341376801 0 -0.044504768682498037 0.40769384418342008 0 -0.0068648610501423502 0.39382000907293813 0 -0.014810785045769751 0.41214166341376801 0 0.0046995574085186929 0.41194005205042061 0 -0.02514519595471108 0.39115017375088101 0 -0.0068648610501423502 0.39382000907293813 0 -0.014810785045769751 0.41214166341376801 0 -0.02514519595471108 0.39115017375088101 0 -0.0068648610501423502 0.39382000907293813 0 -0.0087141207398781558 0.37710904293520409 0 -0.0068648610501423502 0.39382000907293813 0 -0.0087141207398781558 0.37710904293520409 0 0.0053185270157129726 0.37689571945341471 0 -0.0044763741368290672 0.43313315307665529 0 -0.014810785045769751 0.41214166341376801 0 -0.0044763741368290672 0.43313315307665529 0 -0.014810785045769751 0.41214166341376801 0 -0.026116443713473419 0.4246575807879529 0 -0.0044763741368290672 0.43313315307665529 0 -0.014810785045769751 0.41214166341376801 0 0.0046995574085186929 0.41194005205042061 0 -0.014810785045769751 0.41214166341376801 0 -0.026116443713473419 0.4246575807879529 0 -0.044504768682498037 0.40769384418342008 0 -0.0044763741368290672 0.43313315307665529 0 -0.026116443713473419 0.4246575807879529 0 -0.02623027688729573 0.44118750916919391 0 -0.026116443713473419 0.4246575807879529 0 -0.040560013814974517 0.42913173409672722 0 -0.02623027688729573 0.44118750916919391 0 -0.040560013814974517 0.42913173409672722 0 -0.048293098329248912 0.43867666423002288 0 -0.039090066940739521 0.44352471403713711 0 -0.026116443713473419 0.4246575807879529 0 -0.040560013814974517 0.42913173409672722 0 -0.044504768682498037 0.40769384418342008 0 -0.040560013814974517 0.42913173409672722 0 -0.044504768682498037 0.40769384418342008 0 -0.051886787429848112 0.42350176277299723 0 -0.063864341410284964 0.42423751461595932 0 -0.044504768682498037 0.40769384418342008 0 -0.058881304157308093 0.40804381518971672 0 -0.063864341410284964 0.42423751461595932 0 -0.044504768682498037 0.40769384418342008 0 -0.051886787429848112 0.42350176277299723 0 -0.063864341410284964 0.42423751461595932 0 -0.044504768682498037 0.40769384418342008 0 -0.053936434918908913 0.43159717611494758 0 -0.057641003333182179 0.44086754716312743 0 -0.048293098329248912 0.43867666423002288 0 -0.040560013814974517 0.42913173409672722 0 -0.053936434918908913 0.43159717611494758 0 -0.048293098329248912 0.43867666423002288 0 -0.040560013814974517 0.42913173409672722 0 -0.053936434918908913 0.43159717611494758 0 -0.051886787429848112 0.42350176277299723 0 -0.053936434918908913 0.43159717611494758 0 -0.051886787429848112 0.42350176277299723 0 -0.062357688865182517 0.42920641545622512 0 -0.063864341410284964 0.42423751461595932 0 -0.051886787429848112 0.42350176277299723 0 -0.062357688865182517 0.42920641545622512 0 -0.062750456602468974 0.43554137489064498 0 -0.053936434918908913 0.43159717611494758 0 -0.062357688865182517 0.42920641545622512 0 -0.062750456602468974 0.43554137489064498 0 -0.053936434918908913 0.43159717611494758 0 -0.057641003333182179 0.44086754716312743 0 -0.062750456602468974 0.43554137489064498 0 -0.057641003333182179 0.44086754716312743 0 -0.065491549478626135 0.44200233464982802 0 -0.057641003333182179 0.44086754716312743 0 -0.062398417199954148 0.4499603094023914 0 -0.065491549478626135 0.44200233464982802 0 -0.057641003333182179 0.44086754716312743 0 -0.062398417199954148 0.4499603094023914 0 -0.050237972638439453 0.44826214973817502 0 -0.057641003333182179 0.44086754716312743 0 -0.050237972638439453 0.44826214973817502 0 -0.048293098329248912 0.43867666423002288 0 -0.062398417199954148 0.4499603094023914 0 -0.050230730183752688 0.46259696058471089 0 -0.064501224992871267 0.46542691543905351 0 -0.062398417199954148 0.4499603094023914 0 -0.050237972638439453 0.44826214973817502 0 -0.050230730183752688 0.46259696058471089 0 -0.050230730183752688 0.46259696058471089 0 -0.035748626011326709 0.45858167758110602 0 -0.046040344352481867 0.47841272498986082 0 -0.050237972638439453 0.44826214973817502 0 -0.050230730183752688 0.46259696058471089 0 -0.035748626011326709 0.45858167758110602 0 -0.035748626011326709 0.45858167758110602 0 -0.039090066940739521 0.44352471403713711 0 -0.02623027688729573 0.44118750916919391 0 -0.050237972638439453 0.44826214973817502 0 -0.048293098329248912 0.43867666423002288 0 -0.039090066940739521 0.44352471403713711 0 -0.050237972638439453 0.44826214973817502 0 -0.035748626011326709 0.45858167758110602 0 -0.039090066940739521 0.44352471403713711 0 -0.040560013814974517 0.42913173409672722 0 -0.039090066940739521 0.44352471403713711 0 -0.02623027688729573 0.44118750916919391 0 -0.035748626011326709 0.45858167758110602 0 -0.02623027688729573 0.44118750916919391 0 -0.01728298942402769 0.45556140426229003 0 -0.0044763741368290672 0.43313315307665529 0 -0.02623027688729573 0.44118750916919391 0 -0.01728298942402769 0.45556140426229003 0 -0.035748626011326709 0.45858167758110602 0 -0.01728298942402769 0.45556140426229003 0 -0.022784747477638551 0.4775754860453762 0 -0.01728298942402769 0.45556140426229003 0 -0.0062093312902834459 0.46527566221073008 0 0.006403582431216831 0.45126676372832991 0 -0.01728298942402769 0.45556140426229003 0 -0.0062093312902834459 0.46527566221073008 0 -0.022784747477638551 0.4775754860453762 0 -0.0044763741368290672 0.43313315307665529 0 -0.01728298942402769 0.45556140426229003 0 0.006403582431216831 0.45126676372832991 0 -0.0062093312902834459 0.46527566221073008 0 -0.022784747477638551 0.4775754860453762 0 0.0095498935665802413 0.47810272379952351 0 -0.022784747477638551 0.4775754860453762 0 -0.021427984417146221 0.5 0 0.0095498935665802413 0.47810272379952351 0 -0.021427984417146221 0.5 0 0.0095498935665802413 0.47810272379952351 0 0.0086042794582089632 0.5 0 -0.022784747477638551 0.4775754860453762 0 -0.021427984417146221 0.5 0 -0.046040344352481867 0.47841272498986082 0 -0.021427984417146221 0.5 0 -0.046040344352481867 0.47841272498986082 0 -0.051460248292501398 0.5 0 -0.035748626011326709 0.45858167758110602 0 -0.022784747477638551 0.4775754860453762 0 -0.046040344352481867 0.47841272498986082 0 -0.046040344352481867 0.47841272498986082 0 -0.067939054777113927 0.48291587414950521 0 -0.064501224992871267 0.46542691543905351 0 -0.050230730183752688 0.46259696058471089 0 -0.046040344352481867 0.47841272498986082 0 -0.064501224992871267 0.46542691543905351 0 -0.046040344352481867 0.47841272498986082 0 -0.051460248292501398 0.5 0 -0.067939054777113927 0.48291587414950521 0 -0.051460248292501398 0.5 0 -0.081492512167856565 0.50000000000000011 0 -0.067939054777113927 0.48291587414950521 0 -0.081492512167856565 0.50000000000000011 0 -0.085878896958769185 0.47675925450649242 0 -0.067939054777113927 0.48291587414950521 0 -0.081492512167856565 0.50000000000000011 0 -0.085878896958769185 0.47675925450649242 0 -0.099362977551805121 0.48745008538217821 0 -0.081492512167856565 0.50000000000000011 0 -0.085878896958769185 0.47675925450649242 0 -0.085878896958769185 0.47675925450649242 0 -0.075452149305044958 0.46933040044586682 0 -0.067939054777113927 0.48291587414950521 0 -0.075452149305044958 0.46933040044586682 0 -0.067939054777113927 0.48291587414950521 0 -0.064501224992871267 0.46542691543905351 0 -0.064501224992871267 0.46542691543905351 0 -0.075214053997903707 0.45912990264989012 0 -0.070315415620740368 0.45334812155980347 0 -0.062398417199954148 0.4499603094023914 0 -0.064501224992871267 0.46542691543905351 0 -0.070315415620740368 0.45334812155980347 0 -0.075214053997903707 0.45912990264989012 0 -0.070315415620740368 0.45334812155980347 0 -0.081419329692844739 0.44979703694502599 0 -0.075452149305044958 0.46933040044586682 0 -0.064501224992871267 0.46542691543905351 0 -0.075214053997903707 0.45912990264989012 0 -0.075452149305044958 0.46933040044586682 0 -0.075214053997903707 0.45912990264989012 0 -0.082509194984251868 0.46007906520350089 0 -0.069373851585076945 0.43677151010665521 0 -0.065491549478626135 0.44200233464982802 0 -0.073041418115067244 0.44511613748665291 0 -0.062750456602468974 0.43554137489064498 0 -0.069373851585076945 0.43677151010665521 0 -0.065491549478626135 0.44200233464982802 0 -0.062398417199954148 0.4499603094023914 0 -0.065491549478626135 0.44200233464982802 0 -0.073041418115067244 0.44511613748665291 0 -0.062398417199954148 0.4499603094023914 0 -0.070315415620740368 0.45334812155980347 0 -0.073041418115067244 0.44511613748665291 0 -0.070315415620740368 0.45334812155980347 0 -0.073041418115067244 0.44511613748665291 0 -0.081419329692844739 0.44979703694502599 0 -0.073041418115067244 0.44511613748665291 0 -0.07941018481149445 0.44345804230003222 0 -0.081419329692844739 0.44979703694502599 0 -0.077689053426030094 0.43734830183904833 0 -0.069373851585076945 0.43677151010665521 0 -0.073041418115067244 0.44511613748665291 0 -0.077689053426030094 0.43734830183904833 0 -0.073041418115067244 0.44511613748665291 0 -0.07941018481149445 0.44345804230003222 0 -0.097170403390676049 0.43571281837191522 0 -0.084800361071377284 0.4267768085921303 0 -0.094675553767973264 0.45076758317000298 0 -0.084800361071377284 0.4267768085921303 0 -0.094675553767973264 0.45076758317000298 0 -0.084800361071377284 0.4267768085921303 0 -0.085627028266785254 0.44117175463919189 0 -0.094675553767973264 0.45076758317000298 0 -0.085627028266785254 0.44117175463919189 0 -0.07941018481149445 0.44345804230003222 0 -0.081419329692844739 0.44979703694502599 0 -0.077689053426030094 0.43734830183904833 0 -0.085627028266785254 0.44117175463919189 0 -0.07941018481149445 0.44345804230003222 0 -0.085627028266785254 0.44117175463919189 0 -0.081419329692844739 0.44979703694502599 0 -0.088082484801868088 0.44854024150695748 0 -0.081419329692844739 0.44979703694502599 0 -0.086047819819581178 0.45134535453790131 0 -0.088082484801868088 0.44854024150695748 0 -0.085627028266785254 0.44117175463919189 0 -0.088082484801868088 0.44854024150695748 0 -0.094675553767973264 0.45076758317000298 0 -0.086047819819581178 0.45134535453790131 0 -0.088082484801868088 0.44854024150695748 0 -0.090265281749681819 0.45351850901298468 0 -0.088082484801868088 0.44854024150695748 0 -0.090265281749681819 0.45351850901298468 0 -0.094675553767973264 0.45076758317000298 0 -0.085878896958769185 0.47675925450649242 0 -0.075452149305044958 0.46933040044586682 0 -0.082509194984251868 0.46007906520350089 0 -0.085878896958769185 0.47675925450649242 0 -0.090265281749681819 0.45351850901298468 0 -0.085878896958769185 0.47675925450649242 0 -0.090265281749681819 0.45351850901298468 0 -0.093944937474792503 0.46462082789344678 0 -0.085878896958769185 0.47675925450649242 0 -0.082509194984251868 0.46007906520350089 0 -0.090265281749681819 0.45351850901298468 0 -0.081419329692844739 0.44979703694502599 0 -0.086047819819581178 0.45134535453790131 0 -0.082509194984251868 0.46007906520350089 0 -0.075214053997903707 0.45912990264989012 0 -0.081419329692844739 0.44979703694502599 0 -0.082509194984251868 0.46007906520350089 0 -0.090265281749681819 0.45351850901298468 0 -0.093944937474792503 0.46462082789344678 0 -0.094675553767973264 0.45076758317000298 0 -0.086047819819581178 0.45134535453790131 0 -0.082509194984251868 0.46007906520350089 0 -0.090265281749681819 0.45351850901298468 0 -0.093944937474792503 0.46462082789344678 0 -0.094675553767973264 0.45076758317000298 0 -0.1045507464645692 0.47475835774787573 0 -0.094675553767973264 0.45076758317000298 0 -0.1045507464645692 0.47475835774787573 0 -0.1087715055698807 0.4588247561088431 0 -0.094675553767973264 0.45076758317000298 0 -0.1045507464645692 0.47475835774787573 0 -0.1126245701039178 0.4308246085444013 0 -0.1090807961073193 0.44665325123332839 0 -0.10338783084247161 0.44098956532991213 0 -0.097170403390676049 0.43571281837191522 0 -0.094675553767973264 0.45076758317000298 0 -0.10338783084247161 0.44098956532991213 0 -0.1087715055698807 0.4588247561088431 0 -0.094675553767973264 0.45076758317000298 0 -0.1090807961073193 0.44665325123332839 0 -0.094675553767973264 0.45076758317000298 0 -0.1090807961073193 0.44665325123332839 0 -0.10338783084247161 0.44098956532991213 0 -0.1126245701039178 0.4308246085444013 0 -0.1090807961073193 0.44665325123332839 0 -0.1242648033483075 0.43981492828754482 0 -0.1090807961073193 0.44665325123332839 0 -0.1242648033483075 0.43981492828754482 0 -0.1204057133641486 0.45504160574272429 0 -0.1087715055698807 0.4588247561088431 0 -0.1176294132596279 0.46872710166108278 0 -0.1045507464645692 0.47475835774787573 0 -0.1087715055698807 0.4588247561088431 0 -0.1204057133641486 0.45504160574272429 0 -0.1176294132596279 0.46872710166108278 0 -0.1087715055698807 0.4588247561088431 0 -0.1090807961073193 0.44665325123332839 0 -0.1204057133641486 0.45504160574272429 0 -0.13097929143795109 0.46459511115351071 0 -0.1204057133641486 0.45504160574272429 0 -0.1176294132596279 0.46872710166108278 0 -0.12908554574303099 0.47755934496718438 0 -0.1176294132596279 0.46872710166108278 0 -0.1160402402672886 0.48503019582547341 0 -0.1176294132596279 0.46872710166108278 0 -0.1160402402672886 0.48503019582547341 0 -0.1045507464645692 0.47475835774787573 0 -0.13803845513632401 0.5 0 -0.1097654836520903 0.5 0 -0.1160402402672886 0.48503019582547341 0 -0.1097654836520903 0.5 0 -0.1160402402672886 0.48503019582547341 0 -0.099362977551805121 0.48745008538217821 0 -0.081492512167856565 0.50000000000000011 0 -0.1097654836520903 0.5 0 -0.099362977551805121 0.48745008538217821 0 -0.085878896958769185 0.47675925450649242 0 -0.093944937474792503 0.46462082789344678 0 -0.1045507464645692 0.47475835774787573 0 -0.085878896958769185 0.47675925450649242 0 -0.099362977551805121 0.48745008538217821 0 -0.1045507464645692 0.47475835774787573 0 -0.1160402402672886 0.48503019582547341 0 -0.099362977551805121 0.48745008538217821 0 -0.1045507464645692 0.47475835774787573 0 -0.15850742705232401 0.077073165420907211 0 -0.17832815471062741 0.080370175701138483 0 -0.15596223049933161 0.089669487892629185 0 -0.17128916945913089 0.092189477241546317 0 -0.17832815471062741 0.080370175701138483 0 -0.15596223049933161 0.089669487892629185 0 -0.17832815471062741 0.080370175701138483 0 -0.15596223049933161 0.089669487892629185 0 -0.15850742705232401 0.077073165420907211 0 -0.16907692184479731 0.071953328836937142 0 -0.17832815471062741 0.080370175701138483 0 -0.15850742705232401 0.077073165420907211 0 -0.15722519427174569 0.065058312825911402 0 -0.16907692184479731 0.071953328836937142 0 -0.16907692184479731 0.071953328836937142 0 -0.1809864334298861 0.069780609401686525 0 -0.17832815471062741 0.080370175701138483 0 -0.16907692184479731 0.071953328836937142 0 -0.1809864334298861 0.069780609401686525 0 -0.18167022033174851 0.056262687610226528 0 -0.1809864334298861 0.069780609401686525 0 -0.17832815471062741 0.080370175701138483 0 -0.20069407892192309 0.071070863509647808 0 -0.1809864334298861 0.069780609401686525 0 -0.18167022033174851 0.056262687610226528 0 -0.1876556690991136 0.063313821709693935 0 -0.17128916945913089 0.092189477241546317 0 -0.18444466814129201 0.081023499242751457 0 -0.17631468167186989 0.1066384650542631 0 -0.17128916945913089 0.092189477241546317 0 -0.18444466814129201 0.081023499242751457 0 -0.17832815471062741 0.080370175701138483 0 -0.18444466814129201 0.081023499242751457 0 -0.17631468167186989 0.1066384650542631 0 -0.19937405773042491 0.1071019237599893 0 -0.17631468167186989 0.1066384650542631 0 -0.16393492635195239 0.1245978723337525 0 -0.1795193575176991 0.1294692331289829 0 -0.17631468167186989 0.1066384650542631 0 -0.19937405773042491 0.1071019237599893 0 -0.1795193575176991 0.1294692331289829 0 -0.16393492635195239 0.1245978723337525 0 -0.16139611227253359 0.1032457583169494 0 -0.15311233888185891 0.1152965378839053 0 -0.17631468167186989 0.1066384650542631 0 -0.16393492635195239 0.1245978723337525 0 -0.16139611227253359 0.1032457583169494 0 -0.17128916945913089 0.092189477241546317 0 -0.17631468167186989 0.1066384650542631 0 -0.16139611227253359 0.1032457583169494 0 -0.17128916945913089 0.092189477241546317 0 -0.16139611227253359 0.1032457583169494 0 -0.15596223049933161 0.089669487892629185 0 -0.16139611227253359 0.1032457583169494 0 -0.13359630628803579 0.098968800084119873 0 -0.15596223049933161 0.089669487892629185 0 -0.16139611227253359 0.1032457583169494 0 -0.15311233888185891 0.1152965378839053 0 -0.13359630628803579 0.098968800084119873 0 -0.13359630628803579 0.098968800084119873 0 -0.15596223049933161 0.089669487892629185 0 -0.15311233888185891 0.1152965378839053 0 -0.13930859898956699 0.1145050369687237 0 -0.153752621985453 0.14073392350839439 0 -0.15311233888185891 0.1152965378839053 0 -0.13930859898956699 0.1145050369687237 0 -0.13359630628803579 0.098968800084119873 0 -0.13930859898956699 0.1145050369687237 0 -0.12607259725238279 0.11330641960449821 0 -0.12916618827146031 0.12390190950899049 0 -0.13930859898956699 0.1145050369687237 0 -0.12607259725238279 0.11330641960449821 0 -0.13359630628803579 0.098968800084119873 0 -0.13359630628803579 0.098968800084119873 0 -0.12697672020224329 0.087309090757334687 0 -0.14089006822782121 0.082531143958766096 0 -0.12697672020224329 0.087309090757334687 0 -0.14089006822782121 0.082531143958766096 0 -0.12697985749263241 0.07630636069427757 0 -0.15850742705232401 0.077073165420907211 0 -0.14089006822782121 0.082531143958766096 0 -0.15596223049933161 0.089669487892629185 0 -0.13359630628803579 0.098968800084119873 0 -0.14089006822782121 0.082531143958766096 0 -0.15596223049933161 0.089669487892629185 0 -0.15850742705232401 0.077073165420907211 0 -0.14089006822782121 0.082531143958766096 0 -0.14764327064684279 0.071644858797684771 0 -0.15722519427174569 0.065058312825911402 0 -0.14764327064684279 0.071644858797684771 0 -0.1471722955607111 0.059591957907519158 0 -0.15850742705232401 0.077073165420907211 0 -0.15722519427174569 0.065058312825911402 0 -0.14764327064684279 0.071644858797684771 0 -0.14089006822782121 0.082531143958766096 0 -0.14764327064684279 0.071644858797684771 0 -0.13666502121529681 0.069478967649866344 0 -0.14764327064684279 0.071644858797684771 0 -0.13666502121529681 0.069478967649866344 0 -0.1471722955607111 0.059591957907519158 0 -0.14089006822782121 0.082531143958766096 0 -0.13666502121529681 0.069478967649866344 0 -0.12697985749263241 0.07630636069427757 0 -0.13666502121529681 0.069478967649866344 0 -0.12697985749263241 0.07630636069427757 0 -0.12509646681095879 0.065597408261105467 0 -0.13666502121529681 0.069478967649866344 0 -0.12509646681095879 0.065597408261105467 0 -0.13233523162579211 0.057527865090889828 0 -0.13233523162579211 0.057527865090889828 0 -0.1197320338084647 0.057760070231756527 0 -0.1244920148619628 0.050381604022983993 0 -0.12509646681095879 0.065597408261105467 0 -0.13233523162579211 0.057527865090889828 0 -0.1197320338084647 0.057760070231756527 0 -0.13666502121529681 0.069478967649866344 0 -0.13233523162579211 0.057527865090889828 0 -0.1471722955607111 0.059591957907519158 0 -0.13233523162579211 0.057527865090889828 0 -0.131277092146349 0.043237905602295942 0 -0.1435202772377579 0.047601805401877667 0 -0.13233523162579211 0.057527865090889828 0 -0.131277092146349 0.043237905602295942 0 -0.1244920148619628 0.050381604022983993 0 -0.131277092146349 0.043237905602295942 0 -0.14194951185496399 0.035172378083737049 0 -0.12424451236807239 0.027069144312366941 0 -0.131277092146349 0.043237905602295942 0 -0.12424451236807239 0.027069144312366941 0 -0.12075472355362291 0.04122338309529356 0 -0.131277092146349 0.043237905602295942 0 -0.12075472355362291 0.04122338309529356 0 -0.1244920148619628 0.050381604022983993 0 -0.131277092146349 0.043237905602295942 0 -0.14194951185496399 0.035172378083737049 0 -0.1435202772377579 0.047601805401877667 0 -0.14194951185496399 0.035172378083737049 0 -0.15126073753592009 0.02487777788828089 0 -0.1637260562540532 0.045028253166508762 0 -0.14194951185496399 0.035172378083737049 0 -0.1435202772377579 0.047601805401877667 0 -0.1637260562540532 0.045028253166508762 0 -0.15722519427174569 0.065058312825911402 0 -0.1471722955607111 0.059591957907519158 0 -0.1637260562540532 0.045028253166508762 0 -0.1471722955607111 0.059591957907519158 0 -0.1435202772377579 0.047601805401877667 0 -0.1637260562540532 0.045028253166508762 0 -0.13233523162579211 0.057527865090889828 0 -0.1471722955607111 0.059591957907519158 0 -0.1435202772377579 0.047601805401877667 0 -0.1244522405185825 -0.00038769298458709092 0 -0.1310798501921922 0.016754836893075501 0 -0.12424451236807239 0.027069144312366941 0 -0.1244522405185825 -0.00038769298458709092 0 -0.13302987177733741 0.0072862060594841918 0 -0.1310798501921922 0.016754836893075501 0 -0.13796817939809339 -7.5853332940862265e-05 0 -0.13302987177733741 0.0072862060594841918 0 -0.13861921700048169 0.01285353366238922 0 -0.1244522405185825 -0.00038769298458709092 0 -0.13796817939809339 -7.5853332940862265e-05 0 -0.13302987177733741 0.0072862060594841918 0 -0.13302987177733741 0.0072862060594841918 0 -0.13861921700048169 0.01285353366238922 0 -0.1310798501921922 0.016754836893075501 0 -0.14194951185496399 0.035172378083737049 0 -0.1395360945068517 0.023372288850015029 0 -0.12424451236807239 0.027069144312366941 0 -0.13861921700048169 0.01285353366238922 0 -0.1395360945068517 0.023372288850015029 0 -0.1310798501921922 0.016754836893075501 0 -0.1395360945068517 0.023372288850015029 0 -0.1310798501921922 0.016754836893075501 0 -0.12424451236807239 0.027069144312366941 0 -0.14194951185496399 0.035172378083737049 0 -0.1395360945068517 0.023372288850015029 0 -0.15126073753592009 0.02487777788828089 0 -0.15126073753592009 0.02487777788828089 0 -0.15188271994169991 0.01786916074884114 0 -0.14657132146084931 0.01677767438903701 0 -0.15126073753592009 0.02487777788828089 0 -0.15837519066330749 0.018103177496080571 0 -0.1567842680697151 0.017821512483746641 0 -0.15126073753592009 0.02487777788828089 0 -0.15188271994169991 0.01786916074884114 0 -0.1567842680697151 0.017821512483746641 0 -0.1543123506052223 0.01567032783345056 0 -0.15188271994169991 0.01786916074884114 0 -0.1567842680697151 0.017821512483746641 0 -0.13861921700048169 0.01285353366238922 0 -0.1395360945068517 0.023372288850015029 0 -0.14657132146084931 0.01677767438903701 0 -0.1395360945068517 0.023372288850015029 0 -0.15126073753592009 0.02487777788828089 0 -0.14657132146084931 0.01677767438903701 0 -0.15381676672243971 -0.0048344028756085976 0 -0.13796817939809339 -7.5853332940862265e-05 0 -0.14598604308907309 0.0075397954886723484 0 -0.15381676672243971 -0.0048344028756085976 0 -0.15837519066330749 0.018103177496080571 0 -0.15381676672243971 -0.0048344028756085976 0 -0.15182406541376531 0.011854288846745499 0 -0.15837519066330749 0.018103177496080571 0 -0.15381676672243971 -0.0048344028756085976 0 -0.15182406541376531 0.011854288846745499 0 -0.14598604308907309 0.0075397954886723484 0 -0.13861921700048169 0.01285353366238922 0 -0.14657132146084931 0.01677767438903701 0 -0.14598604308907309 0.0075397954886723484 0 -0.14657132146084931 0.01677767438903701 0 -0.15182406541376531 0.011854288846745499 0 -0.14598604308907309 0.0075397954886723484 0 -0.15188271994169991 0.01786916074884114 0 -0.14657132146084931 0.01677767438903701 0 -0.15182406541376531 0.011854288846745499 0 -0.1543123506052223 0.01567032783345056 0 -0.15182406541376531 0.011854288846745499 0 -0.15837519066330749 0.018103177496080571 0 -0.1543123506052223 0.01567032783345056 0 -0.15188271994169991 0.01786916074884114 0 -0.15182406541376531 0.011854288846745499 0 -0.13796817939809339 -7.5853332940862265e-05 0 -0.13861921700048169 0.01285353366238922 0 -0.14598604308907309 0.0075397954886723484 0 -0.15381676672243971 -0.0048344028756085976 0 -0.16872927738725291 0.0066655648670224509 0 -0.15837519066330749 0.018103177496080571 0 -0.16872927738725291 0.0066655648670224509 0 -0.15837519066330749 0.018103177496080571 0 -0.17312315274812851 0.016956976572924821 0 -0.15837519066330749 0.018103177496080571 0 -0.17088268452158301 0.030303691123205939 0 -0.18416549926151529 0.022669224655560441 0 -0.15837519066330749 0.018103177496080571 0 -0.17088268452158301 0.030303691123205939 0 -0.1637260562540532 0.045028253166508762 0 -0.15126073753592009 0.02487777788828089 0 -0.15837519066330749 0.018103177496080571 0 -0.1637260562540532 0.045028253166508762 0 -0.15837519066330749 0.018103177496080571 0 -0.18416549926151529 0.022669224655560441 0 -0.1543123506052223 0.01567032783345056 0 -0.15837519066330749 0.018103177496080571 0 -0.1567842680697151 0.017821512483746641 0 -0.15837519066330749 0.018103177496080571 0 -0.1567842680697151 0.017821512483746641 0 -0.15837519066330749 0.018103177496080571 0 -0.18416549926151529 0.022669224655560441 0 -0.17312315274812851 0.016956976572924821 0 -0.17088268452158301 0.030303691123205939 0 -0.18416549926151529 0.022669224655560441 0 -0.1815242396402782 0.037713578252632912 0 -0.18416549926151529 0.022669224655560441 0 -0.17919408738426101 0.017592611389363012 0 -0.18518118592807509 0.0154377595936586 0 -0.18416549926151529 0.022669224655560441 0 -0.17312315274812851 0.016956976572924821 0 -0.17919408738426101 0.017592611389363012 0 -0.1785064095432054 -0.0066611219507198768 0 -0.16872927738725291 0.0066655648670224509 0 -0.193034969706537 0.00064734206737222756 0 -0.16872927738725291 0.0066655648670224509 0 -0.193034969706537 0.00064734206737222756 0 -0.16872927738725291 0.0066655648670224509 0 -0.18518118592807509 0.0154377595936586 0 -0.193034969706537 0.00064734206737222756 0 -0.16872927738725291 0.0066655648670224509 0 -0.17919408738426101 0.017592611389363012 0 -0.18518118592807509 0.0154377595936586 0 -0.16872927738725291 0.0066655648670224509 0 -0.17312315274812851 0.016956976572924821 0 -0.17919408738426101 0.017592611389363012 0 -0.16907692184479731 0.071953328836937142 0 -0.1637260562540532 0.045028253166508762 0 -0.18167022033174851 0.056262687610226528 0 -0.15722519427174569 0.065058312825911402 0 -0.16907692184479731 0.071953328836937142 0 -0.1637260562540532 0.045028253166508762 0 -0.16907692184479731 0.071953328836937142 0 -0.1637260562540532 0.045028253166508762 0 -0.15837519066330749 0.018103177496080571 0 -0.1637260562540532 0.045028253166508762 0 -0.17088268452158301 0.030303691123205939 0 -0.1637260562540532 0.045028253166508762 0 -0.1815242396402782 0.037713578252632912 0 -0.1815242396402782 0.037713578252632912 0 -0.18167022033174851 0.056262687610226528 0 -0.1948999673891425 0.045815662425189529 0 -0.1637260562540532 0.045028253166508762 0 -0.1815242396402782 0.037713578252632912 0 -0.18167022033174851 0.056262687610226528 0 -0.18416549926151529 0.022669224655560441 0 -0.1815242396402782 0.037713578252632912 0 -0.19539241544158811 0.034915353149486399 0 -0.19598386328254799 0.058823167906541372 0 -0.20873259774339259 0.055173182954087172 0 -0.20069407892192309 0.071070863509647808 0 -0.18167022033174851 0.056262687610226528 0 -0.19598386328254799 0.058823167906541372 0 -0.1876556690991136 0.063313821709693935 0 -0.19598386328254799 0.058823167906541372 0 -0.1948999673891425 0.045815662425189529 0 -0.20873259774339259 0.055173182954087172 0 -0.18167022033174851 0.056262687610226528 0 -0.19598386328254799 0.058823167906541372 0 -0.1948999673891425 0.045815662425189529 0 -0.1815242396402782 0.037713578252632912 0 -0.1948999673891425 0.045815662425189529 0 -0.19539241544158811 0.034915353149486399 0 -0.1948999673891425 0.045815662425189529 0 -0.19539241544158811 0.034915353149486399 0 -0.20641656305728129 0.041143028599009299 0 -0.20641656305728129 0.041143028599009299 0 -0.20995580785972329 0.027235271815039791 0 -0.22080882119384479 0.043900986742667819 0 -0.19539241544158811 0.034915353149486399 0 -0.20641656305728129 0.041143028599009299 0 -0.20995580785972329 0.027235271815039791 0 -0.20641656305728129 0.041143028599009299 0 -0.20873259774339259 0.055173182954087172 0 -0.22080882119384479 0.043900986742667819 0 -0.20873259774339259 0.055173182954087172 0 -0.2267202713125637 0.058975611642501508 0 -0.2176358721649875 0.072186860311035453 0 -0.1948999673891425 0.045815662425189529 0 -0.20641656305728129 0.041143028599009299 0 -0.20873259774339259 0.055173182954087172 0 -0.20993853639106591 -0.0035380738047605968 0 -0.2009137908539024 0.01431144198083124 0 -0.193034969706537 0.00064734206737222756 0 -0.18518118592807509 0.0154377595936586 0 -0.2009137908539024 0.01431144198083124 0 -0.193034969706537 0.00064734206737222756 0 -0.18518118592807509 0.0154377595936586 0 -0.193034969706537 0.00064734206737222756 0 -0.18416549926151529 0.022669224655560441 0 -0.20995580785972329 0.027235271815039791 0 -0.18416549926151529 0.022669224655560441 0 -0.18518118592807509 0.0154377595936586 0 -0.2009137908539024 0.01431144198083124 0 -0.18416549926151529 0.022669224655560441 0 -0.2009137908539024 0.01431144198083124 0 -0.20995580785972329 0.027235271815039791 0 -0.18416549926151529 0.022669224655560441 0 -0.19539241544158811 0.034915353149486399 0 -0.20995580785972329 0.027235271815039791 0 -0.2009137908539024 0.01431144198083124 0 -0.20995580785972329 0.027235271815039791 0 -0.21568563774484731 0.0082874278720449449 0 -0.20993853639106591 -0.0035380738047605968 0 -0.2009137908539024 0.01431144198083124 0 -0.21568563774484731 0.0082874278720449449 0 -0.22684210307559549 -0.0077234896768903086 0 -0.21568563774484731 0.0082874278720449449 0 -0.23077795054394901 0.01115198904600462 0 -0.22684210307559549 -0.0077234896768903086 0 -0.23077795054394901 0.01115198904600462 0 -0.20995580785972329 0.027235271815039791 0 -0.21568563774484731 0.0082874278720449449 0 -0.23077795054394901 0.01115198904600462 0 -0.20995580785972329 0.027235271815039791 0 -0.2357461164579312 0.03180131897451912 0 -0.20995580785972329 0.027235271815039791 0 -0.23077795054394901 0.01115198904600462 0 -0.2357461164579312 0.03180131897451912 0 -0.23077795054394901 0.01115198904600462 0 -0.24854849079604721 0.020569936005881421 0 -0.2357461164579312 0.03180131897451912 0 -0.26153642505613889 0.036367366133998442 0 -0.24854849079604721 0.020569936005881421 0 -0.2357461164579312 0.03180131897451912 0 -0.23077795054394901 0.01115198904600462 0 -0.24854849079604721 0.020569936005881421 0 -0.24598119983726671 0.0037338506766126851 0 -0.22684210307559549 -0.0077234896768903086 0 -0.23077795054394901 0.01115198904600462 0 -0.24598119983726671 0.0037338506766126851 0 -0.20873259774339259 0.055173182954087172 0 -0.2267202713125637 0.058975611642501508 0 -0.22080882119384479 0.043900986742667819 0 -0.2267202713125637 0.058975611642501508 0 -0.22080882119384479 0.043900986742667819 0 -0.239388393447095 0.04766651035075449 0 -0.22080882119384479 0.043900986742667819 0 -0.2357461164579312 0.03180131897451912 0 -0.239388393447095 0.04766651035075449 0 -0.20995580785972329 0.027235271815039791 0 -0.22080882119384479 0.043900986742667819 0 -0.2357461164579312 0.03180131897451912 0 -0.26153642505613889 0.036367366133998442 0 -0.2357461164579312 0.03180131897451912 0 -0.26153642505613889 0.036367366133998442 0 -0.2357461164579312 0.03180131897451912 0 -0.239388393447095 0.04766651035075449 0 -0.25116276906762952 0.054241108780248931 0 -0.239388393447095 0.04766651035075449 0 -0.24035595759446179 0.060712669830591162 0 -0.2267202713125637 0.058975611642501508 0 -0.239388393447095 0.04766651035075449 0 -0.24035595759446179 0.060712669830591162 0 -0.25116276906762952 0.054241108780248931 0 -0.24035595759446179 0.060712669830591162 0 -0.24829977196364941 0.065213336215906109 0 -0.2267202713125637 0.058975611642501508 0 -0.24035595759446179 0.060712669830591162 0 -0.23791909572611269 0.075142721002645518 0 -0.24035595759446179 0.060712669830591162 0 -0.24829977196364941 0.065213336215906109 0 -0.23791909572611269 0.075142721002645518 0 -0.25064083865024739 0.073628726666345984 0 -0.23791909572611269 0.075142721002645518 0 -0.24857020570659841 0.081659589420377987 0 -0.25064083865024739 0.073628726666345984 0 -0.24829977196364941 0.065213336215906109 0 -0.23791909572611269 0.075142721002645518 0 -0.23791909572611269 0.075142721002645518 0 -0.2427234934652894 0.090762762990284518 0 -0.22646138453880821 0.085461994072224837 0 -0.25413031243694739 0.089521027236778197 0 -0.2427234934652894 0.090762762990284518 0 -0.24857020570659841 0.081659589420377987 0 -0.23791909572611269 0.075142721002645518 0 -0.2427234934652894 0.090762762990284518 0 -0.24857020570659841 0.081659589420377987 0 -0.2267202713125637 0.058975611642501508 0 -0.23791909572611269 0.075142721002645518 0 -0.2176358721649875 0.072186860311035453 0 -0.23791909572611269 0.075142721002645518 0 -0.22646138453880821 0.085461994072224837 0 -0.2176358721649875 0.072186860311035453 0 -0.20873259774339259 0.055173182954087172 0 -0.2176358721649875 0.072186860311035453 0 -0.20069407892192309 0.071070863509647808 0 -0.2176358721649875 0.072186860311035453 0 -0.20525373999263671 0.08640341449760941 0 -0.20069407892192309 0.071070863509647808 0 -0.22646138453880821 0.085461994072224837 0 -0.2176358721649875 0.072186860311035453 0 -0.20525373999263671 0.08640341449760941 0 -0.22646138453880821 0.085461994072224837 0 -0.20525373999263671 0.08640341449760941 0 -0.2161514522581473 0.1006972439961434 0 -0.18444466814129201 0.081023499242751457 0 -0.20525373999263671 0.08640341449760941 0 -0.20069407892192309 0.071070863509647808 0 -0.18444466814129201 0.081023499242751457 0 -0.20525373999263671 0.08640341449760941 0 -0.19937405773042491 0.1071019237599893 0 -0.17832815471062741 0.080370175701138483 0 -0.20069407892192309 0.071070863509647808 0 -0.18444466814129201 0.081023499242751457 0 -0.17832815471062741 0.080370175701138483 0 -0.20069407892192309 0.071070863509647808 0 -0.1809864334298861 0.069780609401686525 0 -0.1876556690991136 0.063313821709693935 0 -0.20069407892192309 0.071070863509647808 0 -0.19598386328254799 0.058823167906541372 0 -0.1876556690991136 0.063313821709693935 0 -0.20069407892192309 0.071070863509647808 0 -0.19937405773042491 0.1071019237599893 0 -0.2161514522581473 0.1006972439961434 0 -0.21430344731955769 0.133180348277227 0 -0.19937405773042491 0.1071019237599893 0 -0.19727411993202021 0.1275714443648302 0 -0.1795193575176991 0.1294692331289829 0 -0.18444466814129201 0.081023499242751457 0 -0.19937405773042491 0.1071019237599893 0 -0.20525373999263671 0.08640341449760941 0 -0.19937405773042491 0.1071019237599893 0 -0.2161514522581473 0.1006972439961434 0 -0.19937405773042491 0.1071019237599893 0 -0.21430344731955769 0.133180348277227 0 -0.19937405773042491 0.1071019237599893 0 -0.19727411993202021 0.1275714443648302 0 -0.21430344731955769 0.133180348277227 0 -0.2161514522581473 0.1006972439961434 0 -0.23231730930006211 0.10853516007106349 0 -0.21430344731955769 0.133180348277227 0 -0.2427234934652894 0.090762762990284518 0 -0.22646138453880821 0.085461994072224837 0 -0.23231730930006211 0.10853516007106349 0 -0.22646138453880821 0.085461994072224837 0 -0.2161514522581473 0.1006972439961434 0 -0.23231730930006211 0.10853516007106349 0 -0.25610310449345419 0.1041046972302731 0 -0.2427234934652894 0.090762762990284518 0 -0.23231730930006211 0.10853516007106349 0 -0.25610310449345419 0.1041046972302731 0 -0.23231730930006211 0.10853516007106349 0 -0.2495823492922267 0.12121763785839371 0 -0.23231730930006211 0.10853516007106349 0 -0.2495823492922267 0.12121763785839371 0 -0.23849568892714909 0.13696143350773771 0 -0.23231730930006211 0.10853516007106349 0 -0.23849568892714909 0.13696143350773771 0 -0.25477231595188199 0.13792181725732239 0 -0.2495823492922267 0.12121763785839371 0 -0.23849568892714909 0.13696143350773771 0 -0.23231730930006211 0.10853516007106349 0 -0.23849568892714909 0.13696143350773771 0 -0.21430344731955769 0.133180348277227 0 -0.23849568892714909 0.13696143350773771 0 -0.22923283690869051 0.15925877279446471 0 -0.21430344731955769 0.133180348277227 0 -0.22923283690869051 0.15925877279446471 0 -0.21430344731955769 0.133180348277227 0 -0.2543915534089356 0.15018751405662761 0 -0.23849568892714909 0.13696143350773771 0 -0.24467406855423091 0.1653877069444131 0 -0.23849568892714909 0.13696143350773771 0 -0.24467406855423091 0.1653877069444131 0 -0.22923283690869051 0.15925877279446471 0 -0.2543915534089356 0.15018751405662761 0 -0.25477231595188199 0.13792181725732239 0 -0.23849568892714909 0.13696143350773771 0 -0.23849568892714909 0.13696143350773771 0 -0.24467406855423091 0.1653877069444131 0 -0.24467406855423091 0.1653877069444131 0 -0.2350219134637796 0.18103954803765679 0 -0.22379977898383499 0.16989282922580509 0 -0.24467406855423091 0.1653877069444131 0 -0.24947341468037071 0.1874691479585941 0 -0.2350219134637796 0.18103954803765679 0 -0.24467406855423091 0.1653877069444131 0 -0.24947341468037071 0.1874691479585941 0 -0.2350219134637796 0.18103954803765679 0 -0.22004124654446131 0.18611549732905991 0 -0.22379977898383499 0.16989282922580509 0 -0.24467406855423091 0.1653877069444131 0 -0.22379977898383499 0.16989282922580509 0 -0.22923283690869051 0.15925877279446471 0 -0.22379977898383499 0.16989282922580509 0 -0.22923283690869051 0.15925877279446471 0 -0.20989634202023699 0.1560844752241346 0 -0.24467406855423091 0.1653877069444131 0 -0.22379977898383499 0.16989282922580509 0 -0.22379977898383499 0.16989282922580509 0 -0.20292548941343971 0.17439795150720031 0 -0.20989634202023699 0.1560844752241346 0 -0.20292548941343971 0.17439795150720031 0 -0.20989634202023699 0.1560844752241346 0 -0.17833905569944569 0.15756593750779829 0 -0.22379977898383499 0.16989282922580509 0 -0.20292548941343971 0.17439795150720031 0 -0.22004124654446131 0.18611549732905991 0 -0.22379977898383499 0.16989282922580509 0 -0.20292548941343971 0.17439795150720031 0 -0.22004124654446131 0.18611549732905991 0 -0.20292548941343971 0.17439795150720031 0 -0.22004124654446131 0.18611549732905991 0 -0.20292548941343971 0.17439795150720031 0 -0.20568385543668641 0.19260324117033031 0 -0.20292548941343971 0.17439795150720031 0 -0.1757122088887666 0.1802711648698879 0 -0.20292548941343971 0.17439795150720031 0 -0.1897130520823497 0.19444680225630501 0 -0.1757122088887666 0.1802711648698879 0 -0.20292548941343971 0.17439795150720031 0 -0.20568385543668641 0.19260324117033031 0 -0.1897130520823497 0.19444680225630501 0 -0.20292548941343971 0.17439795150720031 0 -0.17833905569944569 0.15756593750779829 0 -0.19589961716039911 0.1405342722931214 0 -0.20989634202023699 0.1560844752241346 0 -0.17833905569944569 0.15756593750779829 0 -0.19727411993202021 0.1275714443648302 0 -0.19589961716039911 0.1405342722931214 0 -0.1795193575176991 0.1294692331289829 0 -0.19727411993202021 0.1275714443648302 0 -0.19589961716039911 0.1405342722931214 0 -0.21430344731955769 0.133180348277227 0 -0.22923283690869051 0.15925877279446471 0 -0.21430344731955769 0.133180348277227 0 -0.20989634202023699 0.1560844752241346 0 -0.19589961716039911 0.1405342722931214 0 -0.21430344731955769 0.133180348277227 0 -0.20989634202023699 0.1560844752241346 0 -0.23288038931281729 0.23888496135878451 0 -0.21994142138302111 0.22426230620998819 0 -0.21218175950055909 0.24952722652004439 0 -0.22667039518801041 0.25355429459537898 0 -0.23288038931281729 0.23888496135878451 0 -0.21218175950055909 0.24952722652004439 0 -0.2416444700809012 0.25186566196455601 0 -0.22667039518801041 0.25355429459537898 0 -0.23288038931281729 0.23888496135878451 0 -0.2416444700809012 0.25186566196455601 0 -0.23288038931281729 0.23888496135878451 0 -0.2470081454867771 0.2422065880623451 0 -0.25693865295534157 0.25278860643768353 0 -0.2416444700809012 0.25186566196455601 0 -0.2470081454867771 0.2422065880623451 0 -0.25109603964961891 0.234366577265785 0 -0.2470081454867771 0.2422065880623451 0 -0.24424918889796191 0.23342051569475999 0 -0.23288038931281729 0.23888496135878451 0 -0.2470081454867771 0.2422065880623451 0 -0.24424918889796191 0.23342051569475999 0 -0.23288038931281729 0.23888496135878451 0 -0.24424918889796191 0.23342051569475999 0 -0.2396805993576108 0.22455316273993289 0 -0.24424918889796191 0.23342051569475999 0 -0.249817319625419 0.2274340479663062 0 -0.2396805993576108 0.22455316273993289 0 -0.25109603964961891 0.234366577265785 0 -0.24424918889796191 0.23342051569475999 0 -0.249817319625419 0.2274340479663062 0 -0.249817319625419 0.2274340479663062 0 -0.24904636230289101 0.22050689045355901 0 -0.2396805993576108 0.22455316273993289 0 -0.24904636230289101 0.22050689045355901 0 -0.2396805993576108 0.22455316273993289 0 -0.24333230173327219 0.21221501244476959 0 -0.2396805993576108 0.22455316273993289 0 -0.21994142138302111 0.22426230620998819 0 -0.23304733008138001 0.21339205942673259 0 -0.23288038931281729 0.23888496135878451 0 -0.2396805993576108 0.22455316273993289 0 -0.21994142138302111 0.22426230620998819 0 -0.21994142138302111 0.22426230620998819 0 -0.22770108326548311 0.19899738589993199 0 -0.210353022999335 0.20567537760669019 0 -0.21994142138302111 0.22426230620998819 0 -0.23304733008138001 0.21339205942673259 0 -0.22770108326548311 0.19899738589993199 0 -0.21994142138302111 0.22426230620998819 0 -0.22770108326548311 0.19899738589993199 0 -0.23304733008138001 0.21339205942673259 0 -0.2346933251094325 0.20523388649383931 0 -0.22770108326548311 0.19899738589993199 0 -0.25427276080650663 0.20955058897277601 0 -0.23715700367548431 0.1978330431509176 0 -0.2396805993576108 0.22455316273993289 0 -0.23304733008138001 0.21339205942673259 0 -0.24333230173327219 0.21221501244476959 0 -0.25427276080650663 0.20955058897277601 0 -0.24333230173327219 0.21221501244476959 0 -0.23715700367548431 0.1978330431509176 0 -0.25561524088587501 0.21572724177218369 0 -0.24904636230289101 0.22050689045355901 0 -0.24333230173327219 0.21221501244476959 0 -0.24333230173327219 0.21221501244476959 0 -0.2346933251094325 0.20523388649383931 0 -0.23715700367548431 0.1978330431509176 0 -0.23304733008138001 0.21339205942673259 0 -0.24333230173327219 0.21221501244476959 0 -0.2346933251094325 0.20523388649383931 0 -0.25427276080650663 0.20955058897277601 0 -0.24947341468037071 0.1874691479585941 0 -0.23715700367548431 0.1978330431509176 0 -0.24947341468037071 0.1874691479585941 0 -0.2350219134637796 0.18103954803765679 0 -0.23715700367548431 0.1978330431509176 0 -0.22004124654446131 0.18611549732905991 0 -0.23715700367548431 0.1978330431509176 0 -0.22004124654446131 0.18611549732905991 0 -0.23715700367548431 0.1978330431509176 0 -0.22770108326548311 0.19899738589993199 0 -0.2350219134637796 0.18103954803765679 0 -0.22004124654446131 0.18611549732905991 0 -0.23715700367548431 0.1978330431509176 0 -0.2346933251094325 0.20523388649383931 0 -0.23715700367548431 0.1978330431509176 0 -0.22770108326548311 0.19899738589993199 0 -0.22004124654446131 0.18611549732905991 0 -0.22770108326548311 0.19899738589993199 0 -0.21594480206149139 0.19584787550150309 0 -0.22770108326548311 0.19899738589993199 0 -0.21594480206149139 0.19584787550150309 0 -0.210353022999335 0.20567537760669019 0 -0.22004124654446131 0.18611549732905991 0 -0.21594480206149139 0.19584787550150309 0 -0.20568385543668641 0.19260324117033031 0 -0.21594480206149139 0.19584787550150309 0 -0.20568385543668641 0.19260324117033031 0 -0.210353022999335 0.20567537760669019 0 -0.20568385543668641 0.19260324117033031 0 -0.19800517532583911 0.2033181044808495 0 -0.210353022999335 0.20567537760669019 0 -0.20568385543668641 0.19260324117033031 0 -0.1897130520823497 0.19444680225630501 0 -0.19800517532583911 0.2033181044808495 0 -0.1897130520823497 0.19444680225630501 0 -0.19800517532583911 0.2033181044808495 0 -0.1863200837324982 0.20555600776477401 0 -0.19800517532583911 0.2033181044808495 0 -0.19795586237832599 0.21830909360614789 0 -0.210353022999335 0.20567537760669019 0 -0.19800517532583911 0.2033181044808495 0 -0.19795586237832599 0.21830909360614789 0 -0.1863200837324982 0.20555600776477401 0 -0.19795586237832599 0.21830909360614789 0 -0.18240126852579899 0.21930684119835961 0 -0.1863200837324982 0.20555600776477401 0 -0.21994142138302111 0.22426230620998819 0 -0.19795586237832599 0.21830909360614789 0 -0.210353022999335 0.20567537760669019 0 -0.21994142138302111 0.22426230620998819 0 -0.19795586237832599 0.21830909360614789 0 -0.20314208847108339 0.23556135501649109 0 -0.19795586237832599 0.21830909360614789 0 -0.18651378479530609 0.23505073182760211 0 -0.18240126852579899 0.21930684119835961 0 -0.19795586237832599 0.21830909360614789 0 -0.20314208847108339 0.23556135501649109 0 -0.18651378479530609 0.23505073182760211 0 -0.1929026130837673 0.25762258695206858 0 -0.20314208847108339 0.23556135501649109 0 -0.18651378479530609 0.23505073182760211 0 -0.1929026130837673 0.25762258695206858 0 -0.20314208847108339 0.23556135501649109 0 -0.21218175950055909 0.24952722652004439 0 -0.21994142138302111 0.22426230620998819 0 -0.21218175950055909 0.24952722652004439 0 -0.21994142138302111 0.22426230620998819 0 -0.20314208847108339 0.23556135501649109 0 -0.21218175950055909 0.24952722652004439 0 -0.16582228118094081 0.26466105519565358 0 -0.18651378479530609 0.23505073182760211 0 -0.1608218935138386 0.23306973899941771 0 -0.16582228118094081 0.26466105519565358 0 -0.14534546737678511 0.25129379472131641 0 -0.1608218935138386 0.23306973899941771 0 -0.18651378479530609 0.23505073182760211 0 -0.1608218935138386 0.23306973899941771 0 -0.18651378479530609 0.23505073182760211 0 -0.18240126852579899 0.21930684119835961 0 -0.1608218935138386 0.23306973899941771 0 -0.1608218935138386 0.23306973899941771 0 -0.16716432822862029 0.21469463307327219 0 -0.14537567171977789 0.21373021027012479 0 -0.18240126852579899 0.21930684119835961 0 -0.1608218935138386 0.23306973899941771 0 -0.16716432822862029 0.21469463307327219 0 -0.16716432822862029 0.21469463307327219 0 -0.15728284033457929 0.19872471446884221 0 -0.14537567171977789 0.21373021027012479 0 -0.16716432822862029 0.21469463307327219 0 -0.1863200837324982 0.20555600776477401 0 -0.15728284033457929 0.19872471446884221 0 -0.18240126852579899 0.21930684119835961 0 -0.16716432822862029 0.21469463307327219 0 -0.1863200837324982 0.20555600776477401 0 -0.1863200837324982 0.20555600776477401 0 -0.1747365466553682 0.1940095109997643 0 -0.15728284033457929 0.19872471446884221 0 -0.1897130520823497 0.19444680225630501 0 -0.1863200837324982 0.20555600776477401 0 -0.1747365466553682 0.1940095109997643 0 -0.1897130520823497 0.19444680225630501 0 -0.1747365466553682 0.1940095109997643 0 -0.1757122088887666 0.1802711648698879 0 -0.1747365466553682 0.1940095109997643 0 -0.16534449221108169 0.19019064904669619 0 -0.1757122088887666 0.1802711648698879 0 -0.1863200837324982 0.20555600776477401 0 -0.15728284033457929 0.19872471446884221 0 -0.1747365466553682 0.1940095109997643 0 -0.16534449221108169 0.19019064904669619 0 -0.15728284033457929 0.19872471446884221 0 -0.16534449221108169 0.19019064904669619 0 -0.15728284033457929 0.19872471446884221 0 -0.15629575781976141 0.184461654133797 0 -0.15728284033457929 0.19872471446884221 0 -0.12824559693666041 0.19189342117291039 0 -0.15629575781976141 0.184461654133797 0 -0.15728284033457929 0.19872471446884221 0 -0.12824559693666041 0.19189342117291039 0 -0.14537567171977789 0.21373021027012479 0 -0.15728284033457929 0.19872471446884221 0 -0.12824559693666041 0.19189342117291039 0 -0.12824559693666041 0.19189342117291039 0 -0.14537567171977789 0.21373021027012479 0 -0.1242544958201173 0.21504107598638081 0 -0.1608218935138386 0.23306973899941771 0 -0.14537567171977789 0.21373021027012479 0 -0.13513000223237101 0.23108874617123329 0 -0.1608218935138386 0.23306973899941771 0 -0.13513000223237101 0.23108874617123329 0 -0.14537567171977789 0.21373021027012479 0 -0.13513000223237101 0.23108874617123329 0 -0.1242544958201173 0.21504107598638081 0 -0.14534546737678511 0.25129379472131641 0 -0.13513000223237101 0.23108874617123329 0 -0.12470300375741469 0.2457033751303839 0 -0.14534546737678511 0.25129379472131641 0 -0.1608218935138386 0.23306973899941771 0 -0.13513000223237101 0.23108874617123329 0 -0.17833905569944569 0.15756593750779829 0 -0.1561619761378806 0.16047685630827471 0 -0.153752621985453 0.14073392350839439 0 -0.1795193575176991 0.1294692331289829 0 -0.17833905569944569 0.15756593750779829 0 -0.153752621985453 0.14073392350839439 0 -0.17833905569944569 0.15756593750779829 0 -0.153752621985453 0.14073392350839439 0 -0.16393492635195239 0.1245978723337525 0 -0.15311233888185891 0.1152965378839053 0 -0.153752621985453 0.14073392350839439 0 -0.16393492635195239 0.1245978723337525 0 -0.1795193575176991 0.1294692331289829 0 -0.153752621985453 0.14073392350839439 0 -0.19589961716039911 0.1405342722931214 0 -0.1795193575176991 0.1294692331289829 0 -0.17833905569944569 0.15756593750779829 0 -0.20292548941343971 0.17439795150720031 0 -0.17833905569944569 0.15756593750779829 0 -0.1757122088887666 0.1802711648698879 0 -0.1897130520823497 0.19444680225630501 0 -0.1757122088887666 0.1802711648698879 0 -0.16534449221108169 0.19019064904669619 0 -0.1757122088887666 0.1802711648698879 0 -0.15629575781976141 0.184461654133797 0 -0.1757122088887666 0.1802711648698879 0 -0.15629575781976141 0.184461654133797 0 -0.1757122088887666 0.1802711648698879 0 -0.15629575781976141 0.184461654133797 0 -0.1561619761378806 0.16047685630827471 0 -0.17833905569944569 0.15756593750779829 0 -0.1757122088887666 0.1802711648698879 0 -0.1561619761378806 0.16047685630827471 0 -0.1757122088887666 0.1802711648698879 0 -0.1561619761378806 0.16047685630827471 0 -0.1561619761378806 0.16047685630827471 0 -0.14126926821389521 0.17232478353634881 0 -0.1371080151487378 0.15864895140394189 0 -0.15629575781976141 0.184461654133797 0 -0.1561619761378806 0.16047685630827471 0 -0.14126926821389521 0.17232478353634881 0 -0.12824559693666041 0.19189342117291039 0 -0.15629575781976141 0.184461654133797 0 -0.14126926821389521 0.17232478353634881 0 -0.12824559693666041 0.19189342117291039 0 -0.14126926821389521 0.17232478353634881 0 -0.1248941403316576 0.1686438139500778 0 -0.14126926821389521 0.17232478353634881 0 -0.1371080151487378 0.15864895140394189 0 -0.1248941403316576 0.1686438139500778 0 -0.1371080151487378 0.15864895140394189 0 -0.1239269324459726 0.1539154783358255 0 -0.1248941403316576 0.1686438139500778 0 -0.1371080151487378 0.15864895140394189 0 -0.13661174338699569 0.1406825477466605 0 -0.1239269324459726 0.1539154783358255 0 -0.1561619761378806 0.16047685630827471 0 -0.13661174338699569 0.1406825477466605 0 -0.1561619761378806 0.16047685630827471 0 -0.13661174338699569 0.1406825477466605 0 -0.153752621985453 0.14073392350839439 0 -0.1561619761378806 0.16047685630827471 0 -0.1371080151487378 0.15864895140394189 0 -0.13661174338699569 0.1406825477466605 0 -0.12916618827146031 0.12390190950899049 0 -0.153752621985453 0.14073392350839439 0 -0.13930859898956699 0.1145050369687237 0 -0.12916618827146031 0.12390190950899049 0 -0.153752621985453 0.14073392350839439 0 -0.13661174338699569 0.1406825477466605 0 -0.11706151063611089 0.1208882391850464 0 -0.12916618827146031 0.12390190950899049 0 -0.13661174338699569 0.1406825477466605 0 -0.11706151063611089 0.1208882391850464 0 -0.12916618827146031 0.12390190950899049 0 -0.13661174338699569 0.1406825477466605 0 -0.153752621985453 0.14073392350839439 0 -0.13661174338699569 0.1406825477466605 0 -0.11473911200363 0.13153944404780621 0 -0.1132109842275667 0.1430328284895945 0 -0.13661174338699569 0.1406825477466605 0 -0.11473911200363 0.13153944404780621 0 -0.11706151063611089 0.1208882391850464 0 -0.11473911200363 0.13153944404780621 0 -0.1039338124667491 0.13009472872812991 0 -0.1132109842275667 0.1430328284895945 0 -0.11473911200363 0.13153944404780621 0 -0.1039338124667491 0.13009472872812991 0 -0.10601879130899509 0.12208205668825579 0 -0.1039338124667491 0.13009472872812991 0 -0.093398168270057425 0.14218175111966569 0 -0.093946486761182085 0.1175508364221631 0 -0.1039338124667491 0.13009472872812991 0 -0.1132109842275667 0.1430328284895945 0 -0.093398168270057425 0.14218175111966569 0 -0.1078097791349048 0.15856925008885259 0 -0.089544080768145809 0.16137822361845131 0 -0.093398168270057425 0.14218175111966569 0 -0.1132109842275667 0.1430328284895945 0 -0.1078097791349048 0.15856925008885259 0 -0.093398168270057425 0.14218175111966569 0 -0.13661174338699569 0.1406825477466605 0 -0.1132109842275667 0.1430328284895945 0 -0.1239269324459726 0.1539154783358255 0 -0.1132109842275667 0.1430328284895945 0 -0.1239269324459726 0.1539154783358255 0 -0.1078097791349048 0.15856925008885259 0 -0.1248941403316576 0.1686438139500778 0 -0.099208353538741523 0.18506212787697859 0 -0.1078097791349048 0.15856925008885259 0 -0.1239269324459726 0.1539154783358255 0 -0.1248941403316576 0.1686438139500778 0 -0.1078097791349048 0.15856925008885259 0 -0.12824559693666041 0.19189342117291039 0 -0.1248941403316576 0.1686438139500778 0 -0.099208353538741523 0.18506212787697859 0 -0.099208353538741523 0.18506212787697859 0 -0.1078097791349048 0.15856925008885259 0 -0.089544080768145809 0.16137822361845131 0 -0.089544080768145809 0.16137822361845131 0 -0.070171110140822543 0.1782308345810468 0 -0.074669823138777097 0.15727584041375819 0 -0.099208353538741523 0.18506212787697859 0 -0.089544080768145809 0.16137822361845131 0 -0.070171110140822543 0.1782308345810468 0 -0.099208353538741523 0.18506212787697859 0 -0.070171110140822543 0.1782308345810468 0 -0.070171110140822543 0.1782308345810468 0 -0.074669823138777097 0.15727584041375819 0 -0.057722578482997257 0.16273086802879619 0 -0.074669823138777097 0.15727584041375819 0 -0.066369438716585821 0.14892706699039879 0 -0.057722578482997257 0.16273086802879619 0 -0.074669823138777097 0.15727584041375819 0 -0.066369438716585821 0.14892706699039879 0 -0.074733199104357148 0.14603812585323231 0 -0.074669823138777097 0.15727584041375819 0 -0.074733199104357148 0.14603812585323231 0 -0.082756465015383474 0.1492386270883771 0 -0.074733199104357148 0.14603812585323231 0 -0.067315024607703278 0.13662092079142449 0 -0.081437053795579945 0.1393191944367777 0 -0.066369438716585821 0.14892706699039879 0 -0.074733199104357148 0.14603812585323231 0 -0.067315024607703278 0.13662092079142449 0 -0.066369438716585821 0.14892706699039879 0 -0.067315024607703278 0.13662092079142449 0 -0.054361576129613079 0.15178129246158931 0 -0.067315024607703278 0.13662092079142449 0 -0.088852304720190942 0.12644129241805541 0 -0.067315024607703278 0.13662092079142449 0 -0.088852304720190942 0.12644129241805541 0 -0.075786521408142987 0.12443322189858901 0 -0.067315024607703278 0.13662092079142449 0 -0.062016764747578973 0.12884034001808189 0 -0.075786521408142987 0.12443322189858901 0 -0.088852304720190942 0.12644129241805541 0 -0.093398168270057425 0.14218175111966569 0 -0.093946486761182085 0.1175508364221631 0 -0.067315024607703278 0.13662092079142449 0 -0.081437053795579945 0.1393191944367777 0 -0.088852304720190942 0.12644129241805541 0 -0.093398168270057425 0.14218175111966569 0 -0.093946486761182085 0.1175508364221631 0 -0.081437053795579945 0.1393191944367777 0 -0.088852304720190942 0.12644129241805541 0 -0.093398168270057425 0.14218175111966569 0 -0.089544080768145809 0.16137822361845131 0 -0.093398168270057425 0.14218175111966569 0 -0.082756465015383474 0.1492386270883771 0 -0.089544080768145809 0.16137822361845131 0 -0.074669823138777097 0.15727584041375819 0 -0.082756465015383474 0.1492386270883771 0 -0.074733199104357148 0.14603812585323231 0 -0.081437053795579945 0.1393191944367777 0 -0.082756465015383474 0.1492386270883771 0 -0.081437053795579945 0.1393191944367777 0 -0.093398168270057425 0.14218175111966569 0 -0.082756465015383474 0.1492386270883771 0 -0.11076524853809321 0.25238606884059173 0 -0.1094381109509034 0.22910775334304889 0 -0.091345724210048884 0.23566487628332011 0 -0.11076524853809321 0.25238606884059173 0 -0.092391857727521592 0.25884509119311472 0 -0.091345724210048884 0.23566487628332011 0 -0.13513000223237101 0.23108874617123329 0 -0.12470300375741469 0.2457033751303839 0 -0.1094381109509034 0.22910775334304889 0 -0.11076524853809321 0.25238606884059173 0 -0.12470300375741469 0.2457033751303839 0 -0.1094381109509034 0.22910775334304889 0 -0.13513000223237101 0.23108874617123329 0 -0.1094381109509034 0.22910775334304889 0 -0.13513000223237101 0.23108874617123329 0 -0.1094381109509034 0.22910775334304889 0 -0.1242544958201173 0.21504107598638081 0 -0.1094381109509034 0.22910775334304889 0 -0.10308309726087379 0.20938524897458621 0 -0.091345724210048884 0.23566487628332011 0 -0.1094381109509034 0.22910775334304889 0 -0.10308309726087379 0.20938524897458621 0 -0.1242544958201173 0.21504107598638081 0 -0.12824559693666041 0.19189342117291039 0 -0.10308309726087379 0.20938524897458621 0 -0.1242544958201173 0.21504107598638081 0 -0.12824559693666041 0.19189342117291039 0 -0.099208353538741523 0.18506212787697859 0 -0.12824559693666041 0.19189342117291039 0 -0.099208353538741523 0.18506212787697859 0 -0.10308309726087379 0.20938524897458621 0 -0.099208353538741523 0.18506212787697859 0 -0.070171110140822543 0.1782308345810468 0 -0.078220861930521898 0.21057701145176541 0 -0.070171110140822543 0.1782308345810468 0 -0.078220861930521898 0.21057701145176541 0 -0.056949983849450658 0.19269083667038239 0 -0.099208353538741523 0.18506212787697859 0 -0.10308309726087379 0.20938524897458621 0 -0.078220861930521898 0.21057701145176541 0 -0.078220861930521898 0.21057701145176541 0 -0.056178602179823331 0.21732906463454121 0 -0.056949983849450658 0.19269083667038239 0 -0.10308309726087379 0.20938524897458621 0 -0.078220861930521898 0.21057701145176541 0 -0.091345724210048884 0.23566487628332011 0 -0.078220861930521898 0.21057701145176541 0 -0.069221313838413207 0.24642852661517459 0 -0.091345724210048884 0.23566487628332011 0 -0.078220861930521898 0.21057701145176541 0 -0.069221313838413207 0.24642852661517459 0 -0.056178602179823331 0.21732906463454121 0 -0.092391857727521592 0.25884509119311472 0 -0.069221313838413207 0.24642852661517459 0 -0.091345724210048884 0.23566487628332011 0 -0.033382390283993792 0.24359412621706661 0 -0.046050769949304807 0.23401196203723451 0 -0.025866468353912139 0.2289639569827632 0 -0.048126263350958612 0.25465777805589501 0 -0.033382390283993792 0.24359412621706661 0 -0.046050769949304807 0.23401196203723451 0 -0.048126263350958612 0.25465777805589501 0 -0.069221313838413207 0.24642852661517459 0 -0.046050769949304807 0.23401196203723451 0 -0.069221313838413207 0.24642852661517459 0 -0.046050769949304807 0.23401196203723451 0 -0.069221313838413207 0.24642852661517459 0 -0.046050769949304807 0.23401196203723451 0 -0.056178602179823331 0.21732906463454121 0 -0.046050769949304807 0.23401196203723451 0 -0.03692704292774221 0.2147422921961073 0 -0.025866468353912139 0.2289639569827632 0 -0.046050769949304807 0.23401196203723451 0 -0.03692704292774221 0.2147422921961073 0 -0.056178602179823331 0.21732906463454121 0 -0.03692704292774221 0.2147422921961073 0 -0.056178602179823331 0.21732906463454121 0 -0.044221089124866657 0.20193605474889509 0 -0.03692704292774221 0.2147422921961073 0 -0.044221089124866657 0.20193605474889509 0 -0.032331133115066808 0.19858524020914661 0 -0.056178602179823331 0.21732906463454121 0 -0.056949983849450658 0.19269083667038239 0 -0.044221089124866657 0.20193605474889509 0 -0.056949983849450658 0.19269083667038239 0 -0.040360849617421202 0.18777351164107661 0 -0.044221089124866657 0.20193605474889509 0 -0.040360849617421202 0.18777351164107661 0 -0.032331133115066808 0.19858524020914661 0 -0.026751027678188599 0.18229597604057349 0 -0.040360849617421202 0.18777351164107661 0 -0.044221089124866657 0.20193605474889509 0 -0.032331133115066808 0.19858524020914661 0 -0.016914194843479571 0.2076274745640635 0 -0.026751027678188599 0.18229597604057349 0 -0.032331133115066808 0.19858524020914661 0 -0.016914194843479571 0.2076274745640635 0 -0.026751027678188599 0.18229597604057349 0 -0.01405220631290922 0.19352016069679451 0 -0.016914194843479571 0.2076274745640635 0 -0.026751027678188599 0.18229597604057349 0 -0.01405220631290922 0.19352016069679451 0 -0.0012364494800765971 0.1960628175593882 0 -0.01891215499648707 0.1765136475382359 0 -0.01405220631290922 0.19352016069679451 0 -0.0012364494800765971 0.1960628175593882 0 -0.0064787008301582438 0.20475797647738719 0 -0.0012364494800765971 0.1960628175593882 0 -0.0064787008301582438 0.20475797647738719 0 0.003893562275735573 0.2064819102401671 0 -0.01405220631290922 0.19352016069679451 0 -0.0064787008301582438 0.20475797647738719 0 -0.016914194843479571 0.2076274745640635 0 -0.0045317147067566524 0.21522543551468479 0 -0.016914194843479571 0.2076274745640635 0 -0.0070773620087705444 0.23295897308755351 0 -0.0064787008301582438 0.20475797647738719 0 -0.0045317147067566524 0.21522543551468479 0 -0.016914194843479571 0.2076274745640635 0 -0.0064787008301582438 0.20475797647738719 0 -0.0045317147067566524 0.21522543551468479 0 0.003893562275735573 0.2064819102401671 0 -0.03692704292774221 0.2147422921961073 0 -0.016914194843479571 0.2076274745640635 0 -0.025866468353912139 0.2289639569827632 0 -0.03692704292774221 0.2147422921961073 0 -0.032331133115066808 0.19858524020914661 0 -0.016914194843479571 0.2076274745640635 0 -0.016914194843479571 0.2076274745640635 0 -0.025866468353912139 0.2289639569827632 0 -0.0070773620087705444 0.23295897308755351 0 -0.016914194843479571 0.2076274745640635 0 -0.0070773620087705444 0.23295897308755351 0 -0.0045317147067566524 0.21522543551468479 0 -0.0070773620087705444 0.23295897308755351 0 0.0038866256090455522 0.2239579318999283 0 -0.0070773620087705444 0.23295897308755351 0 0.001894876929373096 0.24743045501984201 0 0.0027594708259384838 0.25829047161104352 0 -0.0070773620087705444 0.23295897308755351 0 0.0027594708259384838 0.25829047161104352 0 -0.0087132352456033638 0.25173417187717928 0 -0.0070773620087705444 0.23295897308755351 0 -0.01778818590069102 0.2421293126167848 0 -0.0087132352456033638 0.25173417187717928 0 -0.0070773620087705444 0.23295897308755351 0 0.0027594708259384838 0.25829047161104352 0 -0.025866468353912139 0.2289639569827632 0 -0.0070773620087705444 0.23295897308755351 0 -0.01778818590069102 0.2421293126167848 0 -0.028053557715267439 0.25838243531431121 0 -0.033382390283993792 0.24359412621706661 0 -0.01778818590069102 0.2421293126167848 0 -0.033382390283993792 0.24359412621706661 0 -0.025866468353912139 0.2289639569827632 0 -0.01778818590069102 0.2421293126167848 0 -0.044416936009294992 0.14744373737619401 0 -0.030319635528424791 0.14770209815471691 0 -0.021396469969749188 0.1374028974533886 0 -0.044416936009294992 0.14744373737619401 0 -0.030319635528424791 0.14770209815471691 0 -0.027639103276038759 0.15537380566908321 0 -0.044416936009294992 0.14744373737619401 0 -0.038116788675066252 0.15302723042411279 0 -0.027639103276038759 0.15537380566908321 0 -0.044416936009294992 0.14744373737619401 0 -0.041458398192443832 0.13942314763129199 0 -0.021396469969749188 0.1374028974533886 0 -0.044416936009294992 0.14744373737619401 0 -0.027639103276038759 0.15537380566908321 0 -0.044416936009294992 0.14744373737619401 0 -0.021396469969749188 0.1374028974533886 0 -0.044416936009294992 0.14744373737619401 0 -0.036587860512897558 0.15696447751708351 0 -0.044416936009294992 0.14744373737619401 0 -0.047012455662473793 0.15786975055381819 0 -0.036587860512897558 0.15696447751708351 0 -0.044416936009294992 0.14744373737619401 0 -0.038116788675066252 0.15302723042411279 0 -0.036587860512897558 0.15696447751708351 0 -0.038116788675066252 0.15302723042411279 0 -0.036587860512897558 0.15696447751708351 0 -0.027639103276038759 0.15537380566908321 0 -0.038116788675066252 0.15302723042411279 0 -0.036587860512897558 0.15696447751708351 0 -0.037500573576258918 0.13069979942664511 0 -0.041458398192443832 0.13942314763129199 0 -0.021396469969749188 0.1374028974533886 0 -0.037500573576258918 0.13069979942664511 0 -0.028643554108799551 0.12806760582925611 0 -0.034668926388748328 0.1237436995229996 0 -0.037500573576258918 0.13069979942664511 0 -0.047589673205635397 0.1324549890601831 0 -0.046884900963607742 0.11986348336078891 0 -0.037500573576258918 0.13069979942664511 0 -0.041458398192443832 0.13942314763129199 0 -0.047589673205635397 0.1324549890601831 0 -0.044416936009294992 0.14744373737619401 0 -0.041458398192443832 0.13942314763129199 0 -0.047589673205635397 0.1324549890601831 0 -0.067315024607703278 0.13662092079142449 0 -0.044416936009294992 0.14744373737619401 0 -0.062016764747578973 0.12884034001808189 0 -0.044416936009294992 0.14744373737619401 0 -0.062016764747578973 0.12884034001808189 0 -0.044416936009294992 0.14744373737619401 0 -0.047589673205635397 0.1324549890601831 0 -0.062016764747578973 0.12884034001808189 0 -0.047589673205635397 0.1324549890601831 0 -0.062016764747578973 0.12884034001808189 0 -0.046884900963607742 0.11986348336078891 0 -0.067315024607703278 0.13662092079142449 0 -0.044416936009294992 0.14744373737619401 0 -0.054361576129613079 0.15178129246158931 0 -0.067315024607703278 0.13662092079142449 0 -0.044416936009294992 0.14744373737619401 0 -0.044416936009294992 0.14744373737619401 0 -0.054361576129613079 0.15178129246158931 0 -0.044416936009294992 0.14744373737619401 0 -0.054361576129613079 0.15178129246158931 0 -0.047012455662473793 0.15786975055381819 0 -0.066369438716585821 0.14892706699039879 0 -0.054361576129613079 0.15178129246158931 0 -0.057722578482997257 0.16273086802879619 0 -0.057722578482997257 0.16273086802879619 0 -0.050411583818504503 0.1777900037548745 0 -0.045636115300606919 0.16650756778262649 0 -0.054361576129613079 0.15178129246158931 0 -0.057722578482997257 0.16273086802879619 0 -0.047012455662473793 0.15786975055381819 0 -0.057722578482997257 0.16273086802879619 0 -0.047012455662473793 0.15786975055381819 0 -0.045636115300606919 0.16650756778262649 0 -0.070171110140822543 0.1782308345810468 0 -0.056949983849450658 0.19269083667038239 0 -0.050411583818504503 0.1777900037548745 0 -0.070171110140822543 0.1782308345810468 0 -0.057722578482997257 0.16273086802879619 0 -0.050411583818504503 0.1777900037548745 0 -0.056949983849450658 0.19269083667038239 0 -0.040360849617421202 0.18777351164107661 0 -0.050411583818504503 0.1777900037548745 0 -0.040360849617421202 0.18777351164107661 0 -0.050411583818504503 0.1777900037548745 0 -0.039949487385523758 0.17426630734724691 0 -0.050411583818504503 0.1777900037548745 0 -0.039949487385523758 0.17426630734724691 0 -0.045636115300606919 0.16650756778262649 0 -0.040360849617421202 0.18777351164107661 0 -0.039949487385523758 0.17426630734724691 0 -0.026751027678188599 0.18229597604057349 0 -0.039949487385523758 0.17426630734724691 0 -0.036587860512897558 0.15696447751708351 0 -0.026751027678188599 0.18229597604057349 0 -0.036587860512897558 0.15696447751708351 0 -0.026751027678188599 0.18229597604057349 0 -0.039949487385523758 0.17426630734724691 0 -0.045636115300606919 0.16650756778262649 0 -0.036587860512897558 0.15696447751708351 0 -0.047012455662473793 0.15786975055381819 0 -0.045636115300606919 0.16650756778262649 0 -0.036587860512897558 0.15696447751708351 0 -0.01891215499648707 0.1765136475382359 0 -0.010861270542782259 0.1633038739619718 0 -0.027639103276038759 0.15537380566908321 0 -0.010861270542782259 0.1633038739619718 0 -0.027639103276038759 0.15537380566908321 0 -0.036587860512897558 0.15696447751708351 0 -0.01891215499648707 0.1765136475382359 0 -0.036587860512897558 0.15696447751708351 0 -0.01891215499648707 0.1765136475382359 0 -0.027639103276038759 0.15537380566908321 0 -0.01405220631290922 0.19352016069679451 0 -0.01891215499648707 0.1765136475382359 0 -0.026751027678188599 0.18229597604057349 0 -0.036587860512897558 0.15696447751708351 0 -0.01891215499648707 0.1765136475382359 0 -0.026751027678188599 0.18229597604057349 0 -0.01891215499648707 0.1765136475382359 0 -0.010861270542782259 0.1633038739619718 0 0.00061104658230836653 0.17769045695541219 0 -0.0012364494800765971 0.1960628175593882 0 -0.01891215499648707 0.1765136475382359 0 0.00061104658230836653 0.17769045695541219 0 -0.0012364494800765971 0.1960628175593882 0 -0.01891215499648707 0.1765136475382359 0 -0.010861270542782259 0.1633038739619718 0 0.001788155555331062 0.1557637096651584 0 0.00061104658230836653 0.17769045695541219 0 -0.01542264584752753 0.14956457798035719 0 -0.015783289274076458 0.13495459563681389 0 0.001788155555331062 0.1557637096651584 0 -0.015783289274076458 0.13495459563681389 0 0.001788155555331062 0.1557637096651584 0 0.01185912902997375 0.14130758542593569 0 -0.010861270542782259 0.1633038739619718 0 -0.01542264584752753 0.14956457798035719 0 0.001788155555331062 0.1557637096651584 0 -0.015783289274076458 0.13495459563681389 0 0.001788155555331062 0.1557637096651584 0 -0.01542264584752753 0.14956457798035719 0 -0.023159931299824549 0.14839209377580129 0 -0.027639103276038759 0.15537380566908321 0 -0.010861270542782259 0.1633038739619718 0 -0.01542264584752753 0.14956457798035719 0 -0.027639103276038759 0.15537380566908321 0 -0.01542264584752753 0.14956457798035719 0 -0.023159931299824549 0.14839209377580129 0 -0.021396469969749188 0.1374028974533886 0 -0.01542264584752753 0.14956457798035719 0 -0.021396469969749188 0.1374028974533886 0 -0.015783289274076458 0.13495459563681389 0 -0.030319635528424791 0.14770209815471691 0 -0.021396469969749188 0.1374028974533886 0 -0.023159931299824549 0.14839209377580129 0 -0.030319635528424791 0.14770209815471691 0 -0.021396469969749188 0.1374028974533886 0 -0.023159931299824549 0.14839209377580129 0 -0.030319635528424791 0.14770209815471691 0 -0.027639103276038759 0.15537380566908321 0 -0.028643554108799551 0.12806760582925611 0 -0.017506847497941139 0.13291345901070739 0 -0.032144953111298558 0.1155781737325411 0 -0.037500573576258918 0.13069979942664511 0 -0.028643554108799551 0.12806760582925611 0 -0.021396469969749188 0.1374028974533886 0 -0.021396469969749188 0.1374028974533886 0 -0.015783289274076458 0.13495459563681389 0 -0.017506847497941139 0.13291345901070739 0 -0.021396469969749188 0.1374028974533886 0 -0.015783289274076458 0.13495459563681389 0 -0.021396469969749188 0.1374028974533886 0 -0.017506847497941139 0.13291345901070739 0 -0.015783289274076458 0.13495459563681389 0 -0.017506847497941139 0.13291345901070739 0 -0.028643554108799551 0.12806760582925611 0 -0.021396469969749188 0.1374028974533886 0 -0.017506847497941139 0.13291345901070739 0 -0.015783289274076458 0.13495459563681389 0 -0.017506847497941139 0.13291345901070739 0 -0.0052228475358298988 0.1187351519746004 0 -0.015783289274076458 0.13495459563681389 0 -0.0052228475358298988 0.1187351519746004 0 0.0081407562022233586 0.1245196413435004 0 -0.017506847497941139 0.13291345901070739 0 -0.0052228475358298988 0.1187351519746004 0 -0.015783289274076458 0.13495459563681389 0 0.0081407562022233586 0.1245196413435004 0 -0.0052228475358298988 0.1187351519746004 0 -0.0040597014752050652 0.1051126182356364 0 -0.02761291541641378 0.1090435214711212 0 -0.017506847497941139 0.13291345901070739 0 -0.0052228475358298988 0.1187351519746004 0 -0.019344259015361451 0.119617058157429 0 -0.0040597014752050652 0.1051126182356364 0 -0.01533391803445322 0.09737838425916874 0 0.0051087594610210148 0.080527692295617709 0 -0.0052228475358298988 0.1187351519746004 0 -0.0040597014752050652 0.1051126182356364 0 0.0092582498306486675 0.1020209346744549 0 -0.0040597014752050652 0.1051126182356364 0 -0.01533391803445322 0.09737838425916874 0 -0.02761291541641378 0.1090435214711212 0 -0.01533391803445322 0.09737838425916874 0 -0.027797722535604891 0.095528124355643507 0 -0.02761291541641378 0.1090435214711212 0 -0.0052228475358298988 0.1187351519746004 0 -0.02761291541641378 0.1090435214711212 0 -0.019344259015361451 0.119617058157429 0 -0.017506847497941139 0.13291345901070739 0 -0.019344259015361451 0.119617058157429 0 -0.032144953111298558 0.1155781737325411 0 -0.02761291541641378 0.1090435214711212 0 -0.019344259015361451 0.119617058157429 0 -0.032144953111298558 0.1155781737325411 0 -0.0052228475358298988 0.1187351519746004 0 -0.02761291541641378 0.1090435214711212 0 -0.017506847497941139 0.13291345901070739 0 -0.032144953111298558 0.1155781737325411 0 -0.0012292332505543029 0.06378464068123596 0 -0.011084303888442551 0.081696622097620714 0 -0.018620569400409771 0.06708533464306303 0 -0.0012292332505543029 0.06378464068123596 0 -0.011084303888442551 0.081696622097620714 0 0.0051087594610210148 0.080527692295617709 0 -0.01533391803445322 0.09737838425916874 0 -0.011084303888442551 0.081696622097620714 0 0.0051087594610210148 0.080527692295617709 0 -0.01533391803445322 0.09737838425916874 0 0.0051087594610210148 0.080527692295617709 0 -0.011084303888442551 0.081696622097620714 0 0.0051087594610210148 0.080527692295617709 0 -0.027797722535604891 0.095528124355643507 0 -0.011084303888442551 0.081696622097620714 0 -0.032921925083363349 0.0833654898886593 0 -0.01533391803445322 0.09737838425916874 0 -0.027797722535604891 0.095528124355643507 0 -0.011084303888442551 0.081696622097620714 0 -0.018620569400409771 0.06708533464306303 0 -0.031868141831282552 0.069818555696904067 0 -0.028283535649973771 0.053358049395037133 0 -0.018620569400409771 0.06708533464306303 0 -0.031868141831282552 0.069818555696904067 0 -0.032921925083363349 0.0833654898886593 0 -0.011084303888442551 0.081696622097620714 0 -0.018620569400409771 0.06708533464306303 0 -0.032921925083363349 0.0833654898886593 0 -0.046276495737503101 0.06795068115397529 0 -0.032921925083363349 0.0833654898886593 0 -0.055882409073029139 0.082732437330199013 0 -0.046276495737503101 0.06795068115397529 0 -0.031868141831282552 0.069818555696904067 0 -0.028283535649973771 0.053358049395037133 0 -0.046276495737503101 0.06795068115397529 0 -0.031868141831282552 0.069818555696904067 0 -0.032921925083363349 0.0833654898886593 0 -0.027797722535604891 0.095528124355643507 0 -0.032921925083363349 0.0833654898886593 0 -0.050002983296997462 0.099351890967641507 0 -0.032921925083363349 0.0833654898886593 0 -0.055882409073029139 0.082732437330199013 0 -0.050002983296997462 0.099351890967641507 0 -0.055882409073029139 0.082732437330199013 0 -0.050002983296997462 0.099351890967641507 0 -0.072393051177581158 0.089660260464161839 0 -0.046276495737503101 0.06795068115397529 0 -0.055882409073029139 0.082732437330199013 0 -0.062589921296568873 0.06642957971461419 0 -0.032144953111298558 0.1155781737325411 0 -0.050002983296997462 0.099351890967641507 0 -0.046884900963607742 0.11986348336078891 0 -0.037500573576258918 0.13069979942664511 0 -0.034668926388748328 0.1237436995229996 0 -0.046884900963607742 0.11986348336078891 0 -0.028643554108799551 0.12806760582925611 0 -0.034668926388748328 0.1237436995229996 0 -0.032144953111298558 0.1155781737325411 0 -0.034668926388748328 0.1237436995229996 0 -0.032144953111298558 0.1155781737325411 0 -0.046884900963607742 0.11986348336078891 0 -0.027797722535604891 0.095528124355643507 0 -0.02761291541641378 0.1090435214711212 0 -0.050002983296997462 0.099351890967641507 0 -0.02761291541641378 0.1090435214711212 0 -0.050002983296997462 0.099351890967641507 0 -0.02761291541641378 0.1090435214711212 0 -0.032144953111298558 0.1155781737325411 0 -0.050002983296997462 0.099351890967641507 0 -0.050002983296997462 0.099351890967641507 0 -0.072393051177581158 0.089660260464161839 0 -0.050002983296997462 0.099351890967641507 0 -0.062115440392200259 0.1100516779477724 0 -0.072393051177581158 0.089660260464161839 0 -0.062016764747578973 0.12884034001808189 0 -0.062115440392200259 0.1100516779477724 0 -0.046884900963607742 0.11986348336078891 0 -0.050002983296997462 0.099351890967641507 0 -0.062115440392200259 0.1100516779477724 0 -0.046884900963607742 0.11986348336078891 0 -0.062016764747578973 0.12884034001808189 0 -0.062115440392200259 0.1100516779477724 0 -0.07825578499994286 0.1108801308713713 0 -0.062016764747578973 0.12884034001808189 0 -0.07825578499994286 0.1108801308713713 0 -0.062016764747578973 0.12884034001808189 0 -0.075786521408142987 0.12443322189858901 0 -0.07825578499994286 0.1108801308713713 0 -0.088852304720190942 0.12644129241805541 0 -0.075786521408142987 0.12443322189858901 0 -0.083719546898917335 0.119699814685821 0 -0.083719546898917335 0.119699814685821 0 -0.07825578499994286 0.1108801308713713 0 -0.093946486761182085 0.1175508364221631 0 -0.075786521408142987 0.12443322189858901 0 -0.083719546898917335 0.119699814685821 0 -0.07825578499994286 0.1108801308713713 0 -0.088852304720190942 0.12644129241805541 0 -0.083719546898917335 0.119699814685821 0 -0.093946486761182085 0.1175508364221631 0 -0.07825578499994286 0.1108801308713713 0 -0.072393051177581158 0.089660260464161839 0 -0.094494805252306774 0.092919921724660626 0 -0.07825578499994286 0.1108801308713713 0 -0.094494805252306774 0.092919921724660626 0 -0.093946486761182085 0.1175508364221631 0 -0.07825578499994286 0.1108801308713713 0 -0.094494805252306774 0.092919921724660626 0 -0.062115440392200259 0.1100516779477724 0 -0.07825578499994286 0.1108801308713713 0 -0.072393051177581158 0.089660260464161839 0 -0.055882409073029139 0.082732437330199013 0 -0.072393051177581158 0.089660260464161839 0 -0.062589921296568873 0.06642957971461419 0 -0.072393051177581158 0.089660260464161839 0 -0.062589921296568873 0.06642957971461419 0 -0.079461892795990779 0.070449194571112136 0 -0.062589921296568873 0.06642957971461419 0 -0.079461892795990779 0.070449194571112136 0 -0.072380178782229632 0.053292134703331731 0 -0.079461892795990779 0.070449194571112136 0 -0.094783119058163612 0.079968629960679383 0 -0.095163193665411511 0.062895368012773595 0 -0.072393051177581158 0.089660260464161839 0 -0.079461892795990779 0.070449194571112136 0 -0.094783119058163612 0.079968629960679383 0 -0.072393051177581158 0.089660260464161839 0 -0.094494805252306774 0.092919921724660626 0 -0.094783119058163612 0.079968629960679383 0 -0.072393051177581158 0.089660260464161839 0 -0.094783119058163612 0.079968629960679383 0 -0.094494805252306774 0.092919921724660626 0 -0.1072570836689255 0.074569224449017327 0 -0.1143352617609841 0.070976556735617355 0 -0.094494805252306774 0.092919921724660626 0 -0.094783119058163612 0.079968629960679383 0 -0.1072570836689255 0.074569224449017327 0 -0.094494805252306774 0.092919921724660626 0 -0.094783119058163612 0.079968629960679383 0 -0.094494805252306774 0.092919921724660626 0 -0.1143352617609841 0.070976556735617355 0 -0.11134444788944529 0.091345452974062963 0 -0.094494805252306774 0.092919921724660626 0 -0.1143352617609841 0.070976556735617355 0 -0.094783119058163612 0.079968629960679383 0 -0.095163193665411511 0.062895368012773595 0 -0.094783119058163612 0.079968629960679383 0 -0.095163193665411511 0.062895368012773595 0 -0.1072570836689255 0.074569224449017327 0 -0.095163193665411511 0.062895368012773595 0 -0.1143352617609841 0.070976556735617355 0 -0.1079186055395126 0.059947093390224047 0 -0.095163193665411511 0.062895368012773595 0 -0.1072570836689255 0.074569224449017327 0 -0.1143352617609841 0.070976556735617355 0 -0.095163193665411511 0.062895368012773595 0 -0.1143352617609841 0.070976556735617355 0 -0.094783119058163612 0.079968629960679383 0 -0.1072570836689255 0.074569224449017327 0 -0.1131683311422218 0.062814464837820119 0 -0.1163519950294771 0.068746068028026575 0 -0.1143352617609841 0.070976556735617355 0 -0.1131683311422218 0.062814464837820119 0 -0.1143352617609841 0.070976556735617355 0 -0.1079186055395126 0.059947093390224047 0 -0.1131683311422218 0.062814464837820119 0 -0.1163519950294771 0.068746068028026575 0 -0.1185872066977806 0.063729502839677182 0 -0.1163519950294771 0.068746068028026575 0 -0.1143352617609841 0.070976556735617355 0 -0.12697985749263241 0.07630636069427757 0 -0.1143352617609841 0.070976556735617355 0 -0.12697985749263241 0.07630636069427757 0 -0.1143352617609841 0.070976556735617355 0 -0.1200161930876608 0.081776906418299489 0 -0.12697985749263241 0.07630636069427757 0 -0.1163519950294771 0.068746068028026575 0 -0.1143352617609841 0.070976556735617355 0 -0.12697985749263241 0.07630636069427757 0 -0.12509646681095879 0.065597408261105467 0 -0.1163519950294771 0.068746068028026575 0 -0.12509646681095879 0.065597408261105467 0 -0.1163519950294771 0.068746068028026575 0 -0.1185872066977806 0.063729502839677182 0 -0.13359630628803579 0.098968800084119873 0 -0.12697672020224329 0.087309090757334687 0 -0.11134444788944529 0.091345452974062963 0 -0.1143352617609841 0.070976556735617355 0 -0.11134444788944529 0.091345452974062963 0 -0.1200161930876608 0.081776906418299489 0 -0.12697672020224329 0.087309090757334687 0 -0.11134444788944529 0.091345452974062963 0 -0.1200161930876608 0.081776906418299489 0 -0.12697672020224329 0.087309090757334687 0 -0.12697985749263241 0.07630636069427757 0 -0.1200161930876608 0.081776906418299489 0 -0.12607259725238279 0.11330641960449821 0 -0.13359630628803579 0.098968800084119873 0 -0.11123038207674001 0.1082681122756106 0 -0.13359630628803579 0.098968800084119873 0 -0.11134444788944529 0.091345452974062963 0 -0.11123038207674001 0.1082681122756106 0 -0.13359630628803579 0.098968800084119873 0 -0.11123038207674001 0.1082681122756106 0 -0.11134444788944529 0.091345452974062963 0 -0.11123038207674001 0.1082681122756106 0 -0.1057361510920251 0.099277959283072717 0 -0.12607259725238279 0.11330641960449821 0 -0.11123038207674001 0.1082681122756106 0 -0.11706151063611089 0.1208882391850464 0 -0.12607259725238279 0.11330641960449821 0 -0.12916618827146031 0.12390190950899049 0 -0.11706151063611089 0.1208882391850464 0 -0.11473911200363 0.13153944404780621 0 -0.11706151063611089 0.1208882391850464 0 -0.10601879130899509 0.12208205668825579 0 -0.1036345166478785 0.1154037657297244 0 -0.093946486761182085 0.1175508364221631 0 -0.097511277885226108 0.1010939306234323 0 -0.11123038207674001 0.1082681122756106 0 -0.11706151063611089 0.1208882391850464 0 -0.097511277885226108 0.1010939306234323 0 -0.11706151063611089 0.1208882391850464 0 -0.1036345166478785 0.1154037657297244 0 -0.097511277885226108 0.1010939306234323 0 -0.11706151063611089 0.1208882391850464 0 -0.097511277885226108 0.1010939306234323 0 -0.11706151063611089 0.1208882391850464 0 -0.1036345166478785 0.1154037657297244 0 -0.10601879130899509 0.12208205668825579 0 -0.1039338124667491 0.13009472872812991 0 -0.10601879130899509 0.12208205668825579 0 -0.093946486761182085 0.1175508364221631 0 -0.1036345166478785 0.1154037657297244 0 -0.10601879130899509 0.12208205668825579 0 -0.093946486761182085 0.1175508364221631 0 -0.094494805252306774 0.092919921724660626 0 -0.11134444788944529 0.091345452974062963 0 -0.1057361510920251 0.099277959283072717 0 -0.094494805252306774 0.092919921724660626 0 -0.093946486761182085 0.1175508364221631 0 -0.094494805252306774 0.092919921724660626 0 -0.093946486761182085 0.1175508364221631 0 -0.097511277885226108 0.1010939306234323 0 -0.094494805252306774 0.092919921724660626 0 -0.097511277885226108 0.1010939306234323 0 -0.1057361510920251 0.099277959283072717 0 -0.11123038207674001 0.1082681122756106 0 -0.097511277885226108 0.1010939306234323 0 -0.1057361510920251 0.099277959283072717 0 -0.1001339578063882 0.022436777626384768 0 -0.09536928659882779 0.01424719335382847 0 -0.1128440433065038 0.01636018592503535 0 -0.1001339578063882 0.022436777626384768 0 -0.1128440433065038 0.01636018592503535 0 -0.1012358460944251 0.033108064834657697 0 -0.1128440433065038 0.01636018592503535 0 -0.11393466639619521 0.035004472642448957 0 -0.1012358460944251 0.033108064834657697 0 -0.1128440433065038 0.01636018592503535 0 -0.1012358460944251 0.033108064834657697 0 -0.1001339578063882 0.022436777626384768 0 -0.1012358460944251 0.033108064834657697 0 -0.091086655225796079 0.026031666392017531 0 -0.1001339578063882 0.022436777626384768 0 -0.09536928659882779 0.01424719335382847 0 -0.091086655225796079 0.026031666392017531 0 -0.10394313851700079 0.0020556251079679459 0 -0.09536928659882779 0.01424719335382847 0 -0.085958893623968774 0.001514634656162053 0 -0.10394313851700079 0.0020556251079679459 0 -0.09536928659882779 0.01424719335382847 0 -0.1128440433065038 0.01636018592503535 0 -0.1244522405185825 -0.00038769298458709092 0 -0.12424451236807239 0.027069144312366941 0 -0.1244522405185825 -0.00038769298458709092 0 -0.1128440433065038 0.01636018592503535 0 -0.12424451236807239 0.027069144312366941 0 -0.1244522405185825 -0.00038769298458709092 0 -0.1128440433065038 0.01636018592503535 0 -0.1244522405185825 -0.00038769298458709092 0 -0.10394313851700079 0.0020556251079679459 0 -0.1128440433065038 0.01636018592503535 0 -0.1128440433065038 0.01636018592503535 0 -0.12424451236807239 0.027069144312366941 0 -0.11393466639619521 0.035004472642448957 0 -0.12424451236807239 0.027069144312366941 0 -0.12075472355362291 0.04122338309529356 0 -0.11393466639619521 0.035004472642448957 0 -0.12075472355362291 0.04122338309529356 0 -0.1244920148619628 0.050381604022983993 0 -0.1151670195775447 0.0482238646449 0 -0.11393466639619521 0.035004472642448957 0 -0.1151670195775447 0.0482238646449 0 -0.10635909785250069 0.04125385698526951 0 -0.12075472355362291 0.04122338309529356 0 -0.11393466639619521 0.035004472642448957 0 -0.1151670195775447 0.0482238646449 0 -0.12509646681095879 0.065597408261105467 0 -0.1185872066977806 0.063729502839677182 0 -0.1197320338084647 0.057760070231756527 0 -0.1197320338084647 0.057760070231756527 0 -0.1244920148619628 0.050381604022983993 0 -0.1151670195775447 0.0482238646449 0 -0.1151670195775447 0.0482238646449 0 -0.1125210466915524 0.054978807834542787 0 -0.1051700993263314 0.050476507920077678 0 -0.1197320338084647 0.057760070231756527 0 -0.1151670195775447 0.0482238646449 0 -0.1125210466915524 0.054978807834542787 0 -0.1131683311422218 0.062814464837820119 0 -0.1197320338084647 0.057760070231756527 0 -0.1125210466915524 0.054978807834542787 0 -0.1131683311422218 0.062814464837820119 0 -0.1125210466915524 0.054978807834542787 0 -0.1079186055395126 0.059947093390224047 0 -0.1131683311422218 0.062814464837820119 0 -0.1185872066977806 0.063729502839677182 0 -0.1197320338084647 0.057760070231756527 0 -0.095163193665411511 0.062895368012773595 0 -0.1051700993263314 0.050476507920077678 0 -0.095336714328198874 0.041619114628837717 0 -0.095163193665411511 0.062895368012773595 0 -0.095336714328198874 0.041619114628837717 0 -0.1125210466915524 0.054978807834542787 0 -0.1079186055395126 0.059947093390224047 0 -0.1051700993263314 0.050476507920077678 0 -0.095163193665411511 0.062895368012773595 0 -0.1079186055395126 0.059947093390224047 0 -0.1051700993263314 0.050476507920077678 0 -0.11393466639619521 0.035004472642448957 0 -0.10635909785250069 0.04125385698526951 0 -0.1012358460944251 0.033108064834657697 0 -0.1051700993263314 0.050476507920077678 0 -0.10635909785250069 0.04125385698526951 0 -0.095336714328198874 0.041619114628837717 0 -0.1151670195775447 0.0482238646449 0 -0.1051700993263314 0.050476507920077678 0 -0.10635909785250069 0.04125385698526951 0 -0.095336714328198874 0.041619114628837717 0 -0.1012358460944251 0.033108064834657697 0 -0.08853862327275358 0.036894035852943478 0 -0.10635909785250069 0.04125385698526951 0 -0.095336714328198874 0.041619114628837717 0 -0.1012358460944251 0.033108064834657697 0 -0.095336714328198874 0.041619114628837717 0 -0.1012358460944251 0.033108064834657697 0 -0.1012358460944251 0.033108064834657697 0 -0.08853862327275358 0.036894035852943478 0 -0.091086655225796079 0.026031666392017531 0 -0.08853862327275358 0.036894035852943478 0 -0.081088353484909961 0.032020518526829703 0 -0.091086655225796079 0.026031666392017531 0 -0.08853862327275358 0.036894035852943478 0 -0.079654612676290371 0.043453985766932421 0 -0.089627648882346422 0.049855943744280047 0 -0.095336714328198874 0.041619114628837717 0 -0.08853862327275358 0.036894035852943478 0 -0.089627648882346422 0.049855943744280047 0 -0.095336714328198874 0.041619114628837717 0 -0.089627648882346422 0.049855943744280047 0 -0.08853862327275358 0.036894035852943478 0 -0.079654612676290371 0.043453985766932421 0 -0.081088353484909961 0.032020518526829703 0 -0.095163193665411511 0.062895368012773595 0 -0.089627648882346422 0.049855943744280047 0 -0.072380178782229632 0.053292134703331731 0 -0.095163193665411511 0.062895368012773595 0 -0.095336714328198874 0.041619114628837717 0 -0.089627648882346422 0.049855943744280047 0 -0.095163193665411511 0.062895368012773595 0 -0.072380178782229632 0.053292134703331731 0 -0.079461892795990779 0.070449194571112136 0 -0.095163193665411511 0.062895368012773595 0 -0.072380178782229632 0.053292134703331731 0 -0.079654612676290371 0.043453985766932421 0 -0.089627648882346422 0.049855943744280047 0 -0.072380178782229632 0.053292134703331731 0 -0.079654612676290371 0.043453985766932421 0 -0.072380178782229632 0.053292134703331731 0 -0.065785112224924183 0.037111289768743512 0 -0.072380178782229632 0.053292134703331731 0 -0.065785112224924183 0.037111289768743512 0 -0.049597163899048183 0.043688901393888827 0 -0.079654612676290371 0.043453985766932421 0 -0.081088353484909961 0.032020518526829703 0 -0.065785112224924183 0.037111289768743512 0 -0.081088353484909961 0.032020518526829703 0 -0.065785112224924183 0.037111289768743512 0 -0.069646162847898541 0.026335067629459381 0 -0.069646162847898541 0.026335067629459381 0 -0.076118231742993758 0.01527396050979404 0 -0.05559295393876626 0.02093450171247024 0 -0.065785112224924183 0.037111289768743512 0 -0.069646162847898541 0.026335067629459381 0 -0.05559295393876626 0.02093450171247024 0 -0.081088353484909961 0.032020518526829703 0 -0.069646162847898541 0.026335067629459381 0 -0.076118231742993758 0.01527396050979404 0 -0.081088353484909961 0.032020518526829703 0 -0.091086655225796079 0.026031666392017531 0 -0.076118231742993758 0.01527396050979404 0 -0.09536928659882779 0.01424719335382847 0 -0.091086655225796079 0.026031666392017531 0 -0.076118231742993758 0.01527396050979404 0 -0.09536928659882779 0.01424719335382847 0 -0.085958893623968774 0.001514634656162053 0 -0.076118231742993758 0.01527396050979404 0 -0.076118231742993758 0.01527396050979404 0 -0.065648076432031049 0.00090955339710942099 0 -0.05559295393876626 0.02093450171247024 0 -0.085958893623968774 0.001514634656162053 0 -0.076118231742993758 0.01527396050979404 0 -0.065648076432031049 0.00090955339710942099 0 -0.045118160941850949 -0.00049033847668307538 0 -0.065648076432031049 0.00090955339710942099 0 -0.05559295393876626 0.02093450171247024 0 -0.05559295393876626 0.02093450171247024 0 -0.041197297059898302 0.028587588038626519 0 -0.049597163899048183 0.043688901393888827 0 -0.05559295393876626 0.02093450171247024 0 -0.032784921385912158 0.01564128096370114 0 -0.041197297059898302 0.028587588038626519 0 -0.032784921385912158 0.01564128096370114 0 -0.041197297059898302 0.028587588038626519 0 -0.02681414901586664 0.034085668084445887 0 -0.045118160941850949 -0.00049033847668307538 0 -0.05559295393876626 0.02093450171247024 0 -0.032784921385912158 0.01564128096370114 0 -0.045118160941850949 -0.00049033847668307538 0 -0.027025641752002061 -0.0079319500279313396 0 -0.032784921385912158 0.01564128096370114 0 -0.062589921296568873 0.06642957971461419 0 -0.072380178782229632 0.053292134703331731 0 -0.049597163899048183 0.043688901393888827 0 -0.046276495737503101 0.06795068115397529 0 -0.062589921296568873 0.06642957971461419 0 -0.049597163899048183 0.043688901393888827 0 -0.072380178782229632 0.053292134703331731 0 -0.049597163899048183 0.043688901393888827 0 -0.065785112224924183 0.037111289768743512 0 -0.05559295393876626 0.02093450171247024 0 -0.049597163899048183 0.043688901393888827 0 -0.049597163899048183 0.043688901393888827 0 -0.02681414901586664 0.034085668084445887 0 -0.041197297059898302 0.028587588038626519 0 -0.049597163899048183 0.043688901393888827 0 -0.02681414901586664 0.034085668084445887 0 -0.049597163899048183 0.043688901393888827 0 -0.028283535649973771 0.053358049395037133 0 -0.02681414901586664 0.034085668084445887 0 -0.046276495737503101 0.06795068115397529 0 -0.028283535649973771 0.053358049395037133 0 -0.046276495737503101 0.06795068115397529 0 -0.049597163899048183 0.043688901393888827 0 -0.028283535649973771 0.053358049395037133 0 -0.028283535649973771 0.053358049395037133 0 -0.010290575562444429 0.038765417636098962 0 -0.0097640400442320502 0.053032197103308337 0 -0.018620569400409771 0.06708533464306303 0 -0.028283535649973771 0.053358049395037133 0 -0.0097640400442320502 0.053032197103308337 0 -0.028283535649973771 0.053358049395037133 0 -0.010290575562444429 0.038765417636098962 0 -0.02681414901586664 0.034085668084445887 0 -0.010290575562444429 0.038765417636098962 0 -0.020835528804160591 0.022374223573919171 0 -0.028283535649973771 0.053358049395037133 0 -0.02681414901586664 0.034085668084445887 0 -0.010290575562444429 0.038765417636098962 0 -0.010290575562444429 0.038765417636098962 0 0.0077023845250848884 0.024172785877160811 0 -0.010290575562444429 0.038765417636098962 0 -0.0034349793211087142 0.044893397967285961 0 0.0047272217829380687 0.036246676438490527 0 -0.010290575562444429 0.038765417636098962 0 -0.0034349793211087142 0.044893397967285961 0 -0.0097640400442320502 0.053032197103308337 0 -0.0012292332505543029 0.06378464068123596 0 -0.018620569400409771 0.06708533464306303 0 -0.0097640400442320502 0.053032197103308337 0 -0.0034349793211087142 0.044893397967285961 0 -0.0097640400442320502 0.053032197103308337 0 0.0015874765393035599 0.051529300691246019 0 -0.0012292332505543029 0.06378464068123596 0 -0.0097640400442320502 0.053032197103308337 0 0.0015874765393035599 0.051529300691246019 0 -0.027025641752002061 -0.0079319500279313396 0 -0.032784921385912158 0.01564128096370114 0 -0.01566814095190756 0.010235570601176981 0 -0.032784921385912158 0.01564128096370114 0 -0.02681414901586664 0.034085668084445887 0 -0.020835528804160591 0.022374223573919171 0 -0.032784921385912158 0.01564128096370114 0 -0.01566814095190756 0.010235570601176981 0 -0.020835528804160591 0.022374223573919171 0 -0.010290575562444429 0.038765417636098962 0 -0.020835528804160591 0.022374223573919171 0 -0.0077262750329500059 0.02266504195052366 0 -0.01566814095190756 0.010235570601176981 0 -0.020835528804160591 0.022374223573919171 0 -0.0077262750329500059 0.02266504195052366 0 -0.010290575562444429 0.038765417636098962 0 -0.0077262750329500059 0.02266504195052366 0 0.0077023845250848884 0.024172785877160811 0 -0.0091716063734174208 -0.003332990253060792 0 -0.01566814095190756 0.010235570601176981 0 0.001118487675879971 0.0096665619175221752 0 -0.0091716063734174208 -0.003332990253060792 0 0.001118487675879971 0.0096665619175221752 0 0.006935528729737548 -0.0054826371559186567 0 -0.01566814095190756 0.010235570601176981 0 -0.0077262750329500059 0.02266504195052366 0 0.001118487675879971 0.0096665619175221752 0 0.001118487675879971 0.0096665619175221752 0 0.0077023845250848884 0.024172785877160811 0 0.025695344612614111 0.0095801541182225364 0 0.001118487675879971 0.0096665619175221752 0 0.025695344612614111 0.0095801541182225364 0 0.006935528729737548 -0.0054826371559186567 0 -0.0077262750329500059 0.02266504195052366 0 0.001118487675879971 0.0096665619175221752 0 0.0077023845250848884 0.024172785877160811 0 0.0077023845250848884 0.024172785877160811 0 0.024648998497944961 0.02642224341189468 0 0.015911730558903318 0.034762274935307848 0 0.024648998497944961 0.02642224341189468 0 0.025695344612614111 0.0095801541182225364 0 0.038363400138324961 0.019751697241263279 0 0.0077023845250848884 0.024172785877160811 0 0.024648998497944961 0.02642224341189468 0 0.025695344612614111 0.0095801541182225364 0 0.0077023845250848884 0.024172785877160811 0 0.025695344612614111 0.0095801541182225364 0 0.025695344612614111 0.0095801541182225364 0 0.006935528729737548 -0.0054826371559186567 0 0.01459521235494949 0.061710637509134872 0 0.0047272217829380687 0.036246676438490527 0 -0.0012292332505543029 0.06378464068123596 0 0.01459521235494949 0.061710637509134872 0 0.0015874765393035599 0.051529300691246019 0 0.01459521235494949 0.061710637509134872 0 0.0015874765393035599 0.051529300691246019 0 0.0047272217829380687 0.036246676438490527 0 0.01459521235494949 0.061710637509134872 0 0.0047272217829380687 0.036246676438490527 0 0.016570281580619739 0.045526930476817662 0 -0.010290575562444429 0.038765417636098962 0 0.0077023845250848884 0.024172785877160811 0 0.0047272217829380687 0.036246676438490527 0 -0.0034349793211087142 0.044893397967285961 0 0.0015874765393035599 0.051529300691246019 0 0.0047272217829380687 0.036246676438490527 0 0.0047272217829380687 0.036246676438490527 0 0.015911730558903318 0.034762274935307848 0 0.016570281580619739 0.045526930476817662 0 0.0077023845250848884 0.024172785877160811 0 0.0047272217829380687 0.036246676438490527 0 0.015911730558903318 0.034762274935307848 0 0.024648998497944961 0.02642224341189468 0 0.015911730558903318 0.034762274935307848 0 0.025892041879535671 0.039420421904702428 0 0.024648998497944961 0.02642224341189468 0 0.025892041879535671 0.039420421904702428 0 0.038236142792751733 0.035111405712831077 0 0.015911730558903318 0.034762274935307848 0 0.025892041879535671 0.039420421904702428 0 0.016570281580619739 0.045526930476817662 0 0.025892041879535671 0.039420421904702428 0 0.016570281580619739 0.045526930476817662 0 0.021716339062575678 0.05448348331271597 0 0.01459521235494949 0.061710637509134872 0 0.016570281580619739 0.045526930476817662 0 0.021716339062575678 0.05448348331271597 0 0.01459521235494949 0.061710637509134872 0 0.021716339062575678 0.05448348331271597 0 0.030459386295035529 0.05963142741263059 0 0.01459521235494949 0.061710637509134872 0 0.030459386295035529 0.05963142741263059 0 0.021716339062575678 0.05448348331271597 0 0.030459386295035529 0.05963142741263059 0 0.032703710623893968 0.046893395464013943 0 0.025892041879535671 0.039420421904702428 0 0.021716339062575678 0.05448348331271597 0 0.032703710623893968 0.046893395464013943 0 0.030459386295035529 0.05963142741263059 0 0.032703710623893968 0.046893395464013943 0 0.047214643089571059 0.045820238977188371 0 0.030459386295035529 0.05963142741263059 0 0.04797297407010033 0.057336039788577382 0 0.030459386295035529 0.05963142741263059 0 0.04797297407010033 0.057336039788577382 0 0.027635028654909001 0.06907575978797427 0 0.030459386295035529 0.05963142741263059 0 0.047214643089571059 0.045820238977188371 0 0.04797297407010033 0.057336039788577382 0 0.030459386295035529 0.05963142741263059 0 0.047214643089571059 0.045820238977188371 0 0.038236142792751733 0.035111405712831077 0 0.047214643089571059 0.045820238977188371 0 0.051031455664035288 0.029923240364304559 0 0.032703710623893968 0.046893395464013943 0 0.038236142792751733 0.035111405712831077 0 0.047214643089571059 0.045820238977188371 0 0.025892041879535671 0.039420421904702428 0 0.032703710623893968 0.046893395464013943 0 0.038236142792751733 0.035111405712831077 0 0.062359133547200143 0.040731400683572692 0 0.047214643089571059 0.045820238977188371 0 0.063969899884107562 0.032009050541747332 0 0.047214643089571059 0.045820238977188371 0 0.063969899884107562 0.032009050541747332 0 0.047214643089571059 0.045820238977188371 0 0.051031455664035288 0.029923240364304559 0 0.063969899884107562 0.032009050541747332 0 0.062359133547200143 0.040731400683572692 0 0.04797297407010033 0.057336039788577382 0 0.072379857481358154 0.054137194478101919 0 0.04797297407010033 0.057336039788577382 0 0.072379857481358154 0.054137194478101919 0 0.062359133547200143 0.040731400683572692 0 0.04797297407010033 0.057336039788577382 0 0.062359133547200143 0.040731400683572692 0 0.047214643089571059 0.045820238977188371 0 0.04797297407010033 0.057336039788577382 0 0.04797297407010033 0.057336039788577382 0 0.072379857481358154 0.054137194478101919 0 0.06072113176624426 0.066105246874810966 0 0.040835927619124697 0.0088703260301804514 0 0.038363400138324961 0.019751697241263279 0 0.051939500327619889 0.017318508583630769 0 0.040835927619124697 0.0088703260301804514 0 0.046640351189982193 0.001482106492276504 0 0.040314465242246092 -0.002276229875846851 0 0.025695344612614111 0.0095801541182225364 0 0.040314465242246092 -0.002276229875846851 0 0.025695344612614111 0.0095801541182225364 0 0.040835927619124697 0.0088703260301804514 0 0.040314465242246092 -0.002276229875846851 0 0.025695344612614111 0.0095801541182225364 0 0.040835927619124697 0.0088703260301804514 0 0.038363400138324961 0.019751697241263279 0 0.025695344612614111 0.0095801541182225364 0 0.038363400138324961 0.019751697241263279 0 0.024648998497944961 0.02642224341189468 0 0.038236142792751733 0.035111405712831077 0 0.038363400138324961 0.019751697241263279 0 0.038363400138324961 0.019751697241263279 0 0.051031455664035288 0.029923240364304559 0 0.038236142792751733 0.035111405712831077 0 0.038363400138324961 0.019751697241263279 0 0.051031455664035288 0.029923240364304559 0 0.038363400138324961 0.019751697241263279 0 0.051939500327619889 0.017318508583630769 0 0.051031455664035288 0.029923240364304559 0 0.051031455664035288 0.029923240364304559 0 0.062107590562420073 0.0228568457980407 0 0.063969899884107562 0.032009050541747332 0 0.051939500327619889 0.017318508583630769 0 0.062107590562420073 0.0228568457980407 0 0.064696567818308529 0.01472149906873369 0 0.051939500327619889 0.017318508583630769 0 0.051031455664035288 0.029923240364304559 0 0.062107590562420073 0.0228568457980407 0 0.055514373943813228 0.0067304088365214816 0 0.075461568133428525 0.0044331687040122013 0 0.049896637954744763 -0.0073960790217490677 0 0.051939500327619889 0.017318508583630769 0 0.055514373943813228 0.0067304088365214816 0 0.064696567818308529 0.01472149906873369 0 0.040835927619124697 0.0088703260301804514 0 0.051939500327619889 0.017318508583630769 0 0.055514373943813228 0.0067304088365214816 0 0.046640351189982193 0.001482106492276504 0 0.055514373943813228 0.0067304088365214816 0 0.049896637954744763 -0.0073960790217490677 0 0.040835927619124697 0.0088703260301804514 0 0.046640351189982193 0.001482106492276504 0 0.055514373943813228 0.0067304088365214816 0 0.075461568133428525 0.0044331687040122013 0 0.064696567818308529 0.01472149906873369 0 0.08072515667864405 0.018197862106306289 0 0.055514373943813228 0.0067304088365214816 0 0.075461568133428525 0.0044331687040122013 0 0.064696567818308529 0.01472149906873369 0 0.075461568133428525 0.0044331687040122013 0 0.1010264983121123 0.016262416429773479 0 0.075461568133428525 0.0044331687040122013 0 0.1010264983121123 0.016262416429773479 0 0.098011391193308373 -0.0056982583262641584 0 0.075461568133428525 0.0044331687040122013 0 0.08072515667864405 0.018197862106306289 0 0.1010264983121123 0.016262416429773479 0 0.088041666307225416 0.02743399724937181 0 0.08072515667864405 0.018197862106306289 0 0.1010264983121123 0.016262416429773479 0 0.088041666307225416 0.02743399724937181 0 0.08072515667864405 0.018197862106306289 0 0.076745293024301803 0.02412676157856956 0 0.088041666307225416 0.02743399724937181 0 0.076745293024301803 0.02412676157856956 0 0.082258845210710349 0.03253561428057717 0 0.08072515667864405 0.018197862106306289 0 0.076745293024301803 0.02412676157856956 0 0.063969899884107562 0.032009050541747332 0 0.062107590562420073 0.0228568457980407 0 0.064696567818308529 0.01472149906873369 0 0.08072515667864405 0.018197862106306289 0 0.08072515667864405 0.018197862106306289 0 0.063969899884107562 0.032009050541747332 0 0.062107590562420073 0.0228568457980407 0 0.08072515667864405 0.018197862106306289 0 0.063969899884107562 0.032009050541747332 0 0.062359133547200143 0.040731400683572692 0 0.076745293024301803 0.02412676157856956 0 0.062359133547200143 0.040731400683572692 0 0.076745293024301803 0.02412676157856956 0 0.076375628159171968 0.038405412939545532 0 0.062359133547200143 0.040731400683572692 0 0.076745293024301803 0.02412676157856956 0 0.063969899884107562 0.032009050541747332 0 0.062359133547200143 0.040731400683572692 0 0.076375628159171968 0.038405412939545532 0 0.072379857481358154 0.054137194478101919 0 0.072379857481358154 0.054137194478101919 0 0.087872793352142223 0.040176285354821803 0 0.096786740892615686 0.050938349167624693 0 0.072379857481358154 0.054137194478101919 0 0.096786740892615686 0.050938349167624693 0 0.072379857481358154 0.054137194478101919 0 0.096786740892615686 0.050938349167624693 0 0.089592915186254174 0.067390154600646832 0 0.076375628159171968 0.038405412939545532 0 0.072379857481358154 0.054137194478101919 0 0.087872793352142223 0.040176285354821803 0 0.076375628159171968 0.038405412939545532 0 0.082258845210710349 0.03253561428057717 0 0.087872793352142223 0.040176285354821803 0 0.076745293024301803 0.02412676157856956 0 0.076375628159171968 0.038405412939545532 0 0.082258845210710349 0.03253561428057717 0 0.088041666307225416 0.02743399724937181 0 0.087872793352142223 0.040176285354821803 0 0.098246025398924644 0.032379674771496843 0 0.088041666307225416 0.02743399724937181 0 0.082258845210710349 0.03253561428057717 0 0.087872793352142223 0.040176285354821803 0 0.098246025398924644 0.032379674771496843 0 0.09859813872304253 0.041737690340159041 0 0.1063796333462841 0.038668109643535398 0 0.087872793352142223 0.040176285354821803 0 0.098246025398924644 0.032379674771496843 0 0.09859813872304253 0.041737690340159041 0 0.087872793352142223 0.040176285354821803 0 0.09859813872304253 0.041737690340159041 0 0.096786740892615686 0.050938349167624693 0 0.09859813872304253 0.041737690340159041 0 0.1037055006252459 0.04652603276331644 0 0.096786740892615686 0.050938349167624693 0 0.1037055006252459 0.04652603276331644 0 0.1091701701315707 0.045405346223324289 0 0.1063796333462841 0.038668109643535398 0 0.09859813872304253 0.041737690340159041 0 0.1037055006252459 0.04652603276331644 0 0.1063796333462841 0.038668109643535398 0 0.098246025398924644 0.032379674771496843 0 0.1063796333462841 0.038668109643535398 0 0.1080469394596527 0.029312409717345649 0 0.1063796333462841 0.038668109643535398 0 0.11369005285381351 0.036564640387925021 0 0.1080469394596527 0.029312409717345649 0 0.10140855114010359 0.056741753968867333 0 0.1082136550722141 0.059696613986540442 0 0.089592915186254174 0.067390154600646832 0 0.10140855114010359 0.056741753968867333 0 0.096786740892615686 0.050938349167624693 0 0.089592915186254174 0.067390154600646832 0 0.10140855114010359 0.056741753968867333 0 0.096786740892615686 0.050938349167624693 0 0.1040187002827474 0.052009313231975308 0 0.1037055006252459 0.04652603276331644 0 0.096786740892615686 0.050938349167624693 0 0.1040187002827474 0.052009313231975308 0 0.1037055006252459 0.04652603276331644 0 0.10828434687670541 0.049049973369521209 0 0.1040187002827474 0.052009313231975308 0 0.1037055006252459 0.04652603276331644 0 0.1091701701315707 0.045405346223324289 0 0.10828434687670541 0.049049973369521209 0 0.10828434687670541 0.049049973369521209 0 0.1040187002827474 0.052009313231975308 0 0.1085923347430168 0.054888678040205661 0 0.10140855114010359 0.056741753968867333 0 0.1040187002827474 0.052009313231975308 0 0.1085923347430168 0.054888678040205661 0 0.10140855114010359 0.056741753968867333 0 0.1085923347430168 0.054888678040205661 0 0.1082136550722141 0.059696613986540442 0 0.1082136550722141 0.059696613986540442 0 0.12683439495817461 0.052003073372435288 0 0.1085923347430168 0.054888678040205661 0 0.1082136550722141 0.059696613986540442 0 0.12683439495817461 0.052003073372435288 0 0.1082136550722141 0.059696613986540442 0 0.1213053233293625 0.063977455960140386 0 0.12683439495817461 0.052003073372435288 0 0.1085923347430168 0.054888678040205661 0 0.11545296983014219 0.044674578582556468 0 0.12683439495817461 0.052003073372435288 0 0.1085923347430168 0.054888678040205661 0 0.11545296983014219 0.044674578582556468 0 0.10828434687670541 0.049049973369521209 0 0.1085923347430168 0.054888678040205661 0 0.11545296983014219 0.044674578582556468 0 0.11545296983014219 0.044674578582556468 0 0.12683439495817461 0.052003073372435288 0 0.11545296983014219 0.044674578582556468 0 0.12659142849079691 0.028091664155532971 0 0.13015300311198849 0.040381385354086502 0 0.11369005285381351 0.036564640387925021 0 0.11545296983014219 0.044674578582556468 0 0.12659142849079691 0.028091664155532971 0 0.11369005285381351 0.036564640387925021 0 0.1080469394596527 0.029312409717345649 0 0.12659142849079691 0.028091664155532971 0 0.11545296983014219 0.044674578582556468 0 0.12659142849079691 0.028091664155532971 0 0.1091701701315707 0.045405346223324289 0 0.1063796333462841 0.038668109643535398 0 0.11316657253878901 0.043202368340974628 0 0.11369005285381351 0.036564640387925021 0 0.11316657253878901 0.043202368340974628 0 0.11545296983014219 0.044674578582556468 0 0.1063796333462841 0.038668109643535398 0 0.11369005285381351 0.036564640387925021 0 0.11316657253878901 0.043202368340974628 0 0.1091701701315707 0.045405346223324289 0 0.10828434687670541 0.049049973369521209 0 0.11545296983014219 0.044674578582556468 0 0.1091701701315707 0.045405346223324289 0 0.11316657253878901 0.043202368340974628 0 0.11545296983014219 0.044674578582556468 0 0.11316657253878901 0.043202368340974628 0 0.11545296983014219 0.044674578582556468 0 0.11545296983014219 0.044674578582556468 0 0.13015300311198849 0.040381385354086502 0 0.12683439495817461 0.052003073372435288 0 0.11882011836095251 0.0065886106746579649 0 0.1010264983121123 0.016262416429773479 0 0.12659142849079691 0.028091664155532971 0 0.1010264983121123 0.016262416429773479 0 0.12659142849079691 0.028091664155532971 0 0.1010264983121123 0.016262416429773479 0 0.1080469394596527 0.029312409717345649 0 0.12659142849079691 0.028091664155532971 0 0.11882011836095251 0.0065886106746579649 0 0.1010264983121123 0.016262416429773479 0 0.098011391193308373 -0.0056982583262641584 0 0.088041666307225416 0.02743399724937181 0 0.098246025398924644 0.032379674771496843 0 0.1010264983121123 0.016262416429773479 0 0.098246025398924644 0.032379674771496843 0 0.1010264983121123 0.016262416429773479 0 0.1080469394596527 0.029312409717345649 0 0.102028599401492 0.1079210482782756 0 0.1185648575779607 0.095458187827811403 0 0.097454497296707604 0.093489332089851121 0 0.102028599401492 0.1079210482782756 0 0.094862282777670462 0.1196438628042634 0 0.1117522404438802 0.12667258555115829 0 0.123281054128593 0.11724462113534739 0 0.1117522404438802 0.12667258555115829 0 0.13947052033133081 0.1245003570974072 0 0.102028599401492 0.1079210482782756 0 0.123281054128593 0.11724462113534739 0 0.1117522404438802 0.12667258555115829 0 0.102028599401492 0.1079210482782756 0 0.123281054128593 0.11724462113534739 0 0.102028599401492 0.1079210482782756 0 0.123281054128593 0.11724462113534739 0 0.1185648575779607 0.095458187827811403 0 0.1185648575779607 0.095458187827811403 0 0.10766661625946521 0.081617344394697103 0 0.12679961534922851 0.075073796793526271 0 0.1127439035567581 0.069567645006608142 0 0.10766661625946521 0.081617344394697103 0 0.12679961534922851 0.075073796793526271 0 0.1213053233293625 0.063977455960140386 0 0.1127439035567581 0.069567645006608142 0 0.12679961534922851 0.075073796793526271 0 0.1082136550722141 0.059696613986540442 0 0.1213053233293625 0.063977455960140386 0 0.1127439035567581 0.069567645006608142 0 0.1082136550722141 0.059696613986540442 0 0.089592915186254174 0.067390154600646832 0 0.1014387622560044 0.070574023901201433 0 0.10766661625946521 0.081617344394697103 0 0.08998097741878798 0.081820185866337797 0 0.1082136550722141 0.059696613986540442 0 0.1014387622560044 0.070574023901201433 0 0.089592915186254174 0.067390154600646832 0 0.1082136550722141 0.059696613986540442 0 0.1127439035567581 0.069567645006608142 0 0.1014387622560044 0.070574023901201433 0 0.1127439035567581 0.069567645006608142 0 0.1014387622560044 0.070574023901201433 0 0.10766661625946521 0.081617344394697103 0 0.1185648575779607 0.095458187827811403 0 0.097454497296707604 0.093489332089851121 0 0.10766661625946521 0.081617344394697103 0 0.097454497296707604 0.093489332089851121 0 0.10766661625946521 0.081617344394697103 0 0.08998097741878798 0.081820185866337797 0 0.097454497296707604 0.093489332089851121 0 0.08998097741878798 0.081820185866337797 0 0.080776144674391009 0.098597475421203867 0 0.08998097741878798 0.081820185866337797 0 0.071888117261322881 0.075707086101057836 0 0.080776144674391009 0.098597475421203867 0 0.08998097741878798 0.081820185866337797 0 0.089592915186254174 0.067390154600646832 0 0.071888117261322881 0.075707086101057836 0 0.1014387622560044 0.070574023901201433 0 0.08998097741878798 0.081820185866337797 0 0.089592915186254174 0.067390154600646832 0 0.072379857481358154 0.054137194478101919 0 0.089592915186254174 0.067390154600646832 0 0.071888117261322881 0.075707086101057836 0 0.072379857481358154 0.054137194478101919 0 0.071888117261322881 0.075707086101057836 0 0.06072113176624426 0.066105246874810966 0 0.071888117261322881 0.075707086101057836 0 0.080776144674391009 0.098597475421203867 0 0.059523689947290133 0.089273902564132146 0 0.069834633883481517 0.1065625652268001 0 0.059315065316452309 0.1025539410383776 0 0.059523689947290133 0.089273902564132146 0 0.080776144674391009 0.098597475421203867 0 0.059523689947290133 0.089273902564132146 0 0.069834633883481517 0.1065625652268001 0 0.080776144674391009 0.098597475421203867 0 0.081634330708880196 0.1151370033827101 0 0.069834633883481517 0.1065625652268001 0 0.080776144674391009 0.098597475421203867 0 0.059523689947290133 0.089273902564132146 0 0.069834633883481517 0.1065625652268001 0 0.064307476710745728 0.1098785041095611 0 0.059315065316452309 0.1025539410383776 0 0.102028599401492 0.1079210482782756 0 0.080776144674391009 0.098597475421203867 0 0.081634330708880196 0.1151370033827101 0 0.102028599401492 0.1079210482782756 0 0.080776144674391009 0.098597475421203867 0 0.102028599401492 0.1079210482782756 0 0.097454497296707604 0.093489332089851121 0 0.080776144674391009 0.098597475421203867 0 0.102028599401492 0.1079210482782756 0 0.094862282777670462 0.1196438628042634 0 0.081634330708880196 0.1151370033827101 0 0.094862282777670462 0.1196438628042634 0 0.081634330708880196 0.1151370033827101 0 0.084033960556429532 0.12884481400490949 0 0.081634330708880196 0.1151370033827101 0 0.071861500007931359 0.1232467005620789 0 0.084033960556429532 0.12884481400490949 0 0.081634330708880196 0.1151370033827101 0 0.071861500007931359 0.1232467005620789 0 0.068543873750645412 0.1149277749384955 0 0.069834633883481517 0.1065625652268001 0 0.081634330708880196 0.1151370033827101 0 0.068543873750645412 0.1149277749384955 0 0.068543873750645412 0.1149277749384955 0 0.064307476710745728 0.1098785041095611 0 0.059536333892403683 0.1154697352345713 0 0.069834633883481517 0.1065625652268001 0 0.068543873750645412 0.1149277749384955 0 0.064307476710745728 0.1098785041095611 0 0.071861500007931359 0.1232467005620789 0 0.068543873750645412 0.1149277749384955 0 0.059536333892403683 0.1154697352345713 0 0.056458373241313059 0.1220229844831647 0 0.046980594318971967 0.103944553472415 0 0.044984286063853948 0.1144984098979744 0 0.056458373241313059 0.1220229844831647 0 0.059536333892403683 0.1154697352345713 0 0.047111977694586651 0.095143209078012936 0 0.056458373241313059 0.1220229844831647 0 0.047823074661834691 0.1229743903388081 0 0.044984286063853948 0.1144984098979744 0 0.056458373241313059 0.1220229844831647 0 0.047111977694586651 0.095143209078012936 0 0.056458373241313059 0.1220229844831647 0 0.047111977694586651 0.095143209078012936 0 0.046980594318971967 0.103944553472415 0 0.059536333892403683 0.1154697352345713 0 0.059315065316452309 0.1025539410383776 0 0.048250118395506067 0.092934788779969885 0 0.064307476710745728 0.1098785041095611 0 0.059536333892403683 0.1154697352345713 0 0.059315065316452309 0.1025539410383776 0 0.059536333892403683 0.1154697352345713 0 0.047111977694586651 0.095143209078012936 0 0.048250118395506067 0.092934788779969885 0 0.059536333892403683 0.1154697352345713 0 0.048250118395506067 0.092934788779969885 0 0.059315065316452309 0.1025539410383776 0 0.059523689947290133 0.089273902564132146 0 0.048250118395506067 0.092934788779969885 0 0.046980594318971967 0.103944553472415 0 0.031997015267580219 0.10661530464401089 0 0.044984286063853948 0.1144984098979744 0 0.046980594318971967 0.103944553472415 0 0.039592722901722707 0.099159129702000026 0 0.031997015267580219 0.10661530464401089 0 0.047111977694586651 0.095143209078012936 0 0.046980594318971967 0.103944553472415 0 0.044236279529428407 0.098362398272746204 0 0.043259823202432338 0.095202700838556822 0 0.039592722901722707 0.099159129702000026 0 0.040006298791842428 0.091064350555588536 0 0.047111977694586651 0.095143209078012936 0 0.043259823202432338 0.095202700838556822 0 0.043326765309194368 0.091114650811160686 0 0.047111977694586651 0.095143209078012936 0 0.043259823202432338 0.095202700838556822 0 0.044236279529428407 0.098362398272746204 0 0.046980594318971967 0.103944553472415 0 0.044236279529428407 0.098362398272746204 0 0.039592722901722707 0.099159129702000026 0 0.043259823202432338 0.095202700838556822 0 0.044236279529428407 0.098362398272746204 0 0.039592722901722707 0.099159129702000026 0 0.039592722901722707 0.099159129702000026 0 0.040006298791842428 0.091064350555588536 0 0.033999193661208522 0.092549709374426317 0 0.039592722901722707 0.099159129702000026 0 0.031997015267580219 0.10661530464401089 0 0.033999193661208522 0.092549709374426317 0 0.031997015267580219 0.10661530464401089 0 0.044984286063853948 0.1144984098979744 0 0.040254683338031831 0.12792389191371131 0 0.031997015267580219 0.10661530464401089 0 0.027418588341799281 0.11951208787462859 0 0.040254683338031831 0.12792389191371131 0 0.031997015267580219 0.10661530464401089 0 0.040254683338031831 0.12792389191371131 0 0.047823074661834691 0.1229743903388081 0 0.044984286063853948 0.1144984098979744 0 0.040254683338031831 0.12792389191371131 0 0.071888117261322881 0.075707086101057836 0 0.050643578252195447 0.077240667131504986 0 0.06072113176624426 0.066105246874810966 0 0.071888117261322881 0.075707086101057836 0 0.050643578252195447 0.077240667131504986 0 0.04797297407010033 0.057336039788577382 0 0.050643578252195447 0.077240667131504986 0 0.06072113176624426 0.066105246874810966 0 0.059523689947290133 0.089273902564132146 0 0.048250118395506067 0.092934788779969885 0 0.038271235220189187 0.079950329707060411 0 0.050643578252195447 0.077240667131504986 0 0.059523689947290133 0.089273902564132146 0 0.038271235220189187 0.079950329707060411 0 0.059523689947290133 0.089273902564132146 0 0.038271235220189187 0.079950329707060411 0 0.071888117261322881 0.075707086101057836 0 0.050643578252195447 0.077240667131504986 0 0.059523689947290133 0.089273902564132146 0 0.050643578252195447 0.077240667131504986 0 0.038271235220189187 0.079950329707060411 0 0.029399039243067929 0.078774248161950916 0 0.043326765309194368 0.091114650811160686 0 0.040006298791842428 0.091064350555588536 0 0.038271235220189187 0.079950329707060411 0 0.048250118395506067 0.092934788779969885 0 0.043326765309194368 0.091114650811160686 0 0.038271235220189187 0.079950329707060411 0 0.047111977694586651 0.095143209078012936 0 0.048250118395506067 0.092934788779969885 0 0.043326765309194368 0.091114650811160686 0 0.043259823202432338 0.095202700838556822 0 0.043326765309194368 0.091114650811160686 0 0.040006298791842428 0.091064350555588536 0 0.040006298791842428 0.091064350555588536 0 0.033999193661208522 0.092549709374426317 0 0.035112272261912547 0.085996705185296951 0 0.033999193661208522 0.092549709374426317 0 0.035112272261912547 0.085996705185296951 0 0.030562463090829231 0.085656845023995995 0 0.040006298791842428 0.091064350555588536 0 0.035112272261912547 0.085996705185296951 0 0.038271235220189187 0.079950329707060411 0 0.035112272261912547 0.085996705185296951 0 0.038271235220189187 0.079950329707060411 0 0.029399039243067929 0.078774248161950916 0 0.035112272261912547 0.085996705185296951 0 0.029399039243067929 0.078774248161950916 0 0.030562463090829231 0.085656845023995995 0 0.04797297407010033 0.057336039788577382 0 0.027635028654909001 0.06907575978797427 0 0.029399039243067929 0.078774248161950916 0 0.04797297407010033 0.057336039788577382 0 0.050643578252195447 0.077240667131504986 0 0.029399039243067929 0.078774248161950916 0 0.050643578252195447 0.077240667131504986 0 0.029399039243067929 0.078774248161950916 0 0.04797297407010033 0.057336039788577382 0 0.029399039243067929 0.078774248161950916 0 0.01459521235494949 0.061710637509134872 0 0.030459386295035529 0.05963142741263059 0 0.017825248683011649 0.070045619055208203 0 0.01459521235494949 0.061710637509134872 0 0.017825248683011649 0.070045619055208203 0 0.030459386295035529 0.05963142741263059 0 0.017825248683011649 0.070045619055208203 0 0.030459386295035529 0.05963142741263059 0 0.017825248683011649 0.070045619055208203 0 0.027635028654909001 0.06907575978797427 0 0.027635028654909001 0.06907575978797427 0 0.021430743364398389 0.07934945609652827 0 0.029399039243067929 0.078774248161950916 0 0.017825248683011649 0.070045619055208203 0 0.027635028654909001 0.06907575978797427 0 0.021430743364398389 0.07934945609652827 0 0.017825248683011649 0.070045619055208203 0 0.021430743364398389 0.07934945609652827 0 0.023739347197128589 0.085306717374310406 0 0.0092582498306486675 0.1020209346744549 0 0.021430743364398389 0.07934945609652827 0 0.023739347197128589 0.085306717374310406 0 0.01369104835205702 0.085774757015682671 0 0.021430743364398389 0.07934945609652827 0 0.023739347197128589 0.085306717374310406 0 0.021430743364398389 0.07934945609652827 0 0.029399039243067929 0.078774248161950916 0 0.023739347197128589 0.085306717374310406 0 0.021430743364398389 0.07934945609652827 0 0.029399039243067929 0.078774248161950916 0 0.029399039243067929 0.078774248161950916 0 0.030562463090829231 0.085656845023995995 0 0.023739347197128589 0.085306717374310406 0 0.029399039243067929 0.078774248161950916 0 0.023739347197128589 0.085306717374310406 0 0.033999193661208522 0.092549709374426317 0 0.030562463090829231 0.085656845023995995 0 0.023739347197128589 0.085306717374310406 0 0.023739347197128589 0.085306717374310406 0 0.01369104835205702 0.085774757015682671 0 0.0092582498306486675 0.1020209346744549 0 0.0051087594610210148 0.080527692295617709 0 0.01369104835205702 0.085774757015682671 0 0.0092582498306486675 0.1020209346744549 0 0.021430743364398389 0.07934945609652827 0 0.0051087594610210148 0.080527692295617709 0 0.021430743364398389 0.07934945609652827 0 0.0051087594610210148 0.080527692295617709 0 0.01369104835205702 0.085774757015682671 0 -0.0012292332505543029 0.06378464068123596 0 0.01459521235494949 0.061710637509134872 0 -0.0012292332505543029 0.06378464068123596 0 0.01459521235494949 0.061710637509134872 0 0.0080955592782806732 0.069159055867407046 0 0.017825248683011649 0.070045619055208203 0 0.021430743364398389 0.07934945609652827 0 0.0051087594610210148 0.080527692295617709 0 -0.0012292332505543029 0.06378464068123596 0 0.0051087594610210148 0.080527692295617709 0 0.0080955592782806732 0.069159055867407046 0 0.017825248683011649 0.070045619055208203 0 0.0051087594610210148 0.080527692295617709 0 0.0080955592782806732 0.069159055867407046 0 0.017825248683011649 0.070045619055208203 0 0.0051087594610210148 0.080527692295617709 0 0.01459521235494949 0.061710637509134872 0 0.017825248683011649 0.070045619055208203 0 0.0080955592782806732 0.069159055867407046 0 0.019482067178466251 0.1107491432724047 0 0.017356945103072018 0.1204998149293544 0 0.027418588341799281 0.11951208787462859 0 0.017356945103072018 0.1204998149293544 0 0.027418588341799281 0.11951208787462859 0 0.028136896369567631 0.1331750506540591 0 0.031997015267580219 0.10661530464401089 0 0.019482067178466251 0.1107491432724047 0 0.027418588341799281 0.11951208787462859 0 0.031997015267580219 0.10661530464401089 0 0.033999193661208522 0.092549709374426317 0 0.023739347197128589 0.085306717374310406 0 0.023739347197128589 0.085306717374310406 0 0.02108550348152554 0.10082233348119581 0 0.0092582498306486675 0.1020209346744549 0 0.031997015267580219 0.10661530464401089 0 0.023739347197128589 0.085306717374310406 0 0.031997015267580219 0.10661530464401089 0 0.023739347197128589 0.085306717374310406 0 0.02108550348152554 0.10082233348119581 0 0.031997015267580219 0.10661530464401089 0 0.019482067178466251 0.1107491432724047 0 0.02108550348152554 0.10082233348119581 0 0.019482067178466251 0.1107491432724047 0 0.02108550348152554 0.10082233348119581 0 0.0092582498306486675 0.1020209346744549 0 -0.0040597014752050652 0.1051126182356364 0 0.0051087594610210148 0.080527692295617709 0 0.0092582498306486675 0.1020209346744549 0 0.019482067178466251 0.1107491432724047 0 0.0092582498306486675 0.1020209346744549 0 0.0097761010461718117 0.1150243840307837 0 -0.0052228475358298988 0.1187351519746004 0 0.0092582498306486675 0.1020209346744549 0 -0.0052228475358298988 0.1187351519746004 0 0.0092582498306486675 0.1020209346744549 0 0.0097761010461718117 0.1150243840307837 0 0.019482067178466251 0.1107491432724047 0 0.017356945103072018 0.1204998149293544 0 0.0097761010461718117 0.1150243840307837 0 0.017356945103072018 0.1204998149293544 0 0.0081407562022233586 0.1245196413435004 0 0.017356945103072018 0.1204998149293544 0 0.0097761010461718117 0.1150243840307837 0 0.0081407562022233586 0.1245196413435004 0 -0.0052228475358298988 0.1187351519746004 0 0.0097761010461718117 0.1150243840307837 0 0.0081407562022233586 0.1245196413435004 0 -0.0052228475358298988 0.1187351519746004 0 0.0081407562022233586 0.1245196413435004 0 -0.015783289274076458 0.13495459563681389 0 0.0081407562022233586 0.1245196413435004 0 0.01185912902997375 0.14130758542593569 0 0.017356945103072018 0.1204998149293544 0 0.0081407562022233586 0.1245196413435004 0 0.028136896369567631 0.1331750506540591 0 0.0081407562022233586 0.1245196413435004 0 0.028136896369567631 0.1331750506540591 0 0.0081407562022233586 0.1245196413435004 0 0.028136896369567631 0.1331750506540591 0 0.01185912902997375 0.14130758542593569 0 0.028136896369567631 0.1331750506540591 0 0.0267736462585265 0.15269096182544131 0 0.035919394343652343 0.14075559589415579 0 0.028136896369567631 0.1331750506540591 0 0.0267736462585265 0.15269096182544131 0 0.01185912902997375 0.14130758542593569 0 0.0267736462585265 0.15269096182544131 0 0.001788155555331062 0.1557637096651584 0 0.01185912902997375 0.14130758542593569 0 0.001788155555331062 0.1557637096651584 0 0.00061104658230836653 0.17769045695541219 0 0.019359600384737739 0.17657282369350361 0 0.001788155555331062 0.1557637096651584 0 0.019359600384737739 0.17657282369350361 0 0.00061104658230836653 0.17769045695541219 0 0.019359600384737739 0.17657282369350361 0 0.017852612557627559 0.19656860209324539 0 0.019359600384737739 0.17657282369350361 0 0.036931045214144441 0.19738193772184889 0 0.0267736462585265 0.15269096182544131 0 0.001788155555331062 0.1557637096651584 0 0.019359600384737739 0.17657282369350361 0 0.0267736462585265 0.15269096182544131 0 0.019359600384737739 0.17657282369350361 0 0.038399134829123632 0.17159850230738899 0 0.0267736462585265 0.15269096182544131 0 0.038399134829123632 0.17159850230738899 0 0.048512351408483409 0.1492324791834117 0 0.019359600384737739 0.17657282369350361 0 0.038399134829123632 0.17159850230738899 0 0.036931045214144441 0.19738193772184889 0 0.038399134829123632 0.17159850230738899 0 0.053915020648589329 0.181809847856817 0 0.036931045214144441 0.19738193772184889 0 0.053915020648589329 0.181809847856817 0 0.056298621576963533 0.16595151756685289 0 0.075151164334765874 0.17578253529346821 0 0.038399134829123632 0.17159850230738899 0 0.053915020648589329 0.181809847856817 0 0.056298621576963533 0.16595151756685289 0 0.038399134829123632 0.17159850230738899 0 0.056298621576963533 0.16595151756685289 0 0.048512351408483409 0.1492324791834117 0 0.048512351408483409 0.1492324791834117 0 0.055211699142625699 0.13746009370018761 0 0.065804768788039439 0.14890275988831639 0 0.056298621576963533 0.16595151756685289 0 0.048512351408483409 0.1492324791834117 0 0.065804768788039439 0.14890275988831639 0 0.048512351408483409 0.1492324791834117 0 0.055211699142625699 0.13746009370018761 0 0.049904412172306151 0.13036597214331841 0 0.056458373241313059 0.1220229844831647 0 0.059536333892403683 0.1154697352345713 0 0.070822549389301243 0.1380046816891726 0 0.056458373241313059 0.1220229844831647 0 0.055211699142625699 0.13746009370018761 0 0.065804768788039439 0.14890275988831639 0 0.056458373241313059 0.1220229844831647 0 0.065804768788039439 0.14890275988831639 0 0.056458373241313059 0.1220229844831647 0 0.047823074661834691 0.1229743903388081 0 0.049904412172306151 0.13036597214331841 0 0.056458373241313059 0.1220229844831647 0 0.055211699142625699 0.13746009370018761 0 0.049904412172306151 0.13036597214331841 0 0.048512351408483409 0.1492324791834117 0 0.040254683338031831 0.12792389191371131 0 0.048512351408483409 0.1492324791834117 0 0.040254683338031831 0.12792389191371131 0 0.035919394343652343 0.14075559589415579 0 0.048512351408483409 0.1492324791834117 0 0.049904412172306151 0.13036597214331841 0 0.040254683338031831 0.12792389191371131 0 0.047823074661834691 0.1229743903388081 0 0.049904412172306151 0.13036597214331841 0 0.040254683338031831 0.12792389191371131 0 0.027418588341799281 0.11951208787462859 0 0.028136896369567631 0.1331750506540591 0 0.040254683338031831 0.12792389191371131 0 0.028136896369567631 0.1331750506540591 0 0.040254683338031831 0.12792389191371131 0 0.035919394343652343 0.14075559589415579 0 0.0267736462585265 0.15269096182544131 0 0.048512351408483409 0.1492324791834117 0 0.035919394343652343 0.14075559589415579 0 0.020197736684044801 0.2291273398277828 0 0.034114961552744377 0.23516115760169301 0 0.036501911092354018 0.25177276941539839 0 0.018629400856135309 0.24429501886194191 0 0.020197736684044801 0.2291273398277828 0 0.02692674034290404 0.25134916217479408 0 0.020197736684044801 0.2291273398277828 0 0.02692674034290404 0.25134916217479408 0 0.036501911092354018 0.25177276941539839 0 0.020197736684044801 0.2291273398277828 0 0.036501911092354018 0.25177276941539839 0 0.018629400856135309 0.24429501886194191 0 0.0082785766384091443 0.23618007315607359 0 0.020197736684044801 0.2291273398277828 0 0.018629400856135309 0.24429501886194191 0 0.012944211518790589 0.24639919126045251 0 0.0082785766384091443 0.23618007315607359 0 0.012944211518790589 0.24639919126045251 0 0.001894876929373096 0.24743045501984201 0 0.0082785766384091443 0.23618007315607359 0 -0.0070773620087705444 0.23295897308755351 0 0.001894876929373096 0.24743045501984201 0 0.0082785766384091443 0.23618007315607359 0 0.0082785766384091443 0.23618007315607359 0 0.0038866256090455522 0.2239579318999283 0 0.020197736684044801 0.2291273398277828 0 0.0038866256090455522 0.2239579318999283 0 0.020197736684044801 0.2291273398277828 0 0.003893562275735573 0.2064819102401671 0 -0.0070773620087705444 0.23295897308755351 0 0.0082785766384091443 0.23618007315607359 0 0.0038866256090455522 0.2239579318999283 0 0.01643925603633389 0.21561198758054059 0 0.035370792182188207 0.216260201755786 0 0.034114961552744377 0.23516115760169301 0 0.020197736684044801 0.2291273398277828 0 0.01643925603633389 0.21561198758054059 0 0.034114961552744377 0.23516115760169301 0 0.01643925603633389 0.21561198758054059 0 0.034114961552744377 0.23516115760169301 0 0.017852612557627559 0.19656860209324539 0 0.036931045214144441 0.19738193772184889 0 0.035370792182188207 0.216260201755786 0 0.01643925603633389 0.21561198758054059 0 0.017852612557627559 0.19656860209324539 0 0.035370792182188207 0.216260201755786 0 0.020197736684044801 0.2291273398277828 0 0.003893562275735573 0.2064819102401671 0 -0.0045317147067566524 0.21522543551468479 0 0.0038866256090455522 0.2239579318999283 0 0.003893562275735573 0.2064819102401671 0 -0.0012364494800765971 0.1960628175593882 0 0.01643925603633389 0.21561198758054059 0 -0.0012364494800765971 0.1960628175593882 0 0.01643925603633389 0.21561198758054059 0 0.003893562275735573 0.2064819102401671 0 0.020197736684044801 0.2291273398277828 0 0.01643925603633389 0.21561198758054059 0 0.003893562275735573 0.2064819102401671 0 -0.0012364494800765971 0.1960628175593882 0 0.01643925603633389 0.21561198758054059 0 0.017852612557627559 0.19656860209324539 0 -0.0012364494800765971 0.1960628175593882 0 0.00061104658230836653 0.17769045695541219 0 0.017852612557627559 0.19656860209324539 0 0.019359600384737739 0.17657282369350361 0 0.017852612557627559 0.19656860209324539 0 0.036931045214144441 0.19738193772184889 0 0.053915020648589329 0.181809847856817 0 0.036931045214144441 0.19738193772184889 0 0.062795137287949193 0.19833474639452611 0 0.036931045214144441 0.19738193772184889 0 0.054502490043551163 0.2181910517501941 0 0.062795137287949193 0.19833474639452611 0 0.036931045214144441 0.19738193772184889 0 0.054502490043551163 0.2181910517501941 0 0.036931045214144441 0.19738193772184889 0 0.054502490043551163 0.2181910517501941 0 0.035370792182188207 0.216260201755786 0 0.054502490043551163 0.2181910517501941 0 0.035370792182188207 0.216260201755786 0 0.034114961552744377 0.23516115760169301 0 0.054502490043551163 0.2181910517501941 0 0.055174909047777811 0.2396291133956362 0 0.034114961552744377 0.23516115760169301 0 0.054502490043551163 0.2181910517501941 0 0.055174909047777811 0.2396291133956362 0 0.072073934872957782 0.23900016577853919 0 0.055174909047777811 0.2396291133956362 0 0.034114961552744377 0.23516115760169301 0 0.051790667069154861 0.2547103276228454 0 0.055174909047777811 0.2396291133956362 0 0.051790667069154861 0.2547103276228454 0 0.063392491700480919 0.2510828642249095 0 0.034114961552744377 0.23516115760169301 0 0.036501911092354018 0.25177276941539839 0 0.051790667069154861 0.2547103276228454 0 0.034114961552744377 0.23516115760169301 0 0.051790667069154861 0.2547103276228454 0 0.072073934872957782 0.23900016577853919 0 0.093843955428218759 0.229542086103772 0 0.089645379702363526 0.25980927980688501 0 0.072073934872957782 0.23900016577853919 0 0.089645379702363526 0.25980927980688501 0 0.055174909047777811 0.2396291133956362 0 0.072073934872957782 0.23900016577853919 0 0.063392491700480919 0.2510828642249095 0 0.072073934872957782 0.23900016577853919 0 0.063392491700480919 0.2510828642249095 0 0.074261774750864804 0.25289133929391111 0 0.054502490043551163 0.2181910517501941 0 0.072073934872957782 0.23900016577853919 0 0.054502490043551163 0.2181910517501941 0 0.072073934872957782 0.23900016577853919 0 0.07691655231929137 0.22036312128655 0 0.072073934872957782 0.23900016577853919 0 0.07691655231929137 0.22036312128655 0 0.093843955428218759 0.229542086103772 0 0.084497559881492323 0.20266231069862009 0 0.1011551627426199 0.2154511434485995 0 0.093843955428218759 0.229542086103772 0 0.084497559881492323 0.20266231069862009 0 0.093843955428218759 0.229542086103772 0 0.07691655231929137 0.22036312128655 0 0.084497559881492323 0.20266231069862009 0 0.093843955428218759 0.229542086103772 0 0.07691655231929137 0.22036312128655 0 0.062795137287949193 0.19833474639452611 0 0.084497559881492323 0.20266231069862009 0 0.054502490043551163 0.2181910517501941 0 0.07691655231929137 0.22036312128655 0 0.062795137287949193 0.19833474639452611 0 0.062795137287949193 0.19833474639452611 0 0.084497559881492323 0.20266231069862009 0 0.075151164334765874 0.17578253529346821 0 0.084497559881492323 0.20266231069862009 0 0.075151164334765874 0.17578253529346821 0 0.084497559881492323 0.20266231069862009 0 0.10184565838461331 0.1924014028594688 0 0.093394980383096363 0.18307457459837531 0 0.084497559881492323 0.20266231069862009 0 0.10184565838461331 0.1924014028594688 0 0.10260278643249959 0.20376756124449391 0 0.10184565838461331 0.1924014028594688 0 0.1105875138732399 0.1994169567440035 0 0.10260278643249959 0.20376756124449391 0 0.10184565838461331 0.1924014028594688 0 0.1131184160342838 0.18994185980391479 0 0.1105875138732399 0.1994169567440035 0 0.10184565838461331 0.1924014028594688 0 0.1131184160342838 0.18994185980391479 0 0.1054525685194168 0.18020148819897211 0 0.1131184160342838 0.18994185980391479 0 0.1210814068145178 0.19423580856195369 0 0.1131184160342838 0.18994185980391479 0 0.1210814068145178 0.19423580856195369 0 0.1196286990311512 0.18236386641526309 0 0.1210814068145178 0.19423580856195369 0 0.11958782189190099 0.20227867846385961 0 0.13241563583181001 0.2003476577346209 0 0.1131184160342838 0.18994185980391479 0 0.1210814068145178 0.19423580856195369 0 0.11958782189190099 0.20227867846385961 0 0.1131184160342838 0.18994185980391479 0 0.11958782189190099 0.20227867846385961 0 0.1105875138732399 0.1994169567440035 0 0.11958782189190099 0.20227867846385961 0 0.1105875138732399 0.1994169567440035 0 0.11467542950451071 0.21015036581969679 0 0.11958782189190099 0.20227867846385961 0 0.11467542950451071 0.21015036581969679 0 0.12714211421566091 0.2115365522170618 0 0.11467542950451071 0.21015036581969679 0 0.1287590091161889 0.22454109023782651 0 0.12714211421566091 0.2115365522170618 0 0.11467542950451071 0.21015036581969679 0 0.1011551627426199 0.2154511434485995 0 0.1117838155087727 0.22779371718329239 0 0.084497559881492323 0.20266231069862009 0 0.10260278643249959 0.20376756124449391 0 0.1011551627426199 0.2154511434485995 0 0.1105875138732399 0.1994169567440035 0 0.11467542950451071 0.21015036581969679 0 0.10260278643249959 0.20376756124449391 0 0.11467542950451071 0.21015036581969679 0 0.10260278643249959 0.20376756124449391 0 0.1011551627426199 0.2154511434485995 0 0.1011551627426199 0.2154511434485995 0 0.093843955428218759 0.229542086103772 0 0.1117838155087727 0.22779371718329239 0 0.11467542950451071 0.21015036581969679 0 0.1117838155087727 0.22779371718329239 0 0.1287590091161889 0.22454109023782651 0 0.1117838155087727 0.22779371718329239 0 0.1287590091161889 0.22454109023782651 0 0.116065923487036 0.25155424759680489 0 0.093843955428218759 0.229542086103772 0 0.089645379702363526 0.25980927980688501 0 0.116065923487036 0.25155424759680489 0 0.093843955428218759 0.229542086103772 0 0.1117838155087727 0.22779371718329239 0 0.116065923487036 0.25155424759680489 0 0.085867858697711436 0.14453522140638461 0 0.070822549389301243 0.1380046816891726 0 0.082108764886198796 0.1605396281437739 0 0.085867858697711436 0.14453522140638461 0 0.082108764886198796 0.1605396281437739 0 0.098061838006449922 0.1524476624703702 0 0.085867858697711436 0.14453522140638461 0 0.084033960556429532 0.12884481400490949 0 0.098019367542785563 0.1407790739484335 0 0.085867858697711436 0.14453522140638461 0 0.084033960556429532 0.12884481400490949 0 0.070822549389301243 0.1380046816891726 0 0.071861500007931359 0.1232467005620789 0 0.059536333892403683 0.1154697352345713 0 0.070822549389301243 0.1380046816891726 0 0.059536333892403683 0.1154697352345713 0 0.070822549389301243 0.1380046816891726 0 0.056458373241313059 0.1220229844831647 0 0.070822549389301243 0.1380046816891726 0 0.065804768788039439 0.14890275988831639 0 0.071861500007931359 0.1232467005620789 0 0.084033960556429532 0.12884481400490949 0 0.070822549389301243 0.1380046816891726 0 0.070822549389301243 0.1380046816891726 0 0.082108764886198796 0.1605396281437739 0 0.070822549389301243 0.1380046816891726 0 0.065804768788039439 0.14890275988831639 0 0.082108764886198796 0.1605396281437739 0 0.056298621576963533 0.16595151756685289 0 0.065804768788039439 0.14890275988831639 0 0.075151164334765874 0.17578253529346821 0 0.065804768788039439 0.14890275988831639 0 0.075151164334765874 0.17578253529346821 0 0.082108764886198796 0.1605396281437739 0 0.065804768788039439 0.14890275988831639 0 0.075151164334765874 0.17578253529346821 0 0.053915020648589329 0.181809847856817 0 0.062795137287949193 0.19833474639452611 0 0.075151164334765874 0.17578253529346821 0 0.075151164334765874 0.17578253529346821 0 0.093394980383096363 0.18307457459837531 0 0.082108764886198796 0.1605396281437739 0 0.084497559881492323 0.20266231069862009 0 0.075151164334765874 0.17578253529346821 0 0.093394980383096363 0.18307457459837531 0 0.093394980383096363 0.18307457459837531 0 0.082108764886198796 0.1605396281437739 0 0.1017810834163356 0.16778327145988009 0 0.093394980383096363 0.18307457459837531 0 0.082108764886198796 0.1605396281437739 0 0.082108764886198796 0.1605396281437739 0 0.1017810834163356 0.16778327145988009 0 0.098061838006449922 0.1524476624703702 0 0.1017810834163356 0.16778327145988009 0 0.1094413004412432 0.1568441156191657 0 0.098061838006449922 0.1524476624703702 0 0.10184565838461331 0.1924014028594688 0 0.093394980383096363 0.18307457459837531 0 0.1054525685194168 0.18020148819897211 0 0.093394980383096363 0.18307457459837531 0 0.1017810834163356 0.16778327145988009 0 0.1054525685194168 0.18020148819897211 0 0.1017810834163356 0.16778327145988009 0 0.1054525685194168 0.18020148819897211 0 0.1143103312636523 0.17467474260035151 0 0.1131184160342838 0.18994185980391479 0 0.1132877880089454 0.18182979361660931 0 0.1196286990311512 0.18236386641526309 0 0.1131184160342838 0.18994185980391479 0 0.1054525685194168 0.18020148819897211 0 0.1132877880089454 0.18182979361660931 0 0.1054525685194168 0.18020148819897211 0 0.1132877880089454 0.18182979361660931 0 0.1143103312636523 0.17467474260035151 0 0.1132877880089454 0.18182979361660931 0 0.1143103312636523 0.17467474260035151 0 0.1196286990311512 0.18236386641526309 0 0.1143103312636523 0.17467474260035151 0 0.1229466648353691 0.17360959233997481 0 0.1196286990311512 0.18236386641526309 0 0.1229466648353691 0.17360959233997481 0 0.1196286990311512 0.18236386641526309 0 0.1315359285025598 0.17914174819028489 0 0.1210814068145178 0.19423580856195369 0 0.1196286990311512 0.18236386641526309 0 0.1315359285025598 0.17914174819028489 0 0.1017810834163356 0.16778327145988009 0 0.1143103312636523 0.17467474260035151 0 0.11826309888899959 0.1638296446882945 0 0.1017810834163356 0.16778327145988009 0 0.1094413004412432 0.1568441156191657 0 0.11826309888899959 0.1638296446882945 0 0.1094413004412432 0.1568441156191657 0 0.11826309888899959 0.1638296446882945 0 0.12116198843957229 0.15461983439099389 0 0.1143103312636523 0.17467474260035151 0 0.1229466648353691 0.17360959233997481 0 0.11826309888899959 0.1638296446882945 0 0.1229466648353691 0.17360959233997481 0 0.11826309888899959 0.1638296446882945 0 0.1286748755814317 0.16568949079043779 0 0.11826309888899959 0.1638296446882945 0 0.12116198843957229 0.15461983439099389 0 0.1286748755814317 0.16568949079043779 0 0.12116198843957229 0.15461983439099389 0 0.1235319134973574 0.14279740261083959 0 0.11069945258584669 0.14552439304262721 0 0.1094413004412432 0.1568441156191657 0 0.12116198843957229 0.15461983439099389 0 0.11069945258584669 0.14552439304262721 0 0.1094413004412432 0.1568441156191657 0 0.11069945258584669 0.14552439304262721 0 0.098061838006449922 0.1524476624703702 0 0.11069945258584669 0.14552439304262721 0 0.098019367542785563 0.1407790739484335 0 0.098061838006449922 0.1524476624703702 0 0.085867858697711436 0.14453522140638461 0 0.098019367542785563 0.1407790739484335 0 0.098061838006449922 0.1524476624703702 0 0.084033960556429532 0.12884481400490949 0 0.1117522404438802 0.12667258555115829 0 0.094862282777670462 0.1196438628042634 0 0.084033960556429532 0.12884481400490949 0 0.1117522404438802 0.12667258555115829 0 0.084033960556429532 0.12884481400490949 0 0.098019367542785563 0.1407790739484335 0 0.1117522404438802 0.12667258555115829 0 0.11069945258584669 0.14552439304262721 0 0.098019367542785563 0.1407790739484335 0 0.1117522404438802 0.12667258555115829 0 0.1235319134973574 0.14279740261083959 0 0.11069945258584669 0.14552439304262721 0 0.1117522404438802 0.12667258555115829 0 0.1235319134973574 0.14279740261083959 0 0.1117522404438802 0.12667258555115829 0 0.1338250830151082 0.13680555700437169 0 0.1117522404438802 0.12667258555115829 0 0.1338250830151082 0.13680555700437169 0 0.13947052033133081 0.1245003570974072 0 0.1117522404438802 0.12667258555115829 0 0.13947052033133081 0.1245003570974072 0 0.1338250830151082 0.13680555700437169 0 0.14773514824261011 0.13994704674368119 0 0.13947052033133081 0.1245003570974072 0 0.14773514824261011 0.13994704674368119 0 0.13947052033133081 0.1245003570974072 0 0.16718880021878149 0.12232812864365609 0 0.14773514824261011 0.13994704674368119 0 0.1492794596183103 0.15557552201751701 0 0.16307655427518189 0.1461583771030025 0 0.14773514824261011 0.13994704674368119 0 0.1492794596183103 0.15557552201751701 0 0.13636128964255501 0.15303395959459851 0 0.1235319134973574 0.14279740261083959 0 0.1338250830151082 0.13680555700437169 0 0.13636128964255501 0.15303395959459851 0 0.1338250830151082 0.13680555700437169 0 0.14773514824261011 0.13994704674368119 0 0.13636128964255501 0.15303395959459851 0 0.12116198843957229 0.15461983439099389 0 0.1235319134973574 0.14279740261083959 0 0.13636128964255501 0.15303395959459851 0 0.12116198843957229 0.15461983439099389 0 0.13636128964255501 0.15303395959459851 0 0.1286748755814317 0.16568949079043779 0 0.13636128964255501 0.15303395959459851 0 0.1286748755814317 0.16568949079043779 0 0.1402599975996246 0.1687496010839549 0 0.1286748755814317 0.16568949079043779 0 0.1402599975996246 0.1687496010839549 0 0.1315359285025598 0.17914174819028489 0 0.1210814068145178 0.19423580856195369 0 0.1315359285025598 0.17914174819028489 0 0.14172685770208041 0.18088834424850889 0 0.1229466648353691 0.17360959233997481 0 0.1286748755814317 0.16568949079043779 0 0.1315359285025598 0.17914174819028489 0 0.1402599975996246 0.1687496010839549 0 0.1315359285025598 0.17914174819028489 0 0.14172685770208041 0.18088834424850889 0 0.1315359285025598 0.17914174819028489 0 0.14172685770208041 0.18088834424850889 0 0.14172685770208041 0.18088834424850889 0 0.1589643083315804 0.1699886255623487 0 0.15664227980061579 0.1834446584897341 0 0.14172685770208041 0.18088834424850889 0 0.1589643083315804 0.1699886255623487 0 0.1402599975996246 0.1687496010839549 0 0.14172685770208041 0.18088834424850889 0 0.1589643083315804 0.1699886255623487 0 0.14172685770208041 0.18088834424850889 0 0.15664227980061579 0.1834446584897341 0 0.14735069213281321 0.19092796682168489 0 0.14172685770208041 0.18088834424850889 0 0.15664227980061579 0.1834446584897341 0 0.1492794596183103 0.15557552201751701 0 0.1402599975996246 0.1687496010839549 0 0.1589643083315804 0.1699886255623487 0 0.1492794596183103 0.15557552201751701 0 0.13636128964255501 0.15303395959459851 0 0.1402599975996246 0.1687496010839549 0 0.1492794596183103 0.15557552201751701 0 0.1589643083315804 0.1699886255623487 0 0.16307655427518189 0.1461583771030025 0 0.1589643083315804 0.1699886255623487 0 0.1832181015668064 0.15465227861531949 0 0.16307655427518189 0.1461583771030025 0 0.1589643083315804 0.1699886255623487 0 0.16307655427518189 0.1461583771030025 0 0.1589643083315804 0.1699886255623487 0 0.1832181015668064 0.15465227861531949 0 0.1589643083315804 0.1699886255623487 0 0.15664227980061579 0.1834446584897341 0 0.17367876449497299 0.17356388092826039 0 0.15664227980061579 0.1834446584897341 0 0.17803712215301101 0.18711146321258301 0 0.15664227980061579 0.1834446584897341 0 0.17367876449497299 0.17356388092826039 0 0.17803712215301101 0.18711146321258301 0 0.1589643083315804 0.1699886255623487 0 0.15664227980061579 0.1834446584897341 0 0.17367876449497299 0.17356388092826039 0 0.17803712215301101 0.18711146321258301 0 0.1915320106228488 0.17262237876131631 0 0.1589643083315804 0.1699886255623487 0 0.17367876449497299 0.17356388092826039 0 0.1832181015668064 0.15465227861531949 0 0.17367876449497299 0.17356388092826039 0 0.1832181015668064 0.15465227861531949 0 0.1915320106228488 0.17262237876131631 0 0.1832181015668064 0.15465227861531949 0 0.18154761934540289 0.13534417850528041 0 0.16307655427518189 0.1461583771030025 0 0.18154761934540289 0.13534417850528041 0 0.19370351113240411 0.1202502215829211 0 0.16718880021878149 0.12232812864365609 0 0.16307655427518189 0.1461583771030025 0 0.16718880021878149 0.12232812864365609 0 0.14773514824261011 0.13994704674368119 0 0.16307655427518189 0.1461583771030025 0 0.16718880021878149 0.12232812864365609 0 0.18154761934540289 0.13534417850528041 0 0.16307655427518189 0.1461583771030025 0 0.16718880021878149 0.12232812864365609 0 0.14248646727170791 0.24329921538672239 0 0.16890701105638031 0.23504418317664161 0 0.14248646727170791 0.24329921538672239 0 0.116065923487036 0.25155424759680489 0 0.14248646727170791 0.24329921538672239 0 0.1287590091161889 0.22454109023782651 0 0.116065923487036 0.25155424759680489 0 0.14248646727170791 0.24329921538672239 0 0.1287590091161889 0.22454109023782651 0 0.14216045677169509 0.2226427774354276 0 0.1287590091161889 0.22454109023782651 0 0.14216045677169509 0.2226427774354276 0 0.13903299807830019 0.21154409335764149 0 0.14248646727170791 0.24329921538672239 0 0.14216045677169509 0.2226427774354276 0 0.16890701105638031 0.23504418317664161 0 0.14216045677169509 0.2226427774354276 0 0.1513137794066001 0.21432303737238931 0 0.16890701105638031 0.23504418317664161 0 0.15183105921464751 0.210852851725322 0 0.13241563583181001 0.2003476577346209 0 0.15183105921464751 0.210852851725322 0 0.13903299807830019 0.21154409335764149 0 0.13241563583181001 0.2003476577346209 0 0.1513137794066001 0.21432303737238931 0 0.15183105921464751 0.210852851725322 0 0.14522842943996589 0.21534193400985699 0 0.1513137794066001 0.21432303737238931 0 0.15183105921464751 0.210852851725322 0 0.15183105921464751 0.210852851725322 0 0.14522842943996589 0.21534193400985699 0 0.13903299807830019 0.21154409335764149 0 0.14216045677169509 0.2226427774354276 0 0.1513137794066001 0.21432303737238931 0 0.14522842943996589 0.21534193400985699 0 0.14216045677169509 0.2226427774354276 0 0.14522842943996589 0.21534193400985699 0 0.13903299807830019 0.21154409335764149 0 0.1287590091161889 0.22454109023782651 0 0.13903299807830019 0.21154409335764149 0 0.12714211421566091 0.2115365522170618 0 0.11958782189190099 0.20227867846385961 0 0.12714211421566091 0.2115365522170618 0 0.13241563583181001 0.2003476577346209 0 0.13903299807830019 0.21154409335764149 0 0.12714211421566091 0.2115365522170618 0 0.13241563583181001 0.2003476577346209 0 0.1210814068145178 0.19423580856195369 0 0.13241563583181001 0.2003476577346209 0 0.13808072668616231 0.19149491569441959 0 0.1210814068145178 0.19423580856195369 0 0.14172685770208041 0.18088834424850889 0 0.13808072668616231 0.19149491569441959 0 0.1210814068145178 0.19423580856195369 0 0.14172685770208041 0.18088834424850889 0 0.1210814068145178 0.19423580856195369 0 0.13241563583181001 0.2003476577346209 0 0.15664227980061579 0.1834446584897341 0 0.15183105921464751 0.210852851725322 0 0.14735069213281321 0.19092796682168489 0 0.14172685770208041 0.18088834424850889 0 0.13808072668616231 0.19149491569441959 0 0.14735069213281321 0.19092796682168489 0 0.15183105921464751 0.210852851725322 0 0.13808072668616231 0.19149491569441959 0 0.14735069213281321 0.19092796682168489 0 0.15664227980061579 0.1834446584897341 0 0.15183105921464751 0.210852851725322 0 0.15183105921464751 0.210852851725322 0 0.13241563583181001 0.2003476577346209 0 0.13808072668616231 0.19149491569441959 0 0.15183105921464751 0.210852851725322 0 0.13808072668616231 0.19149491569441959 0 0.15664227980061579 0.1834446584897341 0 0.17803712215301101 0.18711146321258301 0 0.17078007948547791 0.20461318166966591 0 0.15664227980061579 0.1834446584897341 0 0.15183105921464751 0.210852851725322 0 0.17078007948547791 0.20461318166966591 0 0.17803712215301101 0.18711146321258301 0 0.18699821765939811 0.20575379358823331 0 0.17078007948547791 0.20461318166966591 0 0.18699821765939811 0.20575379358823331 0 0.18150256540618689 0.21619068467845909 0 0.17078007948547791 0.20461318166966591 0 0.18150256540618689 0.21619068467845909 0 0.17078007948547791 0.20461318166966591 0 0.1696832039875637 0.2204437538389574 0 0.15183105921464751 0.210852851725322 0 0.1696832039875637 0.2204437538389574 0 0.15183105921464751 0.210852851725322 0 0.17078007948547791 0.20461318166966591 0 0.1696832039875637 0.2204437538389574 0 0.15183105921464751 0.210852851725322 0 0.16890701105638031 0.23504418317664161 0 0.15183105921464751 0.210852851725322 0 0.1696832039875637 0.2204437538389574 0 0.16890701105638031 0.23504418317664161 0 0.1513137794066001 0.21432303737238931 0 0.15183105921464751 0.210852851725322 0 0.16890701105638031 0.23504418317664161 0 0.1696832039875637 0.2204437538389574 0 0.1730962958839812 0.23373525170759399 0 0.16890701105638031 0.23504418317664161 0 0.18150256540618689 0.21619068467845909 0 0.1696832039875637 0.2204437538389574 0 0.1874551123034256 0.23002704556275291 0 0.1696832039875637 0.2204437538389574 0 0.1874551123034256 0.23002704556275291 0 0.1730962958839812 0.23373525170759399 0 0.1696832039875637 0.2204437538389574 0 0.1874551123034256 0.23002704556275291 0 0.16890701105638031 0.23504418317664161 0 0.18564289691528729 0.25868749876629671 0 0.1821848497420967 0.24129823675235251 0 0.16890701105638031 0.23504418317664161 0 0.18564289691528729 0.25868749876629671 0 0.1730962958839812 0.23373525170759399 0 0.1821848497420967 0.24129823675235251 0 0.16890701105638031 0.23504418317664161 0 0.1874551123034256 0.23002704556275291 0 0.1730962958839812 0.23373525170759399 0 0.1821848497420967 0.24129823675235251 0 0.14248646727170791 0.24329921538672239 0 0.16890701105638031 0.23504418317664161 0 0.1631161995596529 0.25657386530356069 0 0.1730962958839812 0.23373525170759399 0 0.16890701105638031 0.23504418317664161 0 0.2052270206192876 0.23961033728654851 0 0.2245441737887168 0.23093760545441711 0 0.21458810326103989 0.25029177234766842 0 0.2052270206192876 0.23961033728654851 0 0.2050239072751949 0.2492833193895482 0 0.21458810326103989 0.25029177234766842 0 0.2052270206192876 0.23961033728654851 0 0.2050239072751949 0.2492833193895482 0 0.1956251304139873 0.24830732682566101 0 0.1874551123034256 0.23002704556275291 0 0.1821848497420967 0.24129823675235251 0 0.1956251304139873 0.24830732682566101 0 0.1874551123034256 0.23002704556275291 0 0.2052270206192876 0.23961033728654851 0 0.1821848497420967 0.24129823675235251 0 0.1956251304139873 0.24830732682566101 0 0.18564289691528729 0.25868749876629671 0 0.1874551123034256 0.23002704556275291 0 0.2052270206192876 0.23961033728654851 0 0.1956251304139873 0.24830732682566101 0 0.1874551123034256 0.23002704556275291 0 0.2052270206192876 0.23961033728654851 0 0.20110338325899621 0.22697869990708769 0 0.18150256540618689 0.21619068467845909 0 0.1874551123034256 0.23002704556275291 0 0.19422843088031849 0.2167901493339745 0 0.1874551123034256 0.23002704556275291 0 0.20110338325899621 0.22697869990708769 0 0.19422843088031849 0.2167901493339745 0 0.20110338325899621 0.22697869990708769 0 0.2086865974780466 0.21738525977654841 0 0.19422843088031849 0.2167901493339745 0 0.2052270206192876 0.23961033728654851 0 0.21155197229915221 0.22775520817690251 0 0.2245441737887168 0.23093760545441711 0 0.20110338325899621 0.22697869990708769 0 0.21155197229915221 0.22775520817690251 0 0.2086865974780466 0.21738525977654841 0 0.2052270206192876 0.23961033728654851 0 0.20110338325899621 0.22697869990708769 0 0.21155197229915221 0.22775520817690251 0 0.21155197229915221 0.22775520817690251 0 0.2086865974780466 0.21738525977654841 0 0.22156171208109349 0.2232889965660497 0 0.211417792929007 0.20448623071467029 0 0.2086865974780466 0.21738525977654841 0 0.22411523440486891 0.2128525325182862 0 0.2086865974780466 0.21738525977654841 0 0.22411523440486891 0.2128525325182862 0 0.22156171208109349 0.2232889965660497 0 0.211417792929007 0.20448623071467029 0 0.2086865974780466 0.21738525977654841 0 0.19996516513116139 0.20542151256053021 0 0.2086865974780466 0.21738525977654841 0 0.19422843088031849 0.2167901493339745 0 0.19996516513116139 0.20542151256053021 0 0.18699821765939811 0.20575379358823331 0 0.18150256540618689 0.21619068467845909 0 0.19422843088031849 0.2167901493339745 0 0.18699821765939811 0.20575379358823331 0 0.19422843088031849 0.2167901493339745 0 0.19996516513116139 0.20542151256053021 0 0.18699821765939811 0.20575379358823331 0 0.19996516513116139 0.20542151256053021 0 0.19943196450540629 0.19077826793543179 0 0.17803712215301101 0.18711146321258301 0 0.19943196450540629 0.19077826793543179 0 0.17803712215301101 0.18711146321258301 0 0.18699821765939811 0.20575379358823331 0 0.19943196450540629 0.19077826793543179 0 0.211417792929007 0.20448623071467029 0 0.19943196450540629 0.19077826793543179 0 0.22082680685780151 0.19444507265828059 0 0.19943196450540629 0.19077826793543179 0 0.22082680685780151 0.19444507265828059 0 0.211417792929007 0.20448623071467029 0 0.19996516513116139 0.20542151256053021 0 0.19943196450540629 0.19077826793543179 0 0.22082680685780151 0.19444507265828059 0 0.2418323282778008 0.1922485172988235 0 0.23200417938957321 0.20455559625434991 0 0.22082680685780151 0.19444507265828059 0 0.2418323282778008 0.1922485172988235 0 0.2298041727050075 0.1787595393801808 0 0.2418323282778008 0.1922485172988235 0 0.24124234801782149 0.21867626254200909 0 0.2418323282778008 0.1922485172988235 0 0.24124234801782149 0.21867626254200909 0 0.25471258750952741 0.20148162901819469 0 0.2418323282778008 0.1922485172988235 0 0.24124234801782149 0.21867626254200909 0 0.23200417938957321 0.20455559625434991 0 0.24124234801782149 0.21867626254200909 0 0.25357276657721323 0.21641202867955539 0 0.25471258750952741 0.20148162901819469 0 0.24124234801782149 0.21867626254200909 0 0.22411523440486891 0.2128525325182862 0 0.2303270751280653 0.22194856436908961 0 0.211417792929007 0.20448623071467029 0 0.22082680685780151 0.19444507265828059 0 0.22411523440486891 0.2128525325182862 0 0.22082680685780151 0.19444507265828059 0 0.23200417938957321 0.20455559625434991 0 0.22411523440486891 0.2128525325182862 0 0.24124234801782149 0.21867626254200909 0 0.23200417938957321 0.20455559625434991 0 0.22411523440486891 0.2128525325182862 0 0.22411523440486891 0.2128525325182862 0 0.22156171208109349 0.2232889965660497 0 0.2303270751280653 0.22194856436908961 0 0.22156171208109349 0.2232889965660497 0 0.2245441737887168 0.23093760545441711 0 0.2301452193877111 0.22885480910105491 0 0.21155197229915221 0.22775520817690251 0 0.22156171208109349 0.2232889965660497 0 0.2245441737887168 0.23093760545441711 0 0.2301452193877111 0.22885480910105491 0 0.23408043491912681 0.23335190051361199 0 0.23787356880598759 0.22384871304106421 0 0.2301452193877111 0.22885480910105491 0 0.23408043491912681 0.23335190051361199 0 0.2258394828391487 0.23585902185418811 0 0.2245441737887168 0.23093760545441711 0 0.2301452193877111 0.22885480910105491 0 0.2258394828391487 0.23585902185418811 0 0.2301452193877111 0.22885480910105491 0 0.2303270751280653 0.22194856436908961 0 0.23787356880598759 0.22384871304106421 0 0.22156171208109349 0.2232889965660497 0 0.2301452193877111 0.22885480910105491 0 0.2303270751280653 0.22194856436908961 0 0.24124234801782149 0.21867626254200909 0 0.2303270751280653 0.22194856436908961 0 0.23787356880598759 0.22384871304106421 0 0.24124234801782149 0.21867626254200909 0 0.23787356880598759 0.22384871304106421 0 0.25357276657721323 0.21641202867955539 0 0.23408043491912681 0.23335190051361199 0 0.24868260911088891 0.2303107595792985 0 0.25357276657721323 0.21641202867955539 0 0.23408043491912681 0.23335190051361199 0 0.23787356880598759 0.22384871304106421 0 0.25357276657721323 0.21641202867955539 0 0.23408043491912681 0.23335190051361199 0 0.25357276657721323 0.21641202867955539 0 0.24868260911088891 0.2303107595792985 0 0.2392512687495113 0.23539683186585869 0 0.2471090749199483 0.2357199094212839 0 0.23408043491912681 0.23335190051361199 0 0.24868260911088891 0.2303107595792985 0 0.2392512687495113 0.23539683186585869 0 0.23408043491912681 0.23335190051361199 0 0.2356673672060029 0.23553231024254659 0 0.23369101455560959 0.23545012385447089 0 0.2356673672060029 0.23553231024254659 0 0.23652425047500741 0.24096462129343871 0 0.23369101455560959 0.23545012385447089 0 0.23652425047500741 0.24096462129343871 0 0.2392512687495113 0.23539683186585869 0 0.24523436150048811 0.24199469982198529 0 0.2356673672060029 0.23553231024254659 0 0.23652425047500741 0.24096462129343871 0 0.2392512687495113 0.23539683186585869 0 0.23408043491912681 0.23335190051361199 0 0.2356673672060029 0.23553231024254659 0 0.2392512687495113 0.23539683186585869 0 0.24523436150048811 0.24199469982198529 0 0.2471090749199483 0.2357199094212839 0 0.25452501640087027 0.2374112721999547 0 0.2392512687495113 0.23539683186585869 0 0.24523436150048811 0.24199469982198529 0 0.2471090749199483 0.2357199094212839 0 0.24523436150048811 0.24199469982198529 0 0.23995652529561701 0.25039133628829258 0 0.25404003316197471 0.25208422786308371 0 0.23652425047500741 0.24096462129343871 0 0.24523436150048811 0.24199469982198529 0 0.23995652529561701 0.25039133628829258 0 0.23652425047500741 0.24096462129343871 0 0.23169913173193779 0.25404958449575432 0 0.23995652529561701 0.25039133628829258 0 0.23369101455560959 0.23545012385447089 0 0.2170338530129477 0.25958452376210089 0 0.21458810326103989 0.25029177234766842 0 0.23408043491912681 0.23335190051361199 0 0.23369101455560959 0.23545012385447089 0 0.21458810326103989 0.25029177234766842 0 0.23408043491912681 0.23335190051361199 0 0.21458810326103989 0.25029177234766842 0 0.2245441737887168 0.23093760545441711 0 0.21458810326103989 0.25029177234766842 0 0.23408043491912681 0.23335190051361199 0 0.2258394828391487 0.23585902185418811 0 0.21458810326103989 0.25029177234766842 0 0.23369101455560959 0.23545012385447089 0 0.2170338530129477 0.25958452376210089 0 0.23169913173193779 0.25404958449575432 0 0.23652425047500741 0.24096462129343871 0 0.23369101455560959 0.23545012385447089 0 0.23169913173193779 0.25404958449575432 0 0.23369101455560959 0.23545012385447089 0 0.2170338530129477 0.25958452376210089 0 0.2245441737887168 0.23093760545441711 0 0.2258394828391487 0.23585902185418811 0 0.21458810326103989 0.25029177234766842 0 0.2074718948020329 0.13931593166829101 0 0.2035930282546865 0.1573108976369578 0 0.22801201431925219 0.15227861461809999 0 0.2074718948020329 0.13931593166829101 0 0.22815060196587239 0.13250420183309389 0 0.2202182220460269 0.1181723145221887 0 0.2074718948020329 0.13931593166829101 0 0.2202182220460269 0.1181723145221887 0 0.19370351113240411 0.1202502215829211 0 0.18154761934540289 0.13534417850528041 0 0.2074718948020329 0.13931593166829101 0 0.19370351113240411 0.1202502215829211 0 0.1832181015668064 0.15465227861531949 0 0.2074718948020329 0.13931593166829101 0 0.1832181015668064 0.15465227861531949 0 0.18154761934540289 0.13534417850528041 0 0.2074718948020329 0.13931593166829101 0 0.1832181015668064 0.15465227861531949 0 0.2074718948020329 0.13931593166829101 0 0.2035930282546865 0.1573108976369578 0 0.1832181015668064 0.15465227861531949 0 0.1915320106228488 0.17262237876131631 0 0.2035930282546865 0.1573108976369578 0 0.1915320106228488 0.17262237876131631 0 0.21309098299550949 0.1707274381193544 0 0.2035930282546865 0.1573108976369578 0 0.19943196450540629 0.19077826793543179 0 0.1915320106228488 0.17262237876131631 0 0.21309098299550949 0.1707274381193544 0 0.17803712215301101 0.18711146321258301 0 0.19943196450540629 0.19077826793543179 0 0.1915320106228488 0.17262237876131631 0 0.19943196450540629 0.19077826793543179 0 0.22082680685780151 0.19444507265828059 0 0.21309098299550949 0.1707274381193544 0 0.21309098299550949 0.1707274381193544 0 0.2035930282546865 0.1573108976369578 0 0.22801201431925219 0.15227861461809999 0 0.2298041727050075 0.1787595393801808 0 0.2424223085377801 0.16582077205563811 0 0.22801201431925219 0.15227861461809999 0 0.21309098299550949 0.1707274381193544 0 0.2298041727050075 0.1787595393801808 0 0.22801201431925219 0.15227861461809999 0 0.22082680685780151 0.19444507265828059 0 0.21309098299550949 0.1707274381193544 0 0.2298041727050075 0.1787595393801808 0 0.2418323282778008 0.1922485172988235 0 0.2424223085377801 0.16582077205563811 0 0.2418323282778008 0.1922485172988235 0 0.2424223085377801 0.16582077205563811 0 0.26032431562704572 0.18342712708893841 0 0.2418323282778008 0.1922485172988235 0 0.2298041727050075 0.1787595393801808 0 0.2424223085377801 0.16582077205563811 0 0.2424223085377801 0.16582077205563811 0 0.24301228879775941 0.13939302681245261 0 0.2424223085377801 0.16582077205563811 0 0.24301228879775941 0.13939302681245261 0 0.25486404381895789 0.1523024957907583 0 0.22801201431925219 0.15227861461809999 0 0.23648687609860089 0.13476882232929049 0 0.24301228879775941 0.13939302681245261 0 0.2424223085377801 0.16582077205563811 0 0.22801201431925219 0.15227861461809999 0 0.24301228879775941 0.13939302681245261 0 0.2074718948020329 0.13931593166829101 0 0.22801201431925219 0.15227861461809999 0 0.22815060196587239 0.13250420183309389 0 0.22815060196587239 0.13250420183309389 0 0.24420216851797599 0.1292372680552665 0 0.2202182220460269 0.1181723145221887 0 0.22801201431925219 0.15227861461809999 0 0.22815060196587239 0.13250420183309389 0 0.23648687609860089 0.13476882232929049 0 0.22815060196587239 0.13250420183309389 0 0.23648687609860089 0.13476882232929049 0 0.24420216851797599 0.1292372680552665 0 0.23648687609860089 0.13476882232929049 0 0.24301228879775941 0.13939302681245261 0 0.24420216851797599 0.1292372680552665 0 0.24646482385440791 0.1109165710353929 0 0.23770217468454991 0.11680213067385049 0 0.255186127323073 0.11543194682551421 0 0.24420216851797599 0.1292372680552665 0 0.23770217468454991 0.11680213067385049 0 0.255186127323073 0.11543194682551421 0 0.23770217468454991 0.11680213067385049 0 0.255186127323073 0.11543194682551421 0 0.23770217468454991 0.11680213067385049 0 0.24055722746134861 0.1095612663226197 0 0.23538797832625211 0.10692464088038291 0 0.24646482385440791 0.1109165710353929 0 0.23770217468454991 0.11680213067385049 0 0.24055722746134861 0.1095612663226197 0 0.24174744587836799 0.1033548466348798 0 0.22816008327650389 0.097918375238235045 0 0.24736227196270541 0.090270970101712061 0 0.22816008327650389 0.097918375238235045 0 0.24736227196270541 0.090270970101712061 0 0.24174744587836799 0.1033548466348798 0 0.24736227196270541 0.090270970101712061 0 0.25459763100830068 0.096141582858552177 0 0.24174744587836799 0.1033548466348798 0 0.25459763100830068 0.096141582858552177 0 0.24646482385440791 0.1109165710353929 0 0.24174744587836799 0.1033548466348798 0 0.25655208948606423 0.10927836717886751 0 0.24174744587836799 0.1033548466348798 0 0.25655208948606423 0.10927836717886751 0 0.24646482385440791 0.1109165710353929 0 0.24055722746134861 0.1095612663226197 0 0.24174744587836799 0.1033548466348798 0 0.23538797832625211 0.10692464088038291 0 0.24174744587836799 0.1033548466348798 0 0.22816008327650389 0.097918375238235045 0 0.24055722746134861 0.1095612663226197 0 0.23538797832625211 0.10692464088038291 0 0.24174744587836799 0.1033548466348798 0 0.23538797832625211 0.10692464088038291 0 0.24174744587836799 0.1033548466348798 0 0.24174744587836799 0.1033548466348798 0 0.22816008327650389 0.097918375238235045 0 0.23538797832625211 0.10692464088038291 0 0.22816008327650389 0.097918375238235045 0 0.22436085098549791 0.1097634104313145 0 0.23770217468454991 0.11680213067385049 0 0.2202182220460269 0.1181723145221887 0 0.23770217468454991 0.11680213067385049 0 0.2202182220460269 0.1181723145221887 0 0.22436085098549791 0.1097634104313145 0 0.24420216851797599 0.1292372680552665 0 0.23770217468454991 0.11680213067385049 0 0.2202182220460269 0.1181723145221887 0 0.24420216851797599 0.1292372680552665 0 0.2202182220460269 0.1181723145221887 0 0.23770217468454991 0.11680213067385049 0 0.23538797832625211 0.10692464088038291 0 0.22436085098549791 0.1097634104313145 0 0.2202182220460269 0.1181723145221887 0 0.20033579659415629 0.10899959084191641 0 0.19370351113240411 0.1202502215829211 0 0.2202182220460269 0.1181723145221887 0 0.20033579659415629 0.10899959084191641 0 0.2202182220460269 0.1181723145221887 0 0.19370351113240411 0.1202502215829211 0 0.2202182220460269 0.1181723145221887 0 0.22436085098549791 0.1097634104313145 0 0.20033579659415629 0.10899959084191641 0 0.22816008327650389 0.097918375238235045 0 0.22436085098549791 0.1097634104313145 0 0.20033579659415629 0.10899959084191641 0 0.22816008327650389 0.097918375238235045 0 0.20033579659415629 0.10899959084191641 0 0.2016134769563831 0.087296750559026068 0 0.22816008327650389 0.097918375238235045 0 0.20033579659415629 0.10899959084191641 0 0.20033579659415629 0.10899959084191641 0 0.18422746814952201 0.1154148446289336 0 0.1860496622757298 0.1024087067025775 0 0.20033579659415629 0.10899959084191641 0 0.2016134769563831 0.087296750559026068 0 0.1860496622757298 0.1024087067025775 0 0.20033579659415629 0.10899959084191641 0 0.1860496622757298 0.1024087067025775 0 0.20033579659415629 0.10899959084191641 0 0.19370351113240411 0.1202502215829211 0 0.18422746814952201 0.1154148446289336 0 0.20033579659415629 0.10899959084191641 0 0.18422746814952201 0.1154148446289336 0 0.19220101611619109 0.069455466931817506 0 0.2016134769563831 0.087296750559026068 0 0.22553753830923129 0.072562856517635971 0 0.19220101611619109 0.069455466931817506 0 0.22553753830923129 0.072562856517635971 0 0.20371280465575431 0.054854742933563613 0 0.19220101611619109 0.069455466931817506 0 0.2016134769563831 0.087296750559026068 0 0.17506687063626211 0.076675125879817507 0 0.2016134769563831 0.087296750559026068 0 0.17506687063626211 0.076675125879817507 0 0.2016134769563831 0.087296750559026068 0 0.1860496622757298 0.1024087067025775 0 0.17954517331912459 0.085943521096986275 0 0.22816008327650389 0.097918375238235045 0 0.2016134769563831 0.087296750559026068 0 0.22553753830923129 0.072562856517635971 0 0.22816008327650389 0.097918375238235045 0 0.2016134769563831 0.087296750559026068 0 0.22553753830923129 0.072562856517635971 0 0.20371280465575431 0.054854742933563613 0 0.22816008327650389 0.097918375238235045 0 0.22553753830923129 0.072562856517635971 0 0.24736227196270541 0.090270970101712061 0 0.22553753830923129 0.072562856517635971 0 0.24736227196270541 0.090270970101712061 0 0.22553753830923129 0.072562856517635971 0 0.24736227196270541 0.090270970101712061 0 0.24874122334595 0.07170785510379532 0 0.22553753830923129 0.072562856517635971 0 0.24874122334595 0.07170785510379532 0 0.24629062771517271 0.052820950830226497 0 0.24629062771517271 0.052820950830226497 0 0.22540450977275331 0.044226989078737088 0 0.24629062771517271 0.052820950830226497 0 0.2492733855269578 0.041579555173777823 0 0.22540450977275331 0.044226989078737088 0 0.2492733855269578 0.041579555173777823 0 0.23050941707716249 0.025621187905106171 0 0.2492733855269578 0.041579555173777823 0 0.22540450977275331 0.044226989078737088 0 0.23050941707716249 0.025621187905106171 0 0.22540450977275331 0.044226989078737088 0 0.23050941707716249 0.025621187905106171 0 0.21805144048265651 0.031797176764528597 0 0.22553753830923129 0.072562856517635971 0 0.24629062771517271 0.052820950830226497 0 0.22540450977275331 0.044226989078737088 0 0.23790413247208811 0.0091049515404343275 0 0.25322369798355371 0.0032948183560677501 0 0.2464198669495459 -0.012097030270161889 0 0.23790413247208811 0.0091049515404343275 0 0.25442723867738032 0.016379625870619269 0 0.25322369798355371 0.0032948183560677501 0 0.2492733855269578 0.041579555173777823 0 0.24818833723327199 0.02644705719899533 0 0.23050941707716249 0.025621187905106171 0 0.23790413247208811 0.0091049515404343275 0 0.24818833723327199 0.02644705719899533 0 0.25442723867738032 0.016379625870619269 0 0.23790413247208811 0.0091049515404343275 0 0.24818833723327199 0.02644705719899533 0 0.23050941707716249 0.025621187905106171 0 0.23050941707716249 0.025621187905106171 0 0.2117734432503762 0.02170750274702346 0 0.21805144048265651 0.031797176764528597 0 0.23050941707716249 0.025621187905106171 0 0.21174544862736719 0.0096628206364345465 0 0.23050941707716249 0.025621187905106171 0 0.22518260227175371 0.0072623370788317187 0 0.21174544862736719 0.0096628206364345465 0 0.23790413247208811 0.0091049515404343275 0 0.22518260227175371 0.0072623370788317187 0 0.2300866381754704 -0.0072438550720441714 0 0.23790413247208811 0.0091049515404343275 0 0.23050941707716249 0.025621187905106171 0 0.22518260227175371 0.0072623370788317187 0 0.21174544862736719 0.0096628206364345465 0 0.2117734432503762 0.02170750274702346 0 0.20589386385567829 -0.0063134785331596111 0 0.2117734432503762 0.02170750274702346 0 0.19985428483697371 0.01027601627170664 0 0.20589386385567829 -0.0063134785331596111 0 0.2117734432503762 0.02170750274702346 0 0.20589386385567829 -0.0063134785331596111 0 0.22518260227175371 0.0072623370788317187 0 0.21174544862736719 0.0096628206364345465 0 0.2185782736923042 -0.0038367730406402641 0 0.23050941707716249 0.025621187905106171 0 0.21174544862736719 0.0096628206364345465 0 0.2117734432503762 0.02170750274702346 0 0.2117734432503762 0.02170750274702346 0 0.19994459845139961 0.023663902980434019 0 0.19985428483697371 0.01027601627170664 0 0.2117734432503762 0.02170750274702346 0 0.21805144048265651 0.031797176764528597 0 0.20451839183033399 0.035633027327247678 0 0.2117734432503762 0.02170750274702346 0 0.19994459845139961 0.023663902980434019 0 0.20451839183033399 0.035633027327247678 0 0.19994459845139961 0.023663902980434019 0 0.20451839183033399 0.035633027327247678 0 0.1836322738879155 0.027039065575756291 0 0.19994459845139961 0.023663902980434019 0 0.19985428483697371 0.01027601627170664 0 0.1836322738879155 0.027039065575756291 0 0.19985428483697371 0.01027601627170664 0 0.20589386385567829 -0.0063134785331596111 0 0.18863989258252481 -0.001979820774580698 0 0.19985428483697371 0.01027601627170664 0 0.1836322738879155 0.027039065575756291 0 0.18863989258252481 -0.001979820774580698 0 0.22553753830923129 0.072562856517635971 0 0.22540450977275331 0.044226989078737088 0 0.20371280465575431 0.054854742933563613 0 0.22540450977275331 0.044226989078737088 0 0.20451839183033399 0.035633027327247678 0 0.22540450977275331 0.044226989078737088 0 0.21805144048265651 0.031797176764528597 0 0.20451839183033399 0.035633027327247678 0 0.22540450977275331 0.044226989078737088 0 0.20371280465575431 0.054854742933563613 0 0.20451839183033399 0.035633027327247678 0 0.20451839183033399 0.035633027327247678 0 0.1818880710022803 0.03714662934948755 0 0.1836322738879155 0.027039065575756291 0 0.20371280465575431 0.054854742933563613 0 0.20451839183033399 0.035633027327247678 0 0.1818880710022803 0.03714662934948755 0 0.20371280465575431 0.054854742933563613 0 0.1818880710022803 0.03714662934948755 0 0.20451839183033399 0.035633027327247678 0 0.1836322738879155 0.027039065575756291 0 0.20371280465575431 0.054854742933563613 0 0.17847747081927551 0.05691087761465332 0 0.1818880710022803 0.03714662934948755 0 0.19220101611619109 0.069455466931817506 0 0.20371280465575431 0.054854742933563613 0 0.17847747081927551 0.05691087761465332 0 0.17847747081927551 0.05691087761465332 0 0.1818880710022803 0.03714662934948755 0 0.17847747081927551 0.05691087761465332 0 0.1818880710022803 0.03714662934948755 0 0.1636569447874848 0.036789081642687432 0 0.1818880710022803 0.03714662934948755 0 0.1836322738879155 0.027039065575756291 0 0.1818880710022803 0.03714662934948755 0 0.1636569447874848 0.036789081642687432 0 0.1620242678869008 0.02102957209859084 0 0.17847747081927551 0.05691087761465332 0 0.1636569447874848 0.036789081642687432 0 0.15962551614652079 0.053115759904931073 0 0.17847747081927551 0.05691087761465332 0 0.15962551614652079 0.053115759904931073 0 0.16641746421004469 0.065589342706300277 0 0.15962551614652079 0.053115759904931073 0 0.15045482833334159 0.067212260357143019 0 0.16641746421004469 0.065589342706300277 0 0.1716695151525548 0.011722155214289249 0 0.17506184651935949 -0.0021247232161890161 0 0.18863989258252481 -0.001979820774580698 0 0.1836322738879155 0.027039065575756291 0 0.18863989258252481 -0.001979820774580698 0 0.1836322738879155 0.027039065575756291 0 0.1716695151525548 0.011722155214289249 0 0.18863989258252481 -0.001979820774580698 0 0.1818880710022803 0.03714662934948755 0 0.1730573255808272 0.02268781650565178 0 0.1620242678869008 0.02102957209859084 0 0.1818880710022803 0.03714662934948755 0 0.1620242678869008 0.02102957209859084 0 0.1730573255808272 0.02268781650565178 0 0.1836322738879155 0.027039065575756291 0 0.1716695151525548 0.011722155214289249 0 0.1730573255808272 0.02268781650565178 0 0.1836322738879155 0.027039065575756291 0 0.1818880710022803 0.03714662934948755 0 0.1730573255808272 0.02268781650565178 0 0.1836322738879155 0.027039065575756291 0 0.1636569447874848 0.036789081642687432 0 0.1620242678869008 0.02102957209859084 0 0.15032019737810451 0.03113296745297477 0 0.1730573255808272 0.02268781650565178 0 0.1620242678869008 0.02102957209859084 0 0.1716695151525548 0.011722155214289249 0 0.1620242678869008 0.02102957209859084 0 0.1716695151525548 0.011722155214289249 0 0.15871689523486121 0.010399441389301141 0 0.1716695151525548 0.011722155214289249 0 0.15871689523486121 0.010399441389301141 0 0.1628037813635097 0.0015330777282007481 0 0.15871689523486121 0.010399441389301141 0 0.1628037813635097 0.0015330777282007481 0 0.15453230216132671 0.0032055715019124438 0 0.1716695151525548 0.011722155214289249 0 0.1628037813635097 0.0015330777282007481 0 0.17506184651935949 -0.0021247232161890161 0 0.1620242678869008 0.02102957209859084 0 0.14216046477152491 0.0049125148476896544 0 0.15871689523486121 0.010399441389301141 0 0.14216046477152491 0.0049125148476896544 0 0.15453230216132671 0.0032055715019124438 0 0.14216046477152491 0.0049125148476896544 0 0.15453230216132671 0.0032055715019124438 0 0.15849764294065671 -0.0060544572746906826 0 0.1620242678869008 0.02102957209859084 0 0.15871689523486121 0.010399441389301141 0 0.14216046477152491 0.0049125148476896544 0 0.1620242678869008 0.02102957209859084 0 0.14216046477152491 0.0049125148476896544 0 0.1432298655490542 0.02239521632663263 0 0.1620242678869008 0.02102957209859084 0 0.1432298655490542 0.02239521632663263 0 0.15032019737810451 0.03113296745297477 0 0.1432298655490542 0.02239521632663263 0 0.15032019737810451 0.03113296745297477 0 0.1366405524080008 0.032741533152345258 0 0.1432298655490542 0.02239521632663263 0 0.12659142849079691 0.028091664155532971 0 0.1366405524080008 0.032741533152345258 0 0.14216046477152491 0.0049125148476896544 0 0.1432298655490542 0.02239521632663263 0 0.12659142849079691 0.028091664155532971 0 0.14216046477152491 0.0049125148476896544 0 0.12659142849079691 0.028091664155532971 0 0.1323442420055404 0.014884056975098 0 0.14216046477152491 0.0049125148476896544 0 0.12659142849079691 0.028091664155532971 0 0.11882011836095251 0.0065886106746579649 0 0.12659142849079691 0.028091664155532971 0 0.1323442420055404 0.014884056975098 0 0.12659142849079691 0.028091664155532971 0 0.1366405524080008 0.032741533152345258 0 0.11882011836095251 0.0065886106746579649 0 0.1323442420055404 0.014884056975098 0 0.13735218555535891 0.001011181807127467 0 0.1323442420055404 0.014884056975098 0 0.13735218555535891 0.001011181807127467 0 0.14216046477152491 0.0049125148476896544 0 0.1323442420055404 0.014884056975098 0 0.13735218555535891 0.001011181807127467 0 0.14216046477152491 0.0049125148476896544 0 0.13735218555535891 0.001011181807127467 0 0.15962551614652079 0.053115759904931073 0 0.1452456698728295 0.044396077507560729 0 0.15045482833334159 0.067212260357143019 0 0.1452456698728295 0.044396077507560729 0 0.12683439495817461 0.052003073372435288 0 0.15045482833334159 0.067212260357143019 0 0.1636569447874848 0.036789081642687432 0 0.15032019737810451 0.03113296745297477 0 0.1452456698728295 0.044396077507560729 0 0.1636569447874848 0.036789081642687432 0 0.15962551614652079 0.053115759904931073 0 0.1452456698728295 0.044396077507560729 0 0.1636569447874848 0.036789081642687432 0 0.1452456698728295 0.044396077507560729 0 0.15032019737810451 0.03113296745297477 0 0.1452456698728295 0.044396077507560729 0 0.1366405524080008 0.032741533152345258 0 0.1452456698728295 0.044396077507560729 0 0.13015300311198849 0.040381385354086502 0 0.12683439495817461 0.052003073372435288 0 0.1452456698728295 0.044396077507560729 0 0.1366405524080008 0.032741533152345258 0 0.13015300311198849 0.040381385354086502 0 0.12659142849079691 0.028091664155532971 0 0.1366405524080008 0.032741533152345258 0 0.13015300311198849 0.040381385354086502 0 0.12683439495817461 0.052003073372435288 0 0.13134854049252651 0.064566646620811727 0 0.15045482833334159 0.067212260357143019 0 0.1452456698728295 0.044396077507560729 0 0.12683439495817461 0.052003073372435288 0 0.12683439495817461 0.052003073372435288 0 0.15045482833334159 0.067212260357143019 0 0.1213053233293625 0.063977455960140386 0 0.12683439495817461 0.052003073372435288 0 0.13134854049252651 0.064566646620811727 0 0.13134854049252651 0.064566646620811727 0 0.12679961534922851 0.075073796793526271 0 0.15045482833334159 0.067212260357143019 0 0.1213053233293625 0.063977455960140386 0 0.13134854049252651 0.064566646620811727 0 0.12679961534922851 0.075073796793526271 0 0.12679961534922851 0.075073796793526271 0 0.15045482833334159 0.067212260357143019 0 0.1492815716532653 0.085445809678383625 0 0.1185648575779607 0.095458187827811403 0 0.12679961534922851 0.075073796793526271 0 0.13332649773741079 0.089989738391902788 0 0.1492815716532653 0.085445809678383625 0 0.13332649773741079 0.089989738391902788 0 0.13865994636918871 0.10398115926788989 0 0.12679961534922851 0.075073796793526271 0 0.1492815716532653 0.085445809678383625 0 0.12679961534922851 0.075073796793526271 0 0.1492815716532653 0.085445809678383625 0 0.13332649773741079 0.089989738391902788 0 0.123281054128593 0.11724462113534739 0 0.1185648575779607 0.095458187827811403 0 0.13865994636918871 0.10398115926788989 0 0.1185648575779607 0.095458187827811403 0 0.13332649773741079 0.089989738391902788 0 0.13865994636918871 0.10398115926788989 0 0.123281054128593 0.11724462113534739 0 0.13865994636918871 0.10398115926788989 0 0.13947052033133081 0.1245003570974072 0 0.13947052033133081 0.1245003570974072 0 0.15026369300765779 0.1129544164764977 0 0.16718880021878149 0.12232812864365609 0 0.13947052033133081 0.1245003570974072 0 0.16718880021878149 0.12232812864365609 0 0.13865994636918871 0.10398115926788989 0 0.13947052033133081 0.1245003570974072 0 0.15026369300765779 0.1129544164764977 0 0.1492815716532653 0.085445809678383625 0 0.13865994636918871 0.10398115926788989 0 0.15573550511132991 0.1010080208970377 0 0.13865994636918871 0.10398115926788989 0 0.15026369300765779 0.1129544164764977 0 0.15573550511132991 0.1010080208970377 0 0.15573550511132991 0.1010080208970377 0 0.17176352795730221 0.095817822563241214 0 0.16718880021878149 0.12232812864365609 0 0.17176352795730221 0.095817822563241214 0 0.16718880021878149 0.12232812864365609 0 0.1492815716532653 0.085445809678383625 0 0.15573550511132991 0.1010080208970377 0 0.17176352795730221 0.095817822563241214 0 0.15026369300765779 0.1129544164764977 0 0.15573550511132991 0.1010080208970377 0 0.16718880021878149 0.12232812864365609 0 0.16718880021878149 0.12232812864365609 0 0.18422746814952201 0.1154148446289336 0 0.17176352795730221 0.095817822563241214 0 0.16718880021878149 0.12232812864365609 0 0.18422746814952201 0.1154148446289336 0 0.19370351113240411 0.1202502215829211 0 0.16718880021878149 0.12232812864365609 0 0.19370351113240411 0.1202502215829211 0 0.16718880021878149 0.12232812864365609 0 0.18422746814952201 0.1154148446289336 0 0.17176352795730221 0.095817822563241214 0 0.18422746814952201 0.1154148446289336 0 0.1860496622757298 0.1024087067025775 0 0.17176352795730221 0.095817822563241214 0 0.1860496622757298 0.1024087067025775 0 0.17954517331912459 0.085943521096986275 0 0.17176352795730221 0.095817822563241214 0 0.1860496622757298 0.1024087067025775 0 0.2016134769563831 0.087296750559026068 0 0.17954517331912459 0.085943521096986275 0 0.17506687063626211 0.076675125879817507 0 0.17176352795730221 0.095817822563241214 0 0.17407526170850959 0.082421447341849294 0 0.17176352795730221 0.095817822563241214 0 0.17954517331912459 0.085943521096986275 0 0.17407526170850959 0.082421447341849294 0 0.17954517331912459 0.085943521096986275 0 0.17407526170850959 0.082421447341849294 0 0.17506687063626211 0.076675125879817507 0 0.17407526170850959 0.082421447341849294 0 0.17506687063626211 0.076675125879817507 0 0.17954517331912459 0.085943521096986275 0 0.17407526170850959 0.082421447341849294 0 0.17847747081927551 0.05691087761465332 0 0.17506687063626211 0.076675125879817507 0 0.19220101611619109 0.069455466931817506 0 0.17847747081927551 0.05691087761465332 0 0.17506687063626211 0.076675125879817507 0 0.17847747081927551 0.05691087761465332 0 0.17506687063626211 0.076675125879817507 0 0.16641746421004469 0.065589342706300277 0 0.17407526170850959 0.082421447341849294 0 0.17506687063626211 0.076675125879817507 0 0.16846263511482451 0.074032689774956653 0 0.15045482833334159 0.067212260357143019 0 0.16846263511482451 0.074032689774956653 0 0.16641746421004469 0.065589342706300277 0 0.17506687063626211 0.076675125879817507 0 0.16846263511482451 0.074032689774956653 0 0.16641746421004469 0.065589342706300277 0 0.15045482833334159 0.067212260357143019 0 0.17407526170850959 0.082421447341849294 0 0.16846263511482451 0.074032689774956653 0 0.17506687063626211 0.076675125879817507 0 0.16846263511482451 0.074032689774956653 0 0.15045482833334159 0.067212260357143019 0 0.17407526170850959 0.082421447341849294 0 0.1492815716532653 0.085445809678383625 0 0.17176352795730221 0.095817822563241214 0 0.1492815716532653 0.085445809678383625 0 0.17176352795730221 0.095817822563241214 0 0.17407526170850959 0.082421447341849294 0 0.15045482833334159 0.067212260357143019 0 0.1492815716532653 0.085445809678383625 0 0.17407526170850959 0.082421447341849294 0 0.094789198081262169 0.47221984895451657 0 0.09870107108427445 0.5 0 0.1248616532684987 0.47476888169724352 0 0.09870107108427445 0.5 0 0.1248616532684987 0.47476888169724352 0 0.1287333349596296 0.50000000000000233 0 0.1248616532684987 0.47476888169724352 0 0.1154926134483955 0.45328817880533262 0 0.094789198081262169 0.47221984895451657 0 0.1248616532684987 0.47476888169724352 0 0.1154926134483955 0.45328817880533262 0 0.1248616532684987 0.47476888169724352 0 0.1205619018159948 0.44674810255646558 0 0.1248616532684987 0.47476888169724352 0 0.1154926134483955 0.45328817880533262 0 0.1205619018159948 0.44674810255646558 0 0.1154926134483955 0.45328817880533262 0 0.106123573628292 0.43180747591342172 0 0.1154926134483955 0.45328817880533262 0 0.1205619018159948 0.44674810255646558 0 0.106123573628292 0.43180747591342172 0 0.1154926134483955 0.45328817880533262 0 0.096722182691352548 0.44869154901932268 0 0.106123573628292 0.43180747591342172 0 0.094789198081262169 0.47221984895451657 0 0.1154926134483955 0.45328817880533262 0 0.096722182691352548 0.44869154901932268 0 0.094789198081262169 0.47221984895451657 0 0.077453222292990773 0.45016302493177879 0 0.067202034968243438 0.47028323083424428 0 0.094789198081262169 0.47221984895451657 0 0.096722182691352548 0.44869154901932268 0 0.077453222292990773 0.45016302493177879 0 0.096722182691352548 0.44869154901932268 0 0.077453222292990773 0.45016302493177879 0 0.085233479690329184 0.42595657570789891 0 0.077453222292990773 0.45016302493177879 0 0.085233479690329184 0.42595657570789891 0 0.077453222292990773 0.45016302493177879 0 0.055846149836862702 0.43889490050586683 0 0.065639666334966471 0.42409002317344818 0 0.077453222292990773 0.45016302493177879 0 0.067202034968243438 0.47028323083424428 0 0.051776939420019832 0.45519588853091181 0 0.094789198081262169 0.47221984895451657 0 0.067202034968243438 0.47028323083424428 0 0.068668807208919325 0.5 0 0.094789198081262169 0.47221984895451657 0 0.09870107108427445 0.5 0 0.068668807208919325 0.5 0 0.068668807208919325 0.5 0 0.043814234576468783 0.4752156274217324 0 0.038636543333564137 0.5 0 0.067202034968243438 0.47028323083424428 0 0.068668807208919325 0.5 0 0.043814234576468783 0.4752156274217324 0 0.038636543333564137 0.5 0 0.0095498935665802413 0.47810272379952351 0 0.0086042794582089632 0.5 0 0.043814234576468783 0.4752156274217324 0 0.038636543333564137 0.5 0 0.0095498935665802413 0.47810272379952351 0 0.043814234576468783 0.4752156274217324 0 0.0095498935665802413 0.47810272379952351 0 0.02936257191825143 0.45548825099001988 0 -0.0044763741368290672 0.43313315307665529 0 0.006403582431216831 0.45126676372832991 0 0.01131617767293759 0.43066417693356068 0 0.006403582431216831 0.45126676372832991 0 0.024585063983693121 0.43937755350337049 0 0.01131617767293759 0.43066417693356068 0 -0.0062093312902834459 0.46527566221073008 0 0.0095498935665802413 0.47810272379952351 0 0.006403582431216831 0.45126676372832991 0 0.0095498935665802413 0.47810272379952351 0 0.006403582431216831 0.45126676372832991 0 0.02936257191825143 0.45548825099001988 0 0.02936257191825143 0.45548825099001988 0 0.024585063983693121 0.43937755350337049 0 0.039439570502417587 0.44016889882154447 0 0.006403582431216831 0.45126676372832991 0 0.02936257191825143 0.45548825099001988 0 0.024585063983693121 0.43937755350337049 0 0.02936257191825143 0.45548825099001988 0 0.039439570502417587 0.44016889882154447 0 0.051776939420019832 0.45519588853091181 0 0.043814234576468783 0.4752156274217324 0 0.02936257191825143 0.45548825099001988 0 0.051776939420019832 0.45519588853091181 0 0.067202034968243438 0.47028323083424428 0 0.043814234576468783 0.4752156274217324 0 0.051776939420019832 0.45519588853091181 0 0.039439570502417587 0.44016889882154447 0 0.051776939420019832 0.45519588853091181 0 0.055846149836862702 0.43889490050586683 0 0.077453222292990773 0.45016302493177879 0 0.051776939420019832 0.45519588853091181 0 0.055846149836862702 0.43889490050586683 0 0.055846149836862702 0.43889490050586683 0 0.044352211855280779 0.42435697566478181 0 0.065639666334966471 0.42409002317344818 0 0.054179592762823331 0.4124556941646933 0 0.065774511826563423 0.40583773171119408 0 0.065639666334966471 0.42409002317344818 0 0.054179592762823331 0.4124556941646933 0 0.044352211855280779 0.42435697566478181 0 0.042551786202842029 0.40583695196884878 0 0.054179592762823331 0.4124556941646933 0 0.044352211855280779 0.42435697566478181 0 0.065639666334966471 0.42409002317344818 0 0.054179592762823331 0.4124556941646933 0 0.052579787594463898 0.40215678830519391 0 0.065774511826563423 0.40583773171119408 0 0.054179592762823331 0.4124556941646933 0 0.042551786202842029 0.40583695196884878 0 0.052579787594463898 0.40215678830519391 0 0.031615607723292562 0.41237007764590089 0 0.044352211855280779 0.42435697566478181 0 0.042551786202842029 0.40583695196884878 0 0.031615607723292562 0.41237007764590089 0 0.044352211855280779 0.42435697566478181 0 0.029348552931666359 0.42650056435783129 0 0.039439570502417587 0.44016889882154447 0 0.055846149836862702 0.43889490050586683 0 0.044352211855280779 0.42435697566478181 0 0.039439570502417587 0.44016889882154447 0 0.044352211855280779 0.42435697566478181 0 0.029348552931666359 0.42650056435783129 0 0.024585063983693121 0.43937755350337049 0 0.039439570502417587 0.44016889882154447 0 0.029348552931666359 0.42650056435783129 0 0.024585063983693121 0.43937755350337049 0 0.029348552931666359 0.42650056435783129 0 0.01131617767293759 0.43066417693356068 0 0.029348552931666359 0.42650056435783129 0 0.019479081626689841 0.41692126840220728 0 0.01131617767293759 0.43066417693356068 0 0.031615607723292562 0.41237007764590089 0 0.029348552931666359 0.42650056435783129 0 0.019479081626689841 0.41692126840220728 0 0.031615607723292562 0.41237007764590089 0 0.019479081626689841 0.41692126840220728 0 0.02210553341445062 0.40298972327242938 0 0.019479081626689841 0.41692126840220728 0 0.0046995574085186929 0.41194005205042061 0 0.02210553341445062 0.40298972327242938 0 0.019479081626689841 0.41692126840220728 0 0.0046995574085186929 0.41194005205042061 0 0.01131617767293759 0.43066417693356068 0 -0.0044763741368290672 0.43313315307665529 0 0.0046995574085186929 0.41194005205042061 0 0.01131617767293759 0.43066417693356068 0 -0.0068648610501423502 0.39382000907293813 0 0.0053185270157129726 0.37689571945341471 0 0.0079727676898529512 0.39395805239723503 0 0.0053185270157129726 0.37689571945341471 0 0.0079727676898529512 0.39395805239723503 0 0.017055050774382831 0.3783760363496293 0 0.0053185270157129726 0.37689571945341471 0 0.017055050774382831 0.3783760363496293 0 0.014905446519761849 0.37011919055753012 0 -0.0068648610501423502 0.39382000907293813 0 0.0046995574085186929 0.41194005205042061 0 0.0079727676898529512 0.39395805239723503 0 0.0046995574085186929 0.41194005205042061 0 0.0079727676898529512 0.39395805239723503 0 0.02210553341445062 0.40298972327242938 0 0.0079727676898529512 0.39395805239723503 0 0.02210553341445062 0.40298972327242938 0 0.02735486101880703 0.39232044610694311 0 0.031615607723292562 0.41237007764590089 0 0.02210553341445062 0.40298972327242938 0 0.03492587150599015 0.39714318271575322 0 0.02210553341445062 0.40298972327242938 0 0.02735486101880703 0.39232044610694311 0 0.03492587150599015 0.39714318271575322 0 0.0079727676898529512 0.39395805239723503 0 0.02735486101880703 0.39232044610694311 0 0.033420514628485373 0.38302977191180709 0 0.017055050774382831 0.3783760363496293 0 0.033420514628485373 0.38302977191180709 0 0.023779055828078009 0.37097747554075361 0 0.0079727676898529512 0.39395805239723503 0 0.017055050774382831 0.3783760363496293 0 0.033420514628485373 0.38302977191180709 0 0.0079727676898529512 0.39395805239723503 0 0.033420514628485373 0.38302977191180709 0 0.02735486101880703 0.39232044610694311 0 0.032859848824407727 0.38560668074253002 0 0.033420514628485373 0.38302977191180709 0 0.02735486101880703 0.39232044610694311 0 0.032859848824407727 0.38560668074253002 0 0.032844630049655758 0.3911952656019041 0 0.033420514628485373 0.38302977191180709 0 0.040531910439000007 0.38820627445006711 0 0.055078026168592691 0.37372917012189599 0 0.033420514628485373 0.38302977191180709 0 0.055078026168592691 0.37372917012189599 0 0.032859848824407727 0.38560668074253002 0 0.033420514628485373 0.38302977191180709 0 0.032859848824407727 0.38560668074253002 0 0.040531910439000007 0.38820627445006711 0 0.032844630049655758 0.3911952656019041 0 0.032859848824407727 0.38560668074253002 0 0.033420514628485373 0.38302977191180709 0 0.040531910439000007 0.38820627445006711 0 0.031615607723292562 0.41237007764590089 0 0.03492587150599015 0.39714318271575322 0 0.042551786202842029 0.40583695196884878 0 0.040531910439000007 0.38820627445006711 0 0.03492587150599015 0.39714318271575322 0 0.032844630049655758 0.3911952656019041 0 0.02735486101880703 0.39232044610694311 0 0.03492587150599015 0.39714318271575322 0 0.032844630049655758 0.3911952656019041 0 0.040531910439000007 0.38820627445006711 0 0.03492587150599015 0.39714318271575322 0 0.044409534997012647 0.39663533348309749 0 0.040531910439000007 0.38820627445006711 0 0.044409534997012647 0.39663533348309749 0 0.05145831924276717 0.38983346997562462 0 0.044409534997012647 0.39663533348309749 0 0.042551786202842029 0.40583695196884878 0 0.052579787594463898 0.40215678830519391 0 0.03492587150599015 0.39714318271575322 0 0.044409534997012647 0.39663533348309749 0 0.042551786202842029 0.40583695196884878 0 0.052579787594463898 0.40215678830519391 0 0.065929237187869999 0.38841376689227869 0 0.065774511826563423 0.40583773171119408 0 0.044409534997012647 0.39663533348309749 0 0.052579787594463898 0.40215678830519391 0 0.05145831924276717 0.38983346997562462 0 0.052579787594463898 0.40215678830519391 0 0.05145831924276717 0.38983346997562462 0 0.065929237187869999 0.38841376689227869 0 0.05145831924276717 0.38983346997562462 0 0.065929237187869999 0.38841376689227869 0 0.055078026168592691 0.37372917012189599 0 0.040531910439000007 0.38820627445006711 0 0.05145831924276717 0.38983346997562462 0 0.055078026168592691 0.37372917012189599 0 0.065929237187869999 0.38841376689227869 0 0.07065435961583541 0.37741521318853999 0 0.055078026168592691 0.37372917012189599 0 0.065929237187869999 0.38841376689227869 0 0.07065435961583541 0.37741521318853999 0 0.084874637398179506 0.3830893474080016 0 0.065929237187869999 0.38841376689227869 0 0.084874637398179506 0.3830893474080016 0 0.078183007061163587 0.39730645121706609 0 0.084874637398179506 0.3830893474080016 0 0.09301373708766289 0.40175012648401748 0 0.1017514530376761 0.37456476915266362 0 0.084874637398179506 0.3830893474080016 0 0.1017514530376761 0.37456476915266362 0 0.089894590955766338 0.37016501712229671 0 0.084874637398179506 0.3830893474080016 0 0.09301373708766289 0.40175012648401748 0 0.084874637398179506 0.3830893474080016 0 0.09301373708766289 0.40175012648401748 0 0.078183007061163587 0.39730645121706609 0 0.09301373708766289 0.40175012648401748 0 0.078183007061163587 0.39730645121706609 0 0.0779125114683729 0.4107996813321716 0 0.065929237187869999 0.38841376689227869 0 0.078183007061163587 0.39730645121706609 0 0.065774511826563423 0.40583773171119408 0 0.078183007061163587 0.39730645121706609 0 0.065774511826563423 0.40583773171119408 0 0.0779125114683729 0.4107996813321716 0 0.065774511826563423 0.40583773171119408 0 0.0779125114683729 0.4107996813321716 0 0.065639666334966471 0.42409002317344818 0 0.0779125114683729 0.4107996813321716 0 0.065639666334966471 0.42409002317344818 0 0.085233479690329184 0.42595657570789891 0 0.077453222292990773 0.45016302493177879 0 0.065639666334966471 0.42409002317344818 0 0.085233479690329184 0.42595657570789891 0 0.09301373708766289 0.40175012648401748 0 0.085233479690329184 0.42595657570789891 0 0.09301373708766289 0.40175012648401748 0 0.0779125114683729 0.4107996813321716 0 0.085233479690329184 0.42595657570789891 0 0.09301373708766289 0.40175012648401748 0 0.085233479690329184 0.42595657570789891 0 0.096641093798834857 0.4103746730739769 0 0.096641093798834857 0.4103746730739769 0 0.106123573628292 0.43180747591342172 0 0.096641093798834857 0.4103746730739769 0 0.1162621503634904 0.41872732341568758 0 0.11303311796937431 0.39768424579749467 0 0.096641093798834857 0.4103746730739769 0 0.106123573628292 0.43180747591342172 0 0.1162621503634904 0.41872732341568758 0 0.096641093798834857 0.4103746730739769 0 0.1162621503634904 0.41872732341568758 0 0.085233479690329184 0.42595657570789891 0 0.096641093798834857 0.4103746730739769 0 0.106123573628292 0.43180747591342172 0 0.096722182691352548 0.44869154901932268 0 0.085233479690329184 0.42595657570789891 0 0.106123573628292 0.43180747591342172 0 0.1205619018159948 0.44674810255646558 0 0.1162621503634904 0.41872732341568758 0 0.1205619018159948 0.44674810255646558 0 0.106123573628292 0.43180747591342172 0 0.1162621503634904 0.41872732341568758 0 0.1162621503634904 0.41872732341568758 0 0.11303311796937431 0.39768424579749467 0 0.11303311796937431 0.39768424579749467 0 0.1231373165426977 0.3806134049577457 0 0.1271742827044339 0.39597619803598749 0 0.1162621503634904 0.41872732341568758 0 0.11303311796937431 0.39768424579749467 0 0.1271742827044339 0.39597619803598749 0 0.11303311796937431 0.39768424579749467 0 0.1098040855752573 0.37664116817930182 0 0.11303311796937431 0.39768424579749467 0 0.1098040855752573 0.37664116817930182 0 0.1231373165426977 0.3806134049577457 0 0.09301373708766289 0.40175012648401748 0 0.10162794664532369 0.38287681265592 0 0.1017514530376761 0.37456476915266362 0 0.11303311796937431 0.39768424579749467 0 0.1098040855752573 0.37664116817930182 0 0.10162794664532369 0.38287681265592 0 0.09301373708766289 0.40175012648401748 0 0.1017514530376761 0.37456476915266362 0 0.09301373708766289 0.40175012648401748 0 0.096641093798834857 0.4103746730739769 0 0.10162794664532369 0.38287681265592 0 0.096641093798834857 0.4103746730739769 0 0.10162794664532369 0.38287681265592 0 0.096641093798834857 0.4103746730739769 0 0.11303311796937431 0.39768424579749467 0 0.10162794664532369 0.38287681265592 0 0.09301373708766289 0.40175012648401748 0 0.096641093798834857 0.4103746730739769 0 0.10657505318114149 0.3555980905611088 0 0.1040837309638282 0.33936254988137232 0 0.10657505318114149 0.3555980905611088 0 0.096269577202366938 0.34885221845001108 0 0.090674694454237537 0.35844253683721511 0 0.10657505318114149 0.3555980905611088 0 0.1081370103155585 0.34698533999968961 0 0.1040837309638282 0.33936254988137232 0 0.10657505318114149 0.3555980905611088 0 0.096269577202366938 0.34885221845001108 0 0.1040837309638282 0.33936254988137232 0 0.10657505318114149 0.3555980905611088 0 0.1081370103155585 0.34698533999968961 0 0.1081370103155585 0.34698533999968961 0 0.1105857944332822 0.35159063999376577 0 0.10657505318114149 0.3555980905611088 0 0.1081370103155585 0.34698533999968961 0 0.1105857944332822 0.35159063999376577 0 0.10657505318114149 0.3555980905611088 0 0.097223947907205094 0.36469260341832099 0 0.090674694454237537 0.35844253683721511 0 0.1098040855752573 0.37664116817930182 0 0.10657505318114149 0.3555980905611088 0 0.1098040855752573 0.37664116817930182 0 0.10162794664532369 0.38287681265592 0 0.10657505318114149 0.3555980905611088 0 0.10657505318114149 0.3555980905611088 0 0.097223947907205094 0.36469260341832099 0 0.1017514530376761 0.37456476915266362 0 0.10162794664532369 0.38287681265592 0 0.10657505318114149 0.3555980905611088 0 0.10162794664532369 0.38287681265592 0 0.10657505318114149 0.3555980905611088 0 0.1017514530376761 0.37456476915266362 0 0.097223947907205094 0.36469260341832099 0 0.1017514530376761 0.37456476915266362 0 0.089894590955766338 0.37016501712229671 0 0.1231373165426977 0.3806134049577457 0 0.1176766025370503 0.36283148293627721 0 0.13271547193899449 0.36524458735671972 0 0.1098040855752573 0.37664116817930182 0 0.10657505318114149 0.3555980905611088 0 0.1176766025370503 0.36283148293627721 0 0.1098040855752573 0.37664116817930182 0 0.1231373165426977 0.3806134049577457 0 0.1176766025370503 0.36283148293627721 0 0.1176766025370503 0.36283148293627721 0 0.1232256624926347 0.35239419723674059 0 0.13271547193899449 0.36524458735671972 0 0.10657505318114149 0.3555980905611088 0 0.1176766025370503 0.36283148293627721 0 0.1105857944332822 0.35159063999376577 0 0.1176766025370503 0.36283148293627721 0 0.1232256624926347 0.35239419723674059 0 0.1105857944332822 0.35159063999376577 0 0.1081370103155585 0.34698533999968961 0 0.1105857944332822 0.35159063999376577 0 0.1168368962248217 0.34531303274388031 0 0.1232256624926347 0.35239419723674059 0 0.1105857944332822 0.35159063999376577 0 0.1168368962248217 0.34531303274388031 0 0.1232256624926347 0.35239419723674059 0 0.1168368962248217 0.34531303274388031 0 0.1260676383484185 0.3399282146226113 0 0.1081370103155585 0.34698533999968961 0 0.1173014636805894 0.33730338313169689 0 0.1117137236550247 0.32726307032677399 0 0.1081370103155585 0.34698533999968961 0 0.1117137236550247 0.32726307032677399 0 0.1168368962248217 0.34531303274388031 0 0.1173014636805894 0.33730338313169689 0 0.1260676383484185 0.3399282146226113 0 0.1173014636805894 0.33730338313169689 0 0.12375204985912221 0.32702725796552912 0 0.1260676383484185 0.3399282146226113 0 0.1173014636805894 0.33730338313169689 0 0.12375204985912221 0.32702725796552912 0 0.1117137236550247 0.32726307032677399 0 0.1081370103155585 0.34698533999968961 0 0.1168368962248217 0.34531303274388031 0 0.1173014636805894 0.33730338313169689 0 0.1117137236550247 0.32726307032677399 0 0.11529043699448981 0.30754080065385803 0 0.1117137236550247 0.32726307032677399 0 0.1095765413243488 0.31862098055757049 0 0.11529043699448981 0.30754080065385803 0 0.1214195525311879 0.31440901896845502 0 0.1117137236550247 0.32726307032677399 0 0.11529043699448981 0.30754080065385803 0 0.1214195525311879 0.31440901896845502 0 0.12375204985912221 0.32702725796552912 0 0.12817088130983889 0.317450689473041 0 0.1214195525311879 0.31440901896845502 0 0.12375204985912221 0.32702725796552912 0 0.1117137236550247 0.32726307032677399 0 0.1040837309638282 0.33936254988137232 0 0.090103400857782137 0.31307047550514489 0 0.1040837309638282 0.33936254988137232 0 0.1025673515982234 0.32948055280164651 0 0.090103400857782137 0.31307047550514489 0 0.10278173829001019 0.3206216626476312 0 0.1025673515982234 0.32948055280164651 0 0.090103400857782137 0.31307047550514489 0 0.1095765413243488 0.31862098055757049 0 0.10278173829001019 0.3206216626476312 0 0.099947674014671917 0.31467323404701991 0 0.1095765413243488 0.31862098055757049 0 0.099947674014671917 0.31467323404701991 0 0.09732687347400408 0.30507295899279041 0 0.1117137236550247 0.32726307032677399 0 0.1095765413243488 0.31862098055757049 0 0.10278173829001019 0.3206216626476312 0 0.1117137236550247 0.32726307032677399 0 0.10278173829001019 0.3206216626476312 0 0.1025673515982234 0.32948055280164651 0 0.10278173829001019 0.3206216626476312 0 0.099947674014671917 0.31467323404701991 0 0.090103400857782137 0.31307047550514489 0 0.096269577202366938 0.34885221845001108 0 0.1040837309638282 0.33936254988137232 0 0.085896102217652828 0.34083244099607402 0 0.1081370103155585 0.34698533999968961 0 0.1117137236550247 0.32726307032677399 0 0.1040837309638282 0.33936254988137232 0 0.1081370103155585 0.34698533999968961 0 0.1040837309638282 0.33936254988137232 0 0.1117137236550247 0.32726307032677399 0 0.1040837309638282 0.33936254988137232 0 0.1025673515982234 0.32948055280164651 0 0.1040837309638282 0.33936254988137232 0 0.1025673515982234 0.32948055280164651 0 0.1040837309638282 0.33936254988137232 0 0.085896102217652828 0.34083244099607402 0 0.090103400857782137 0.31307047550514489 0 0.085896102217652828 0.34083244099607402 0 0.090103400857782137 0.31307047550514489 0 0.073944851781294785 0.32640562720437011 0 0.073944851781294785 0.32640562720437011 0 0.05926959110604698 0.32438382341666039 0 0.066452600317618793 0.30933520022964911 0 0.090103400857782137 0.31307047550514489 0 0.073944851781294785 0.32640562720437011 0 0.066452600317618793 0.30933520022964911 0 0.068002564407373206 0.3444061958743222 0 0.05926959110604698 0.32438382341666039 0 0.085896102217652828 0.34083244099607402 0 0.073944851781294785 0.32640562720437011 0 0.068002564407373206 0.3444061958743222 0 0.073944851781294785 0.32640562720437011 0 0.068002564407373206 0.3444061958743222 0 0.05926959110604698 0.32438382341666039 0 0.068002564407373206 0.3444061958743222 0 0.081709153938225559 0.35166937446406898 0 0.076735537708699481 0.364428568331984 0 0.068002564407373206 0.3444061958743222 0 0.076735537708699481 0.364428568331984 0 0.068002564407373206 0.3444061958743222 0 0.076735537708699481 0.364428568331984 0 0.058880509289504487 0.35752542115937253 0 0.085896102217652828 0.34083244099607402 0 0.068002564407373206 0.3444061958743222 0 0.081709153938225559 0.35166937446406898 0 0.081709153938225559 0.35166937446406898 0 0.090674694454237537 0.35844253683721511 0 0.076735537708699481 0.364428568331984 0 0.096269577202366938 0.34885221845001108 0 0.081709153938225559 0.35166937446406898 0 0.090674694454237537 0.35844253683721511 0 0.096269577202366938 0.34885221845001108 0 0.085896102217652828 0.34083244099607402 0 0.081709153938225559 0.35166937446406898 0 0.084874637398179506 0.3830893474080016 0 0.089894590955766338 0.37016501712229671 0 0.076735537708699481 0.364428568331984 0 0.084874637398179506 0.3830893474080016 0 0.076735537708699481 0.364428568331984 0 0.097223947907205094 0.36469260341832099 0 0.090674694454237537 0.35844253683721511 0 0.089894590955766338 0.37016501712229671 0 0.090674694454237537 0.35844253683721511 0 0.089894590955766338 0.37016501712229671 0 0.076735537708699481 0.364428568331984 0 0.090674694454237537 0.35844253683721511 0 0.076735537708699481 0.364428568331984 0 0.076735537708699481 0.364428568331984 0 0.055078026168592691 0.37372917012189599 0 0.058880509289504487 0.35752542115937253 0 0.07065435961583541 0.37741521318853999 0 0.084874637398179506 0.3830893474080016 0 0.076735537708699481 0.364428568331984 0 0.07065435961583541 0.37741521318853999 0 0.076735537708699481 0.364428568331984 0 0.055078026168592691 0.37372917012189599 0 0.076735537708699481 0.364428568331984 0 0.055078026168592691 0.37372917012189599 0 0.055078026168592691 0.37372917012189599 0 0.058880509289504487 0.35752542115937253 0 0.039125882353897343 0.35680699826087081 0 0.068002564407373206 0.3444061958743222 0 0.058880509289504487 0.35752542115937253 0 0.05148455776782021 0.34576385860545072 0 0.058880509289504487 0.35752542115937253 0 0.05148455776782021 0.34576385860545072 0 0.039125882353897343 0.35680699826087081 0 0.039125882353897343 0.35680699826087081 0 0.031548662582759998 0.36398682567210089 0 0.025752053585936779 0.33511492304397028 0 0.05148455776782021 0.34576385860545072 0 0.039125882353897343 0.35680699826087081 0 0.044831250079309708 0.3305842246099347 0 0.033420514628485373 0.38302977191180709 0 0.039125882353897343 0.35680699826087081 0 0.031548662582759998 0.36398682567210089 0 0.033420514628485373 0.38302977191180709 0 0.055078026168592691 0.37372917012189599 0 0.039125882353897343 0.35680699826087081 0 0.033420514628485373 0.38302977191180709 0 0.039125882353897343 0.35680699826087081 0 0.033420514628485373 0.38302977191180709 0 0.031548662582759998 0.36398682567210089 0 0.023779055828078009 0.37097747554075361 0 0.017055050774382831 0.3783760363496293 0 0.023779055828078009 0.37097747554075361 0 0.014905446519761849 0.37011919055753012 0 0.023779055828078009 0.37097747554075361 0 0.019349684376360511 0.36318206543595072 0 0.014905446519761849 0.37011919055753012 0 0.031548662582759998 0.36398682567210089 0 0.019349684376360511 0.36318206543595072 0 0.019690074755218789 0.35178644121934483 0 0.031548662582759998 0.36398682567210089 0 0.023779055828078009 0.37097747554075361 0 0.019349684376360511 0.36318206543595072 0 0.031548662582759998 0.36398682567210089 0 0.025752053585936779 0.33511492304397028 0 0.031548662582759998 0.36398682567210089 0 0.019690074755218789 0.35178644121934483 0 0.025752053585936779 0.33511492304397028 0 0.019349684376360511 0.36318206543595072 0 0.019690074755218789 0.35178644121934483 0 0.0119730942360182 0.35563939605115702 0 0.0119730942360182 0.35563939605115702 0 0.0038095970876644218 0.35606187191015221 0 0.0077169544749549623 0.36306791211952738 0 -0.0077202170519437719 0.34710906184019069 0 0.0082446038140756572 0.34376242611402219 0 0.0038095970876644218 0.35606187191015221 0 0.0119730942360182 0.35563939605115702 0 0.0082446038140756572 0.34376242611402219 0 0.0038095970876644218 0.35606187191015221 0 0.019690074755218789 0.35178644121934483 0 0.0119730942360182 0.35563939605115702 0 0.0082446038140756572 0.34376242611402219 0 -0.0045677851665312944 0.36532665559408428 0 0.0038095970876644218 0.35606187191015221 0 0.0077169544749549623 0.36306791211952738 0 -0.0087141207398781558 0.37710904293520409 0 0.0053185270157129726 0.37689571945341471 0 0.0077169544749549623 0.36306791211952738 0 0.0053185270157129726 0.37689571945341471 0 0.0077169544749549623 0.36306791211952738 0 0.014905446519761849 0.37011919055753012 0 0.019349684376360511 0.36318206543595072 0 0.0077169544749549623 0.36306791211952738 0 0.014905446519761849 0.37011919055753012 0 0.019349684376360511 0.36318206543595072 0 0.0119730942360182 0.35563939605115702 0 0.0077169544749549623 0.36306791211952738 0 -0.009249588209606344 0.30814111102660002 0 0.0094307060340404689 0.32376070079746733 0 0.01995544458911469 0.30624302041583928 0 -0.005758602284471958 0.33512988219008361 0 0.0082446038140756572 0.34376242611402219 0 0.0094307060340404689 0.32376070079746733 0 0.0082446038140756572 0.34376242611402219 0 0.0094307060340404689 0.32376070079746733 0 0.025752053585936779 0.33511492304397028 0 0.019690074755218789 0.35178644121934483 0 0.0082446038140756572 0.34376242611402219 0 0.025752053585936779 0.33511492304397028 0 0.025752053585936779 0.33511492304397028 0 0.01995544458911469 0.30624302041583928 0 0.025752053585936779 0.33511492304397028 0 0.034898059553693392 0.31581284699138767 0 0.01995544458911469 0.30624302041583928 0 0.0094307060340404689 0.32376070079746733 0 0.025752053585936779 0.33511492304397028 0 0.01995544458911469 0.30624302041583928 0 0.034898059553693392 0.31581284699138767 0 0.044831250079309708 0.3305842246099347 0 0.05053661780472133 0.30436145095899841 0 0.025752053585936779 0.33511492304397028 0 0.034898059553693392 0.31581284699138767 0 0.044831250079309708 0.3305842246099347 0 0.039125882353897343 0.35680699826087081 0 0.025752053585936779 0.33511492304397028 0 0.044831250079309708 0.3305842246099347 0 0.039125882353897343 0.35680699826087081 0 0.044831250079309708 0.3305842246099347 0 0.068002564407373206 0.3444061958743222 0 0.05148455776782021 0.34576385860545072 0 0.05926959110604698 0.32438382341666039 0 0.05148455776782021 0.34576385860545072 0 0.044831250079309708 0.3305842246099347 0 0.05926959110604698 0.32438382341666039 0 0.044831250079309708 0.3305842246099347 0 0.05053661780472133 0.30436145095899841 0 0.044831250079309708 0.3305842246099347 0 0.05926959110604698 0.32438382341666039 0 0.05053661780472133 0.30436145095899841 0 0.05926959110604698 0.32438382341666039 0 0.05053661780472133 0.30436145095899841 0 0.05926959110604698 0.32438382341666039 0 0.05053661780472133 0.30436145095899841 0 0.066452600317618793 0.30933520022964911 0 0.059204269303370749 0.30137448027593422 0 0.05053661780472133 0.30436145095899841 0 0.066452600317618793 0.30933520022964911 0 0.04765756321016474 0.29776054867416191 0 0.05053661780472133 0.30436145095899841 0 0.052561166870736087 0.29505630281458828 0 0.059204269303370749 0.30137448027593422 0 0.05053661780472133 0.30436145095899841 0 0.052561166870736087 0.29505630281458828 0 0.05053661780472133 0.30436145095899841 0 0.052561166870736087 0.29505630281458828 0 0.04765756321016474 0.29776054867416191 0 0.05053661780472133 0.30436145095899841 0 0.052561166870736087 0.29505630281458828 0 0.036977033779240318 0.28312664447104818 0 0.062988366650143207 0.29302398426469728 0 0.036977033779240318 0.28312664447104818 0 0.048149862160842181 0.27985089866820428 0 0.062988366650143207 0.29302398426469728 0 0.036977033779240318 0.28312664447104818 0 0.062988366650143207 0.29302398426469728 0 0.048149862160842181 0.27985089866820428 0 0.054778979573680928 0.27715841955607551 0 0.062988366650143207 0.29302398426469728 0 0.059204269303370749 0.30137448027593422 0 0.052561166870736087 0.29505630281458828 0 0.062988366650143207 0.29302398426469728 0 0.04765756321016474 0.29776054867416191 0 0.036186098738389023 0.29603891009636157 0 0.036977033779240318 0.28312664447104818 0 0.04765756321016474 0.29776054867416191 0 0.052561166870736087 0.29505630281458828 0 0.036977033779240318 0.28312664447104818 0 0.036186098738389023 0.29603891009636157 0 0.036977033779240318 0.28312664447104818 0 0.027757552790527541 0.29644954410470781 0 0.034898059553693392 0.31581284699138767 0 0.05053661780472133 0.30436145095899841 0 0.039754971674175903 0.30430037111620312 0 0.04765756321016474 0.29776054867416191 0 0.05053661780472133 0.30436145095899841 0 0.039754971674175903 0.30430037111620312 0 0.04765756321016474 0.29776054867416191 0 0.036186098738389023 0.29603891009636157 0 0.039754971674175903 0.30430037111620312 0 0.036186098738389023 0.29603891009636157 0 0.039754971674175903 0.30430037111620312 0 0.028740536311392211 0.30567206060121932 0 0.034898059553693392 0.31581284699138767 0 0.039754971674175903 0.30430037111620312 0 0.028740536311392211 0.30567206060121932 0 0.034898059553693392 0.31581284699138767 0 0.028740536311392211 0.30567206060121932 0 0.01995544458911469 0.30624302041583928 0 0.028740536311392211 0.30567206060121932 0 0.01995544458911469 0.30624302041583928 0 0.01995544458911469 0.30624302041583928 0 0.027757552790527541 0.29644954410470781 0 0.016928650534501429 0.29116708493907051 0 0.01995544458911469 0.30624302041583928 0 0.016928650534501429 0.29116708493907051 0 0.036186098738389023 0.29603891009636157 0 0.028740536311392211 0.30567206060121932 0 0.027757552790527541 0.29644954410470781 0 0.028740536311392211 0.30567206060121932 0 0.01995544458911469 0.30624302041583928 0 0.027757552790527541 0.29644954410470781 0 0.036977033779240318 0.28312664447104818 0 0.016928650534501429 0.29116708493907051 0 0.013901856479889301 0.2760911494623014 0 0.036977033779240318 0.28312664447104818 0 0.027757552790527541 0.29644954410470781 0 0.016928650534501429 0.29116708493907051 0 0.016928650534501429 0.29116708493907051 0 0.0075090435902615098 0.27971283806045072 0 0.013901856479889301 0.2760911494623014 0 0.016928650534501429 0.29116708493907051 0 0.013901856479889301 0.2760911494623014 0 0.016928650534501429 0.29116708493907051 0 0.002380999114604244 0.28599596302517022 0 0.0075090435902615098 0.27971283806045072 0 0.016928650534501429 0.29116708493907051 0 0.002380999114604244 0.28599596302517022 0 0.0038021096493471361 0.29689124930627131 0 0.01995544458911469 0.30624302041583928 0 0.016928650534501429 0.29116708493907051 0 0.0038021096493471361 0.29689124930627131 0 -0.009249588209606344 0.30814111102660002 0 0.01995544458911469 0.30624302041583928 0 -0.009249588209606344 0.30814111102660002 0 0.01995544458911469 0.30624302041583928 0 0.0038021096493471361 0.29689124930627131 0 0.012944211518790589 0.24639919126045251 0 0.001894876929373096 0.24743045501984201 0 0.027350481215018482 0.26092432701142793 0 0.001894876929373096 0.24743045501984201 0 0.01235577794179212 0.26160751525750708 0 0.027350481215018482 0.26092432701142793 0 0.001894876929373096 0.24743045501984201 0 0.027350481215018482 0.26092432701142793 0 0.01235577794179212 0.26160751525750708 0 0.0066431973405819862 0.26423936680728111 0 0.01332705073189009 0.26743114199411 0 0.001894876929373096 0.24743045501984201 0 0.01235577794179212 0.26160751525750708 0 0.0027594708259384838 0.25829047161104352 0 0.01235577794179212 0.26160751525750708 0 0.0027594708259384838 0.25829047161104352 0 0.0066431973405819862 0.26423936680728111 0 -0.00067809962666212902 0.26216505597133072 0 0.0027594708259384838 0.25829047161104352 0 0.0066431973405819862 0.26423936680728111 0 -0.00067809962666212902 0.26216505597133072 0 0.0066431973405819862 0.26423936680728111 0 0.010965700908337589 0.27322930467739909 0 -0.001267499687089951 0.2776013217203892 0 0.0075090435902615098 0.27971283806045072 0 0.010965700908337589 0.27322930467739909 0 -0.001267499687089951 0.2776013217203892 0 0.002380999114604244 0.28599596302517022 0 0.0075090435902615098 0.27971283806045072 0 0.0075090435902615098 0.27971283806045072 0 0.013901856479889301 0.2760911494623014 0 0.010965700908337589 0.27322930467739909 0 0.010965700908337589 0.27322930467739909 0 0.01332705073189009 0.26743114199411 0 0.022419763759722669 0.26962443384228668 0 0.0066431973405819862 0.26423936680728111 0 0.010965700908337589 0.27322930467739909 0 0.01332705073189009 0.26743114199411 0 0.036977033779240318 0.28312664447104818 0 0.010965700908337589 0.27322930467739909 0 0.022419763759722669 0.26962443384228668 0 0.01235577794179212 0.26160751525750708 0 0.01332705073189009 0.26743114199411 0 0.022419763759722669 0.26962443384228668 0 0.036977033779240318 0.28312664447104818 0 0.013901856479889301 0.2760911494623014 0 0.010965700908337589 0.27322930467739909 0 0.036977033779240318 0.28312664447104818 0 0.010965700908337589 0.27322930467739909 0 0.036977033779240318 0.28312664447104818 0 0.022419763759722669 0.26962443384228668 0 0.032397819765571212 0.27218151163944088 0 0.022419763759722669 0.26962443384228668 0 0.027350481215018482 0.26092432701142793 0 0.032397819765571212 0.27218151163944088 0 0.018629400856135309 0.24429501886194191 0 0.012944211518790589 0.24639919126045251 0 0.027350481215018482 0.26092432701142793 0 0.018629400856135309 0.24429501886194191 0 0.027350481215018482 0.26092432701142793 0 0.02692674034290404 0.25134916217479408 0 0.01235577794179212 0.26160751525750708 0 0.022419763759722669 0.26962443384228668 0 0.027350481215018482 0.26092432701142793 0 0.027350481215018482 0.26092432701142793 0 0.02692674034290404 0.25134916217479408 0 0.036501911092354018 0.25177276941539839 0 0.027350481215018482 0.26092432701142793 0 0.036501911092354018 0.25177276941539839 0 0.052806085500663583 0.27441819900301412 0 0.036501911092354018 0.25177276941539839 0 0.052806085500663583 0.27441819900301412 0 0.027350481215018482 0.26092432701142793 0 0.039536256484267153 0.27410031615862712 0 0.052806085500663583 0.27441819900301412 0 0.027350481215018482 0.26092432701142793 0 0.052806085500663583 0.27441819900301412 0 0.036977033779240318 0.28312664447104818 0 0.032397819765571212 0.27218151163944088 0 0.039536256484267153 0.27410031615862712 0 0.027350481215018482 0.26092432701142793 0 0.032397819765571212 0.27218151163944088 0 0.039536256484267153 0.27410031615862712 0 0.039536256484267153 0.27410031615862712 0 0.048149862160842181 0.27985089866820428 0 0.052806085500663583 0.27441819900301412 0 0.036977033779240318 0.28312664447104818 0 0.039536256484267153 0.27410031615862712 0 0.048149862160842181 0.27985089866820428 0 0.052806085500663583 0.27441819900301412 0 0.051790667069154861 0.2547103276228454 0 0.069466372585565969 0.27425949764399721 0 0.052806085500663583 0.27441819900301412 0 0.054778979573680928 0.27715841955607551 0 0.076123070751733898 0.28677840112891878 0 0.048149862160842181 0.27985089866820428 0 0.052806085500663583 0.27441819900301412 0 0.054778979573680928 0.27715841955607551 0 0.052806085500663583 0.27441819900301412 0 0.054778979573680928 0.27715841955607551 0 0.051790667069154861 0.2547103276228454 0 0.069466372585565969 0.27425949764399721 0 0.036501911092354018 0.25177276941539839 0 0.052806085500663583 0.27441819900301412 0 0.051790667069154861 0.2547103276228454 0 0.051790667069154861 0.2547103276228454 0 0.062472563593505302 0.26110660749064829 0 0.069466372585565969 0.27425949764399721 0 0.051790667069154861 0.2547103276228454 0 0.062472563593505302 0.26110660749064829 0 0.063392491700480919 0.2510828642249095 0 0.07090317009537217 0.25886987532900169 0 0.089645379702363526 0.25980927980688501 0 0.066829182329119829 0.26693814307945207 0 0.063392491700480919 0.2510828642249095 0 0.07090317009537217 0.25886987532900169 0 0.074261774750864804 0.25289133929391111 0 0.062472563593505302 0.26110660749064829 0 0.063392491700480919 0.2510828642249095 0 0.07090317009537217 0.25886987532900169 0 0.062472563593505302 0.26110660749064829 0 0.07090317009537217 0.25886987532900169 0 0.066829182329119829 0.26693814307945207 0 0.07090317009537217 0.25886987532900169 0 0.074261774750864804 0.25289133929391111 0 0.089645379702363526 0.25980927980688501 0 0.072073934872957782 0.23900016577853919 0 0.074261774750864804 0.25289133929391111 0 0.089645379702363526 0.25980927980688501 0 0.089645379702363526 0.25980927980688501 0 0.066829182329119829 0.26693814307945207 0 0.089645379702363526 0.25980927980688501 0 0.084738505220855201 0.27427167124983992 0 0.066829182329119829 0.26693814307945207 0 0.084738505220855201 0.27427167124983992 0 0.069466372585565969 0.27425949764399721 0 0.085077205623658711 0.29152493742801078 0 0.084738505220855201 0.27427167124983992 0 0.095910340366493346 0.28464594086445177 0 0.099818528257267281 0.27185690653089678 0 0.089645379702363526 0.25980927980688501 0 0.084738505220855201 0.27427167124983992 0 0.099818528257267281 0.27185690653089678 0 0.084738505220855201 0.27427167124983992 0 0.066829182329119829 0.26693814307945207 0 0.069466372585565969 0.27425949764399721 0 0.052806085500663583 0.27441819900301412 0 0.069466372585565969 0.27425949764399721 0 0.076123070751733898 0.28677840112891878 0 0.052806085500663583 0.27441819900301412 0 0.076123070751733898 0.28677840112891878 0 0.069466372585565969 0.27425949764399721 0 0.076123070751733898 0.28677840112891878 0 0.062472563593505302 0.26110660749064829 0 0.069466372585565969 0.27425949764399721 0 0.062472563593505302 0.26110660749064829 0 0.066829182329119829 0.26693814307945207 0 0.069466372585565969 0.27425949764399721 0 0.069466372585565969 0.27425949764399721 0 0.085077205623658711 0.29152493742801078 0 0.069466372585565969 0.27425949764399721 0 0.076123070751733898 0.28677840112891878 0 0.085077205623658711 0.29152493742801078 0 0.062988366650143207 0.29302398426469728 0 0.076123070751733898 0.28677840112891878 0 0.066452600317618793 0.30933520022964911 0 0.054778979573680928 0.27715841955607551 0 0.062988366650143207 0.29302398426469728 0 0.076123070751733898 0.28677840112891878 0 0.090103400857782137 0.31307047550514489 0 0.076123070751733898 0.28677840112891878 0 0.066452600317618793 0.30933520022964911 0 0.059204269303370749 0.30137448027593422 0 0.062988366650143207 0.29302398426469728 0 0.066452600317618793 0.30933520022964911 0 0.090103400857782137 0.31307047550514489 0 0.076123070751733898 0.28677840112891878 0 0.085077205623658711 0.29152493742801078 0 0.090103400857782137 0.31307047550514489 0 0.076123070751733898 0.28677840112891878 0 0.090103400857782137 0.31307047550514489 0 0.085077205623658711 0.29152493742801078 0 0.09732687347400408 0.30507295899279041 0 0.085077205623658711 0.29152493742801078 0 0.09732687347400408 0.30507295899279041 0 0.084738505220855201 0.27427167124983992 0 0.085077205623658711 0.29152493742801078 0 0.095910340366493346 0.28464594086445177 0 0.076123070751733898 0.28677840112891878 0 0.085077205623658711 0.29152493742801078 0 0.085077205623658711 0.29152493742801078 0 0.095910340366493346 0.28464594086445177 0 0.10018382130907411 0.29953286904093468 0 0.085077205623658711 0.29152493742801078 0 0.10018382130907411 0.29953286904093468 0 0.095910340366493346 0.28464594086445177 0 0.10809736708577181 0.28553666446189058 0 0.10018382130907411 0.29953286904093468 0 0.10809736708577181 0.28553666446189058 0 0.10018382130907411 0.29953286904093468 0 0.10959494141679089 0.29761357018739809 0 0.099947674014671917 0.31467323404701991 0 0.090103400857782137 0.31307047550514489 0 0.09732687347400408 0.30507295899279041 0 0.085077205623658711 0.29152493742801078 0 0.09732687347400408 0.30507295899279041 0 0.10018382130907411 0.29953286904093468 0 0.09732687347400408 0.30507295899279041 0 0.10018382130907411 0.29953286904093468 0 0.1055944182754792 0.3076919023112884 0 0.10018382130907411 0.29953286904093468 0 0.11529043699448981 0.30754080065385803 0 0.10959494141679089 0.29761357018739809 0 0.10018382130907411 0.29953286904093468 0 0.11529043699448981 0.30754080065385803 0 0.1095765413243488 0.31862098055757049 0 0.09732687347400408 0.30507295899279041 0 0.1055944182754792 0.3076919023112884 0 0.10018382130907411 0.29953286904093468 0 0.1055944182754792 0.3076919023112884 0 0.11529043699448981 0.30754080065385803 0 0.1095765413243488 0.31862098055757049 0 0.09732687347400408 0.30507295899279041 0 0.1095765413243488 0.31862098055757049 0 0.1055944182754792 0.3076919023112884 0 0.11529043699448981 0.30754080065385803 0 0.11529043699448981 0.30754080065385803 0 0.11637637905870279 0.30155283343175482 0 0.11810871752106521 0.30621928700195911 0 0.11529043699448981 0.30754080065385803 0 0.10959494141679089 0.29761357018739809 0 0.11637637905870279 0.30155283343175482 0 0.10959494141679089 0.29761357018739809 0 0.11637637905870279 0.30155283343175482 0 0.1164892219926046 0.29243334627748818 0 0.11529043699448981 0.30754080065385803 0 0.11637637905870279 0.30155283343175482 0 0.11637637905870279 0.30155283343175482 0 0.1222906650571363 0.2985709440566281 0 0.1164892219926046 0.29243334627748818 0 0.1222906650571363 0.2985709440566281 0 0.1206025954822835 0.30378795350269022 0 0.1243783730770044 0.30485679470236721 0 0.11637637905870279 0.30155283343175482 0 0.1222906650571363 0.2985709440566281 0 0.1206025954822835 0.30378795350269022 0 0.11637637905870279 0.30155283343175482 0 0.1206025954822835 0.30378795350269022 0 0.11810871752106521 0.30621928700195911 0 0.1206025954822835 0.30378795350269022 0 0.11810871752106521 0.30621928700195911 0 0.1213521300308707 0.30775440284793348 0 0.11529043699448981 0.30754080065385803 0 0.11810871752106521 0.30621928700195911 0 0.11930841490252821 0.30912172642276631 0 0.11810871752106521 0.30621928700195911 0 0.1213521300308707 0.30775440284793348 0 0.11930841490252821 0.30912172642276631 0 0.1243783730770044 0.30485679470236721 0 0.1213521300308707 0.30775440284793348 0 0.1244342991148414 0.30898461385241399 0 0.1206025954822835 0.30378795350269022 0 0.1243783730770044 0.30485679470236721 0 0.1213521300308707 0.30775440284793348 0 0.1214195525311879 0.31440901896845502 0 0.1244342991148414 0.30898461385241399 0 0.12900107104525951 0.30968741412501871 0 0.1214195525311879 0.31440901896845502 0 0.1213521300308707 0.30775440284793348 0 0.1244342991148414 0.30898461385241399 0 0.1214195525311879 0.31440901896845502 0 0.11529043699448981 0.30754080065385803 0 0.11930841490252821 0.30912172642276631 0 0.1214195525311879 0.31440901896845502 0 0.1213521300308707 0.30775440284793348 0 0.11930841490252821 0.30912172642276631 0 0.10809736708577181 0.28553666446189058 0 0.1164892219926046 0.29243334627748818 0 0.1210835213650209 0.28058702695229848 0 0.10809736708577181 0.28553666446189058 0 0.10959494141679089 0.29761357018739809 0 0.1164892219926046 0.29243334627748818 0 0.1222906650571363 0.2985709440566281 0 0.1164892219926046 0.29243334627748818 0 0.12596292383497329 0.28976449579057961 0 0.1164892219926046 0.29243334627748818 0 0.1210835213650209 0.28058702695229848 0 0.12596292383497329 0.28976449579057961 0 0.10809736708577181 0.28553666446189058 0 0.1210835213650209 0.28058702695229848 0 0.1147979612748997 0.2707881575742877 0 0.1210835213650209 0.28058702695229848 0 0.1147979612748997 0.2707881575742877 0 0.12791172371537049 0.26609555254785411 0 0.1147979612748997 0.2707881575742877 0 0.116065923487036 0.25155424759680489 0 0.099818528257267281 0.27185690653089678 0 0.1147979612748997 0.2707881575742877 0 0.116065923487036 0.25155424759680489 0 0.12791172371537049 0.26609555254785411 0 0.089645379702363526 0.25980927980688501 0 0.116065923487036 0.25155424759680489 0 0.089645379702363526 0.25980927980688501 0 0.116065923487036 0.25155424759680489 0 0.099818528257267281 0.27185690653089678 0 0.089645379702363526 0.25980927980688501 0 0.099818528257267281 0.27185690653089678 0 0.095910340366493346 0.28464594086445177 0 0.10809736708577181 0.28553666446189058 0 0.099818528257267281 0.27185690653089678 0 0.10809736708577181 0.28553666446189058 0 0.1147979612748997 0.2707881575742877 0 0.099818528257267281 0.27185690653089678 0 0.14627836463393121 0.26809473379089088 0 0.14256315404166739 0.2804585798755338 0 0.1332419302865058 0.27890394506169119 0 0.14627836463393121 0.26809473379089088 0 0.14256315404166739 0.2804585798755338 0 0.15383705453569649 0.27951082009548711 0 0.14627836463393121 0.26809473379089088 0 0.15383705453569649 0.27951082009548711 0 0.1609818760820641 0.2708255403471686 0 0.14248646727170791 0.24329921538672239 0 0.14627836463393121 0.26809473379089088 0 0.1631161995596529 0.25657386530356069 0 0.14248646727170791 0.24329921538672239 0 0.116065923487036 0.25155424759680489 0 0.12791172371537049 0.26609555254785411 0 0.14248646727170791 0.24329921538672239 0 0.14627836463393121 0.26809473379089088 0 0.12791172371537049 0.26609555254785411 0 0.14627836463393121 0.26809473379089088 0 0.12791172371537049 0.26609555254785411 0 0.1332419302865058 0.27890394506169119 0 0.1210835213650209 0.28058702695229848 0 0.12791172371537049 0.26609555254785411 0 0.1332419302865058 0.27890394506169119 0 0.1332419302865058 0.27890394506169119 0 0.12596292383497329 0.28976449579057961 0 0.13463915166403909 0.29011289163129678 0 0.1210835213650209 0.28058702695229848 0 0.1332419302865058 0.27890394506169119 0 0.12596292383497329 0.28976449579057961 0 0.1222906650571363 0.2985709440566281 0 0.12596292383497329 0.28976449579057961 0 0.12923992476061211 0.29615108028493942 0 0.12596292383497329 0.28976449579057961 0 0.12923992476061211 0.29615108028493942 0 0.13463915166403909 0.29011289163129678 0 0.13463915166403909 0.29011289163129678 0 0.13544399911061031 0.29845687749894129 0 0.1416447250157222 0.29544082675589128 0 0.12923992476061211 0.29615108028493942 0 0.13463915166403909 0.29011289163129678 0 0.13544399911061031 0.29845687749894129 0 0.14256315404166739 0.2804585798755338 0 0.1332419302865058 0.27890394506169119 0 0.13463915166403909 0.29011289163129678 0 0.1243783730770044 0.30485679470236721 0 0.1244342991148414 0.30898461385241399 0 0.12900107104525951 0.30968741412501871 0 0.1243783730770044 0.30485679470236721 0 0.12900107104525951 0.30968741412501871 0 0.1290658347258283 0.30205966601357243 0 0.12900107104525951 0.30968741412501871 0 0.1290658347258283 0.30205966601357243 0 0.1340409753043473 0.30463488541353972 0 0.1222906650571363 0.2985709440566281 0 0.1243783730770044 0.30485679470236721 0 0.1290658347258283 0.30205966601357243 0 0.1222906650571363 0.2985709440566281 0 0.12923992476061211 0.29615108028493942 0 0.1290658347258283 0.30205966601357243 0 0.12923992476061211 0.29615108028493942 0 0.1290658347258283 0.30205966601357243 0 0.13544399911061031 0.29845687749894129 0 0.13544399911061031 0.29845687749894129 0 0.14170706289926879 0.30357921339911909 0 0.1416447250157222 0.29544082675589128 0 0.13544399911061031 0.29845687749894129 0 0.1340409753043473 0.30463488541353972 0 0.14170706289926879 0.30357921339911909 0 0.1290658347258283 0.30205966601357243 0 0.13544399911061031 0.29845687749894129 0 0.1340409753043473 0.30463488541353972 0 0.13598458437900529 0.30983158877234418 0 0.14130712994747449 0.31140798331507108 0 0.14170706289926879 0.30357921339911909 0 0.12900107104525951 0.30968741412501871 0 0.1340409753043473 0.30463488541353972 0 0.13598458437900529 0.30983158877234418 0 0.1340409753043473 0.30463488541353972 0 0.13598458437900529 0.30983158877234418 0 0.14170706289926879 0.30357921339911909 0 0.13598458437900529 0.30983158877234418 0 0.14130712994747449 0.31140798331507108 0 0.13528824775885559 0.3155805734405937 0 0.12900107104525951 0.30968741412501871 0 0.13598458437900529 0.30983158877234418 0 0.13528824775885559 0.3155805734405937 0 0.1483486037307668 0.31106151759990119 0 0.14130712994747449 0.31140798331507108 0 0.14170706289926879 0.30357921339911909 0 0.1483486037307668 0.31106151759990119 0 0.14170706289926879 0.30357921339911909 0 0.1513591925520972 0.30423422291399321 0 0.14170706289926879 0.30357921339911909 0 0.14924189349128261 0.29698436464102829 0 0.1513591925520972 0.30423422291399321 0 0.14170706289926879 0.30357921339911909 0 0.14924189349128261 0.29698436464102829 0 0.1416447250157222 0.29544082675589128 0 0.1513591925520972 0.30423422291399321 0 0.15847128754916129 0.30901971199088751 0 0.1567398971697517 0.30020769771567818 0 0.14924189349128261 0.29698436464102829 0 0.1513591925520972 0.30423422291399321 0 0.1567398971697517 0.30020769771567818 0 0.1483486037307668 0.31106151759990119 0 0.1513591925520972 0.30423422291399321 0 0.15847128754916129 0.30901971199088751 0 0.1483486037307668 0.31106151759990119 0 0.15847128754916129 0.30901971199088751 0 0.1531779528472626 0.31690967251270458 0 0.14256315404166739 0.2804585798755338 0 0.15383705453569649 0.27951082009548711 0 0.14728728951424691 0.28871625735014939 0 0.14256315404166739 0.2804585798755338 0 0.13463915166403909 0.29011289163129678 0 0.14728728951424691 0.28871625735014939 0 0.14924189349128261 0.29698436464102829 0 0.14728728951424691 0.28871625735014939 0 0.1416447250157222 0.29544082675589128 0 0.13463915166403909 0.29011289163129678 0 0.14728728951424691 0.28871625735014939 0 0.1416447250157222 0.29544082675589128 0 0.14924189349128261 0.29698436464102829 0 0.1576814993112734 0.29111844862325259 0 0.1567398971697517 0.30020769771567818 0 0.14924189349128261 0.29698436464102829 0 0.14728728951424691 0.28871625735014939 0 0.1576814993112734 0.29111844862325259 0 0.15383705453569649 0.27951082009548711 0 0.14728728951424691 0.28871625735014939 0 0.1576814993112734 0.29111844862325259 0 0.15383705453569649 0.27951082009548711 0 0.1576814993112734 0.29111844862325259 0 0.16532030222413041 0.28061774918364429 0 0.1576814993112734 0.29111844862325259 0 0.1689979645595176 0.28949488405725932 0 0.16532030222413041 0.28061774918364429 0 0.1576814993112734 0.29111844862325259 0 0.1689979645595176 0.28949488405725932 0 0.16694561294494401 0.29968174040922901 0 0.1689979645595176 0.28949488405725932 0 0.16694561294494401 0.29968174040922901 0 0.17866142019044989 0.29199773726540068 0 0.1689979645595176 0.28949488405725932 0 0.17498255083596301 0.28300150235233201 0 0.16532030222413041 0.28061774918364429 0 0.1576814993112734 0.29111844862325259 0 0.1567398971697517 0.30020769771567818 0 0.16694561294494401 0.29968174040922901 0 0.15847128754916129 0.30901971199088751 0 0.1567398971697517 0.30020769771567818 0 0.16694561294494401 0.29968174040922901 0 0.16694561294494401 0.29968174040922901 0 0.17666858027807311 0.3015349886251833 0 0.1707678241303611 0.31259989648156872 0 0.15847128754916129 0.30901971199088751 0 0.16694561294494401 0.29968174040922901 0 0.1707678241303611 0.31259989648156872 0 0.17666858027807311 0.3015349886251833 0 0.18371952992762389 0.30785332357736089 0 0.1707678241303611 0.31259989648156872 0 0.16694561294494401 0.29968174040922901 0 0.17666858027807311 0.3015349886251833 0 0.17866142019044989 0.29199773726540068 0 0.17666858027807311 0.3015349886251833 0 0.18371952992762389 0.30785332357736089 0 0.1898902111984884 0.29891268329407239 0 0.18371952992762389 0.30785332357736089 0 0.1898902111984884 0.29891268329407239 0 0.17666858027807311 0.3015349886251833 0 0.17866142019044989 0.29199773726540068 0 0.1898902111984884 0.29891268329407239 0 0.17498255083596301 0.28300150235233201 0 0.17866142019044989 0.29199773726540068 0 0.1849298445554361 0.28099903695767547 0 0.1689979645595176 0.28949488405725932 0 0.17498255083596301 0.28300150235233201 0 0.17866142019044989 0.29199773726540068 0 0.17866142019044989 0.29199773726540068 0 0.18677859260729601 0.28760164196875848 0 0.1898902111984884 0.29891268329407239 0 0.17866142019044989 0.29199773726540068 0 0.18677859260729601 0.28760164196875848 0 0.1849298445554361 0.28099903695767547 0 0.1849298445554361 0.28099903695767547 0 0.17528279401001801 0.2714166079934146 0 0.19094745617081291 0.27038549871767581 0 0.17528279401001801 0.2714166079934146 0 0.18564289691528729 0.25868749876629671 0 0.19094745617081291 0.27038549871767581 0 0.17498255083596301 0.28300150235233201 0 0.1849298445554361 0.28099903695767547 0 0.17528279401001801 0.2714166079934146 0 0.17528279401001801 0.2714166079934146 0 0.16532030222413041 0.28061774918364429 0 0.1609818760820641 0.2708255403471686 0 0.17498255083596301 0.28300150235233201 0 0.17528279401001801 0.2714166079934146 0 0.16532030222413041 0.28061774918364429 0 0.17528279401001801 0.2714166079934146 0 0.1609818760820641 0.2708255403471686 0 0.1631161995596529 0.25657386530356069 0 0.15383705453569649 0.27951082009548711 0 0.16532030222413041 0.28061774918364429 0 0.1609818760820641 0.2708255403471686 0 0.14627836463393121 0.26809473379089088 0 0.1609818760820641 0.2708255403471686 0 0.1631161995596529 0.25657386530356069 0 0.16890701105638031 0.23504418317664161 0 0.1631161995596529 0.25657386530356069 0 0.18564289691528729 0.25868749876629671 0 0.17528279401001801 0.2714166079934146 0 0.1631161995596529 0.25657386530356069 0 0.18564289691528729 0.25868749876629671 0 0.1956251304139873 0.24830732682566101 0 0.18564289691528729 0.25868749876629671 0 0.20465537480646501 0.25892384109831479 0 0.18564289691528729 0.25868749876629671 0 0.19094745617081291 0.27038549871767581 0 0.20465537480646501 0.25892384109831479 0 0.2050239072751949 0.2492833193895482 0 0.1956251304139873 0.24830732682566101 0 0.20465537480646501 0.25892384109831479 0 0.19094745617081291 0.27038549871767581 0 0.20212350544635149 0.27452240688285762 0 0.1917381003592612 0.28136787577326228 0 0.1849298445554361 0.28099903695767547 0 0.19094745617081291 0.27038549871767581 0 0.1917381003592612 0.28136787577326228 0 0.19094745617081291 0.27038549871767581 0 0.20212350544635149 0.27452240688285762 0 0.20465537480646501 0.25892384109831479 0 0.21559138507808229 0.27635001083075639 0 0.2170338530129477 0.25958452376210089 0 0.2223889939606305 0.26849190584137572 0 0.20212350544635149 0.27452240688285762 0 0.2170338530129477 0.25958452376210089 0 0.20037669147028589 0.28371892366973078 0 0.2170338530129477 0.25958452376210089 0 0.20037669147028589 0.28371892366973078 0 0.21559138507808229 0.27635001083075639 0 0.2170338530129477 0.25958452376210089 0 0.20037669147028589 0.28371892366973078 0 0.20212350544635149 0.27452240688285762 0 0.20465537480646501 0.25892384109831479 0 0.21458810326103989 0.25029177234766842 0 0.20212350544635149 0.27452240688285762 0 0.2170338530129477 0.25958452376210089 0 0.21458810326103989 0.25029177234766842 0 0.20212350544635149 0.27452240688285762 0 0.21458810326103989 0.25029177234766842 0 0.2050239072751949 0.2492833193895482 0 0.20465537480646501 0.25892384109831479 0 0.21458810326103989 0.25029177234766842 0 0.20465537480646501 0.25892384109831479 0 0.21458810326103989 0.25029177234766842 0 0.23169913173193779 0.25404958449575432 0 0.22942687348362151 0.26728355318502178 0 0.24090080429007341 0.26281353644332878 0 0.23169913173193779 0.25404958449575432 0 0.2249153238939712 0.26221153605608138 0 0.22942687348362151 0.26728355318502178 0 0.2170338530129477 0.25958452376210089 0 0.2249153238939712 0.26221153605608138 0 0.2223889939606305 0.26849190584137572 0 0.2170338530129477 0.25958452376210089 0 0.23169913173193779 0.25404958449575432 0 0.2249153238939712 0.26221153605608138 0 0.2223889939606305 0.26849190584137572 0 0.2255322572178127 0.27738204478537232 0 0.22942687348362151 0.26728355318502178 0 0.2249153238939712 0.26221153605608138 0 0.2223889939606305 0.26849190584137572 0 0.22942687348362151 0.26728355318502178 0 0.21559138507808229 0.27635001083075639 0 0.2255322572178127 0.27738204478537232 0 0.21985426169801439 0.28935406669317137 0 0.21559138507808229 0.27635001083075639 0 0.2223889939606305 0.26849190584137572 0 0.2255322572178127 0.27738204478537232 0 0.2255322572178127 0.27738204478537232 0 0.23621117140834261 0.27732665952701641 0 0.23095623596381579 0.2876536505458 0 0.2255322572178127 0.27738204478537232 0 0.22942687348362151 0.26728355318502178 0 0.23621117140834261 0.27732665952701641 0 0.23621117140834261 0.27732665952701641 0 0.24818821145747599 0.27522177653690871 0 0.24090080429007341 0.26281353644332878 0 0.22942687348362151 0.26728355318502178 0 0.23621117140834261 0.27732665952701641 0 0.24090080429007341 0.26281353644332878 0 0.24818821145747599 0.27522177653690871 0 0.24090080429007341 0.26281353644332878 0 0.25530776412370298 0.26639583896058622 0 0.23995652529561701 0.25039133628829258 0 0.24090080429007341 0.26281353644332878 0 0.25404003316197471 0.25208422786308371 0 0.23169913173193779 0.25404958449575432 0 0.23995652529561701 0.25039133628829258 0 0.24090080429007341 0.26281353644332878 0 0.23765651747073049 0.31117848176507701 0 0.2454028482605469 0.29267792886045368 0 0.25114017462525878 0.31153615041935723 0 0.23765651747073049 0.31117848176507701 0 0.2454028482605469 0.29267792886045368 0 0.2283396740985745 0.30195705682751389 0 0.2454028482605469 0.29267792886045368 0 0.23095623596381579 0.2876536505458 0 0.2283396740985745 0.30195705682751389 0 0.23621117140834261 0.27732665952701641 0 0.24818821145747599 0.27522177653690871 0 0.2454028482605469 0.29267792886045368 0 0.23621117140834261 0.27732665952701641 0 0.2454028482605469 0.29267792886045368 0 0.23095623596381579 0.2876536505458 0 0.2255322572178127 0.27738204478537232 0 0.23095623596381579 0.2876536505458 0 0.21985426169801439 0.28935406669317137 0 0.23095623596381579 0.2876536505458 0 0.21985426169801439 0.28935406669317137 0 0.2283396740985745 0.30195705682751389 0 0.2283396740985745 0.30195705682751389 0 0.2184758680590754 0.31184724711422762 0 0.22801070301179061 0.32060690690137728 0 0.21985426169801439 0.28935406669317137 0 0.2283396740985745 0.30195705682751389 0 0.21670572119465931 0.30172893354768798 0 0.23765651747073049 0.31117848176507701 0 0.2283396740985745 0.30195705682751389 0 0.22801070301179061 0.32060690690137728 0 0.2283396740985745 0.30195705682751389 0 0.2184758680590754 0.31184724711422762 0 0.21670572119465931 0.30172893354768798 0 0.2184758680590754 0.31184724711422762 0 0.21670572119465931 0.30172893354768798 0 0.20632342479934371 0.30585855598863948 0 0.21670572119465931 0.30172893354768798 0 0.20632342479934371 0.30585855598863948 0 0.21141614329998781 0.29390938293380992 0 0.20632342479934371 0.30585855598863948 0 0.21141614329998781 0.29390938293380992 0 0.2042452804315445 0.29308429151921322 0 0.21559138507808229 0.27635001083075639 0 0.21985426169801439 0.28935406669317137 0 0.2104384150331686 0.28649738738125968 0 0.21985426169801439 0.28935406669317137 0 0.21141614329998781 0.29390938293380992 0 0.2104384150331686 0.28649738738125968 0 0.21985426169801439 0.28935406669317137 0 0.21670572119465931 0.30172893354768798 0 0.21141614329998781 0.29390938293380992 0 0.21141614329998781 0.29390938293380992 0 0.2042452804315445 0.29308429151921322 0 0.2104384150331686 0.28649738738125968 0 0.2042452804315445 0.29308429151921322 0 0.2104384150331686 0.28649738738125968 0 0.20037669147028589 0.28371892366973078 0 0.21559138507808229 0.27635001083075639 0 0.2104384150331686 0.28649738738125968 0 0.20037669147028589 0.28371892366973078 0 0.20212350544635149 0.27452240688285762 0 0.20037669147028589 0.28371892366973078 0 0.1898902111984884 0.29891268329407239 0 0.18677859260729601 0.28760164196875848 0 0.1917381003592612 0.28136787577326228 0 0.1898902111984884 0.29891268329407239 0 0.20037669147028589 0.28371892366973078 0 0.1976595376627992 0.29976589533378561 0 0.1898902111984884 0.29891268329407239 0 0.2042452804315445 0.29308429151921322 0 0.20037669147028589 0.28371892366973078 0 0.1976595376627992 0.29976589533378561 0 0.20212350544635149 0.27452240688285762 0 0.1898902111984884 0.29891268329407239 0 0.20212350544635149 0.27452240688285762 0 0.1917381003592612 0.28136787577326228 0 0.1898902111984884 0.29891268329407239 0 0.20037669147028589 0.28371892366973078 0 0.1898902111984884 0.29891268329407239 0 0.18677859260729601 0.28760164196875848 0 0.1849298445554361 0.28099903695767547 0 0.1917381003592612 0.28136787577326228 0 0.20632342479934371 0.30585855598863948 0 0.19412409721151189 0.30848045781950378 0 0.19635424873152091 0.31866253726922511 0 0.20632342479934371 0.30585855598863948 0 0.1976595376627992 0.29976589533378561 0 0.19412409721151189 0.30848045781950378 0 0.20632342479934371 0.30585855598863948 0 0.2042452804315445 0.29308429151921322 0 0.1976595376627992 0.29976589533378561 0 0.18371952992762389 0.30785332357736089 0 0.1976595376627992 0.29976589533378561 0 0.1898902111984884 0.29891268329407239 0 0.18371952992762389 0.30785332357736089 0 0.19412409721151189 0.30848045781950378 0 0.19635424873152091 0.31866253726922511 0 0.18371952992762389 0.30785332357736089 0 0.1976595376627992 0.29976589533378561 0 0.19412409721151189 0.30848045781950378 0 0.19635424873152091 0.31866253726922511 0 0.19329834396814641 0.33328399686629978 0 0.21150607161232149 0.3245036863190196 0 0.19635424873152091 0.31866253726922511 0 0.19329834396814641 0.33328399686629978 0 0.1818581672390053 0.32281790922797782 0 0.19329834396814641 0.33328399686629978 0 0.20841238186686439 0.34472105417207632 0 0.1876990638134575 0.35190483133425488 0 0.19329834396814641 0.33328399686629978 0 0.21150607161232149 0.3245036863190196 0 0.20841238186686439 0.34472105417207632 0 0.21150607161232149 0.3245036863190196 0 0.22736457019319431 0.33776348264759248 0 0.20841238186686439 0.34472105417207632 0 0.20632342479934371 0.30585855598863948 0 0.19635424873152091 0.31866253726922511 0 0.21150607161232149 0.3245036863190196 0 0.2184758680590754 0.31184724711422762 0 0.20632342479934371 0.30585855598863948 0 0.21150607161232149 0.3245036863190196 0 0.21150607161232149 0.3245036863190196 0 0.22801070301179061 0.32060690690137728 0 0.22736457019319431 0.33776348264759248 0 0.2184758680590754 0.31184724711422762 0 0.21150607161232149 0.3245036863190196 0 0.22801070301179061 0.32060690690137728 0 0.22801070301179061 0.32060690690137728 0 0.22736457019319431 0.33776348264759248 0 0.24490867605631639 0.32967072069511189 0 0.22736457019319431 0.33776348264759248 0 0.24490867605631639 0.32967072069511189 0 0.24521693247762111 0.35027114815259558 0 0.23765651747073049 0.31117848176507701 0 0.22801070301179061 0.32060690690137728 0 0.24490867605631639 0.32967072069511189 0 0.23765651747073049 0.31117848176507701 0 0.24490867605631639 0.32967072069511189 0 0.25114017462525878 0.31153615041935723 0 0.24305895760768401 0.36641304215893011 0 0.24521693247762111 0.35027114815259558 0 0.22613265613425179 0.35680737964537468 0 0.22736457019319431 0.33776348264759248 0 0.24521693247762111 0.35027114815259558 0 0.22613265613425179 0.35680737964537468 0 0.22736457019319431 0.33776348264759248 0 0.22613265613425179 0.35680737964537468 0 0.20841238186686439 0.34472105417207632 0 0.22613265613425179 0.35680737964537468 0 0.20200890290724041 0.36500873302905812 0 0.22860253219506471 0.37841014948266538 0 0.24305895760768401 0.36641304215893011 0 0.22613265613425179 0.35680737964537468 0 0.22860253219506471 0.37841014948266538 0 0.20200890290724041 0.36500873302905812 0 0.22860253219506471 0.37841014948266538 0 0.22613265613425179 0.35680737964537468 0 0.20841238186686439 0.34472105417207632 0 0.20200890290724041 0.36500873302905812 0 0.20841238186686439 0.34472105417207632 0 0.1876990638134575 0.35190483133425488 0 0.20200890290724041 0.36500873302905812 0 0.1876990638134575 0.35190483133425488 0 0.20200890290724041 0.36500873302905812 0 0.17637045729064621 0.37495278481954358 0 0.1876990638134575 0.35190483133425488 0 0.17637045729064621 0.37495278481954358 0 0.16909864488713719 0.35514267549568418 0 0.15975417249048229 0.36968310563447321 0 0.16909864488713719 0.35514267549568418 0 0.14990537096685039 0.36070173528474042 0 0.17637045729064621 0.37495278481954358 0 0.15975417249048229 0.36968310563447321 0 0.16909864488713719 0.35514267549568418 0 0.16909864488713719 0.35514267549568418 0 0.1770056519607103 0.33831974362286749 0 0.1619384281755652 0.34052596047808847 0 0.16909864488713719 0.35514267549568418 0 0.14990537096685039 0.36070173528474042 0 0.15416632756111201 0.34898696826244741 0 0.16909864488713719 0.35514267549568418 0 0.1619384281755652 0.34052596047808847 0 0.15416632756111201 0.34898696826244741 0 0.1876990638134575 0.35190483133425488 0 0.16909864488713719 0.35514267549568418 0 0.1770056519607103 0.33831974362286749 0 0.19329834396814641 0.33328399686629978 0 0.1770056519607103 0.33831974362286749 0 0.1818581672390053 0.32281790922797782 0 0.19329834396814641 0.33328399686629978 0 0.1876990638134575 0.35190483133425488 0 0.1770056519607103 0.33831974362286749 0 0.1770056519607103 0.33831974362286749 0 0.1818581672390053 0.32281790922797782 0 0.1657389141743941 0.32607447656151611 0 0.1818581672390053 0.32281790922797782 0 0.1707678241303611 0.31259989648156872 0 0.1657389141743941 0.32607447656151611 0 0.18371952992762389 0.30785332357736089 0 0.19635424873152091 0.31866253726922511 0 0.1818581672390053 0.32281790922797782 0 0.18371952992762389 0.30785332357736089 0 0.1818581672390053 0.32281790922797782 0 0.1707678241303611 0.31259989648156872 0 0.1707678241303611 0.31259989648156872 0 0.1657389141743941 0.32607447656151611 0 0.16084478468494731 0.31759224325908281 0 0.1657389141743941 0.32607447656151611 0 0.15632698434060879 0.32309477146443721 0 0.16084478468494731 0.31759224325908281 0 0.1657389141743941 0.32607447656151611 0 0.15632698434060879 0.32309477146443721 0 0.1534459738215358 0.33116830427909388 0 0.15847128754916129 0.30901971199088751 0 0.1707678241303611 0.31259989648156872 0 0.16084478468494731 0.31759224325908281 0 0.15847128754916129 0.30901971199088751 0 0.16084478468494731 0.31759224325908281 0 0.1531779528472626 0.31690967251270458 0 0.15632698434060879 0.32309477146443721 0 0.16084478468494731 0.31759224325908281 0 0.1531779528472626 0.31690967251270458 0 0.1770056519607103 0.33831974362286749 0 0.1657389141743941 0.32607447656151611 0 0.1619384281755652 0.34052596047808847 0 0.1657389141743941 0.32607447656151611 0 0.1619384281755652 0.34052596047808847 0 0.1534459738215358 0.33116830427909388 0 0.1619384281755652 0.34052596047808847 0 0.14537830609435001 0.34101383565047871 0 0.15416632756111201 0.34898696826244741 0 0.1619384281755652 0.34052596047808847 0 0.1534459738215358 0.33116830427909388 0 0.14537830609435001 0.34101383565047871 0 0.1534459738215358 0.33116830427909388 0 0.1427633336259623 0.33140140495610498 0 0.14842729617490411 0.32372916070978858 0 0.1534459738215358 0.33116830427909388 0 0.1427633336259623 0.33140140495610498 0 0.14537830609435001 0.34101383565047871 0 0.1427633336259623 0.33140140495610498 0 0.14537830609435001 0.34101383565047871 0 0.13654253772275141 0.33890423694427602 0 0.1483486037307668 0.31106151759990119 0 0.1531779528472626 0.31690967251270458 0 0.14487070829517959 0.31682928085866202 0 0.1531779528472626 0.31690967251270458 0 0.14842729617490411 0.32372916070978858 0 0.14487070829517959 0.31682928085866202 0 0.15632698434060879 0.32309477146443721 0 0.1534459738215358 0.33116830427909388 0 0.14842729617490411 0.32372916070978858 0 0.15632698434060879 0.32309477146443721 0 0.1531779528472626 0.31690967251270458 0 0.14842729617490411 0.32372916070978858 0 0.1427633336259623 0.33140140495610498 0 0.14842729617490411 0.32372916070978858 0 0.1402378637359267 0.32270884290342983 0 0.14842729617490411 0.32372916070978858 0 0.14487070829517959 0.31682928085866202 0 0.1402378637359267 0.32270884290342983 0 0.1483486037307668 0.31106151759990119 0 0.14130712994747449 0.31140798331507108 0 0.14487070829517959 0.31682928085866202 0 0.14130712994747449 0.31140798331507108 0 0.14487070829517959 0.31682928085866202 0 0.13528824775885559 0.3155805734405937 0 0.14487070829517959 0.31682928085866202 0 0.13528824775885559 0.3155805734405937 0 0.1402378637359267 0.32270884290342983 0 0.13528824775885559 0.3155805734405937 0 0.1330765722643745 0.32249408610517011 0 0.1402378637359267 0.32270884290342983 0 0.1330765722643745 0.32249408610517011 0 0.1402378637359267 0.32270884290342983 0 0.13309473665224339 0.33072661256584468 0 0.12375204985912221 0.32702725796552912 0 0.1330765722643745 0.32249408610517011 0 0.13309473665224339 0.33072661256584468 0 0.12375204985912221 0.32702725796552912 0 0.1330765722643745 0.32249408610517011 0 0.12817088130983889 0.317450689473041 0 0.13528824775885559 0.3155805734405937 0 0.1330765722643745 0.32249408610517011 0 0.12817088130983889 0.317450689473041 0 0.1214195525311879 0.31440901896845502 0 0.12900107104525951 0.30968741412501871 0 0.12817088130983889 0.317450689473041 0 0.12900107104525951 0.30968741412501871 0 0.13528824775885559 0.3155805734405937 0 0.12817088130983889 0.317450689473041 0 0.14537830609435001 0.34101383565047871 0 0.13654253772275141 0.33890423694427602 0 0.13685475473781181 0.34959577292381833 0 0.13654253772275141 0.33890423694427602 0 0.1260676383484185 0.3399282146226113 0 0.13685475473781181 0.34959577292381833 0 0.1427633336259623 0.33140140495610498 0 0.13654253772275141 0.33890423694427602 0 0.13309473665224339 0.33072661256584468 0 0.1427633336259623 0.33140140495610498 0 0.1402378637359267 0.32270884290342983 0 0.13309473665224339 0.33072661256584468 0 0.12375204985912221 0.32702725796552912 0 0.13309473665224339 0.33072661256584468 0 0.1260676383484185 0.3399282146226113 0 0.13654253772275141 0.33890423694427602 0 0.13309473665224339 0.33072661256584468 0 0.1260676383484185 0.3399282146226113 0 0.1232256624926347 0.35239419723674059 0 0.13685475473781181 0.34959577292381833 0 0.13271547193899449 0.36524458735671972 0 0.1232256624926347 0.35239419723674059 0 0.1260676383484185 0.3399282146226113 0 0.13685475473781181 0.34959577292381833 0 0.13685475473781181 0.34959577292381833 0 0.13271547193899449 0.36524458735671972 0 0.14990537096685039 0.36070173528474042 0 0.13271547193899449 0.36524458735671972 0 0.14727668153694909 0.37350977329143831 0 0.1384203385310763 0.3853027474406937 0 0.13271547193899449 0.36524458735671972 0 0.14727668153694909 0.37350977329143831 0 0.14990537096685039 0.36070173528474042 0 0.15975417249048229 0.36968310563447321 0 0.14727668153694909 0.37350977329143831 0 0.14990537096685039 0.36070173528474042 0 0.14537830609435001 0.34101383565047871 0 0.13685475473781181 0.34959577292381833 0 0.15416632756111201 0.34898696826244741 0 0.13685475473781181 0.34959577292381833 0 0.14990537096685039 0.36070173528474042 0 0.15416632756111201 0.34898696826244741 0 0.15196678808574959 0.39634912392256672 0 0.1402717845598023 0.40641241395674649 0 0.16129649351817349 0.40676751558544272 0 0.15196678808574959 0.39634912392256672 0 0.1384203385310763 0.3853027474406937 0 0.1402717845598023 0.40641241395674649 0 0.15196678808574959 0.39634912392256672 0 0.15611970777082879 0.38410855928095938 0 0.1384203385310763 0.3853027474406937 0 0.14727668153694909 0.37350977329143831 0 0.15611970777082879 0.38410855928095938 0 0.1384203385310763 0.3853027474406937 0 0.15975417249048229 0.36968310563447321 0 0.14727668153694909 0.37350977329143831 0 0.15611970777082879 0.38410855928095938 0 0.1231373165426977 0.3806134049577457 0 0.13271547193899449 0.36524458735671972 0 0.1384203385310763 0.3853027474406937 0 0.1231373165426977 0.3806134049577457 0 0.1384203385310763 0.3853027474406937 0 0.1271742827044339 0.39597619803598749 0 0.1384203385310763 0.3853027474406937 0 0.1271742827044339 0.39597619803598749 0 0.1402717845598023 0.40641241395674649 0 0.1162621503634904 0.41872732341568758 0 0.1271742827044339 0.39597619803598749 0 0.1402717845598023 0.40641241395674649 0 0.1162621503634904 0.41872732341568758 0 0.1402717845598023 0.40641241395674649 0 0.14380353536204241 0.43078456768362461 0 0.1162621503634904 0.41872732341568758 0 0.14380353536204241 0.43078456768362461 0 0.1205619018159948 0.44674810255646558 0 0.1162621503634904 0.41872732341568758 0 0.13914808732176639 0.43525501877606959 0 0.1162621503634904 0.41872732341568758 0 0.13914808732176639 0.43525501877606959 0 0.14380353536204241 0.43078456768362461 0 0.1402717845598023 0.40641241395674649 0 0.16129649351817349 0.40676751558544272 0 0.1583102357697074 0.42239552662274649 0 0.1402717845598023 0.40641241395674649 0 0.14380353536204241 0.43078456768362461 0 0.1583102357697074 0.42239552662274649 0 0.16129649351817349 0.40676751558544272 0 0.17483444504792359 0.42517132393635743 0 0.1767108048052333 0.40648620419478521 0 0.16129649351817349 0.40676751558544272 0 0.1583102357697074 0.42239552662274649 0 0.17483444504792359 0.42517132393635743 0 0.1583102357697074 0.42239552662274649 0 0.17483444504792359 0.42517132393635743 0 0.1713449203605947 0.44284181195156158 0 0.14380353536204241 0.43078456768362461 0 0.1713449203605947 0.44284181195156158 0 0.14380353536204241 0.43078456768362461 0 0.1583102357697074 0.42239552662274649 0 0.1713449203605947 0.44284181195156158 0 0.17483444504792359 0.42517132393635743 0 0.18216746451451801 0.43740730714955978 0 0.1713449203605947 0.44284181195156158 0 0.17483444504792359 0.42517132393635743 0 0.1713449203605947 0.44284181195156158 0 0.17483444504792359 0.42517132393635743 0 0.1894098998784805 0.41329321868770491 0 0.19020123220431809 0.42989189963497759 0 0.17483444504792359 0.42517132393635743 0 0.18216746451451801 0.43740730714955978 0 0.19020123220431809 0.42989189963497759 0 0.17483444504792359 0.42517132393635743 0 0.1767108048052333 0.40648620419478521 0 0.1894098998784805 0.41329321868770491 0 0.1767108048052333 0.40648620419478521 0 0.16971698500113649 0.39319336099264368 0 0.18829620058045249 0.39400560177177729 0 0.1767108048052333 0.40648620419478521 0 0.18829620058045249 0.39400560177177729 0 0.1894098998784805 0.41329321868770491 0 0.15196678808574959 0.39634912392256672 0 0.15611970777082879 0.38410855928095938 0 0.16971698500113649 0.39319336099264368 0 0.15196678808574959 0.39634912392256672 0 0.16129649351817349 0.40676751558544272 0 0.16971698500113649 0.39319336099264368 0 0.16129649351817349 0.40676751558544272 0 0.1767108048052333 0.40648620419478521 0 0.16971698500113649 0.39319336099264368 0 0.17637045729064621 0.37495278481954358 0 0.15975417249048229 0.36968310563447321 0 0.15611970777082879 0.38410855928095938 0 0.17637045729064621 0.37495278481954358 0 0.15611970777082879 0.38410855928095938 0 0.16971698500113649 0.39319336099264368 0 0.17637045729064621 0.37495278481954358 0 0.16971698500113649 0.39319336099264368 0 0.18829620058045249 0.39400560177177729 0 0.20200890290724041 0.36500873302905812 0 0.18829620058045249 0.39400560177177729 0 0.21022739730807871 0.38998636848418261 0 0.20200890290724041 0.36500873302905812 0 0.17637045729064621 0.37495278481954358 0 0.18829620058045249 0.39400560177177729 0 0.18829620058045249 0.39400560177177729 0 0.21022739730807871 0.38998636848418261 0 0.20498907662426999 0.40636669370009521 0 0.18829620058045249 0.39400560177177729 0 0.20498907662426999 0.40636669370009521 0 0.1894098998784805 0.41329321868770491 0 0.21022739730807871 0.38998636848418261 0 0.225418264115859 0.4045632601918206 0 0.20498907662426999 0.40636669370009521 0 0.20200890290724041 0.36500873302905812 0 0.21022739730807871 0.38998636848418261 0 0.22860253219506471 0.37841014948266538 0 0.21022739730807871 0.38998636848418261 0 0.22860253219506471 0.37841014948266538 0 0.225418264115859 0.4045632601918206 0 0.225418264115859 0.4045632601918206 0 0.2490748840761759 0.41447913741323361 0 0.25519616148288887 0.39181156593627298 0 0.22860253219506471 0.37841014948266538 0 0.225418264115859 0.4045632601918206 0 0.25519616148288887 0.39181156593627298 0 0.22860253219506471 0.37841014948266538 0 0.25519616148288887 0.39181156593627298 0 0.24305895760768401 0.36641304215893011 0 0.22860253219506471 0.37841014948266538 0 0.25519616148288887 0.39181156593627298 0 0.2490748840761759 0.41447913741323361 0 0.23040520055063371 0.42472223384156732 0 0.24517769652138269 0.43868647355565088 0 0.225418264115859 0.4045632601918206 0 0.2490748840761759 0.41447913741323361 0 0.23040520055063371 0.42472223384156732 0 0.225418264115859 0.4045632601918206 0 0.23040520055063371 0.42472223384156732 0 0.20794960100346549 0.42683021087399747 0 0.23040520055063371 0.42472223384156732 0 0.20794960100346549 0.42683021087399747 0 0.2229924843016429 0.43948176305630821 0 0.23040520055063371 0.42472223384156732 0 0.2229924843016429 0.43948176305630821 0 0.24517769652138269 0.43868647355565088 0 0.225418264115859 0.4045632601918206 0 0.20794960100346549 0.42683021087399747 0 0.20498907662426999 0.40636669370009521 0 0.20794960100346549 0.42683021087399747 0 0.20498907662426999 0.40636669370009521 0 0.1894098998784805 0.41329321868770491 0 0.20794960100346549 0.42683021087399747 0 0.19020123220431809 0.42989189963497759 0 0.19426067079655579 0.44330707928475449 0 0.20794960100346549 0.42683021087399747 0 0.1894098998784805 0.41329321868770491 0 0.19020123220431809 0.42989189963497759 0 0.18216746451451801 0.43740730714955978 0 0.19020123220431809 0.42989189963497759 0 0.19426067079655579 0.44330707928475449 0 0.19426067079655579 0.44330707928475449 0 0.1940681668251448 0.45640187690020761 0 0.18254949088188149 0.4477470207382499 0 0.19426067079655579 0.44330707928475449 0 0.1940681668251448 0.45640187690020761 0 0.20814429074563079 0.44944136850783811 0 0.1940681668251448 0.45640187690020761 0 0.20814429074563079 0.44944136850783811 0 0.2039949308663013 0.472197178379127 0 0.1940681668251448 0.45640187690020761 0 0.2039949308663013 0.472197178379127 0 0.18608081776579821 0.46867989557539208 0 0.1940681668251448 0.45640187690020761 0 0.18608081776579821 0.46867989557539208 0 0.18254949088188149 0.4477470207382499 0 0.20814429074563079 0.44944136850783811 0 0.22852149564367849 0.45772005811557609 0 0.2039949308663013 0.472197178379127 0 0.20794960100346549 0.42683021087399747 0 0.19426067079655579 0.44330707928475449 0 0.20814429074563079 0.44944136850783811 0 0.20794960100346549 0.42683021087399747 0 0.20814429074563079 0.44944136850783811 0 0.2229924843016429 0.43948176305630821 0 0.2229924843016429 0.43948176305630821 0 0.22852149564367849 0.45772005811557609 0 0.24517769652138269 0.43868647355565088 0 0.20814429074563079 0.44944136850783811 0 0.2229924843016429 0.43948176305630821 0 0.22852149564367849 0.45772005811557609 0 0.22852149564367849 0.45772005811557609 0 0.2480713074063006 0.45455858161591112 0 0.2508124586903176 0.47172026355836871 0 0.22852149564367849 0.45772005811557609 0 0.2480713074063006 0.45455858161591112 0 0.24517769652138269 0.43868647355565088 0 0.24658834009167641 0.5 0 0.2268462464291012 0.47913099520174052 0 0.2508124586903176 0.47172026355836871 0 0.22852149564367849 0.45772005811557609 0 0.2268462464291012 0.47913099520174052 0 0.2508124586903176 0.47172026355836871 0 0.22852149564367849 0.45772005811557609 0 0.2268462464291012 0.47913099520174052 0 0.2039949308663013 0.472197178379127 0 0.24658834009167641 0.5 0 0.2268462464291012 0.47913099520174052 0 0.21774471386125249 0.5 0 0.2039949308663013 0.472197178379127 0 0.18890108763082861 0.5 0 0.18608081776579821 0.46867989557539208 0 0.21774471386125249 0.5 0 0.2039949308663013 0.472197178379127 0 0.18890108763082861 0.5 0 0.2268462464291012 0.47913099520174052 0 0.21774471386125249 0.5 0 0.2039949308663013 0.472197178379127 0 0.18890108763082861 0.5 0 0.16570119088049859 0.47142090597577962 0 0.18608081776579821 0.46867989557539208 0 0.18890108763082861 0.5 0 0.1600574614004048 0.499999999999998 0 0.16570119088049859 0.47142090597577962 0 0.1600574614004048 0.499999999999998 0 0.16570119088049859 0.47142090597577962 0 0.1600574614004048 0.499999999999998 0 0.16570119088049859 0.47142090597577962 0 0.1473140710794911 0.47841155746419622 0 0.16570119088049859 0.47142090597577962 0 0.18608081776579821 0.46867989557539208 0 0.18254949088188149 0.4477470207382499 0 0.16570119088049859 0.47142090597577962 0 0.18254949088188149 0.4477470207382499 0 0.1713449203605947 0.44284181195156158 0 0.18216746451451801 0.43740730714955978 0 0.19426067079655579 0.44330707928475449 0 0.18254949088188149 0.4477470207382499 0 0.18254949088188149 0.4477470207382499 0 0.1713449203605947 0.44284181195156158 0 0.18216746451451801 0.43740730714955978 0 0.18254949088188149 0.4477470207382499 0 0.1713449203605947 0.44284181195156158 0 0.16570119088049859 0.47142090597577962 0 0.1713449203605947 0.44284181195156158 0 0.16570119088049859 0.47142090597577962 0 0.1713449203605947 0.44284181195156158 0 0.15076126992746861 0.45128164001408699 0 0.16570119088049859 0.47142090597577962 0 0.14979107830043681 0.4659705410046826 0 0.15076126992746861 0.45128164001408699 0 0.14979107830043681 0.4659705410046826 0 0.15076126992746861 0.45128164001408699 0 0.13538778131428869 0.46276806056466779 0 0.13914808732176639 0.43525501877606959 0 0.14380353536204241 0.43078456768362461 0 0.15076126992746861 0.45128164001408699 0 0.14380353536204241 0.43078456768362461 0 0.1713449203605947 0.44284181195156158 0 0.15076126992746861 0.45128164001408699 0 0.13914808732176639 0.43525501877606959 0 0.15076126992746861 0.45128164001408699 0 0.13538778131428869 0.46276806056466779 0 0.13914808732176639 0.43525501877606959 0 0.13538778131428869 0.46276806056466779 0 0.1205619018159948 0.44674810255646558 0 0.13914808732176639 0.43525501877606959 0 0.13538778131428869 0.46276806056466779 0 0.1248616532684987 0.47476888169724352 0 0.1205619018159948 0.44674810255646558 0 0.13538778131428869 0.46276806056466779 0 0.13538778131428869 0.46276806056466779 0 0.13162747530681079 0.49028110235326611 0 0.1248616532684987 0.47476888169724352 0 0.13538778131428869 0.46276806056466779 0 0.13162747530681079 0.49028110235326611 0 0.13538778131428869 0.46276806056466779 0 0.13162747530681079 0.49028110235326611 0 0.1473140710794911 0.47841155746419622 0 0.1248616532684987 0.47476888169724352 0 0.13162747530681079 0.49028110235326611 0 0.1248616532684987 0.47476888169724352 0 0.1287333349596296 0.50000000000000233 0 0.1248616532684987 0.47476888169724352 0 0.13162747530681079 0.49028110235326611 0 0.1287333349596296 0.50000000000000233 0 0.13162747530681079 0.49028110235326611 0 0.1302991587401483 0.50000000000000044 0 0.13162747530681079 0.49028110235326611 0 0.1302991587401483 0.50000000000000044 0 0.13586647714571501 0.50000000000000044 0 0.13162747530681079 0.49028110235326611 0 0.1287333349596296 0.50000000000000233 0 0.1302991587401483 0.50000000000000044 0 0.13162747530681079 0.49028110235326611 0 0.13586647714571501 0.50000000000000044 0 0.14406777576738011 0.49099847585001533 0 0.13162747530681079 0.49028110235326611 0 0.13586647714571501 0.50000000000000044 0 0.1600574614004048 0.499999999999998 0 0.13586647714571501 0.50000000000000044 0 0.14406777576738011 0.49099847585001533 0 0.1600574614004048 0.499999999999998 0 0.14406777576738011 0.49099847585001533 0 0.1473140710794911 0.47841155746419622 0 0.13162747530681079 0.49028110235326611 0 0.14406777576738011 0.49099847585001533 0 0.1473140710794911 0.47841155746419622 0 0.16570119088049859 0.47142090597577962 0 0.14979107830043681 0.4659705410046826 0 0.1473140710794911 0.47841155746419622 0 0.14979107830043681 0.4659705410046826 0 0.13538778131428869 0.46276806056466779 0 0.1473140710794911 0.47841155746419622 0 0.3484716028812469 0.46927922019571022 0 0.3639431844790027 0.47792576209206161 0 0.36215729707138089 0.45952194433731441 0 0.3484716028812469 0.46927922019571022 0 0.34825454286986979 0.4866410253547736 0 0.3639431844790027 0.47792576209206161 0 0.34825454286986979 0.4866410253547736 0 0.36196284501337178 0.5 0 0.3639431844790027 0.47792576209206161 0 0.34825454286986979 0.4866410253547736 0 0.36196284501337178 0.5 0 0.33311921878294798 0.5 0 0.36196284501337178 0.5 0 0.3639431844790027 0.47792576209206161 0 0.38120033573297152 0.48442634992442057 0 0.3639431844790027 0.47792576209206161 0 0.37844435483634198 0.4675903904274426 0 0.38120033573297152 0.48442634992442057 0 0.3639431844790027 0.47792576209206161 0 0.36215729707138089 0.45952194433731441 0 0.37844435483634198 0.4675903904274426 0 0.36215729707138089 0.45952194433731441 0 0.37809165231809289 0.44568724501072521 0 0.37844435483634198 0.4675903904274426 0 0.36215729707138089 0.45952194433731441 0 0.35494335133579169 0.44207750056399991 0 0.37809165231809289 0.44568724501072521 0 0.35494335133579169 0.44207750056399991 0 0.365542703577178 0.42914551292816783 0 0.37809165231809289 0.44568724501072521 0 0.35494335133579169 0.44207750056399991 0 0.33746945485668051 0.4332718215327816 0 0.35494335133579169 0.44207750056399991 0 0.33933393763431879 0.44574212964051668 0 0.33746945485668051 0.4332718215327816 0 0.36215729707138089 0.45952194433731441 0 0.35494335133579169 0.44207750056399991 0 0.34904963657780902 0.45457154773394731 0 0.35494335133579169 0.44207750056399991 0 0.34904963657780902 0.45457154773394731 0 0.33933393763431879 0.44574212964051668 0 0.3484716028812469 0.46927922019571022 0 0.36215729707138089 0.45952194433731441 0 0.34904963657780902 0.45457154773394731 0 0.3484716028812469 0.46927922019571022 0 0.34904963657780902 0.45457154773394731 0 0.33768006752307722 0.45817683321967928 0 0.33768006752307722 0.45817683321967928 0 0.32516604183334019 0.44948070643492349 0 0.3263791186886712 0.4718105620932988 0 0.3484716028812469 0.46927922019571022 0 0.33768006752307722 0.45817683321967928 0 0.3263791186886712 0.4718105620932988 0 0.33933393763431879 0.44574212964051668 0 0.32516604183334019 0.44948070643492349 0 0.33457771181584611 0.43369686048393857 0 0.32516604183334019 0.44948070643492349 0 0.33457771181584611 0.43369686048393857 0 0.33933393763431879 0.44574212964051668 0 0.33457771181584611 0.43369686048393857 0 0.33746945485668051 0.4332718215327816 0 0.34904963657780902 0.45457154773394731 0 0.33768006752307722 0.45817683321967928 0 0.33933393763431879 0.44574212964051668 0 0.33768006752307722 0.45817683321967928 0 0.33933393763431879 0.44574212964051668 0 0.32516604183334019 0.44948070643492349 0 0.32516604183334019 0.44948070643492349 0 0.30610823095482448 0.43788140873538328 0 0.33457771181584611 0.43369686048393857 0 0.32516604183334019 0.44948070643492349 0 0.30909376894118562 0.45443190325323968 0 0.30610823095482448 0.43788140873538328 0 0.32516604183334019 0.44948070643492349 0 0.3263791186886712 0.4718105620932988 0 0.30909376894118562 0.45443190325323968 0 0.3263791186886712 0.4718105620932988 0 0.30059931196992168 0.47005809262963882 0 0.31153103284441203 0.48323920778459489 0 0.3484716028812469 0.46927922019571022 0 0.34825454286986979 0.4866410253547736 0 0.3263791186886712 0.4718105620932988 0 0.34825454286986979 0.4866410253547736 0 0.3263791186886712 0.4718105620932988 0 0.33311921878294798 0.5 0 0.3263791186886712 0.4718105620932988 0 0.33311921878294798 0.5 0 0.31153103284441203 0.48323920778459489 0 0.33311921878294798 0.5 0 0.30427559255252412 0.5 0 0.31153103284441203 0.48323920778459489 0 0.30427559255252412 0.5 0 0.31153103284441203 0.48323920778459489 0 0.29110307967174748 0.48580921065493432 0 0.30059931196992168 0.47005809262963882 0 0.31153103284441203 0.48323920778459489 0 0.29110307967174748 0.48580921065493432 0 0.30059931196992168 0.47005809262963882 0 0.29110307967174748 0.48580921065493432 0 0.27585954767988607 0.47408041721782612 0 0.30427559255252412 0.5 0 0.29110307967174748 0.48580921065493432 0 0.27543196632210021 0.5 0 0.27543196632210021 0.5 0 0.27585954767988607 0.47408041721782612 0 0.26198527678341299 0.48673919500437729 0 0.29110307967174748 0.48580921065493432 0 0.27543196632210021 0.5 0 0.27585954767988607 0.47408041721782612 0 0.27585954767988607 0.47408041721782612 0 0.2508124586903176 0.47172026355836871 0 0.26198527678341299 0.48673919500437729 0 0.24658834009167641 0.5 0 0.2508124586903176 0.47172026355836871 0 0.26198527678341299 0.48673919500437729 0 0.24658834009167641 0.5 0 0.27543196632210021 0.5 0 0.26198527678341299 0.48673919500437729 0 0.2480713074063006 0.45455858161591112 0 0.24517769652138269 0.43868647355565088 0 0.26777357876982372 0.45010753123404867 0 0.24517769652138269 0.43868647355565088 0 0.26777357876982372 0.45010753123404867 0 0.26600993858745892 0.42808938636359573 0 0.2480713074063006 0.45455858161591112 0 0.2508124586903176 0.47172026355836871 0 0.26777357876982372 0.45010753123404867 0 0.27585954767988607 0.47408041721782612 0 0.2508124586903176 0.47172026355836871 0 0.26777357876982372 0.45010753123404867 0 0.27585954767988607 0.47408041721782612 0 0.26777357876982372 0.45010753123404867 0 0.28975077836376328 0.45156795454144122 0 0.26777357876982372 0.45010753123404867 0 0.28975077836376328 0.45156795454144122 0 0.28607917402868899 0.43188291486824332 0 0.28975077836376328 0.45156795454144122 0 0.30610823095482448 0.43788140873538328 0 0.28607917402868899 0.43188291486824332 0 0.30059931196992168 0.47005809262963882 0 0.27585954767988607 0.47408041721782612 0 0.28975077836376328 0.45156795454144122 0 0.3263791186886712 0.4718105620932988 0 0.30059931196992168 0.47005809262963882 0 0.30909376894118562 0.45443190325323968 0 0.30059931196992168 0.47005809262963882 0 0.28975077836376328 0.45156795454144122 0 0.30909376894118562 0.45443190325323968 0 0.28975077836376328 0.45156795454144122 0 0.30909376894118562 0.45443190325323968 0 0.30610823095482448 0.43788140873538328 0 0.30610823095482448 0.43788140873538328 0 0.30869255759955722 0.41877018355733042 0 0.28607917402868899 0.43188291486824332 0 0.3075810200549029 0.4073564129674252 0 0.30869255759955722 0.41877018355733042 0 0.30232024370737348 0.40459188745546998 0 0.31142364564813352 0.41093370315849659 0 0.3075810200549029 0.4073564129674252 0 0.31015955469665918 0.40201373970895371 0 0.31142364564813352 0.41093370315849659 0 0.3075810200549029 0.4073564129674252 0 0.30869255759955722 0.41877018355733042 0 0.30869255759955722 0.41877018355733042 0 0.29605666041485018 0.40551048050067168 0 0.30232024370737348 0.40459188745546998 0 0.30869255759955722 0.41877018355733042 0 0.2819443595412231 0.40529087474680159 0 0.30869255759955722 0.41877018355733042 0 0.2819443595412231 0.40529087474680159 0 0.29605666041485018 0.40551048050067168 0 0.30869255759955722 0.41877018355733042 0 0.28607917402868899 0.43188291486824332 0 0.2819443595412231 0.40529087474680159 0 0.2490748840761759 0.41447913741323361 0 0.26600993858745892 0.42808938636359573 0 0.2819443595412231 0.40529087474680159 0 0.26777357876982372 0.45010753123404867 0 0.28607917402868899 0.43188291486824332 0 0.26600993858745892 0.42808938636359573 0 0.28607917402868899 0.43188291486824332 0 0.26600993858745892 0.42808938636359573 0 0.2819443595412231 0.40529087474680159 0 0.2490748840761759 0.41447913741323361 0 0.24517769652138269 0.43868647355565088 0 0.26600993858745892 0.42808938636359573 0 0.2490748840761759 0.41447913741323361 0 0.25519616148288887 0.39181156593627298 0 0.2819443595412231 0.40529087474680159 0 0.25519616148288887 0.39181156593627298 0 0.2618259464583832 0.36726095095448358 0 0.25519616148288887 0.39181156593627298 0 0.27405714121884811 0.38409687161834088 0 0.2618259464583832 0.36726095095448358 0 0.24305895760768401 0.36641304215893011 0 0.25519616148288887 0.39181156593627298 0 0.2618259464583832 0.36726095095448358 0 0.2490748840761759 0.41447913741323361 0 0.25519616148288887 0.39181156593627298 0 0.27405714121884811 0.38409687161834088 0 0.2819443595412231 0.40529087474680159 0 0.28762179706039948 0.39125587461843808 0 0.25519616148288887 0.39181156593627298 0 0.2819443595412231 0.40529087474680159 0 0.25519616148288887 0.39181156593627298 0 0.27405714121884811 0.38409687161834088 0 0.2819443595412231 0.40529087474680159 0 0.27405714121884811 0.38409687161834088 0 0.28403056220722062 0.37531448917755911 0 0.2737626695690904 0.37327007608818358 0 0.27405714121884811 0.38409687161834088 0 0.28403056220722062 0.37531448917755911 0 0.28762179706039948 0.39125587461843808 0 0.29405085274881382 0.37834813740539031 0 0.28762179706039948 0.39125587461843808 0 0.30049862001061489 0.39881078008944609 0 0.28403056220722062 0.37531448917755911 0 0.29405085274881382 0.37834813740539031 0 0.28762179706039948 0.39125587461843808 0 0.2819443595412231 0.40529087474680159 0 0.28762179706039948 0.39125587461843808 0 0.29316512877403511 0.40022580951085568 0 0.28762179706039948 0.39125587461843808 0 0.29316512877403511 0.40022580951085568 0 0.30049862001061489 0.39881078008944609 0 0.2819443595412231 0.40529087474680159 0 0.29316512877403511 0.40022580951085568 0 0.29605666041485018 0.40551048050067168 0 0.29316512877403511 0.40022580951085568 0 0.29605666041485018 0.40551048050067168 0 0.30042223720462058 0.4004666581126537 0 0.29605666041485018 0.40551048050067168 0 0.30232024370737348 0.40459188745546998 0 0.30042223720462058 0.4004666581126537 0 0.29316512877403511 0.40022580951085568 0 0.30042223720462058 0.4004666581126537 0 0.30049862001061489 0.39881078008944609 0 0.30042223720462058 0.4004666581126537 0 0.30049862001061489 0.39881078008944609 0 0.30232024370737348 0.40459188745546998 0 0.30049862001061489 0.39881078008944609 0 0.30232024370737348 0.40459188745546998 0 0.30049862001061489 0.39881078008944609 0 0.30430913302558388 0.40020258685778032 0 0.30232024370737348 0.40459188745546998 0 0.30042223720462058 0.4004666581126537 0 0.30049862001061489 0.39881078008944609 0 0.30049862001061489 0.39881078008944609 0 0.30098622665836988 0.38824011406760628 0 0.30049862001061489 0.39881078008944609 0 0.30430913302558388 0.40020258685778032 0 0.30098622665836988 0.38824011406760628 0 0.30098622665836988 0.38824011406760628 0 0.30110064445947421 0.38575968774854158 0 0.31262554991773928 0.39787599139405988 0 0.31015955469665918 0.40201373970895371 0 0.30098622665836988 0.38824011406760628 0 0.30110064445947421 0.38575968774854158 0 0.31262554991773928 0.39787599139405988 0 0.30430913302558388 0.40020258685778032 0 0.31015955469665918 0.40201373970895371 0 0.30098622665836988 0.38824011406760628 0 0.31015955469665918 0.40201373970895371 0 0.30098622665836988 0.38824011406760628 0 0.31262554991773928 0.39787599139405988 0 0.3075810200549029 0.4073564129674252 0 0.30232024370737348 0.40459188745546998 0 0.30430913302558388 0.40020258685778032 0 0.3075810200549029 0.4073564129674252 0 0.30430913302558388 0.40020258685778032 0 0.31015955469665918 0.40201373970895371 0 0.29405085274881382 0.37834813740539031 0 0.30049862001061489 0.39881078008944609 0 0.29405085274881382 0.37834813740539031 0 0.30049862001061489 0.39881078008944609 0 0.30098622665836988 0.38824011406760628 0 0.30110064445947421 0.38575968774854158 0 0.30177514978199971 0.3711373061071076 0 0.30110064445947421 0.38575968774854158 0 0.3104817065657739 0.3858680532317833 0 0.30177514978199971 0.3711373061071076 0 0.29405085274881382 0.37834813740539031 0 0.30110064445947421 0.38575968774854158 0 0.30177514978199971 0.3711373061071076 0 0.29405085274881382 0.37834813740539031 0 0.30110064445947421 0.38575968774854158 0 0.29405085274881382 0.37834813740539031 0 0.30098622665836988 0.38824011406760628 0 0.30110064445947421 0.38575968774854158 0 0.29405085274881382 0.37834813740539031 0 0.30098622665836988 0.38824011406760628 0 0.30098622665836988 0.38824011406760628 0 0.30110064445947421 0.38575968774854158 0 0.30110064445947421 0.38575968774854158 0 0.3104817065657739 0.3858680532317833 0 0.31262554991773928 0.39787599139405988 0 0.3104817065657739 0.3858680532317833 0 0.30177514978199971 0.3711373061071076 0 0.3104817065657739 0.3858680532317833 0 0.31717345926189522 0.3709258031848055 0 0.30177514978199971 0.3711373061071076 0 0.3104817065657739 0.3858680532317833 0 0.3376156911696272 0.37620073599141618 0 0.3104817065657739 0.3858680532317833 0 0.3376156911696272 0.37620073599141618 0 0.31717345926189522 0.3709258031848055 0 0.3104817065657739 0.3858680532317833 0 0.3376156911696272 0.37620073599141618 0 0.3351802944883514 0.39738750443412002 0 0.3376156911696272 0.37620073599141618 0 0.3351802944883514 0.39738750443412002 0 0.34879159400795012 0.38769315231290841 0 0.3351802944883514 0.39738750443412002 0 0.33658962428999861 0.41133204962483783 0 0.34988972217452752 0.40801784569160632 0 0.3351802944883514 0.39738750443412002 0 0.32415045537600512 0.40999229503957763 0 0.33658962428999861 0.41133204962483783 0 0.3351802944883514 0.39738750443412002 0 0.31909953512109351 0.40044867980609039 0 0.32415045537600512 0.40999229503957763 0 0.3104817065657739 0.3858680532317833 0 0.3351802944883514 0.39738750443412002 0 0.31909953512109351 0.40044867980609039 0 0.3104817065657739 0.3858680532317833 0 0.31909953512109351 0.40044867980609039 0 0.3104817065657739 0.3858680532317833 0 0.31262554991773928 0.39787599139405988 0 0.31909953512109351 0.40044867980609039 0 0.31262554991773928 0.39787599139405988 0 0.32415045537600512 0.40999229503957763 0 0.31015955469665918 0.40201373970895371 0 0.31262554991773928 0.39787599139405988 0 0.32415045537600512 0.40999229503957763 0 0.31262554991773928 0.39787599139405988 0 0.31909953512109351 0.40044867980609039 0 0.32415045537600512 0.40999229503957763 0 0.31015955469665918 0.40201373970895371 0 0.31933288273494848 0.41578736535030097 0 0.32415045537600512 0.40999229503957763 0 0.31142364564813352 0.41093370315849659 0 0.31015955469665918 0.40201373970895371 0 0.31933288273494848 0.41578736535030097 0 0.30869255759955722 0.41877018355733042 0 0.31933288273494848 0.41578736535030097 0 0.32906281765607392 0.42006619542527468 0 0.31015955469665918 0.40201373970895371 0 0.31933288273494848 0.41578736535030097 0 0.31142364564813352 0.41093370315849659 0 0.30869255759955722 0.41877018355733042 0 0.31933288273494848 0.41578736535030097 0 0.31933288273494848 0.41578736535030097 0 0.32415045537600512 0.40999229503957763 0 0.32906281765607392 0.42006619542527468 0 0.30869255759955722 0.41877018355733042 0 0.33457771181584611 0.43369686048393857 0 0.33544075565789128 0.43224949236785898 0 0.30869255759955722 0.41877018355733042 0 0.33544075565789128 0.43224949236785898 0 0.30610823095482448 0.43788140873538328 0 0.30869255759955722 0.41877018355733042 0 0.33457771181584611 0.43369686048393857 0 0.30869255759955722 0.41877018355733042 0 0.33544075565789128 0.43224949236785898 0 0.32906281765607392 0.42006619542527468 0 0.30610823095482448 0.43788140873538328 0 0.33457771181584611 0.43369686048393857 0 0.33457771181584611 0.43369686048393857 0 0.33544075565789128 0.43224949236785898 0 0.33746945485668051 0.4332718215327816 0 0.33457771181584611 0.43369686048393857 0 0.33544075565789128 0.43224949236785898 0 0.33544075565789128 0.43224949236785898 0 0.33746945485668051 0.4332718215327816 0 0.35001853239939229 0.42365555934674631 0 0.33544075565789128 0.43224949236785898 0 0.33746945485668051 0.4332718215327816 0 0.33457771181584611 0.43369686048393857 0 0.33746945485668051 0.4332718215327816 0 0.33544075565789128 0.43224949236785898 0 0.33658962428999861 0.41133204962483783 0 0.34988972217452752 0.40801784569160632 0 0.33544075565789128 0.43224949236785898 0 0.32906281765607392 0.42006619542527468 0 0.33658962428999861 0.41133204962483783 0 0.33544075565789128 0.43224949236785898 0 0.34988972217452752 0.40801784569160632 0 0.32415045537600512 0.40999229503957763 0 0.32906281765607392 0.42006619542527468 0 0.33658962428999861 0.41133204962483783 0 0.33544075565789128 0.43224949236785898 0 0.34988972217452752 0.40801784569160632 0 0.35001853239939229 0.42365555934674631 0 0.34988972217452752 0.40801784569160632 0 0.36165970526353591 0.41519797525725338 0 0.36412400085156282 0.39702719229323191 0 0.34988972217452752 0.40801784569160632 0 0.35001853239939229 0.42365555934674631 0 0.36165970526353591 0.41519797525725338 0 0.35494335133579169 0.44207750056399991 0 0.33746945485668051 0.4332718215327816 0 0.365542703577178 0.42914551292816783 0 0.33746945485668051 0.4332718215327816 0 0.35001853239939229 0.42365555934674631 0 0.365542703577178 0.42914551292816783 0 0.33746945485668051 0.4332718215327816 0 0.365542703577178 0.42914551292816783 0 0.35001853239939229 0.42365555934674631 0 0.365542703577178 0.42914551292816783 0 0.36165970526353591 0.41519797525725338 0 0.365542703577178 0.42914551292816783 0 0.36165970526353591 0.41519797525725338 0 0.37744029411777058 0.41252948965876268 0 0.36165970526353591 0.41519797525725338 0 0.36412400085156282 0.39702719229323191 0 0.37744029411777058 0.41252948965876268 0 0.36412400085156282 0.39702719229323191 0 0.38026367080056678 0.39066664182047522 0 0.37744029411777058 0.41252948965876268 0 0.34988972217452752 0.40801784569160632 0 0.36412400085156282 0.39702719229323191 0 0.36433868869116592 0.38378619901535488 0 0.36433868869116592 0.38378619901535488 0 0.3773824667175657 0.37546563606013739 0 0.38026367080056678 0.39066664182047522 0 0.36433868869116592 0.38378619901535488 0 0.36474967577348072 0.36653341875104961 0 0.3773824667175657 0.37546563606013739 0 0.36412400085156282 0.39702719229323191 0 0.36433868869116592 0.38378619901535488 0 0.38026367080056678 0.39066664182047522 0 0.36433868869116592 0.38378619901535488 0 0.36474967577348072 0.36653341875104961 0 0.36412400085156282 0.39702719229323191 0 0.36433868869116592 0.38378619901535488 0 0.3376156911696272 0.37620073599141618 0 0.34879159400795012 0.38769315231290841 0 0.36474967577348072 0.36653341875104961 0 0.36433868869116592 0.38378619901535488 0 0.34879159400795012 0.38769315231290841 0 0.36474967577348072 0.36653341875104961 0 0.3351802944883514 0.39738750443412002 0 0.34988972217452752 0.40801784569160632 0 0.34879159400795012 0.38769315231290841 0 0.34988972217452752 0.40801784569160632 0 0.36433868869116592 0.38378619901535488 0 0.34988972217452752 0.40801784569160632 0 0.36433868869116592 0.38378619901535488 0 0.34879159400795012 0.38769315231290841 0 0.34699100967064078 0.35539672769273539 0 0.36474967577348072 0.36653341875104961 0 0.36518945593320651 0.34509967395937191 0 0.34699100967064078 0.35539672769273539 0 0.36518945593320651 0.34509967395937191 0 0.348137396692076 0.34077307725183559 0 0.3376156911696272 0.37620073599141618 0 0.34699100967064078 0.35539672769273539 0 0.36474967577348072 0.36653341875104961 0 0.3376156911696272 0.37620073599141618 0 0.36474967577348072 0.36653341875104961 0 0.36474967577348072 0.36653341875104961 0 0.36518945593320651 0.34509967395937191 0 0.36474967577348072 0.36653341875104961 0 0.36518945593320651 0.34509967395937191 0 0.3855881021147175 0.35910908792858098 0 0.36518945593320651 0.34509967395937191 0 0.36562923609293069 0.32366592916769399 0 0.36518945593320651 0.34509967395937191 0 0.36562923609293069 0.32366592916769399 0 0.348137396692076 0.34077307725183559 0 0.36518945593320651 0.34509967395937191 0 0.36562923609293069 0.32366592916769399 0 0.38128435600444488 0.32837669887387311 0 0.36562923609293069 0.32366592916769399 0 0.36606901625265492 0.30223218437601618 0 0.38242981621443428 0.31397380775534678 0 0.36562923609293069 0.32366592916769399 0 0.36606901625265492 0.30223218437601618 0 0.36562923609293069 0.32366592916769399 0 0.34238706329751362 0.32476320095938682 0 0.35183379698966949 0.31056891257481539 0 0.36562923609293069 0.32366592916769399 0 0.348137396692076 0.34077307725183559 0 0.34238706329751362 0.32476320095938682 0 0.348137396692076 0.34077307725183559 0 0.33072504187423118 0.34237289876026822 0 0.34238706329751362 0.32476320095938682 0 0.33072504187423118 0.34237289876026822 0 0.34238706329751362 0.32476320095938682 0 0.32122702449841589 0.32177081607522939 0 0.34238706329751362 0.32476320095938682 0 0.33644502425256478 0.30910566618648461 0 0.35183379698966949 0.31056891257481539 0 0.34238706329751362 0.32476320095938682 0 0.32122702449841589 0.32177081607522939 0 0.33644502425256478 0.30910566618648461 0 0.32122702449841589 0.32177081607522939 0 0.31445651652981632 0.33878768779705848 0 0.30372390616191358 0.32889084998335888 0 0.33072504187423118 0.34237289876026822 0 0.32122702449841589 0.32177081607522939 0 0.31445651652981632 0.33878768779705848 0 0.33072504187423118 0.34237289876026822 0 0.31445651652981632 0.33878768779705848 0 0.31594857135045817 0.35062531106266931 0 0.33072504187423118 0.34237289876026822 0 0.31594857135045817 0.35062531106266931 0 0.32442852787466708 0.36030442639367111 0 0.31594857135045817 0.35062531106266931 0 0.32442852787466708 0.36030442639367111 0 0.31156622091740832 0.36111849420004938 0 0.34699100967064078 0.35539672769273539 0 0.348137396692076 0.34077307725183559 0 0.33072504187423118 0.34237289876026822 0 0.34699100967064078 0.35539672769273539 0 0.33072504187423118 0.34237289876026822 0 0.32442852787466708 0.36030442639367111 0 0.3376156911696272 0.37620073599141618 0 0.34699100967064078 0.35539672769273539 0 0.32442852787466708 0.36030442639367111 0 0.3376156911696272 0.37620073599141618 0 0.32442852787466708 0.36030442639367111 0 0.31717345926189522 0.3709258031848055 0 0.32442852787466708 0.36030442639367111 0 0.31717345926189522 0.3709258031848055 0 0.31156622091740832 0.36111849420004938 0 0.30177514978199971 0.3711373061071076 0 0.30274952797195698 0.35001407804523332 0 0.31717345926189522 0.3709258031848055 0 0.31156622091740832 0.36111849420004938 0 0.30177514978199971 0.3711373061071076 0 0.31156622091740832 0.36111849420004938 0 0.30177514978199971 0.3711373061071076 0 0.30274952797195698 0.35001407804523332 0 0.30177514978199971 0.3711373061071076 0 0.30274952797195698 0.35001407804523332 0 0.29106955940472562 0.3530243656434488 0 0.31445651652981632 0.33878768779705848 0 0.31594857135045817 0.35062531106266931 0 0.30274952797195698 0.35001407804523332 0 0.31594857135045817 0.35062531106266931 0 0.31156622091740832 0.36111849420004938 0 0.30274952797195698 0.35001407804523332 0 0.29106955940472562 0.3530243656434488 0 0.28705150305193838 0.35613499197806497 0 0.28036396902745148 0.33491142517978989 0 0.28705150305193838 0.35613499197806497 0 0.28036396902745148 0.33491142517978989 0 0.28705150305193838 0.35613499197806497 0 0.27644360280618341 0.34191623842927221 0 0.28036396902745148 0.33491142517978989 0 0.29106955940472562 0.3530243656434488 0 0.28036396902745148 0.33491142517978989 0 0.30274952797195698 0.35001407804523332 0 0.29106955940472562 0.3530243656434488 0 0.29374099595638509 0.3392252011883215 0 0.28705150305193838 0.35613499197806497 0 0.28458867991473008 0.36361942358965982 0 0.27543832275303448 0.34988028840297991 0 0.29405085274881382 0.37834813740539031 0 0.28705150305193838 0.35613499197806497 0 0.28458867991473008 0.36361942358965982 0 0.29405085274881382 0.37834813740539031 0 0.28705150305193838 0.35613499197806497 0 0.30177514978199971 0.3711373061071076 0 0.29106955940472562 0.3530243656434488 0 0.29405085274881382 0.37834813740539031 0 0.30177514978199971 0.3711373061071076 0 0.28705150305193838 0.35613499197806497 0 0.30177514978199971 0.3711373061071076 0 0.29106955940472562 0.3530243656434488 0 0.28705150305193838 0.35613499197806497 0 0.29405085274881382 0.37834813740539031 0 0.28458867991473008 0.36361942358965982 0 0.28403056220722062 0.37531448917755911 0 0.2815017213106239 0.3651550498314205 0 0.27898286169525299 0.37041503512408969 0 0.29405085274881382 0.37834813740539031 0 0.2815017213106239 0.3651550498314205 0 0.28403056220722062 0.37531448917755911 0 0.29405085274881382 0.37834813740539031 0 0.2815017213106239 0.3651550498314205 0 0.29405085274881382 0.37834813740539031 0 0.28458867991473008 0.36361942358965982 0 0.2815017213106239 0.3651550498314205 0 0.28403056220722062 0.37531448917755911 0 0.27898286169525299 0.37041503512408969 0 0.2737626695690904 0.37327007608818358 0 0.27663649369407689 0.36792052539919551 0 0.2737626695690904 0.37327007608818358 0 0.27125000512352843 0.36234153133647429 0 0.27405714121884811 0.38409687161834088 0 0.2737626695690904 0.37327007608818358 0 0.2618259464583832 0.36726095095448358 0 0.2815017213106239 0.3651550498314205 0 0.27898286169525299 0.37041503512408969 0 0.27663649369407689 0.36792052539919551 0 0.27898286169525299 0.37041503512408969 0 0.27663649369407689 0.36792052539919551 0 0.2737626695690904 0.37327007608818358 0 0.2737626695690904 0.37327007608818358 0 0.27125000512352843 0.36234153133647429 0 0.2618259464583832 0.36726095095448358 0 0.27125000512352843 0.36234153133647429 0 0.26895258987243392 0.3519619622574508 0 0.2618259464583832 0.36726095095448358 0 0.2815017213106239 0.3651550498314205 0 0.27125000512352843 0.36234153133647429 0 0.26895258987243392 0.3519619622574508 0 0.2815017213106239 0.3651550498314205 0 0.27663649369407689 0.36792052539919551 0 0.27125000512352843 0.36234153133647429 0 0.28458867991473008 0.36361942358965982 0 0.2815017213106239 0.3651550498314205 0 0.27543832275303448 0.34988028840297991 0 0.2815017213106239 0.3651550498314205 0 0.26895258987243392 0.3519619622574508 0 0.28458867991473008 0.36361942358965982 0 0.27543832275303448 0.34988028840297991 0 0.26895258987243392 0.3519619622574508 0 0.2618259464583832 0.36726095095448358 0 0.2684557314338783 0.34271033597269462 0 0.2815017213106239 0.3651550498314205 0 0.27543832275303448 0.34988028840297991 0 0.26895258987243392 0.3519619622574508 0 0.28705150305193838 0.35613499197806497 0 0.27543832275303448 0.34988028840297991 0 0.27644360280618341 0.34191623842927221 0 0.27543832275303448 0.34988028840297991 0 0.2684557314338783 0.34271033597269462 0 0.27644360280618341 0.34191623842927221 0 0.27543832275303448 0.34988028840297991 0 0.26895258987243392 0.3519619622574508 0 0.2684557314338783 0.34271033597269462 0 0.2618259464583832 0.36726095095448358 0 0.2684557314338783 0.34271033597269462 0 0.24521693247762111 0.35027114815259558 0 0.2618259464583832 0.36726095095448358 0 0.2684557314338783 0.34271033597269462 0 0.24305895760768401 0.36641304215893011 0 0.24521693247762111 0.35027114815259558 0 0.2618259464583832 0.36726095095448358 0 0.24490867605631639 0.32967072069511189 0 0.26050839607327853 0.32387463406168998 0 0.25114017462525878 0.31153615041935723 0 0.26050839607327853 0.32387463406168998 0 0.25114017462525878 0.31153615041935723 0 0.26342424027676908 0.31148804944983333 0 0.24490867605631639 0.32967072069511189 0 0.26050839607327853 0.32387463406168998 0 0.2684557314338783 0.34271033597269462 0 0.24490867605631639 0.32967072069511189 0 0.24521693247762111 0.35027114815259558 0 0.2684557314338783 0.34271033597269462 0 0.26050839607327853 0.32387463406168998 0 0.2684557314338783 0.34271033597269462 0 0.27508551640937329 0.31815972099090539 0 0.2684557314338783 0.34271033597269462 0 0.27508551640937329 0.31815972099090539 0 0.2684557314338783 0.34271033597269462 0 0.27787730485363338 0.33070420273373929 0 0.27508551640937329 0.31815972099090539 0 0.2684557314338783 0.34271033597269462 0 0.27644360280618341 0.34191623842927221 0 0.27787730485363338 0.33070420273373929 0 0.27644360280618341 0.34191623842927221 0 0.28036396902745148 0.33491142517978989 0 0.27787730485363338 0.33070420273373929 0 0.28036396902745148 0.33491142517978989 0 0.27787730485363338 0.33070420273373929 0 0.28036396902745148 0.33491142517978989 0 0.27787730485363338 0.33070420273373929 0 0.27508551640937329 0.31815972099090539 0 0.28036396902745148 0.33491142517978989 0 0.27508551640937329 0.31815972099090539 0 0.26050839607327853 0.32387463406168998 0 0.27508551640937329 0.31815972099090539 0 0.26342424027676908 0.31148804944983333 0 0.27584787744150779 0.31533663815394608 0 0.27508551640937329 0.31815972099090539 0 0.2839587577339367 0.31315639516335231 0 0.27584787744150779 0.31533663815394608 0 0.27508551640937329 0.31815972099090539 0 0.28036396902745148 0.33491142517978989 0 0.27508551640937329 0.31815972099090539 0 0.28884331716543121 0.32432796479040632 0 0.27508551640937329 0.31815972099090539 0 0.2839587577339367 0.31315639516335231 0 0.28884331716543121 0.32432796479040632 0 0.2839587577339367 0.31315639516335231 0 0.28884331716543121 0.32432796479040632 0 0.29436859405188742 0.31561290386725788 0 0.28884331716543121 0.32432796479040632 0 0.29436859405188742 0.31561290386725788 0 0.30372390616191358 0.32889084998335888 0 0.29106955940472562 0.3530243656434488 0 0.28036396902745148 0.33491142517978989 0 0.29374099595638509 0.3392252011883215 0 0.28036396902745148 0.33491142517978989 0 0.28884331716543121 0.32432796479040632 0 0.29374099595638509 0.3392252011883215 0 0.28884331716543121 0.32432796479040632 0 0.29374099595638509 0.3392252011883215 0 0.30372390616191358 0.32889084998335888 0 0.30274952797195698 0.35001407804523332 0 0.29374099595638509 0.3392252011883215 0 0.30372390616191358 0.32889084998335888 0 0.31445651652981632 0.33878768779705848 0 0.30274952797195698 0.35001407804523332 0 0.30372390616191358 0.32889084998335888 0 0.30274952797195698 0.35001407804523332 0 0.30372390616191358 0.32889084998335888 0 0.29436859405188742 0.31561290386725788 0 0.30372390616191358 0.32889084998335888 0 0.30469828435187041 0.30776762192148471 0 0.32122702449841589 0.32177081607522939 0 0.30372390616191358 0.32889084998335888 0 0.30469828435187041 0.30776762192148471 0 0.30372390616191358 0.32889084998335888 0 0.30469828435187041 0.30776762192148471 0 0.30469828435187041 0.30776762192148471 0 0.29887142377560671 0.29447355700322281 0 0.31975384086217118 0.29390073052843008 0 0.30469828435187041 0.30776762192148471 0 0.29887142377560671 0.29447355700322281 0 0.29061870484628499 0.30392168747768772 0 0.29887142377560671 0.29447355700322281 0 0.29803417524575498 0.27809430922643119 0 0.31975384086217118 0.29390073052843008 0 0.29887142377560671 0.29447355700322281 0 0.28125211357195179 0.28868343586208051 0 0.29803417524575498 0.27809430922643119 0 0.29887142377560671 0.29447355700322281 0 0.28125211357195179 0.28868343586208051 0 0.29061870484628499 0.30392168747768772 0 0.29436859405188742 0.31561290386725788 0 0.30469828435187041 0.30776762192148471 0 0.29061870484628499 0.30392168747768772 0 0.2839587577339367 0.31315639516335231 0 0.29436859405188742 0.31561290386725788 0 0.29061870484628499 0.30392168747768772 0 0.28125211357195179 0.28868343586208051 0 0.29061870484628499 0.30392168747768772 0 0.27979091010679558 0.3031930520058399 0 0.2839587577339367 0.31315639516335231 0 0.29061870484628499 0.30392168747768772 0 0.27979091010679558 0.3031930520058399 0 0.27584787744150779 0.31533663815394608 0 0.2839587577339367 0.31315639516335231 0 0.27979091010679558 0.3031930520058399 0 0.27584787744150779 0.31533663815394608 0 0.27979091010679558 0.3031930520058399 0 0.26696287399916629 0.2923816923273807 0 0.27508551640937329 0.31815972099090539 0 0.26696287399916629 0.2923816923273807 0 0.27508551640937329 0.31815972099090539 0 0.26696287399916629 0.2923816923273807 0 0.26342424027676908 0.31148804944983333 0 0.27584787744150779 0.31533663815394608 0 0.27508551640937329 0.31815972099090539 0 0.26696287399916629 0.2923816923273807 0 0.28125211357195179 0.28868343586208051 0 0.26696287399916629 0.2923816923273807 0 0.26185531842249993 0.2787869231154117 0 0.28125211357195179 0.28868343586208051 0 0.27979091010679558 0.3031930520058399 0 0.26696287399916629 0.2923816923273807 0 0.2454028482605469 0.29267792886045368 0 0.26696287399916629 0.2923816923273807 0 0.26185531842249993 0.2787869231154117 0 0.24818821145747599 0.27522177653690871 0 0.2454028482605469 0.29267792886045368 0 0.26185531842249993 0.2787869231154117 0 0.26696287399916629 0.2923816923273807 0 0.25114017462525878 0.31153615041935723 0 0.26342424027676908 0.31148804944983333 0 0.2454028482605469 0.29267792886045368 0 0.26696287399916629 0.2923816923273807 0 0.25114017462525878 0.31153615041935723 0 0.25404003316197471 0.25208422786308371 0 0.25530776412370298 0.26639583896058622 0 0.27103688063193948 0.26427270241964718 0 0.24090080429007341 0.26281353644332878 0 0.25404003316197471 0.25208422786308371 0 0.25530776412370298 0.26639583896058622 0 0.25530776412370298 0.26639583896058622 0 0.26185531842249993 0.2787869231154117 0 0.27103688063193948 0.26427270241964718 0 0.24818821145747599 0.27522177653690871 0 0.25530776412370298 0.26639583896058622 0 0.26185531842249993 0.2787869231154117 0 0.28125211357195179 0.28868343586208051 0 0.26185531842249993 0.2787869231154117 0 0.27103688063193948 0.26427270241964718 0 0.25404003316197471 0.25208422786308371 0 0.27103688063193948 0.26427270241964718 0 0.27355486584907379 0.24364475180805101 0 0.27103688063193948 0.26427270241964718 0 0.29692855903906679 0.25537037528416417 0 0.27355486584907379 0.24364475180805101 0 0.27103688063193948 0.26427270241964718 0 0.29803417524575498 0.27809430922643119 0 0.29692855903906679 0.25537037528416417 0 0.28125211357195179 0.28868343586208051 0 0.27103688063193948 0.26427270241964718 0 0.29803417524575498 0.27809430922643119 0 0.29803417524575498 0.27809430922643119 0 0.29692855903906679 0.25537037528416417 0 0.32239972953691409 0.26902358330948362 0 0.29692855903906679 0.25537037528416417 0 0.32239972953691409 0.26902358330948362 0 0.32448256229391081 0.244023600812113 0 0.34859232732963041 0.2656914204712259 0 0.32448256229391081 0.244023600812113 0 0.35052125483258301 0.2434514759103418 0 0.32239972953691409 0.26902358330948362 0 0.34859232732963041 0.2656914204712259 0 0.32448256229391081 0.244023600812113 0 0.32239972953691409 0.26902358330948362 0 0.34580587121379802 0.29027056413174801 0 0.34859232732963041 0.2656914204712259 0 0.32239972953691409 0.26902358330948362 0 0.34859232732963041 0.2656914204712259 0 0.29803417524575498 0.27809430922643119 0 0.32239972953691409 0.26902358330948362 0 0.31975384086217118 0.29390073052843008 0 0.32122702449841589 0.32177081607522939 0 0.30469828435187041 0.30776762192148471 0 0.31975384086217118 0.29390073052843008 0 0.32122702449841589 0.32177081607522939 0 0.31975384086217118 0.29390073052843008 0 0.33644502425256478 0.30910566618648461 0 0.31975384086217118 0.29390073052843008 0 0.33644502425256478 0.30910566618648461 0 0.34580587121379802 0.29027056413174801 0 0.32239972953691409 0.26902358330948362 0 0.31975384086217118 0.29390073052843008 0 0.34580587121379802 0.29027056413174801 0 0.34580587121379802 0.29027056413174801 0 0.35183379698966949 0.31056891257481539 0 0.36606901625265492 0.30223218437601618 0 0.33644502425256478 0.30910566618648461 0 0.34580587121379802 0.29027056413174801 0 0.35183379698966949 0.31056891257481539 0 0.36562923609293069 0.32366592916769399 0 0.35183379698966949 0.31056891257481539 0 0.36606901625265492 0.30223218437601618 0 0.36606901625265492 0.30223218437601618 0 0.37288852905391068 0.28307277276217568 0 0.38313639778678782 0.29894980138166888 0 0.34580587121379802 0.29027056413174801 0 0.36606901625265492 0.30223218437601618 0 0.37288852905391068 0.28307277276217568 0 0.37288852905391068 0.28307277276217568 0 0.37478492512234668 0.26235925763296819 0 0.34859232732963041 0.2656914204712259 0 0.37478492512234668 0.26235925763296819 0 0.34859232732963041 0.2656914204712259 0 0.37478492512234668 0.26235925763296819 0 0.34859232732963041 0.2656914204712259 0 0.35052125483258301 0.2434514759103418 0 0.34580587121379802 0.29027056413174801 0 0.37288852905391068 0.28307277276217568 0 0.34859232732963041 0.2656914204712259 0 0.40237095019481112 0.27711100542787093 0 0.40097752291506289 0.25902709479471048 0 0.38795285511664351 0.27501277358291848 0 0.40237095019481112 0.27711100542787093 0 0.38795285511664351 0.27501277358291848 0 0.39245341439736259 0.28869000139839213 0 0.37478492512234668 0.26235925763296819 0 0.40097752291506289 0.25902709479471048 0 0.37478492512234668 0.26235925763296819 0 0.40097752291506289 0.25902709479471048 0 0.38795285511664351 0.27501277358291848 0 0.37478492512234668 0.26235925763296819 0 0.40097752291506289 0.25902709479471048 0 0.39333580902427501 0.24081282939082621 0 0.37288852905391068 0.28307277276217568 0 0.37478492512234668 0.26235925763296819 0 0.38795285511664351 0.27501277358291848 0 0.37288852905391068 0.28307277276217568 0 0.38795285511664351 0.27501277358291848 0 0.39245341439736259 0.28869000139839213 0 0.37288852905391068 0.28307277276217568 0 0.38313639778678782 0.29894980138166888 0 0.39245341439736259 0.28869000139839213 0 0.38313639778678782 0.29894980138166888 0 0.40184121301557668 0.30678024061641418 0 0.38242981621443428 0.31397380775534678 0 0.36606901625265492 0.30223218437601618 0 0.38313639778678782 0.29894980138166888 0 0.38242981621443428 0.31397380775534678 0 0.38313639778678782 0.29894980138166888 0 0.40184121301557668 0.30678024061641418 0 0.39245341439736259 0.28869000139839213 0 0.40184121301557668 0.30678024061641418 0 0.39245341439736259 0.28869000139839213 0 0.4080647950624654 0.29173952990842672 0 0.40237095019481112 0.27711100542787093 0 0.39245341439736259 0.28869000139839213 0 0.4080647950624654 0.29173952990842672 0 0.4080647950624654 0.29173952990842672 0 0.42111158276914429 0.29961990628964941 0 0.41801819212357011 0.2740782959756311 0 0.42111158276914429 0.29961990628964941 0 0.41801819212357011 0.2740782959756311 0 0.42111158276914429 0.29961990628964941 0 0.41431845905081632 0.31211616404088999 0 0.42420497341471841 0.32516151660366771 0 0.40184121301557668 0.30678024061641418 0 0.41169384258873692 0.3030193229363472 0 0.41431845905081632 0.31211616404088999 0 0.4080647950624654 0.29173952990842672 0 0.41169384258873692 0.3030193229363472 0 0.42111158276914429 0.29961990628964941 0 0.40184121301557668 0.30678024061641418 0 0.4080647950624654 0.29173952990842672 0 0.41169384258873692 0.3030193229363472 0 0.41169384258873692 0.3030193229363472 0 0.42111158276914429 0.29961990628964941 0 0.41431845905081632 0.31211616404088999 0 0.42111158276914429 0.29961990628964941 0 0.42420497341471841 0.32516151660366771 0 0.42111158276914429 0.29961990628964941 0 0.42968026012840121 0.30115694743242971 0 0.43130474666914309 0.31304161877190062 0 0.42968026012840121 0.30115694743242971 0 0.44258646999382029 0.30990113159980692 0 0.42968026012840121 0.30115694743242971 0 0.44258646999382029 0.30990113159980692 0 0.43130474666914309 0.31304161877190062 0 0.42111158276914429 0.29961990628964941 0 0.42800801910193731 0.28582653817902792 0 0.41801819212357011 0.2740782959756311 0 0.42968026012840121 0.30115694743242971 0 0.42800801910193731 0.28582653817902792 0 0.44797459424715858 0.28113195035900113 0 0.42111158276914429 0.29961990628964941 0 0.42968026012840121 0.30115694743242971 0 0.42800801910193731 0.28582653817902792 0 0.4349067289361882 0.26981889711766149 0 0.41801819212357011 0.2740782959756311 0 0.42717012070777932 0.25569493195645271 0 0.42800801910193731 0.28582653817902792 0 0.4349067289361882 0.26981889711766149 0 0.44797459424715858 0.28113195035900113 0 0.42800801910193731 0.28582653817902792 0 0.4349067289361882 0.26981889711766149 0 0.41801819212357011 0.2740782959756311 0 0.40237095019481112 0.27711100542787093 0 0.4080647950624654 0.29173952990842672 0 0.41801819212357011 0.2740782959756311 0 0.40237095019481112 0.27711100542787093 0 0.40097752291506289 0.25902709479471048 0 0.41801819212357011 0.2740782959756311 0 0.40097752291506289 0.25902709479471048 0 0.42717012070777932 0.25569493195645271 0 0.40097752291506289 0.25902709479471048 0 0.41801819212357011 0.2740782959756311 0 0.42717012070777932 0.25569493195645271 0 0.40097752291506289 0.25902709479471048 0 0.42717012070777932 0.25569493195645271 0 0.41286841049430861 0.24788583003777651 0 0.42717012070777932 0.25569493195645271 0 0.45336271850049548 0.25236276911819511 0 0.42717012070777932 0.25569493195645271 0 0.45336271850049548 0.25236276911819511 0 0.44134696414428898 0.24814556957704689 0 0.4349067289361882 0.26981889711766149 0 0.42717012070777932 0.25569493195645271 0 0.45336271850049548 0.25236276911819511 0 0.44797459424715858 0.28113195035900113 0 0.45336271850049548 0.25236276911819511 0 0.4349067289361882 0.26981889711766149 0 0.44797459424715858 0.28113195035900113 0 0.45336271850049548 0.25236276911819511 0 0.44797459424715858 0.28113195035900113 0 0.46860043072286323 0.26090172283992602 0 0.47518926652314969 0.27560515809727743 0 0.44797459424715858 0.28113195035900113 0 0.45336271850049548 0.25236276911819511 0 0.46860043072286323 0.26090172283992602 0 0.45336271850049548 0.25236276911819511 0 0.46860043072286323 0.26090172283992602 0 0.48180965237011408 0.2487438147612096 0 0.45336271850049548 0.25236276911819511 0 0.48180965237011408 0.2487438147612096 0 0.46860043072286323 0.26090172283992602 0 0.48241006781490819 0.26268970127635521 0 0.48180965237011408 0.2487438147612096 0 0.46860043072286323 0.26090172283992602 0 0.48241006781490819 0.26268970127635521 0 0.47518926652314969 0.27560515809727743 0 0.48241006781490819 0.26268970127635521 0 0.47518926652314969 0.27560515809727743 0 0.48864569132575902 0.27555399191102209 0 0.48864569132575902 0.27555399191102209 0 0.5 0.25788891558126559 0 0.5 0.28784398070901179 0 0.48241006781490819 0.26268970127635521 0 0.5 0.25788891558126559 0 0.48180965237011408 0.2487438147612096 0 0.48241006781490819 0.26268970127635521 0 0.48864569132575902 0.27555399191102209 0 0.5 0.25788891558126559 0 0.49687855588093471 0.30562269631142192 0 0.5 0.28784398070901179 0 0.5 0.31779904583675789 0 0.48491490847636098 0.30901068293115042 0 0.49687855588093471 0.30562269631142192 0 0.48562912229073679 0.29374220389120048 0 0.48491490847636098 0.30901068293115042 0 0.49687855588093471 0.30562269631142192 0 0.48893996521802741 0.32077530068026477 0 0.48864569132575902 0.27555399191102209 0 0.5 0.28784398070901179 0 0.48562912229073679 0.29374220389120048 0 0.49687855588093471 0.30562269631142192 0 0.5 0.28784398070901179 0 0.48562912229073679 0.29374220389120048 0 0.47518926652314969 0.27560515809727743 0 0.48864569132575902 0.27555399191102209 0 0.48562912229073679 0.29374220389120048 0 0.47518926652314969 0.27560515809727743 0 0.48562912229073679 0.29374220389120048 0 0.46816558308298489 0.29083511245767268 0 0.48562912229073679 0.29374220389120048 0 0.47222103054853309 0.30536857664361422 0 0.46816558308298489 0.29083511245767268 0 0.48491490847636098 0.30901068293115042 0 0.48562912229073679 0.29374220389120048 0 0.47222103054853309 0.30536857664361422 0 0.48491490847636098 0.30901068293115042 0 0.47222103054853309 0.30536857664361422 0 0.47648252662976798 0.31886183994020412 0 0.47222103054853309 0.30536857664361422 0 0.45866337291811637 0.30169365927876157 0 0.46179392227446953 0.32291451832445861 0 0.45866337291811637 0.30169365927876157 0 0.44258646999382029 0.30990113159980692 0 0.46179392227446953 0.32291451832445861 0 0.47222103054853309 0.30536857664361422 0 0.45866337291811637 0.30169365927876157 0 0.46816558308298489 0.29083511245767268 0 0.44797459424715858 0.28113195035900113 0 0.45866337291811637 0.30169365927876157 0 0.46816558308298489 0.29083511245767268 0 0.44797459424715858 0.28113195035900113 0 0.47518926652314969 0.27560515809727743 0 0.46816558308298489 0.29083511245767268 0 0.44797459424715858 0.28113195035900113 0 0.44258646999382029 0.30990113159980692 0 0.42968026012840121 0.30115694743242971 0 0.44797459424715858 0.28113195035900113 0 0.44258646999382029 0.30990113159980692 0 0.44797459424715858 0.28113195035900113 0 0.45866337291811637 0.30169365927876157 0 0.44258646999382029 0.30990113159980692 0 0.44258646999382029 0.30990113159980692 0 0.46179392227446953 0.32291451832445861 0 0.44258646999382029 0.30990113159980692 0 0.43894044703962998 0.32936859193394902 0 0.46179392227446953 0.32291451832445861 0 0.44258646999382029 0.30990113159980692 0 0.43894044703962998 0.32936859193394902 0 0.44258646999382029 0.30990113159980692 0 0.43894044703962998 0.32936859193394902 0 0.43130474666914309 0.31304161877190062 0 0.43894044703962998 0.32936859193394902 0 0.45181909328986353 0.33594590439129729 0 0.43529442408543872 0.34883605226809089 0 0.43894044703962998 0.32936859193394902 0 0.45181909328986353 0.33594590439129729 0 0.46179392227446953 0.32291451832445861 0 0.45181909328986353 0.33594590439129729 0 0.46495921083649527 0.33796731498031379 0 0.45493863887308472 0.34850758154427958 0 0.45181909328986353 0.33594590439129729 0 0.46495921083649527 0.33796731498031379 0 0.46179392227446953 0.32291451832445861 0 0.47648252662976798 0.31886183994020412 0 0.48100137455512032 0.33592790504910791 0 0.48893996521802741 0.32077530068026477 0 0.46179392227446953 0.32291451832445861 0 0.47648252662976798 0.31886183994020412 0 0.48100137455512032 0.33592790504910791 0 0.47222103054853309 0.30536857664361422 0 0.46179392227446953 0.32291451832445861 0 0.47648252662976798 0.31886183994020412 0 0.48491490847636098 0.30901068293115042 0 0.47648252662976798 0.31886183994020412 0 0.48893996521802741 0.32077530068026477 0 0.46179392227446953 0.32291451832445861 0 0.48100137455512032 0.33592790504910791 0 0.46495921083649527 0.33796731498031379 0 0.48100137455512032 0.33592790504910791 0 0.47458285366073072 0.34817911082046721 0 0.46495921083649527 0.33796731498031379 0 0.46179392227446953 0.32291451832445861 0 0.48100137455512032 0.33592790504910791 0 0.48100137455512032 0.33592790504910791 0 0.47458285366073072 0.34817911082046721 0 0.48100137455512032 0.33592790504910791 0 0.48893996521802741 0.32077530068026477 0 0.48100137455512032 0.33592790504910791 0 0.4984937498586452 0.34777929695842291 0 0.5 0.31779904583675789 0 0.48893996521802741 0.32077530068026477 0 0.4984937498586452 0.34777929695842291 0 0.5 0.31779904583675789 0 0.4984937498586452 0.34777929695842291 0 0.50000000000000433 0.34775411096450393 0 0.48100137455512032 0.33592790504910791 0 0.48893996521802741 0.32077530068026477 0 0.4984937498586452 0.34777929695842291 0 0.49687855588093471 0.30562269631142192 0 0.48893996521802741 0.32077530068026477 0 0.49687855588093471 0.30562269631142192 0 0.5 0.31779904583675789 0 0.48893996521802741 0.32077530068026477 0 0.5 0.37175840028027313 0 0.48688174284785979 0.35971936811564431 0 0.50000000000000433 0.34775411096450393 0 0.5 0.37175840028027313 0 0.48688174284785979 0.35971936811564431 0 0.48177296974371542 0.3780796821533936 0 0.48100137455512032 0.33592790504910791 0 0.4984937498586452 0.34777929695842291 0 0.47458285366073072 0.34817911082046721 0 0.48688174284785979 0.35971936811564431 0 0.4984937498586452 0.34777929695842291 0 0.47458285366073072 0.34817911082046721 0 0.48688174284785979 0.35971936811564431 0 0.4984937498586452 0.34777929695842291 0 0.50000000000000433 0.34775411096450393 0 0.4984937498586452 0.34777929695842291 0 0.47458285366073072 0.34817911082046721 0 0.4984937498586452 0.34777929695842291 0 0.50000000000000433 0.34775411096450393 0 0.48688174284785979 0.35971936811564431 0 0.47458285366073072 0.34817911082046721 0 0.46644088382406917 0.36371991056145853 0 0.47458285366073072 0.34817911082046721 0 0.46644088382406917 0.36371991056145853 0 0.46644088382406917 0.36371991056145853 0 0.45829891398740957 0.37926071030245079 0 0.48177296974371542 0.3780796821533936 0 0.48688174284785979 0.35971936811564431 0 0.46644088382406917 0.36371991056145853 0 0.48177296974371542 0.3780796821533936 0 0.46644088382406917 0.36371991056145853 0 0.45829891398740957 0.37926071030245079 0 0.46644088382406917 0.36371991056145853 0 0.45450488254489102 0.36219879314378839 0 0.45829891398740957 0.37926071030245079 0 0.46495921083649527 0.33796731498031379 0 0.47458285366073072 0.34817911082046721 0 0.45493863887308472 0.34850758154427958 0 0.47458285366073072 0.34817911082046721 0 0.45493863887308472 0.34850758154427958 0 0.47458285366073072 0.34817911082046721 0 0.46644088382406917 0.36371991056145853 0 0.45493863887308472 0.34850758154427958 0 0.46644088382406917 0.36371991056145853 0 0.45450488254489102 0.36219879314378839 0 0.45493863887308472 0.34850758154427958 0 0.45181909328986353 0.33594590439129729 0 0.45493863887308472 0.34850758154427958 0 0.43529442408543872 0.34883605226809089 0 0.45493863887308472 0.34850758154427958 0 0.44448268479035308 0.35511800724889642 0 0.43529442408543872 0.34883605226809089 0 0.45493863887308472 0.34850758154427958 0 0.43529442408543872 0.34883605226809089 0 0.45450488254489102 0.36219879314378839 0 0.45493863887308472 0.34850758154427958 0 0.44448268479035308 0.35511800724889642 0 0.44448268479035308 0.35511800724889642 0 0.44279863902385319 0.36498191861006751 0 0.43487683942449812 0.35106569067825599 0 0.44448268479035308 0.35511800724889642 0 0.43529442408543872 0.34883605226809089 0 0.43487683942449812 0.35106569067825599 0 0.45450488254489102 0.36219879314378839 0 0.44279863902385319 0.36498191861006751 0 0.45829891398740957 0.37926071030245079 0 0.44279863902385319 0.36498191861006751 0 0.45829891398740957 0.37926071030245079 0 0.45450488254489102 0.36219879314378839 0 0.44448268479035308 0.35511800724889642 0 0.44279863902385319 0.36498191861006751 0 0.42892444364691579 0.3641293946929936 0 0.42225433889660879 0.37545697575276449 0 0.43605286711449009 0.38080977408974359 0 0.44279863902385319 0.36498191861006751 0 0.42892444364691579 0.3641293946929936 0 0.43605286711449009 0.38080977408974359 0 0.44279863902385319 0.36498191861006751 0 0.42892444364691579 0.3641293946929936 0 0.42729836406029548 0.35070312691768563 0 0.42892444364691579 0.3641293946929936 0 0.41660844069210962 0.35988002802349189 0 0.42225433889660879 0.37545697575276449 0 0.41660844069210962 0.35988002802349189 0 0.40918213701441342 0.3736144609854074 0 0.42225433889660879 0.37545697575276449 0 0.41660844069210962 0.35988002802349189 0 0.40918213701441342 0.3736144609854074 0 0.40205795884979889 0.36380219258680641 0 0.40642652845595439 0.35168475710611302 0 0.41593005466970517 0.35003896004439389 0 0.41338688547046137 0.33788792813028518 0 0.41660844069210962 0.35988002802349189 0 0.40642652845595439 0.35168475710611302 0 0.40205795884979889 0.36380219258680641 0 0.41660844069210962 0.35988002802349189 0 0.40642652845595439 0.35168475710611302 0 0.41593005466970517 0.35003896004439389 0 0.41660844069210962 0.35988002802349189 0 0.41593005466970517 0.35003896004439389 0 0.42729836406029548 0.35070312691768563 0 0.42729836406029548 0.35070312691768563 0 0.41338688547046137 0.33788792813028518 0 0.41593005466970517 0.35003896004439389 0 0.42729836406029548 0.35070312691768563 0 0.41338688547046137 0.33788792813028518 0 0.42892444364691579 0.3641293946929936 0 0.41660844069210962 0.35988002802349189 0 0.42729836406029548 0.35070312691768563 0 0.42892444364691579 0.3641293946929936 0 0.42729836406029548 0.35070312691768563 0 0.44279863902385319 0.36498191861006751 0 0.42729836406029548 0.35070312691768563 0 0.43487683942449812 0.35106569067825599 0 0.44279863902385319 0.36498191861006751 0 0.42729836406029548 0.35070312691768563 0 0.43109136567724748 0.3489063315667284 0 0.43529442408543872 0.34883605226809089 0 0.42729836406029548 0.35070312691768563 0 0.43109136567724748 0.3489063315667284 0 0.43487683942449812 0.35106569067825599 0 0.43109136567724748 0.3489063315667284 0 0.43529442408543872 0.34883605226809089 0 0.43487683942449812 0.35106569067825599 0 0.43529442408543872 0.34883605226809089 0 0.43487683942449812 0.35106569067825599 0 0.42729836406029548 0.35070312691768563 0 0.42420497341471841 0.32516151660366771 0 0.43894044703962998 0.32936859193394902 0 0.43529442408543872 0.34883605226809089 0 0.43894044703962998 0.32936859193394902 0 0.43109136567724748 0.3489063315667284 0 0.43529442408543872 0.34883605226809089 0 0.42729836406029548 0.35070312691768563 0 0.43109136567724748 0.3489063315667284 0 0.42420497341471841 0.32516151660366771 0 0.43894044703962998 0.32936859193394902 0 0.43109136567724748 0.3489063315667284 0 0.42420497341471841 0.32516151660366771 0 0.43894044703962998 0.32936859193394902 0 0.43130474666914309 0.31304161877190062 0 0.42420497341471841 0.32516151660366771 0 0.42111158276914429 0.29961990628964941 0 0.43130474666914309 0.31304161877190062 0 0.42420497341471841 0.32516151660366771 0 0.40184121301557668 0.30678024061641418 0 0.41431845905081632 0.31211616404088999 0 0.41140534993910638 0.32360132811636988 0 0.41431845905081632 0.31211616404088999 0 0.42420497341471841 0.32516151660366771 0 0.41140534993910638 0.32360132811636988 0 0.42729836406029548 0.35070312691768563 0 0.42420497341471841 0.32516151660366771 0 0.41338688547046137 0.33788792813028518 0 0.42420497341471841 0.32516151660366771 0 0.41140534993910638 0.32360132811636988 0 0.41338688547046137 0.33788792813028518 0 0.41140534993910638 0.32360132811636988 0 0.41338688547046137 0.33788792813028518 0 0.39947540688062583 0.32507272934288628 0 0.41338688547046137 0.33788792813028518 0 0.39947540688062583 0.32507272934288628 0 0.40642652845595439 0.35168475710611302 0 0.41338688547046137 0.33788792813028518 0 0.39105145014164849 0.3414869239971704 0 0.41338688547046137 0.33788792813028518 0 0.39105145014164849 0.3414869239971704 0 0.39947540688062583 0.32507272934288628 0 0.40184121301557668 0.30678024061641418 0 0.41140534993910638 0.32360132811636988 0 0.39947540688062583 0.32507272934288628 0 0.40184121301557668 0.30678024061641418 0 0.39947540688062583 0.32507272934288628 0 0.38242981621443428 0.31397380775534678 0 0.36562923609293069 0.32366592916769399 0 0.38242981621443428 0.31397380775534678 0 0.38128435600444488 0.32837669887387311 0 0.39947540688062583 0.32507272934288628 0 0.38242981621443428 0.31397380775534678 0 0.38128435600444488 0.32837669887387311 0 0.39105145014164849 0.3414869239971704 0 0.39947540688062583 0.32507272934288628 0 0.38128435600444488 0.32837669887387311 0 0.36518945593320651 0.34509967395937191 0 0.39105145014164849 0.3414869239971704 0 0.38128435600444488 0.32837669887387311 0 0.36518945593320651 0.34509967395937191 0 0.39105145014164849 0.3414869239971704 0 0.3855881021147175 0.35910908792858098 0 0.36474967577348072 0.36653341875104961 0 0.3855881021147175 0.35910908792858098 0 0.3855881021147175 0.35910908792858098 0 0.39248458597179969 0.37472262889043839 0 0.3773824667175657 0.37546563606013739 0 0.36474967577348072 0.36653341875104961 0 0.3855881021147175 0.35910908792858098 0 0.3773824667175657 0.37546563606013739 0 0.40918213701441342 0.3736144609854074 0 0.39248458597179969 0.37472262889043839 0 0.40205795884979889 0.36380219258680641 0 0.3855881021147175 0.35910908792858098 0 0.39248458597179969 0.37472262889043839 0 0.40205795884979889 0.36380219258680641 0 0.40642652845595439 0.35168475710611302 0 0.39105145014164849 0.3414869239971704 0 0.3855881021147175 0.35910908792858098 0 0.40642652845595439 0.35168475710611302 0 0.3855881021147175 0.35910908792858098 0 0.40642652845595439 0.35168475710611302 0 0.3855881021147175 0.35910908792858098 0 0.40205795884979889 0.36380219258680641 0 0.39221066862400811 0.40518894945558848 0 0.39940032860097008 0.38986983405391068 0 0.41033309730305728 0.40785957742124029 0 0.40918213701441342 0.3736144609854074 0 0.39248458597179969 0.37472262889043839 0 0.39940032860097008 0.38986983405391068 0 0.39248458597179969 0.37472262889043839 0 0.39940032860097008 0.38986983405391068 0 0.38026367080056678 0.39066664182047522 0 0.39248458597179969 0.37472262889043839 0 0.3773824667175657 0.37546563606013739 0 0.38026367080056678 0.39066664182047522 0 0.39221066862400811 0.40518894945558848 0 0.39940032860097008 0.38986983405391068 0 0.38026367080056678 0.39066664182047522 0 0.39221066862400811 0.40518894945558848 0 0.38026367080056678 0.39066664182047522 0 0.37744029411777058 0.41252948965876268 0 0.39221066862400811 0.40518894945558848 0 0.37744029411777058 0.41252948965876268 0 0.39361595229767549 0.42501920432355378 0 0.365542703577178 0.42914551292816783 0 0.39361595229767549 0.42501920432355378 0 0.37809165231809289 0.44568724501072521 0 0.365542703577178 0.42914551292816783 0 0.37744029411777058 0.41252948965876268 0 0.39361595229767549 0.42501920432355378 0 0.365542703577178 0.42914551292816783 0 0.39361595229767549 0.42501920432355378 0 0.39361595229767549 0.42501920432355378 0 0.41035062152962531 0.4256058815429955 0 0.40092741287151468 0.44093224530230651 0 0.39361595229767549 0.42501920432355378 0 0.40092741287151468 0.44093224530230651 0 0.37809165231809289 0.44568724501072521 0 0.39361595229767549 0.42501920432355378 0 0.41033309730305728 0.40785957742124029 0 0.41035062152962531 0.4256058815429955 0 0.39221066862400811 0.40518894945558848 0 0.39361595229767549 0.42501920432355378 0 0.41033309730305728 0.40785957742124029 0 0.41033309730305728 0.40785957742124029 0 0.41035062152962531 0.4256058815429955 0 0.42646345733135449 0.42088686527347441 0 0.41035062152962531 0.4256058815429955 0 0.4216403136361262 0.43569606407888728 0 0.42646345733135449 0.42088686527347441 0 0.41035062152962531 0.4256058815429955 0 0.4216403136361262 0.43569606407888728 0 0.40092741287151468 0.44093224530230651 0 0.43504649219903713 0.43385430946487219 0 0.42646345733135449 0.42088686527347441 0 0.44292677264660579 0.42392515796168401 0 0.4216403136361262 0.43569606407888728 0 0.43504649219903713 0.43385430946487219 0 0.42646345733135449 0.42088686527347441 0 0.4216403136361262 0.43569606407888728 0 0.43504649219903713 0.43385430946487219 0 0.4309855774719657 0.44262377444488737 0 0.41033309730305728 0.40785957742124029 0 0.42646345733135449 0.42088686527347441 0 0.43473852811684172 0.40482082561786309 0 0.42646345733135449 0.42088686527347441 0 0.43473852811684172 0.40482082561786309 0 0.44292677264660579 0.42392515796168401 0 0.43473852811684172 0.40482082561786309 0 0.42003555557297712 0.38799376876492359 0 0.43605286711449009 0.38080977408974359 0 0.41033309730305728 0.40785957742124029 0 0.43473852811684172 0.40482082561786309 0 0.42003555557297712 0.38799376876492359 0 0.39940032860097008 0.38986983405391068 0 0.41033309730305728 0.40785957742124029 0 0.42003555557297712 0.38799376876492359 0 0.40918213701441342 0.3736144609854074 0 0.39940032860097008 0.38986983405391068 0 0.42003555557297712 0.38799376876492359 0 0.40918213701441342 0.3736144609854074 0 0.42003555557297712 0.38799376876492359 0 0.42225433889660879 0.37545697575276449 0 0.42003555557297712 0.38799376876492359 0 0.42225433889660879 0.37545697575276449 0 0.43605286711449009 0.38080977408974359 0 0.44279863902385319 0.36498191861006751 0 0.43605286711449009 0.38080977408974359 0 0.45829891398740957 0.37926071030245079 0 0.43605286711449009 0.38080977408974359 0 0.44916269767969552 0.39669925538146661 0 0.45829891398740957 0.37926071030245079 0 0.43473852811684172 0.40482082561786309 0 0.43605286711449009 0.38080977408974359 0 0.44916269767969552 0.39669925538146661 0 0.43473852811684172 0.40482082561786309 0 0.44916269767969552 0.39669925538146661 0 0.45819524916971172 0.41557138043250991 0 0.44916269767969552 0.39669925538146661 0 0.47914945699370431 0.3984681476517854 0 0.45819524916971172 0.41557138043250991 0 0.44916269767969552 0.39669925538146661 0 0.45829891398740957 0.37926071030245079 0 0.47914945699370431 0.3984681476517854 0 0.45829891398740957 0.37926071030245079 0 0.47914945699370431 0.3984681476517854 0 0.44916269767969552 0.39669925538146661 0 0.45829891398740957 0.37926071030245079 0 0.45829891398740957 0.37926071030245079 0 0.48177296974371542 0.3780796821533936 0 0.47914945699370431 0.3984681476517854 0 0.47914945699370431 0.3984681476517854 0 0.5 0.39471699264069632 0 0.49999999999999928 0.41767558500111929 0 0.48177296974371542 0.3780796821533936 0 0.47914945699370431 0.3984681476517854 0 0.5 0.39471699264069632 0 0.5 0.37175840028027313 0 0.48177296974371542 0.3780796821533936 0 0.5 0.39471699264069632 0 0.48950419912568011 0.43203648207583117 0 0.49999999999999928 0.41767558500111929 0 0.47941257652712138 0.42859526255965119 0 0.48950419912568011 0.43203648207583117 0 0.49999999999999928 0.41767558500111929 0 0.50000000000000022 0.44212157098762489 0 0.49999999999999928 0.41767558500111929 0 0.47638758820359789 0.4177788365799131 0 0.47941257652712138 0.42859526255965119 0 0.47914945699370431 0.3984681476517854 0 0.49999999999999928 0.41767558500111929 0 0.47638758820359789 0.4177788365799131 0 0.47914945699370431 0.3984681476517854 0 0.49999999999999928 0.41767558500111929 0 0.47914945699370431 0.3984681476517854 0 0.47638758820359789 0.4177788365799131 0 0.45819524916971172 0.41557138043250991 0 0.47638758820359789 0.4177788365799131 0 0.46959145424244531 0.42892785421681912 0 0.47941257652712138 0.42859526255965119 0 0.48950419912568011 0.43203648207583117 0 0.47941257652712138 0.42859526255965119 0 0.47860421997559988 0.43975350975492877 0 0.46959145424244531 0.42892785421681912 0 0.47941257652712138 0.42859526255965119 0 0.47860421997559988 0.43975350975492877 0 0.46959145424244531 0.42892785421681912 0 0.45720843995119947 0.43738544852223271 0 0.45819524916971172 0.41557138043250991 0 0.46959145424244531 0.42892785421681912 0 0.45720843995119947 0.43738544852223271 0 0.47860421997559988 0.43975350975492877 0 0.47638758820359789 0.4177788365799131 0 0.46959145424244531 0.42892785421681912 0 0.45819524916971172 0.41557138043250991 0 0.43473852811684172 0.40482082561786309 0 0.45819524916971172 0.41557138043250991 0 0.44292677264660579 0.42392515796168401 0 0.45720843995119947 0.43738544852223271 0 0.45819524916971172 0.41557138043250991 0 0.44292677264660579 0.42392515796168401 0 0.45720843995119947 0.43738544852223271 0 0.44292677264660579 0.42392515796168401 0 0.44501475256406542 0.43710487641451851 0 0.43504649219903713 0.43385430946487219 0 0.44292677264660579 0.42392515796168401 0 0.44501475256406542 0.43710487641451851 0 0.44501475256406542 0.43710487641451851 0 0.44086930591740259 0.443703986550611 0 0.44426520485267701 0.44828521544284999 0 0.43504649219903713 0.43385430946487219 0 0.44501475256406542 0.43710487641451851 0 0.44086930591740259 0.443703986550611 0 0.44576605402647751 0.45131382091928901 0 0.43097115028835131 0.45382894378787952 0 0.4371491165808723 0.44919465112914592 0 0.44086930591740259 0.443703986550611 0 0.44106718496795649 0.44783878756079798 0 0.4371491165808723 0.44919465112914592 0 0.44106718496795649 0.44783878756079798 0 0.44576605402647751 0.45131382091928901 0 0.4371491165808723 0.44919465112914592 0 0.44086930591740259 0.443703986550611 0 0.44426520485267701 0.44828521544284999 0 0.44106718496795649 0.44783878756079798 0 0.44426520485267701 0.44828521544284999 0 0.44576605402647751 0.45131382091928901 0 0.44086930591740259 0.443703986550611 0 0.44106718496795649 0.44783878756079798 0 0.44426520485267701 0.44828521544284999 0 0.45720843995119947 0.43738544852223271 0 0.44501475256406542 0.43710487641451851 0 0.44426520485267701 0.44828521544284999 0 0.44576605402647751 0.45131382091928901 0 0.44334270512280699 0.46695283516179431 0 0.45751300038554987 0.46615712058798953 0 0.44426520485267701 0.44828521544284999 0 0.45751300038554987 0.46615712058798953 0 0.44576605402647751 0.45131382091928901 0 0.44334270512280699 0.46695283516179431 0 0.42744619309891668 0.4675425472795256 0 0.44426520485267701 0.44828521544284999 0 0.44576605402647751 0.45131382091928901 0 0.45751300038554987 0.46615712058798953 0 0.44426520485267701 0.44828521544284999 0 0.45751300038554987 0.46615712058798953 0 0.47213260242633898 0.44992772785007767 0 0.44426520485267701 0.44828521544284999 0 0.47213260242633898 0.44992772785007767 0 0.45720843995119947 0.43738544852223271 0 0.47860421997559988 0.43975350975492877 0 0.45720843995119947 0.43738544852223271 0 0.44426520485267701 0.44828521544284999 0 0.47213260242633898 0.44992772785007767 0 0.47213260242633898 0.44992772785007767 0 0.47860421997559988 0.43975350975492877 0 0.50000000000000067 0.45157024025730719 0 0.45720843995119947 0.43738544852223271 0 0.47213260242633898 0.44992772785007767 0 0.47860421997559988 0.43975350975492877 0 0.47213260242633898 0.44992772785007767 0 0.48064266697128027 0.4673483066551633 0 0.50000000000000067 0.45157024025730719 0 0.45751300038554987 0.46615712058798953 0 0.47213260242633898 0.44992772785007767 0 0.48064266697128027 0.4673483066551633 0 0.48064266697128027 0.4673483066551633 0 0.5 0.46843982966384828 0 0.50000000000000067 0.45157024025730719 0 0.47860421997559988 0.43975350975492877 0 0.50000000000000022 0.44212157098762489 0 0.47860421997559988 0.43975350975492877 0 0.50000000000000067 0.45157024025730719 0 0.50000000000000022 0.44212157098762489 0 0.47213260242633898 0.44992772785007767 0 0.50000000000000067 0.45157024025730719 0 0.48950419912568011 0.43203648207583117 0 0.47860421997559988 0.43975350975492877 0 0.50000000000000022 0.44212157098762489 0 0.48834007405180069 0.49233461120087918 0 0.50000000000000222 0.48530941907038949 0 0.47076079591842229 0.48402902573312923 0 0.48834007405180069 0.49233461120087918 0 0.5 0.5 0 0.48259950028877657 0.49999999999999922 0 0.50000000000000222 0.48530941907038949 0 0.47076079591842229 0.48402902573312923 0 0.48834007405180069 0.49233461120087918 0 0.5 0.5 0 0.50000000000000222 0.48530941907038949 0 0.50000000000000222 0.48530941907038949 0 0.48785086572242647 0.47628164528063233 0 0.47076079591842229 0.48402902573312923 0 0.48064266697128027 0.4673483066551633 0 0.5 0.46843982966384828 0 0.48785086572242647 0.47628164528063233 0 0.5 0.46843982966384828 0 0.50000000000000222 0.48530941907038949 0 0.48785086572242647 0.47628164528063233 0 0.45751300038554987 0.46615712058798953 0 0.48064266697128027 0.4673483066551633 0 0.47076079591842229 0.48402902573312923 0 0.48064266697128027 0.4673483066551633 0 0.48785086572242647 0.47628164528063233 0 0.47076079591842229 0.48402902573312923 0 0.47076079591842229 0.48402902573312923 0 0.48259950028877657 0.49999999999999922 0 0.45965124302753141 0.5 0 0.48834007405180069 0.49233461120087918 0 0.47076079591842229 0.48402902573312923 0 0.48259950028877657 0.49999999999999922 0 0.47076079591842229 0.48402902573312923 0 0.48259950028877657 0.49999999999999922 0 0.47076079591842229 0.48402902573312923 0 0.45965124302753141 0.5 0 0.44264557298028417 0.48279785186037327 0 0.45751300038554987 0.46615712058798953 0 0.47076079591842229 0.48402902573312923 0 0.47076079591842229 0.48402902573312923 0 0.44264557298028417 0.48279785186037327 0 0.45751300038554987 0.46615712058798953 0 0.47076079591842229 0.48402902573312923 0 0.44264557298028417 0.48279785186037327 0 0.44334270512280699 0.46695283516179431 0 0.44264557298028417 0.48279785186037327 0 0.42744619309891668 0.4675425472795256 0 0.44334270512280699 0.46695283516179431 0 0.45751300038554987 0.46615712058798953 0 0.44264557298028417 0.48279785186037327 0 0.45965124302753141 0.5 0 0.44264557298028417 0.48279785186037327 0 0.43670298576628619 0.5 0 0.44264557298028417 0.48279785186037327 0 0.42814010978677508 0.48883471415535268 0 0.41453035004214622 0.48156667798761449 0 0.43670298576628619 0.5 0 0.42814010978677508 0.48883471415535268 0 0.41868153035838401 0.49097432677342312 0 0.44264557298028417 0.48279785186037327 0 0.43670298576628619 0.5 0 0.42814010978677508 0.48883471415535268 0 0.43670298576628619 0.5 0 0.41375472850504103 0.5 0 0.41868153035838401 0.49097432677342312 0 0.41375472850504103 0.5 0 0.41868153035838401 0.49097432677342312 0 0.40912633217135602 0.48377127363976219 0 0.42814010978677508 0.48883471415535268 0 0.41868153035838401 0.49097432677342312 0 0.41453035004214622 0.48156667798761449 0 0.41868153035838401 0.49097432677342312 0 0.40912633217135602 0.48377127363976219 0 0.41453035004214622 0.48156667798761449 0 0.40882198151684829 0.470458307354371 0 0.40912633217135602 0.48377127363976219 0 0.42744619309891668 0.4675425472795256 0 0.40912633217135602 0.48377127363976219 0 0.42744619309891668 0.4675425472795256 0 0.40912633217135602 0.48377127363976219 0 0.41453035004214622 0.48156667798761449 0 0.42744619309891668 0.4675425472795256 0 0.40882198151684829 0.470458307354371 0 0.40912633217135602 0.48377127363976219 0 0.40257181831080802 0.47789339995616598 0 0.44264557298028417 0.48279785186037327 0 0.41453035004214622 0.48156667798761449 0 0.44264557298028417 0.48279785186037327 0 0.41453035004214622 0.48156667798761449 0 0.42744619309891668 0.4675425472795256 0 0.44576605402647751 0.45131382091928901 0 0.42744619309891668 0.4675425472795256 0 0.44576605402647751 0.45131382091928901 0 0.43097115028835131 0.45382894378787952 0 0.42744619309891668 0.4675425472795256 0 0.43097115028835131 0.45382894378787952 0 0.42744619309891668 0.4675425472795256 0 0.41709851720120961 0.46055572465752248 0 0.44086930591740259 0.443703986550611 0 0.4309855774719657 0.44262377444488737 0 0.4371491165808723 0.44919465112914592 0 0.43504649219903713 0.43385430946487219 0 0.44086930591740259 0.443703986550611 0 0.4309855774719657 0.44262377444488737 0 0.43097115028835131 0.45382894378787952 0 0.4309855774719657 0.44262377444488737 0 0.4371491165808723 0.44919465112914592 0 0.43097115028835131 0.45382894378787952 0 0.4309855774719657 0.44262377444488737 0 0.41665312800777271 0.44940921386284588 0 0.4216403136361262 0.43569606407888728 0 0.4309855774719657 0.44262377444488737 0 0.41665312800777271 0.44940921386284588 0 0.41665312800777271 0.44940921386284588 0 0.4029362549212489 0.45832899449672349 0 0.40092741287151468 0.44093224530230651 0 0.4216403136361262 0.43569606407888728 0 0.41665312800777271 0.44940921386284588 0 0.40092741287151468 0.44093224530230651 0 0.40882198151684829 0.470458307354371 0 0.42744619309891668 0.4675425472795256 0 0.41709851720120961 0.46055572465752248 0 0.43097115028835131 0.45382894378787952 0 0.41665312800777271 0.44940921386284588 0 0.41709851720120961 0.46055572465752248 0 0.41665312800777271 0.44940921386284588 0 0.41709851720120961 0.46055572465752248 0 0.4029362549212489 0.45832899449672349 0 0.40882198151684829 0.470458307354371 0 0.41709851720120961 0.46055572465752248 0 0.4029362549212489 0.45832899449672349 0 0.40882198151684829 0.470458307354371 0 0.4029362549212489 0.45832899449672349 0 0.3944208343110962 0.47305259584339332 0 0.4029362549212489 0.45832899449672349 0 0.38943508825963058 0.45629052964312111 0 0.3944208343110962 0.47305259584339332 0 0.4029362549212489 0.45832899449672349 0 0.40092741287151468 0.44093224530230651 0 0.38943508825963058 0.45629052964312111 0 0.40092741287151468 0.44093224530230651 0 0.37809165231809289 0.44568724501072521 0 0.38943508825963058 0.45629052964312111 0 0.37809165231809289 0.44568724501072521 0 0.38943508825963058 0.45629052964312111 0 0.37844435483634198 0.4675903904274426 0 0.38943508825963058 0.45629052964312111 0 0.37844435483634198 0.4675903904274426 0 0.3944208343110962 0.47305259584339332 0 0.37844435483634198 0.4675903904274426 0 0.38120033573297152 0.48442634992442057 0 0.3944208343110962 0.47305259584339332 0 0.38120033573297152 0.48442634992442057 0 0.3944208343110962 0.47305259584339332 0 0.39562515835400552 0.48382872387274839 0 0.36196284501337178 0.5 0 0.38120033573297152 0.48442634992442057 0 0.39080647124379558 0.49999999999999922 0 0.38120033573297152 0.48442634992442057 0 0.39080647124379558 0.49999999999999922 0 0.39562515835400552 0.48382872387274839 0 0.40912633217135602 0.48377127363976219 0 0.39080647124379558 0.49999999999999922 0 0.40912633217135602 0.48377127363976219 0 0.39080647124379558 0.49999999999999922 0 0.39562515835400552 0.48382872387274839 0 0.41375472850504103 0.5 0 0.40912633217135602 0.48377127363976219 0 0.39080647124379558 0.49999999999999922 0 0.40912633217135602 0.48377127363976219 0 0.40257181831080802 0.47789339995616598 0 0.39562515835400552 0.48382872387274839 0 0.40882198151684829 0.470458307354371 0 0.40257181831080802 0.47789339995616598 0 0.3944208343110962 0.47305259584339332 0 0.40257181831080802 0.47789339995616598 0 0.3944208343110962 0.47305259584339332 0 0.39562515835400552 0.48382872387274839 0 0.34137977846588119 0.091947059702449957 0 0.3184977734976509 0.082531855017860187 0 0.34137977846588119 0.091947059702449957 0 0.33853514524224232 0.092154422351098803 0 0.3184977734976509 0.082531855017860187 0 0.33853514524224232 0.092154422351098803 0 0.3184977734976509 0.082531855017860187 0 0.3305269393921435 0.093893314460775035 0 0.34137977846588119 0.091947059702449957 0 0.33488127772135701 0.070909675734900868 0 0.3184977734976509 0.082531855017860187 0 0.33488127772135701 0.070909675734900868 0 0.35624300874513559 0.071190975121652081 0 0.33828509493208109 0.051113002016081502 0 0.3184977734976509 0.082531855017860187 0 0.31750720709783492 0.060828210965220328 0 0.30506359630307739 0.067813250175554993 0 0.33488127772135701 0.070909675734900868 0 0.32846421329825382 0.059059627678852658 0 0.31750720709783492 0.060828210965220328 0 0.33488127772135701 0.070909675734900868 0 0.3184977734976509 0.082531855017860187 0 0.31750720709783492 0.060828210965220328 0 0.3184977734976509 0.082531855017860187 0 0.3254096333834442 0.096971455496547829 0 0.3305269393921435 0.093893314460775035 0 0.3184977734976509 0.082531855017860187 0 0.3254096333834442 0.096971455496547829 0 0.31111548734401751 0.094174984339189319 0 0.3254096333834442 0.096971455496547829 0 0.33219394353324039 0.1121017755840282 0 0.31111548734401751 0.094174984339189319 0 0.33219394353324039 0.1121017755840282 0 0.31111548734401751 0.094174984339189319 0 0.33219394353324039 0.1121017755840282 0 0.31151194808720201 0.1150643222194616 0 0.31111548734401751 0.094174984339189319 0 0.33219394353324039 0.1121017755840282 0 0.31151194808720201 0.1150643222194616 0 0.32387679174541939 0.1297141718462434 0 0.33219394353324039 0.1121017755840282 0 0.32387679174541939 0.1297141718462434 0 0.35327239972246333 0.1300285668288671 0 0.33219394353324039 0.1121017755840282 0 0.35327239972246333 0.1300285668288671 0 0.33219394353324039 0.1121017755840282 0 0.34279585490336462 0.1026082003979065 0 0.35159211237321392 0.11222190062690381 0 0.33853514524224232 0.092154422351098803 0 0.3305269393921435 0.093893314460775035 0 0.33650548478629722 0.09727411407467923 0 0.3254096333834442 0.096971455496547829 0 0.33351858274250701 0.1005678965871936 0 0.3305269393921435 0.093893314460775035 0 0.33351858274250701 0.1005678965871936 0 0.3305269393921435 0.093893314460775035 0 0.33650548478629722 0.09727411407467923 0 0.3254096333834442 0.096971455496547829 0 0.33219394353324039 0.1121017755840282 0 0.33351858274250701 0.1005678965871936 0 0.33219394353324039 0.1121017755840282 0 0.33351858274250701 0.1005678965871936 0 0.34279585490336462 0.1026082003979065 0 0.33351858274250701 0.1005678965871936 0 0.34279585490336462 0.1026082003979065 0 0.33650548478629722 0.09727411407467923 0 0.33853514524224232 0.092154422351098803 0 0.34279585490336462 0.1026082003979065 0 0.33650548478629722 0.09727411407467923 0 0.34279585490336462 0.1026082003979065 0 0.35159211237321392 0.11222190062690381 0 0.36426178343411147 0.1013622643870397 0 0.33853514524224232 0.092154422351098803 0 0.34279585490336462 0.1026082003979065 0 0.36426178343411147 0.1013622643870397 0 0.34137977846588119 0.091947059702449957 0 0.33853514524224232 0.092154422351098803 0 0.36426178343411147 0.1013622643870397 0 0.33853514524224232 0.092154422351098803 0 0.36426178343411147 0.1013622643870397 0 0.34137977846588119 0.091947059702449957 0 0.36426178343411147 0.1013622643870397 0 0.33219394353324039 0.1121017755840282 0 0.35159211237321392 0.11222190062690381 0 0.35327239972246333 0.1300285668288671 0 0.35159211237321392 0.11222190062690381 0 0.36649271172908648 0.1176987398754743 0 0.35327239972246333 0.1300285668288671 0 0.35159211237321392 0.11222190062690381 0 0.36649271172908648 0.1176987398754743 0 0.36426178343411147 0.1013622643870397 0 0.36649271172908648 0.1176987398754743 0 0.36938385952287339 0.13266757129752671 0 0.38138511069115272 0.12353481432135879 0 0.36649271172908648 0.1176987398754743 0 0.36426178343411147 0.1013622643870397 0 0.3795225325030368 0.1068242515199407 0 0.36426178343411147 0.1013622643870397 0 0.3795225325030368 0.1068242515199407 0 0.36426178343411147 0.1013622643870397 0 0.3742009225581896 0.091268948227223284 0 0.3795225325030368 0.1068242515199407 0 0.3742009225581896 0.091268948227223284 0 0.35754778501084228 0.087847667021068221 0 0.35624300874513559 0.071190975121652081 0 0.36426178343411147 0.1013622643870397 0 0.3742009225581896 0.091268948227223284 0 0.35754778501084228 0.087847667021068221 0 0.3742009225581896 0.091268948227223284 0 0.35624300874513559 0.071190975121652081 0 0.34137977846588119 0.091947059702449957 0 0.35754778501084228 0.087847667021068221 0 0.35624300874513559 0.071190975121652081 0 0.34137977846588119 0.091947059702449957 0 0.36426178343411147 0.1013622643870397 0 0.35754778501084228 0.087847667021068221 0 0.34137977846588119 0.091947059702449957 0 0.33488127772135701 0.070909675734900868 0 0.35624300874513559 0.071190975121652081 0 0.3742009225581896 0.091268948227223284 0 0.35624300874513559 0.071190975121652081 0 0.37575225644292037 0.071709270247263784 0 0.35624300874513559 0.071190975121652081 0 0.36737709041569239 0.056764699852256018 0 0.37575225644292037 0.071709270247263784 0 0.36737709041569239 0.056764699852256018 0 0.36443667806580698 0.054513224756226962 0 0.39058826119953283 0.057913447496371839 0 0.36443667806580698 0.054513224756226962 0 0.36984281421283938 0.03924660656396721 0 0.37608467898805159 0.048096788967416412 0 0.36984281421283938 0.03924660656396721 0 0.35576481933353549 0.041718099984820838 0 0.3798040161112804 0.028996110171619349 0 0.35576481933353549 0.041718099984820838 0 0.36136411866671431 0.026161729739540451 0 0.37786156531075732 0.02725125369877367 0 0.35576481933353549 0.041718099984820838 0 0.3798040161112804 0.028996110171619349 0 0.37786156531075732 0.02725125369877367 0 0.35576481933353549 0.041718099984820838 0 0.3798040161112804 0.028996110171619349 0 0.36984281421283938 0.03924660656396721 0 0.37726993283737248 0.041439113600633092 0 0.37608467898805159 0.048096788967416412 0 0.36984281421283938 0.03924660656396721 0 0.37675727284589372 0.036323400775862158 0 0.37726993283737248 0.041439113600633092 0 0.36443667806580698 0.054513224756226962 0 0.36984281421283938 0.03924660656396721 0 0.35576481933353549 0.041718099984820838 0 0.35576481933353549 0.041718099984820838 0 0.36136411866671431 0.026161729739540451 0 0.34099279295720591 0.031691385536231111 0 0.35576481933353549 0.041718099984820838 0 0.34539840685914608 0.044617690611648012 0 0.34099279295720591 0.031691385536231111 0 0.35624300874513559 0.071190975121652081 0 0.34416591963185211 0.055615952208139578 0 0.33828509493208109 0.051113002016081502 0 0.36443667806580698 0.054513224756226962 0 0.34416591963185211 0.055615952208139578 0 0.33828509493208109 0.051113002016081502 0 0.36737709041569239 0.056764699852256018 0 0.34416591963185211 0.055615952208139578 0 0.35624300874513559 0.071190975121652081 0 0.33828509493208109 0.051113002016081502 0 0.35624300874513559 0.071190975121652081 0 0.36737709041569239 0.056764699852256018 0 0.34416591963185211 0.055615952208139578 0 0.36443667806580698 0.054513224756226962 0 0.33828509493208109 0.051113002016081502 0 0.36443667806580698 0.054513224756226962 0 0.34539840685914608 0.044617690611648012 0 0.33828509493208109 0.051113002016081502 0 0.36443667806580698 0.054513224756226962 0 0.35576481933353549 0.041718099984820838 0 0.34539840685914608 0.044617690611648012 0 0.36737709041569239 0.056764699852256018 0 0.36443667806580698 0.054513224756226962 0 0.34416591963185211 0.055615952208139578 0 0.35686418876597309 0.010252504770385159 0 0.37537418671591988 0.012891754799621079 0 0.3700201466167648 -0.002195575246397889 0 0.35686418876597309 0.010252504770385159 0 0.37786156531075732 0.02725125369877367 0 0.36136411866671431 0.026161729739540451 0 0.35686418876597309 0.010252504770385159 0 0.37786156531075732 0.02725125369877367 0 0.35686418876597309 0.010252504770385159 0 0.37537418671591988 0.012891754799621079 0 0.37786156531075732 0.02725125369877367 0 0.36136411866671431 0.026161729739540451 0 0.35686418876597309 0.010252504770385159 0 0.34167945108238768 0.015605415956853899 0 0.36136411866671431 0.026161729739540451 0 0.34167945108238768 0.015605415956853899 0 0.34099279295720591 0.031691385536231111 0 0.35686418876597309 0.010252504770385159 0 0.34167945108238768 0.015605415956853899 0 0.33586681222118892 -0.0067462441580033658 0 0.35686418876597309 0.010252504770385159 0 0.33586681222118892 -0.0067462441580033658 0 0.34167945108238768 0.015605415956853899 0 0.32490055802469708 0.021190940670656921 0 0.33586681222118892 -0.0067462441580033658 0 0.34167945108238768 0.015605415956853899 0 0.32490055802469708 0.021190940670656921 0 0.34099279295720591 0.031691385536231111 0 0.32490055802469708 0.021190940670656921 0 0.34099279295720591 0.031691385536231111 0 0.32801258046435111 0.036170166979635328 0 0.32490055802469708 0.021190940670656921 0 0.31497710433926901 0.036033128519756527 0 0.30595588987094691 0.026092456194660541 0 0.32490055802469708 0.021190940670656921 0 0.31046320235639918 0.0067575729804437252 0 0.30595588987094691 0.026092456194660541 0 0.32490055802469708 0.021190940670656921 0 0.32801258046435111 0.036170166979635328 0 0.31497710433926901 0.036033128519756527 0 0.32490055802469708 0.021190940670656921 0 0.31046320235639918 0.0067575729804437252 0 0.33586681222118892 -0.0067462441580033658 0 0.33488127772135701 0.070909675734900868 0 0.32846421329825382 0.059059627678852658 0 0.33828509493208109 0.051113002016081502 0 0.33828509493208109 0.051113002016081502 0 0.33632782521092219 0.048924662700562782 0 0.31456469921871788 0.048028881697348168 0 0.34539840685914608 0.044617690611648012 0 0.33828509493208109 0.051113002016081502 0 0.33632782521092219 0.048924662700562782 0 0.33828509493208109 0.051113002016081502 0 0.33632782521092219 0.048924662700562782 0 0.34539840685914608 0.044617690611648012 0 0.33609782728063148 0.04111054955314445 0 0.34099279295720591 0.031691385536231111 0 0.34539840685914608 0.044617690611648012 0 0.33632782521092219 0.048924662700562782 0 0.33609782728063148 0.04111054955314445 0 0.33609782728063148 0.04111054955314445 0 0.34099279295720591 0.031691385536231111 0 0.32801258046435111 0.036170166979635328 0 0.33632782521092219 0.048924662700562782 0 0.33609782728063148 0.04111054955314445 0 0.33051084790212298 0.042529329228536181 0 0.33632782521092219 0.048924662700562782 0 0.33051084790212298 0.042529329228536181 0 0.32327528761916352 0.043108517346294839 0 0.33609782728063148 0.04111054955314445 0 0.33051084790212298 0.042529329228536181 0 0.32801258046435111 0.036170166979635328 0 0.33632782521092219 0.048924662700562782 0 0.32327528761916352 0.043108517346294839 0 0.31456469921871788 0.048028881697348168 0 0.33051084790212298 0.042529329228536181 0 0.32327528761916352 0.043108517346294839 0 0.32801258046435111 0.036170166979635328 0 0.32327528761916352 0.043108517346294839 0 0.32801258046435111 0.036170166979635328 0 0.31497710433926901 0.036033128519756527 0 0.32327528761916352 0.043108517346294839 0 0.31497710433926901 0.036033128519756527 0 0.31456469921871788 0.048028881697348168 0 0.33828509493208109 0.051113002016081502 0 0.31456469921871788 0.048028881697348168 0 0.32846421329825382 0.059059627678852658 0 0.33828509493208109 0.051113002016081502 0 0.31456469921871788 0.048028881697348168 0 0.32846421329825382 0.059059627678852658 0 0.31456469921871788 0.048028881697348168 0 0.31750720709783492 0.060828210965220328 0 0.31456469921871788 0.048028881697348168 0 0.31750720709783492 0.060828210965220328 0 0.30386903740065402 0.05697431224277244 0 0.31750720709783492 0.060828210965220328 0 0.30386903740065402 0.05697431224277244 0 0.30506359630307739 0.067813250175554993 0 0.31456469921871788 0.048028881697348168 0 0.30386903740065402 0.05697431224277244 0 0.29084430350535467 0.044944761378613682 0 0.30386903740065402 0.05697431224277244 0 0.29325963230024937 0.057606978803657879 0 0.29690158384745241 0.06457818982176422 0 0.31456469921871788 0.048028881697348168 0 0.30257644158749403 0.037675663858353942 0 0.29084430350535467 0.044944761378613682 0 0.31456469921871788 0.048028881697348168 0 0.29084430350535467 0.044944761378613682 0 0.30257644158749403 0.037675663858353942 0 0.28728110375769011 0.032980092644635972 0 0.30595588987094691 0.026092456194660541 0 0.31497710433926901 0.036033128519756527 0 0.31456469921871788 0.048028881697348168 0 0.30257644158749403 0.037675663858353942 0 0.31497710433926901 0.036033128519756527 0 0.30257644158749403 0.037675663858353942 0 0.30595588987094691 0.026092456194660541 0 0.28728110375769011 0.032980092644635972 0 0.28354425329012439 0.021068516806879451 0 0.27754771987688809 0.040797440569893019 0 0.30257644158749403 0.037675663858353942 0 0.29084430350535467 0.044944761378613682 0 0.28728110375769011 0.032980092644635972 0 0.28728110375769011 0.032980092644635972 0 0.2844924432277231 0.043204628682168907 0 0.27754771987688809 0.040797440569893019 0 0.29084430350535467 0.044944761378613682 0 0.28728110375769011 0.032980092644635972 0 0.2844924432277231 0.043204628682168907 0 0.2844924432277231 0.043204628682168907 0 0.28229664577095948 0.054096220135532967 0 0.27754771987688809 0.040797440569893019 0 0.29084430350535467 0.044944761378613682 0 0.2844924432277231 0.043204628682168907 0 0.28229664577095948 0.054096220135532967 0 0.29084430350535467 0.044944761378613682 0 0.28229664577095948 0.054096220135532967 0 0.29325963230024937 0.057606978803657879 0 0.28229664577095948 0.054096220135532967 0 0.28695696052130792 0.062426000594819037 0 0.29325963230024937 0.057606978803657879 0 0.28229664577095948 0.054096220135532967 0 0.28695696052130792 0.062426000594819037 0 0.27961998430175328 0.060695812266760227 0 0.28695696052130792 0.062426000594819037 0 0.29325963230024937 0.057606978803657879 0 0.29690158384745241 0.06457818982176422 0 0.30386903740065402 0.05697431224277244 0 0.29084430350535467 0.044944761378613682 0 0.29325963230024937 0.057606978803657879 0 0.31046320235639918 0.0067575729804437252 0 0.29633736445586178 0.016145334388179639 0 0.2895407867033607 0.0013395930438658619 0 0.31046320235639918 0.0067575729804437252 0 0.30595588987094691 0.026092456194660541 0 0.29633736445586178 0.016145334388179639 0 0.28728110375769011 0.032980092644635972 0 0.29633736445586178 0.016145334388179639 0 0.28354425329012439 0.021068516806879451 0 0.28728110375769011 0.032980092644635972 0 0.30595588987094691 0.026092456194660541 0 0.29633736445586178 0.016145334388179639 0 0.29633736445586178 0.016145334388179639 0 0.28354425329012439 0.021068516806879451 0 0.2895407867033607 0.0013395930438658619 0 0.28354425329012439 0.021068516806879451 0 0.2895407867033607 0.0013395930438658619 0 0.27605408581287011 0.0090157940159830471 0 0.28354425329012439 0.021068516806879451 0 0.2895407867033607 0.0013395930438658619 0 0.2895407867033607 0.0013395930438658619 0 0.27605408581287011 0.0090157940159830471 0 0.26778398551549509 -0.0036893303100333872 0 0.27605408581287011 0.0090157940159830471 0 0.26417056773795178 0.0090152440179189393 0 0.26778398551549509 -0.0036893303100333872 0 0.27605408581287011 0.0090157940159830471 0 0.26936383070045983 0.02007531215695801 0 0.26417056773795178 0.0090152440179189393 0 0.28354425329012439 0.021068516806879451 0 0.27754771987688809 0.040797440569893019 0 0.28354425329012439 0.021068516806879451 0 0.27605408581287011 0.0090157940159830471 0 0.26936383070045983 0.02007531215695801 0 0.28354425329012439 0.021068516806879451 0 0.26936383070045983 0.02007531215695801 0 0.27332262009486957 0.033728107725222278 0 0.26936383070045983 0.02007531215695801 0 0.26667678125960848 0.028969541142501901 0 0.27332262009486957 0.033728107725222278 0 0.26936383070045983 0.02007531215695801 0 0.26667678125960848 0.028969541142501901 0 0.25978705670837199 0.02772172808684556 0 0.26667678125960848 0.028969541142501901 0 0.25978705670837199 0.02772172808684556 0 0.26423361753473251 0.034353016600981737 0 0.24818833723327199 0.02644705719899533 0 0.25978705670837199 0.02772172808684556 0 0.25442723867738032 0.016379625870619269 0 0.24818833723327199 0.02644705719899533 0 0.25978705670837199 0.02772172808684556 0 0.25704478259505842 0.035809011079610743 0 0.26936383070045983 0.02007531215695801 0 0.25978705670837199 0.02772172808684556 0 0.25442723867738032 0.016379625870619269 0 0.26936383070045983 0.02007531215695801 0 0.25442723867738032 0.016379625870619269 0 0.26417056773795178 0.0090152440179189393 0 0.25442723867738032 0.016379625870619269 0 0.26417056773795178 0.0090152440179189393 0 0.25322369798355371 0.0032948183560677501 0 0.26417056773795178 0.0090152440179189393 0 0.25322369798355371 0.0032948183560677501 0 0.26778398551549509 -0.0036893303100333872 0 0.28229664577095948 0.054096220135532967 0 0.27155118646365262 0.060526364332906778 0 0.27754771987688809 0.040797440569893019 0 0.26803735397675288 0.057537922442449492 0 0.27155118646365262 0.060526364332906778 0 0.27754771987688809 0.040797440569893019 0 0.27155118646365262 0.060526364332906778 0 0.27754771987688809 0.040797440569893019 0 0.26803735397675288 0.057537922442449492 0 0.26717674565759131 0.061414912581717808 0 0.27155118646365262 0.060526364332906778 0 0.26803735397675288 0.057537922442449492 0 0.26717674565759131 0.061414912581717808 0 0.26717674565759131 0.061414912581717808 0 0.27082486665434358 0.062915996334918609 0 0.26717674565759131 0.061414912581717808 0 0.27155118646365262 0.060526364332906778 0 0.27082486665434358 0.062915996334918609 0 0.27155118646365262 0.060526364332906778 0 0.27082486665434358 0.062915996334918609 0 0.26803735397675288 0.057537922442449492 0 0.27155118646365262 0.060526364332906778 0 0.27155118646365262 0.060526364332906778 0 0.27961998430175328 0.060695812266760227 0 0.27767514445109232 0.065734664003783444 0 0.28229664577095948 0.054096220135532967 0 0.27155118646365262 0.060526364332906778 0 0.27961998430175328 0.060695812266760227 0 0.28354425329012439 0.021068516806879451 0 0.27754771987688809 0.040797440569893019 0 0.27332262009486957 0.033728107725222278 0 0.26803735397675288 0.057537922442449492 0 0.27754771987688809 0.040797440569893019 0 0.27332262009486957 0.033728107725222278 0 0.26803735397675288 0.057537922442449492 0 0.27332262009486957 0.033728107725222278 0 0.26337349528673171 0.044011131262296957 0 0.26803735397675288 0.057537922442449492 0 0.27332262009486957 0.033728107725222278 0 0.26667678125960848 0.028969541142501901 0 0.27332262009486957 0.033728107725222278 0 0.26423361753473251 0.034353016600981737 0 0.27332262009486957 0.033728107725222278 0 0.26337349528673171 0.044011131262296957 0 0.26423361753473251 0.034353016600981737 0 0.25978705670837199 0.02772172808684556 0 0.26423361753473251 0.034353016600981737 0 0.25704478259505842 0.035809011079610743 0 0.26337349528673171 0.044011131262296957 0 0.26423361753473251 0.034353016600981737 0 0.25704478259505842 0.035809011079610743 0 0.2492733855269578 0.041579555173777823 0 0.24818833723327199 0.02644705719899533 0 0.25704478259505842 0.035809011079610743 0 0.2492733855269578 0.041579555173777823 0 0.26337349528673171 0.044011131262296957 0 0.25704478259505842 0.035809011079610743 0 0.2492733855269578 0.041579555173777823 0 0.26803735397675288 0.057537922442449492 0 0.26337349528673171 0.044011131262296957 0 0.2492733855269578 0.041579555173777823 0 0.26803735397675288 0.057537922442449492 0 0.24629062771517271 0.052820950830226497 0 0.2492733855269578 0.041579555173777823 0 0.26803735397675288 0.057537922442449492 0 0.24874122334595 0.07170785510379532 0 0.24629062771517271 0.052820950830226497 0 0.26717674565759131 0.061414912581717808 0 0.24629062771517271 0.052820950830226497 0 0.26717674565759131 0.061414912581717808 0 0.24629062771517271 0.052820950830226497 0 0.26803735397675288 0.057537922442449492 0 0.26717674565759131 0.061414912581717808 0 0.24874122334595 0.07170785510379532 0 0.26717674565759131 0.061414912581717808 0 0.26207170159221099 0.084412837492877896 0 0.26717674565759131 0.061414912581717808 0 0.26207170159221099 0.084412837492877896 0 0.26717674565759131 0.061414912581717808 0 0.26459661937193729 0.083407271434054076 0 0.26207170159221099 0.084412837492877896 0 0.24736227196270541 0.090270970101712061 0 0.24874122334595 0.07170785510379532 0 0.26207170159221099 0.084412837492877896 0 0.24736227196270541 0.090270970101712061 0 0.26207170159221099 0.084412837492877896 0 0.24736227196270541 0.090270970101712061 0 0.26016144869860108 0.09301841504440217 0 0.25459763100830068 0.096141582858552177 0 0.24736227196270541 0.090270970101712061 0 0.26207170159221099 0.084412837492877896 0 0.26016144869860108 0.09301841504440217 0 0.24736227196270541 0.090270970101712061 0 0.25459763100830068 0.096141582858552177 0 0.26459661937193729 0.083407271434054076 0 0.26207170159221099 0.084412837492877896 0 0.26207170159221099 0.084412837492877896 0 0.26016144869860108 0.09301841504440217 0 0.26459661937193729 0.083407271434054076 0 0.2619867778419176 0.09199379318438361 0 0.26207170159221099 0.084412837492877896 0 0.2619867778419176 0.09199379318438361 0 0.26016144869860108 0.09301841504440217 0 0.26459661937193729 0.083407271434054076 0 0.26207170159221099 0.084412837492877896 0 0.2619867778419176 0.09199379318438361 0 0.2619867778419176 0.09199379318438361 0 0.26016144869860108 0.09301841504440217 0 0.26459661937193729 0.083407271434054076 0 0.28765643041333783 0.074223541376674432 0 0.26459661937193729 0.083407271434054076 0 0.27601190449835611 0.084120993139366301 0 0.28765643041333783 0.074223541376674432 0 0.2619867778419176 0.09199379318438361 0 0.27601190449835611 0.084120993139366301 0 0.27597760534302263 0.093816081557894046 0 0.2619867778419176 0.09199379318438361 0 0.27601190449835611 0.084120993139366301 0 0.26459661937193729 0.083407271434054076 0 0.2619867778419176 0.09199379318438361 0 0.27601190449835611 0.084120993139366301 0 0.27601190449835611 0.084120993139366301 0 0.28527214605629803 0.093542631019163408 0 0.27597760534302263 0.093816081557894046 0 0.26459661937193729 0.083407271434054076 0 0.27082486665434358 0.062915996334918609 0 0.26717674565759131 0.061414912581717808 0 0.26459661937193729 0.083407271434054076 0 0.27082486665434358 0.062915996334918609 0 0.26459661937193729 0.083407271434054076 0 0.27082486665434358 0.062915996334918609 0 0.27767514445109232 0.065734664003783444 0 0.26459661937193729 0.083407271434054076 0 0.27767514445109232 0.065734664003783444 0 0.28765643041333783 0.074223541376674432 0 0.27155118646365262 0.060526364332906778 0 0.27082486665434358 0.062915996334918609 0 0.27767514445109232 0.065734664003783444 0 0.27082486665434358 0.062915996334918609 0 0.27767514445109232 0.065734664003783444 0 0.27155118646365262 0.060526364332906778 0 0.27767514445109232 0.065734664003783444 0 0.27767514445109232 0.065734664003783444 0 0.28765643041333783 0.074223541376674432 0 0.27767514445109232 0.065734664003783444 0 0.29306802488508721 0.072068336257275281 0 0.28695696052130792 0.062426000594819037 0 0.27961998430175328 0.060695812266760227 0 0.27767514445109232 0.065734664003783444 0 0.28695696052130792 0.062426000594819037 0 0.27767514445109232 0.065734664003783444 0 0.29306802488508721 0.072068336257275281 0 0.28695696052130792 0.062426000594819037 0 0.29306802488508721 0.072068336257275281 0 0.29690158384745241 0.06457818982176422 0 0.29561576852942001 0.073116650333272012 0 0.29306802488508721 0.072068336257275281 0 0.29561576852942001 0.073116650333272012 0 0.29306802488508721 0.072068336257275281 0 0.29003703115479512 0.076248193094349867 0 0.29306802488508721 0.072068336257275281 0 0.28765643041333783 0.074223541376674432 0 0.29306802488508721 0.072068336257275281 0 0.29003703115479512 0.076248193094349867 0 0.28765643041333783 0.074223541376674432 0 0.29561576852942001 0.073116650333272012 0 0.29003703115479512 0.076248193094349867 0 0.27767514445109232 0.065734664003783444 0 0.29306802488508721 0.072068336257275281 0 0.28765643041333783 0.074223541376674432 0 0.29003703115479512 0.076248193094349867 0 0.28765643041333783 0.074223541376674432 0 0.27601190449835611 0.084120993139366301 0 0.29003703115479512 0.076248193094349867 0 0.27601190449835611 0.084120993139366301 0 0.29003703115479512 0.076248193094349867 0 0.28765643041333783 0.074223541376674432 0 0.27601190449835611 0.084120993139366301 0 0.29003703115479512 0.076248193094349867 0 0.28870857493654689 0.086239244916881869 0 0.27601190449835611 0.084120993139366301 0 0.28870857493654689 0.086239244916881869 0 0.28527214605629803 0.093542631019163408 0 0.28870857493654689 0.086239244916881869 0 0.28527214605629803 0.093542631019163408 0 0.29246213629446111 0.095768124011444758 0 0.28870857493654689 0.086239244916881869 0 0.29698271976236568 0.089899813846382556 0 0.29246213629446111 0.095768124011444758 0 0.29003703115479512 0.076248193094349867 0 0.28870857493654689 0.086239244916881869 0 0.29698271976236568 0.089899813846382556 0 0.29561576852942001 0.073116650333272012 0 0.29003703115479512 0.076248193094349867 0 0.31111548734401751 0.094174984339189319 0 0.29003703115479512 0.076248193094349867 0 0.31111548734401751 0.094174984339189319 0 0.29003703115479512 0.076248193094349867 0 0.29698271976236568 0.089899813846382556 0 0.31111548734401751 0.094174984339189319 0 0.3184977734976509 0.082531855017860187 0 0.29561576852942001 0.073116650333272012 0 0.31111548734401751 0.094174984339189319 0 0.3184977734976509 0.082531855017860187 0 0.29561576852942001 0.073116650333272012 0 0.3184977734976509 0.082531855017860187 0 0.29561576852942001 0.073116650333272012 0 0.30506359630307739 0.067813250175554993 0 0.31750720709783492 0.060828210965220328 0 0.30506359630307739 0.067813250175554993 0 0.29306802488508721 0.072068336257275281 0 0.30506359630307739 0.067813250175554993 0 0.29690158384745241 0.06457818982176422 0 0.30386903740065402 0.05697431224277244 0 0.30506359630307739 0.067813250175554993 0 0.29690158384745241 0.06457818982176422 0 0.29306802488508721 0.072068336257275281 0 0.30506359630307739 0.067813250175554993 0 0.29561576852942001 0.073116650333272012 0 0.30506359630307739 0.067813250175554993 0 0.29561576852942001 0.073116650333272012 0 0.29306802488508721 0.072068336257275281 0 0.30506359630307739 0.067813250175554993 0 0.31151194808720201 0.1150643222194616 0 0.30247500772594699 0.1071381656543656 0 0.29129275041579278 0.1172303442398579 0 0.31151194808720201 0.1150643222194616 0 0.29622008012258699 0.12991313160987961 0 0.32387679174541939 0.1297141718462434 0 0.31151194808720201 0.1150643222194616 0 0.29129275041579278 0.1172303442398579 0 0.29622008012258699 0.12991313160987961 0 0.31151194808720201 0.1150643222194616 0 0.31111548734401751 0.094174984339189319 0 0.30247500772594699 0.1071381656543656 0 0.31111548734401751 0.094174984339189319 0 0.30128354362195031 0.098124169066782854 0 0.30247500772594699 0.1071381656543656 0 0.29698271976236568 0.089899813846382556 0 0.30128354362195031 0.098124169066782854 0 0.29246213629446111 0.095768124011444758 0 0.29698271976236568 0.089899813846382556 0 0.31111548734401751 0.094174984339189319 0 0.30128354362195031 0.098124169066782854 0 0.30128354362195031 0.098124169066782854 0 0.30247500772594699 0.1071381656543656 0 0.29260899031297011 0.10538418601464609 0 0.29260899031297011 0.10538418601464609 0 0.29246213629446111 0.095768124011444758 0 0.28702757351663483 0.1001100210532227 0 0.30128354362195031 0.098124169066782854 0 0.29260899031297011 0.10538418601464609 0 0.29246213629446111 0.095768124011444758 0 0.28527214605629803 0.093542631019163408 0 0.29246213629446111 0.095768124011444758 0 0.28702757351663483 0.1001100210532227 0 0.28527214605629803 0.093542631019163408 0 0.28702757351663483 0.1001100210532227 0 0.28108272677848523 0.099874609951530163 0 0.29260899031297011 0.10538418601464609 0 0.28356239405763972 0.106033323917978 0 0.28664880997705461 0.11131452551203889 0 0.29260899031297011 0.10538418601464609 0 0.28702757351663483 0.1001100210532227 0 0.28356239405763972 0.106033323917978 0 0.28702757351663483 0.1001100210532227 0 0.28356239405763972 0.106033323917978 0 0.28108272677848523 0.099874609951530163 0 0.28356239405763972 0.106033323917978 0 0.2814598539497668 0.10990299155730229 0 0.28664880997705461 0.11131452551203889 0 0.27786688771157569 0.1150217509861922 0 0.29622008012258699 0.12991313160987961 0 0.28664880997705461 0.11131452551203889 0 0.29129275041579278 0.1172303442398579 0 0.27786688771157569 0.1150217509861922 0 0.27786688771157569 0.1150217509861922 0 0.27913813953766042 0.12972245958528131 0 0.29622008012258699 0.12991313160987961 0 0.29129275041579278 0.1172303442398579 0 0.27786688771157569 0.1150217509861922 0 0.29622008012258699 0.12991313160987961 0 0.2814598539497668 0.10990299155730229 0 0.28664880997705461 0.11131452551203889 0 0.27786688771157569 0.1150217509861922 0 0.30247500772594699 0.1071381656543656 0 0.29260899031297011 0.10538418601464609 0 0.29129275041579278 0.1172303442398579 0 0.29260899031297011 0.10538418601464609 0 0.28664880997705461 0.11131452551203889 0 0.29129275041579278 0.1172303442398579 0 0.27418517611644572 0.1163335826691398 0 0.26638390190257438 0.1102685147937751 0 0.25655208948606423 0.10927836717886751 0 0.27786688771157569 0.1150217509861922 0 0.27418517611644572 0.1163335826691398 0 0.27913813953766042 0.12972245958528131 0 0.27418517611644572 0.1163335826691398 0 0.27248198541775659 0.12784311929978001 0 0.27913813953766042 0.12972245958528131 0 0.2814598539497668 0.10990299155730229 0 0.27786688771157569 0.1150217509861922 0 0.27702128122739278 0.10689832557857171 0 0.27786688771157569 0.1150217509861922 0 0.27418517611644572 0.1163335826691398 0 0.26638390190257438 0.1102685147937751 0 0.27418517611644572 0.1163335826691398 0 0.26888095198589312 0.11979825388229511 0 0.26487973471170051 0.1148861259760711 0 0.27418517611644572 0.1163335826691398 0 0.26888095198589312 0.11979825388229511 0 0.27248198541775659 0.12784311929978001 0 0.26888095198589312 0.11979825388229511 0 0.26519442307348812 0.1188177922564181 0 0.26487973471170051 0.1148861259760711 0 0.26888095198589312 0.11979825388229511 0 0.26562400985315288 0.1251654340079911 0 0.27248198541775659 0.12784311929978001 0 0.26888095198589312 0.11979825388229511 0 0.26519442307348812 0.1188177922564181 0 0.26562400985315288 0.1251654340079911 0 0.27786688771157569 0.1150217509861922 0 0.26638390190257438 0.1102685147937751 0 0.25872482925013801 0.09949030162923457 0 0.27786688771157569 0.1150217509861922 0 0.25872482925013801 0.09949030162923457 0 0.27786688771157569 0.1150217509861922 0 0.27150352658480642 0.1040925172930806 0 0.25872482925013801 0.09949030162923457 0 0.28527214605629803 0.093542631019163408 0 0.27597760534302263 0.093816081557894046 0 0.28108272677848523 0.099874609951530163 0 0.27597760534302263 0.093816081557894046 0 0.28108272677848523 0.099874609951530163 0 0.27461357126647679 0.10027579108255071 0 0.27786688771157569 0.1150217509861922 0 0.27702128122739278 0.10689832557857171 0 0.27150352658480642 0.1040925172930806 0 0.27461357126647679 0.10027579108255071 0 0.27702128122739278 0.10689832557857171 0 0.27150352658480642 0.1040925172930806 0 0.28356239405763972 0.106033323917978 0 0.28108272677848523 0.099874609951530163 0 0.27702128122739278 0.10689832557857171 0 0.28108272677848523 0.099874609951530163 0 0.27461357126647679 0.10027579108255071 0 0.27702128122739278 0.10689832557857171 0 0.28356239405763972 0.106033323917978 0 0.2814598539497668 0.10990299155730229 0 0.27702128122739278 0.10689832557857171 0 0.2619867778419176 0.09199379318438361 0 0.27597760534302263 0.093816081557894046 0 0.26850219741802223 0.0981363484555835 0 0.27150352658480642 0.1040925172930806 0 0.26850219741802223 0.0981363484555835 0 0.25872482925013801 0.09949030162923457 0 0.27461357126647679 0.10027579108255071 0 0.27150352658480642 0.1040925172930806 0 0.26850219741802223 0.0981363484555835 0 0.27597760534302263 0.093816081557894046 0 0.27461357126647679 0.10027579108255071 0 0.26850219741802223 0.0981363484555835 0 0.2619867778419176 0.09199379318438361 0 0.26850219741802223 0.0981363484555835 0 0.25872482925013801 0.09949030162923457 0 0.2619867778419176 0.09199379318438361 0 0.26016144869860108 0.09301841504440217 0 0.25872482925013801 0.09949030162923457 0 0.2619867778419176 0.09199379318438361 0 0.25872482925013801 0.09949030162923457 0 0.26016144869860108 0.09301841504440217 0 0.25872482925013801 0.09949030162923457 0 0.26016144869860108 0.09301841504440217 0 0.25872482925013801 0.09949030162923457 0 0.25459763100830068 0.096141582858552177 0 0.26638390190257438 0.1102685147937751 0 0.25872482925013801 0.09949030162923457 0 0.26054083413963042 0.1068609537315081 0 0.26638390190257438 0.1102685147937751 0 0.26054083413963042 0.1068609537315081 0 0.25655208948606423 0.10927836717886751 0 0.25872482925013801 0.09949030162923457 0 0.258042440935632 0.10497087790269199 0 0.26054083413963042 0.1068609537315081 0 0.25872482925013801 0.09949030162923457 0 0.258042440935632 0.10497087790269199 0 0.258042440935632 0.10497087790269199 0 0.26054083413963042 0.1068609537315081 0 0.25655208948606423 0.10927836717886751 0 0.25872482925013801 0.09949030162923457 0 0.25655208948606423 0.10927836717886751 0 0.25872482925013801 0.09949030162923457 0 0.25655208948606423 0.10927836717886751 0 0.25459763100830068 0.096141582858552177 0 0.24174744587836799 0.1033548466348798 0 0.25655208948606423 0.10927836717886751 0 0.25459763100830068 0.096141582858552177 0 0.25872482925013801 0.09949030162923457 0 0.258042440935632 0.10497087790269199 0 0.25655208948606423 0.10927836717886751 0 0.25872482925013801 0.09949030162923457 0 0.25459763100830068 0.096141582858552177 0 0.26016144869860108 0.09301841504440217 0 0.25459763100830068 0.096141582858552177 0 0.27418517611644572 0.1163335826691398 0 0.25655208948606423 0.10927836717886751 0 0.26487973471170051 0.1148861259760711 0 0.27418517611644572 0.1163335826691398 0 0.25655208948606423 0.10927836717886751 0 0.2613903323121034 0.11972876860365821 0 0.25824300399834771 0.11754386918627879 0 0.25813574029091341 0.12532111527980791 0 0.2613903323121034 0.11972876860365821 0 0.25824300399834771 0.11754386918627879 0 0.26064106818342869 0.11649387083006101 0 0.2613903323121034 0.11972876860365821 0 0.26303182906276251 0.1167652494283456 0 0.26064106818342869 0.11649387083006101 0 0.2613903323121034 0.11972876860365821 0 0.25813574029091341 0.12532111527980791 0 0.26562400985315288 0.1251654340079911 0 0.2613903323121034 0.11972876860365821 0 0.26519442307348812 0.1188177922564181 0 0.26562400985315288 0.1251654340079911 0 0.2613903323121034 0.11972876860365821 0 0.26519442307348812 0.1188177922564181 0 0.26303182906276251 0.1167652494283456 0 0.26487973471170051 0.1148861259760711 0 0.2618287337373767 0.1148464313763837 0 0.2589676606418963 0.1122376160430168 0 0.25655208948606423 0.10927836717886751 0 0.26487973471170051 0.1148861259760711 0 0.2589676606418963 0.1122376160430168 0 0.26519442307348812 0.1188177922564181 0 0.26487973471170051 0.1148861259760711 0 0.26303182906276251 0.1167652494283456 0 0.26487973471170051 0.1148861259760711 0 0.2618287337373767 0.1148464313763837 0 0.26303182906276251 0.1167652494283456 0 0.2618287337373767 0.1148464313763837 0 0.26303182906276251 0.1167652494283456 0 0.26064106818342869 0.11649387083006101 0 0.2618287337373767 0.1148464313763837 0 0.26064106818342869 0.11649387083006101 0 0.26015078570541528 0.1146524558252945 0 0.2618287337373767 0.1148464313763837 0 0.2589676606418963 0.1122376160430168 0 0.26015078570541528 0.1146524558252945 0 0.2589676606418963 0.1122376160430168 0 0.26015078570541528 0.1146524558252945 0 0.25777400528710798 0.1147846643059361 0 0.25824300399834771 0.11754386918627879 0 0.26015078570541528 0.1146524558252945 0 0.25777400528710798 0.1147846643059361 0 0.25824300399834771 0.11754386918627879 0 0.26064106818342869 0.11649387083006101 0 0.26015078570541528 0.1146524558252945 0 0.24646482385440791 0.1109165710353929 0 0.25655208948606423 0.10927836717886751 0 0.255186127323073 0.11543194682551421 0 0.25824300399834771 0.11754386918627879 0 0.25777400528710798 0.1147846643059361 0 0.255186127323073 0.11543194682551421 0 0.2589676606418963 0.1122376160430168 0 0.25777400528710798 0.1147846643059361 0 0.255186127323073 0.11543194682551421 0 0.25655208948606423 0.10927836717886751 0 0.255186127323073 0.11543194682551421 0 0.25655208948606423 0.10927836717886751 0 0.2589676606418963 0.1122376160430168 0 0.255186127323073 0.11543194682551421 0 0.255186127323073 0.11543194682551421 0 0.25238596385504641 0.12804651946228041 0 0.24420216851797599 0.1292372680552665 0 0.255186127323073 0.11543194682551421 0 0.25238596385504641 0.12804651946228041 0 0.255186127323073 0.11543194682551421 0 0.25238596385504641 0.12804651946228041 0 0.25813574029091341 0.12532111527980791 0 0.25824300399834771 0.11754386918627879 0 0.255186127323073 0.11543194682551421 0 0.25813574029091341 0.12532111527980791 0 0.25238596385504641 0.12804651946228041 0 0.25813574029091341 0.12532111527980791 0 0.26818611498992623 0.1403022215883418 0 0.24420216851797599 0.1292372680552665 0 0.26818611498992623 0.1403022215883418 0 0.24301228879775941 0.13939302681245261 0 0.24420216851797599 0.1292372680552665 0 0.26818611498992623 0.1403022215883418 0 0.24420216851797599 0.1292372680552665 0 0.25238596385504641 0.12804651946228041 0 0.26818611498992623 0.1403022215883418 0 0.25813574029091341 0.12532111527980791 0 0.26562400985315288 0.1251654340079911 0 0.26818611498992623 0.1403022215883418 0 0.27248198541775659 0.12784311929978001 0 0.26818611498992623 0.1403022215883418 0 0.27913813953766042 0.12972245958528131 0 0.26562400985315288 0.1251654340079911 0 0.27248198541775659 0.12784311929978001 0 0.26818611498992623 0.1403022215883418 0 0.26818611498992623 0.1403022215883418 0 0.27913813953766042 0.12972245958528131 0 0.28414721419066807 0.1482284927670183 0 0.26818611498992623 0.1403022215883418 0 0.26583546295036609 0.16369396270660089 0 0.28414721419066807 0.1482284927670183 0 0.26818611498992623 0.1403022215883418 0 0.25486404381895789 0.1523024957907583 0 0.26583546295036609 0.16369396270660089 0 0.24301228879775941 0.13939302681245261 0 0.26818611498992623 0.1403022215883418 0 0.25486404381895789 0.1523024957907583 0 0.2424223085377801 0.16582077205563811 0 0.25486404381895789 0.1523024957907583 0 0.26583546295036609 0.16369396270660089 0 0.2424223085377801 0.16582077205563811 0 0.26032431562704572 0.18342712708893841 0 0.26583546295036609 0.16369396270660089 0 0.26032431562704572 0.18342712708893841 0 0.27712404590978218 0.18082877805207789 0 0.26583546295036609 0.16369396270660089 0 0.27712404590978218 0.18082877805207789 0 0.26583546295036609 0.16369396270660089 0 0.28977860037431658 0.16805367250728201 0 0.26583546295036609 0.16369396270660089 0 0.28977860037431658 0.16805367250728201 0 0.28414721419066807 0.1482284927670183 0 0.27712404590978218 0.18082877805207789 0 0.28977860037431658 0.16805367250728201 0 0.29478084704188562 0.18627619782702401 0 0.28977860037431658 0.16805367250728201 0 0.29478084704188562 0.18627619782702401 0 0.31259037162619269 0.16725562300018509 0 0.29478084704188562 0.18627619782702401 0 0.31732062797233113 0.1926592597090995 0 0.31259037162619269 0.16725562300018509 0 0.28977860037431658 0.16805367250728201 0 0.29946190776947251 0.15165108642358641 0 0.31259037162619269 0.16725562300018509 0 0.29946190776947251 0.15165108642358641 0 0.31457327253359829 0.14480451223356691 0 0.31259037162619269 0.16725562300018509 0 0.29946190776947251 0.15165108642358641 0 0.29622008012258699 0.12991313160987961 0 0.31457327253359829 0.14480451223356691 0 0.29622008012258699 0.12991313160987961 0 0.31457327253359829 0.14480451223356691 0 0.29622008012258699 0.12991313160987961 0 0.32387679174541939 0.1297141718462434 0 0.31457327253359829 0.14480451223356691 0 0.27913813953766042 0.12972245958528131 0 0.29622008012258699 0.12991313160987961 0 0.28414721419066807 0.1482284927670183 0 0.29946190776947251 0.15165108642358641 0 0.29622008012258699 0.12991313160987961 0 0.28414721419066807 0.1482284927670183 0 0.28977860037431658 0.16805367250728201 0 0.29946190776947251 0.15165108642358641 0 0.28414721419066807 0.1482284927670183 0 0.27355486584907379 0.24364475180805101 0 0.25452501640087027 0.2374112721999547 0 0.26408278890255732 0.22479217687295791 0 0.25404003316197471 0.25208422786308371 0 0.27355486584907379 0.24364475180805101 0 0.25452501640087027 0.2374112721999547 0 0.24523436150048811 0.24199469982198529 0 0.25404003316197471 0.25208422786308371 0 0.25452501640087027 0.2374112721999547 0 0.24868260911088891 0.2303107595792985 0 0.2471090749199483 0.2357199094212839 0 0.25452501640087027 0.2374112721999547 0 0.24868260911088891 0.2303107595792985 0 0.25452501640087027 0.2374112721999547 0 0.26408278890255732 0.22479217687295791 0 0.24868260911088891 0.2303107595792985 0 0.26408278890255732 0.22479217687295791 0 0.25357276657721323 0.21641202867955539 0 0.27355486584907379 0.24364475180805101 0 0.26408278890255732 0.22479217687295791 0 0.28109637724199782 0.22150209212538899 0 0.26408278890255732 0.22479217687295791 0 0.28109637724199782 0.22150209212538899 0 0.27306509823529962 0.19947215684549871 0 0.26408278890255732 0.22479217687295791 0 0.25357276657721323 0.21641202867955539 0 0.27306509823529962 0.19947215684549871 0 0.25357276657721323 0.21641202867955539 0 0.25471258750952741 0.20148162901819469 0 0.27306509823529962 0.19947215684549871 0 0.25357276657721323 0.21641202867955539 0 0.27306509823529962 0.19947215684549871 0 0.2418323282778008 0.1922485172988235 0 0.26032431562704572 0.18342712708893841 0 0.25471258750952741 0.20148162901819469 0 0.26032431562704572 0.18342712708893841 0 0.25471258750952741 0.20148162901819469 0 0.27306509823529962 0.19947215684549871 0 0.26032431562704572 0.18342712708893841 0 0.27712404590978218 0.18082877805207789 0 0.27306509823529962 0.19947215684549871 0 0.29478084704188562 0.18627619782702401 0 0.27306509823529962 0.19947215684549871 0 0.29788838547339219 0.20777731020547871 0 0.27712404590978218 0.18082877805207789 0 0.29478084704188562 0.18627619782702401 0 0.27306509823529962 0.19947215684549871 0 0.29478084704188562 0.18627619782702401 0 0.29788838547339219 0.20777731020547871 0 0.31732062797233113 0.1926592597090995 0 0.29788838547339219 0.20777731020547871 0 0.31916040529159301 0.2166328624030785 0 0.31732062797233113 0.1926592597090995 0 0.28109637724199782 0.22150209212538899 0 0.27306509823529962 0.19947215684549871 0 0.29788838547339219 0.20777731020547871 0 0.28109637724199782 0.22150209212538899 0 0.29788838547339219 0.20777731020547871 0 0.29668368374297521 0.23238313674276659 0 0.27355486584907379 0.24364475180805101 0 0.28109637724199782 0.22150209212538899 0 0.29668368374297521 0.23238313674276659 0 0.29788838547339219 0.20777731020547871 0 0.29668368374297521 0.23238313674276659 0 0.31916040529159301 0.2166328624030785 0 0.29692855903906679 0.25537037528416417 0 0.29668368374297521 0.23238313674276659 0 0.32448256229391081 0.244023600812113 0 0.29692855903906679 0.25537037528416417 0 0.27355486584907379 0.24364475180805101 0 0.29668368374297521 0.23238313674276659 0 0.32448256229391081 0.244023600812113 0 0.33724611662768478 0.226971671205 0 0.35052125483258301 0.2434514759103418 0 0.32448256229391081 0.244023600812113 0 0.33724611662768478 0.226971671205 0 0.31916040529159301 0.2166328624030785 0 0.29668368374297521 0.23238313674276659 0 0.32448256229391081 0.244023600812113 0 0.31916040529159301 0.2166328624030785 0 0.33724611662768478 0.226971671205 0 0.31916040529159301 0.2166328624030785 0 0.34036716376080012 0.20191553243135291 0 0.31916040529159301 0.2166328624030785 0 0.31732062797233113 0.1926592597090995 0 0.34036716376080012 0.20191553243135291 0 0.31732062797233113 0.1926592597090995 0 0.34036716376080012 0.20191553243135291 0 0.33327910971122948 0.1769249887409369 0 0.34036716376080012 0.20191553243135291 0 0.33327910971122948 0.1769249887409369 0 0.35363051640006049 0.1838751638919715 0 0.34036716376080012 0.20191553243135291 0 0.36940151407566268 0.20038014978660379 0 0.35363051640006049 0.1838751638919715 0 0.36940151407566268 0.20038014978660379 0 0.35418005050780299 0.2186338278764331 0 0.36970064025412291 0.2313836502337521 0 0.34036716376080012 0.20191553243135291 0 0.36940151407566268 0.20038014978660379 0 0.35418005050780299 0.2186338278764331 0 0.33724611662768478 0.226971671205 0 0.34036716376080012 0.20191553243135291 0 0.35418005050780299 0.2186338278764331 0 0.33724611662768478 0.226971671205 0 0.35418005050780299 0.2186338278764331 0 0.35052125483258301 0.2434514759103418 0 0.35418005050780299 0.2186338278764331 0 0.36970064025412291 0.2313836502337521 0 0.35052125483258301 0.2434514759103418 0 0.37478492512234668 0.26235925763296819 0 0.36970064025412291 0.2313836502337521 0 0.35052125483258301 0.2434514759103418 0 0.33497932682518311 0.1519205034936916 0 0.32387679174541939 0.1297141718462434 0 0.35327239972246333 0.1300285668288671 0 0.33497932682518311 0.1519205034936916 0 0.31457327253359829 0.14480451223356691 0 0.31259037162619269 0.16725562300018509 0 0.33497932682518311 0.1519205034936916 0 0.32387679174541939 0.1297141718462434 0 0.31457327253359829 0.14480451223356691 0 0.33497932682518311 0.1519205034936916 0 0.31259037162619269 0.16725562300018509 0 0.33327910971122948 0.1769249887409369 0 0.31732062797233113 0.1926592597090995 0 0.31259037162619269 0.16725562300018509 0 0.33327910971122948 0.1769249887409369 0 0.33497932682518311 0.1519205034936916 0 0.33327910971122948 0.1769249887409369 0 0.34907151432127381 0.16521020144779211 0 0.34907151432127381 0.16521020144779211 0 0.35363051640006049 0.1838751638919715 0 0.37277469716236061 0.17385369407461371 0 0.33327910971122948 0.1769249887409369 0 0.34907151432127381 0.16521020144779211 0 0.35363051640006049 0.1838751638919715 0 0.36940151407566268 0.20038014978660379 0 0.35363051640006049 0.1838751638919715 0 0.37277469716236061 0.17385369407461371 0 0.37277469716236061 0.17385369407461371 0 0.36285879787080821 0.15032831482926681 0 0.3843829660287168 0.1587008111838667 0 0.34907151432127381 0.16521020144779211 0 0.37277469716236061 0.17385369407461371 0 0.36285879787080821 0.15032831482926681 0 0.36285879787080821 0.15032831482926681 0 0.36938385952287339 0.13266757129752671 0 0.38232915319187621 0.14145147187989651 0 0.33497932682518311 0.1519205034936916 0 0.36285879787080821 0.15032831482926681 0 0.35327239972246333 0.1300285668288671 0 0.33497932682518311 0.1519205034936916 0 0.34907151432127381 0.16521020144779211 0 0.36285879787080821 0.15032831482926681 0 0.36649271172908648 0.1176987398754743 0 0.35327239972246333 0.1300285668288671 0 0.36938385952287339 0.13266757129752671 0 0.36285879787080821 0.15032831482926681 0 0.35327239972246333 0.1300285668288671 0 0.36938385952287339 0.13266757129752671 0 0.39421974672685411 0.13240309148155921 0 0.38232915319187621 0.14145147187989651 0 0.38138511069115272 0.12353481432135879 0 0.36938385952287339 0.13266757129752671 0 0.38232915319187621 0.14145147187989651 0 0.38138511069115272 0.12353481432135879 0 0.39421974672685411 0.13240309148155921 0 0.41199731756477831 0.13352747615702071 0 0.3942733283070321 0.11371104406223111 0 0.39421974672685411 0.13240309148155921 0 0.40120830104283178 0.15077536395034899 0 0.41199731756477831 0.13352747615702071 0 0.39421974672685411 0.13240309148155921 0 0.40120830104283178 0.15077536395034899 0 0.38232915319187621 0.14145147187989651 0 0.36285879787080821 0.15032831482926681 0 0.38232915319187621 0.14145147187989651 0 0.3843829660287168 0.1587008111838667 0 0.40120830104283178 0.15077536395034899 0 0.38232915319187621 0.14145147187989651 0 0.3843829660287168 0.1587008111838667 0 0.37277469716236061 0.17385369407461371 0 0.3843829660287168 0.1587008111838667 0 0.39936082591505218 0.176604797209717 0 0.37277469716236061 0.17385369407461371 0 0.39936082591505218 0.176604797209717 0 0.38992891259608609 0.19548318162929729 0 0.40120830104283178 0.15077536395034899 0 0.39936082591505218 0.176604797209717 0 0.41410660213767347 0.1652382216241598 0 0.40120830104283178 0.15077536395034899 0 0.3843829660287168 0.1587008111838667 0 0.39936082591505218 0.176604797209717 0 0.40120830104283178 0.15077536395034899 0 0.41410660213767347 0.1652382216241598 0 0.42972130682252457 0.1533439082518103 0 0.39936082591505218 0.176604797209717 0 0.41410660213767347 0.1652382216241598 0 0.42626679864566441 0.18172907206941921 0 0.42626679864566441 0.18172907206941921 0 0.42972130682252457 0.1533439082518103 0 0.45055708181009879 0.1690731760043504 0 0.41410660213767347 0.1652382216241598 0 0.42626679864566441 0.18172907206941921 0 0.42972130682252457 0.1533439082518103 0 0.42972130682252457 0.1533439082518103 0 0.43054248402473921 0.1250848439374013 0 0.44904083753606949 0.1441389705362057 0 0.42972130682252457 0.1533439082518103 0 0.43054248402473921 0.1250848439374013 0 0.41199731756477831 0.13352747615702071 0 0.43054248402473921 0.1250848439374013 0 0.41199731756477831 0.13352747615702071 0 0.41135066019799099 0.1182158826350982 0 0.40120830104283178 0.15077536395034899 0 0.42972130682252457 0.1533439082518103 0 0.41199731756477831 0.13352747615702071 0 0.42972130682252457 0.1533439082518103 0 0.41199731756477831 0.13352747615702071 0 0.40097752291506289 0.25902709479471048 0 0.39333580902427501 0.24081282939082621 0 0.41286841049430861 0.24788583003777651 0 0.37478492512234668 0.26235925763296819 0 0.36970064025412291 0.2313836502337521 0 0.39333580902427501 0.24081282939082621 0 0.36970064025412291 0.2313836502337521 0 0.39333580902427501 0.24081282939082621 0 0.39338333076520482 0.2163019563834182 0 0.39338333076520482 0.2163019563834182 0 0.41736514745474701 0.23222376298023259 0 0.39333580902427501 0.24081282939082621 0 0.39338333076520482 0.2163019563834182 0 0.41736514745474701 0.23222376298023259 0 0.39338333076520482 0.2163019563834182 0 0.38992891259608609 0.19548318162929729 0 0.41508715600771068 0.20488700545500521 0 0.36940151407566268 0.20038014978660379 0 0.39338333076520482 0.2163019563834182 0 0.36940151407566268 0.20038014978660379 0 0.39338333076520482 0.2163019563834182 0 0.38992891259608609 0.19548318162929729 0 0.36940151407566268 0.20038014978660379 0 0.36970064025412291 0.2313836502337521 0 0.39338333076520482 0.2163019563834182 0 0.36940151407566268 0.20038014978660379 0 0.37277469716236061 0.17385369407461371 0 0.38992891259608609 0.19548318162929729 0 0.39936082591505218 0.176604797209717 0 0.38992891259608609 0.19548318162929729 0 0.41508715600771068 0.20488700545500521 0 0.39936082591505218 0.176604797209717 0 0.42626679864566441 0.18172907206941921 0 0.41508715600771068 0.20488700545500521 0 0.42626679864566441 0.18172907206941921 0 0.44140000057487638 0.20455834627575151 0 0.44473765559285833 0.18692520255949671 0 0.42626679864566441 0.18172907206941921 0 0.41508715600771068 0.20488700545500521 0 0.44140000057487638 0.20455834627575151 0 0.41508715600771068 0.20488700545500521 0 0.43790507610234408 0.2273079216372012 0 0.44140000057487638 0.20455834627575151 0 0.39338333076520482 0.2163019563834182 0 0.41508715600771068 0.20488700545500521 0 0.41736514745474701 0.23222376298023259 0 0.41508715600771068 0.20488700545500521 0 0.41736514745474701 0.23222376298023259 0 0.43790507610234408 0.2273079216372012 0 0.42717012070777932 0.25569493195645271 0 0.41736514745474701 0.23222376298023259 0 0.44134696414428898 0.24814556957704689 0 0.41736514745474701 0.23222376298023259 0 0.44134696414428898 0.24814556957704689 0 0.41736514745474701 0.23222376298023259 0 0.44134696414428898 0.24814556957704689 0 0.43790507610234408 0.2273079216372012 0 0.39333580902427501 0.24081282939082621 0 0.41736514745474701 0.23222376298023259 0 0.41286841049430861 0.24788583003777651 0 0.42717012070777932 0.25569493195645271 0 0.41736514745474701 0.23222376298023259 0 0.41286841049430861 0.24788583003777651 0 0.45336271850049548 0.25236276911819511 0 0.45602225988021539 0.23816249748875179 0 0.48180965237011408 0.2487438147612096 0 0.45336271850049548 0.25236276911819511 0 0.45602225988021539 0.23816249748875179 0 0.44134696414428898 0.24814556957704689 0 0.44600400848591359 0.23698591979390529 0 0.43790507610234408 0.2273079216372012 0 0.45336271850049548 0.25236276911819511 0 0.44134696414428898 0.24814556957704689 0 0.44600400848591359 0.23698591979390529 0 0.45336271850049548 0.25236276911819511 0 0.45602225988021539 0.23816249748875179 0 0.44600400848591359 0.23698591979390529 0 0.45602225988021539 0.23816249748875179 0 0.44600400848591359 0.23698591979390529 0 0.45492939023952461 0.2194397610932603 0 0.44600400848591359 0.23698591979390529 0 0.43790507610234408 0.2273079216372012 0 0.45492939023952461 0.2194397610932603 0 0.45602225988021539 0.23816249748875179 0 0.45492939023952461 0.2194397610932603 0 0.47419086539053962 0.2296972043723752 0 0.45492939023952461 0.2194397610932603 0 0.46072674134079361 0.19234021588846559 0 0.47847088324409548 0.2092058758105422 0 0.45492939023952461 0.2194397610932603 0 0.44140000057487638 0.20455834627575151 0 0.46072674134079361 0.19234021588846559 0 0.43790507610234408 0.2273079216372012 0 0.45492939023952461 0.2194397610932603 0 0.44140000057487638 0.20455834627575151 0 0.44140000057487638 0.20455834627575151 0 0.46072674134079361 0.19234021588846559 0 0.44473765559285833 0.18692520255949671 0 0.46072674134079361 0.19234021588846559 0 0.4812983336831132 0.1885899983914231 0 0.47847088324409548 0.2092058758105422 0 0.4812983336831132 0.1885899983914231 0 0.5 0.19797878532577309 0 0.47847088324409548 0.2092058758105422 0 0.5 0.19797878532577309 0 0.47847088324409548 0.2092058758105422 0 0.5 0.22793385045351919 0 0.47847088324409548 0.2092058758105422 0 0.47419086539053962 0.2296972043723752 0 0.5 0.22793385045351919 0 0.45492939023952461 0.2194397610932603 0 0.47847088324409548 0.2092058758105422 0 0.47419086539053962 0.2296972043723752 0 0.5 0.25788891558126559 0 0.5 0.22793385045351919 0 0.48180965237011408 0.2487438147612096 0 0.47419086539053962 0.2296972043723752 0 0.5 0.22793385045351919 0 0.48180965237011408 0.2487438147612096 0 0.45602225988021539 0.23816249748875179 0 0.47419086539053962 0.2296972043723752 0 0.48180965237011408 0.2487438147612096 0 0.46287167922105149 0.15545842773829099 0 0.44904083753606949 0.1441389705362057 0 0.45055708181009879 0.1690731760043504 0 0.46287167922105149 0.15545842773829099 0 0.46355845200513762 0.13850516077978961 0 0.47909635670674228 0.14767892477560191 0 0.46287167922105149 0.15545842773829099 0 0.46355845200513762 0.13850516077978961 0 0.44904083753606949 0.1441389705362057 0 0.46355845200513762 0.13850516077978961 0 0.47795750643906171 0.12649365297180731 0 0.4559740449914913 0.1245921335342187 0 0.46355845200513762 0.13850516077978961 0 0.44904083753606949 0.1441389705362057 0 0.4559740449914913 0.1245921335342187 0 0.43054248402473921 0.1250848439374013 0 0.44904083753606949 0.1441389705362057 0 0.4559740449914913 0.1245921335342187 0 0.42972130682252457 0.1533439082518103 0 0.44904083753606949 0.1441389705362057 0 0.45055708181009879 0.1690731760043504 0 0.42626679864566441 0.18172907206941921 0 0.45055708181009879 0.1690731760043504 0 0.44473765559285833 0.18692520255949671 0 0.46072674134079361 0.19234021588846559 0 0.45055708181009879 0.1690731760043504 0 0.44473765559285833 0.18692520255949671 0 0.46072674134079361 0.19234021588846559 0 0.45055708181009879 0.1690731760043504 0 0.4752785409050499 0.1685484481011886 0 0.46287167922105149 0.15545842773829099 0 0.45055708181009879 0.1690731760043504 0 0.4752785409050499 0.1685484481011886 0 0.45055708181009879 0.1690731760043504 0 0.4752785409050499 0.1685484481011886 0 0.46287167922105149 0.15545842773829099 0 0.4752785409050499 0.1685484481011886 0 0.47909635670674228 0.14767892477560191 0 0.46072674134079361 0.19234021588846559 0 0.4812983336831132 0.1885899983914231 0 0.4752785409050499 0.1685484481011886 0 0.4812983336831132 0.1885899983914231 0 0.4752785409050499 0.1685484481011886 0 0.50000000000000111 0.1680237201980268 0 0.4812983336831132 0.1885899983914231 0 0.5 0.19797878532577309 0 0.50000000000000111 0.1680237201980268 0 0.4752785409050499 0.1685484481011886 0 0.50000000000000111 0.1680237201980268 0 0.4752785409050499 0.1685484481011886 0 0.50000000000000111 0.1680237201980268 0 0.47909635670674228 0.14767892477560191 0 0.50000000000000111 0.1680237201980268 0 0.5 0.14405257421324749 0 0.47909635670674228 0.14767892477560191 0 0.46355845200513762 0.13850516077978961 0 0.47909635670674228 0.14767892477560191 0 0.47795750643906171 0.12649365297180731 0 0.5 0.14405257421324749 0 0.47795750643906171 0.12649365297180731 0 0.5 0.12008142822846821 0 0.5 0.14405257421324749 0 0.47909635670674228 0.14767892477560191 0 0.47795750643906171 0.12649365297180731 0 0.47795750643906171 0.12649365297180731 0 0.5 0.12008142822846821 0 0.48437617198066579 0.1083096126220475 0 0.48437617198066579 0.1083096126220475 0 0.5 0.096110282243688894 0 0.4787628640296252 0.09057766153942011 0 0.5 0.12008142822846821 0 0.48437617198066579 0.1083096126220475 0 0.5 0.096110282243688894 0 0.48437617198066579 0.1083096126220475 0 0.4787628640296252 0.09057766153942011 0 0.46516048943464161 0.10828503812685281 0 0.47795750643906171 0.12649365297180731 0 0.48437617198066579 0.1083096126220475 0 0.46516048943464161 0.10828503812685281 0 0.49999999999999389 0.072139136258909636 0 0.47264706529987838 0.068582714068275596 0 0.5 0.096110282243688894 0 0.49999999999999389 0.072139136258909636 0 0.4787628640296252 0.09057766153942011 0 0.49999999999999389 0.072139136258909636 0 0.4787628640296252 0.09057766153942011 0 0.47264706529987838 0.068582714068275596 0 0.47264706529987838 0.068582714068275596 0 0.44529413059976319 0.065026291877640793 0 0.47264706529987838 0.068582714068275596 0 0.45009241250792742 0.089848104882156193 0 0.44529413059976319 0.065026291877640793 0 0.4787628640296252 0.09057766153942011 0 0.47264706529987838 0.068582714068275596 0 0.45009241250792742 0.089848104882156193 0 0.45009241250792742 0.089848104882156193 0 0.44529413059976319 0.065026291877640793 0 0.42710943965072512 0.080764761008918995 0 0.4559740449914913 0.1245921335342187 0 0.46516048943464161 0.10828503812685281 0 0.44660059903698529 0.1095612823054605 0 0.47795750643906171 0.12649365297180731 0 0.4559740449914913 0.1245921335342187 0 0.46516048943464161 0.10828503812685281 0 0.45009241250792742 0.089848104882156193 0 0.46516048943464161 0.10828503812685281 0 0.44660059903698529 0.1095612823054605 0 0.4787628640296252 0.09057766153942011 0 0.45009241250792742 0.089848104882156193 0 0.46516048943464161 0.10828503812685281 0 0.45009241250792742 0.089848104882156193 0 0.44660059903698529 0.1095612823054605 0 0.42999027194599682 0.1018780191517587 0 0.43054248402473921 0.1250848439374013 0 0.4559740449914913 0.1245921335342187 0 0.44660059903698529 0.1095612823054605 0 0.43054248402473921 0.1250848439374013 0 0.44660059903698529 0.1095612823054605 0 0.42999027194599682 0.1018780191517587 0 0.43054248402473921 0.1250848439374013 0 0.41661501870526302 0.10782610780512 0 0.42999027194599682 0.1018780191517587 0 0.43054248402473921 0.1250848439374013 0 0.41135066019799099 0.1182158826350982 0 0.41661501870526302 0.10782610780512 0 0.43054248402473921 0.1250848439374013 0 0.41135066019799099 0.1182158826350982 0 0.41135066019799099 0.1182158826350982 0 0.41661501870526302 0.10782610780512 0 0.40605193543095291 0.1101899923625959 0 0.41199731756477831 0.13352747615702071 0 0.40856435551682457 0.1195913393650266 0 0.41135066019799099 0.1182158826350982 0 0.41661501870526302 0.10782610780512 0 0.42999027194599682 0.1018780191517587 0 0.41050144950628809 0.092342992232264526 0 0.41661501870526302 0.10782610780512 0 0.41050144950628809 0.092342992232264526 0 0.40408322644931421 0.10337105767737099 0 0.41661501870526302 0.10782610780512 0 0.40605193543095291 0.1101899923625959 0 0.40408322644931421 0.10337105767737099 0 0.45009241250792742 0.089848104882156193 0 0.42999027194599682 0.1018780191517587 0 0.42710943965072512 0.080764761008918995 0 0.42999027194599682 0.1018780191517587 0 0.42710943965072512 0.080764761008918995 0 0.41050144950628809 0.092342992232264526 0 0.44529413059976319 0.065026291877640793 0 0.42710943965072512 0.080764761008918995 0 0.41794119589964812 0.061469869687005997 0 0.44529413059976319 0.065026291877640793 0 0.41794119589964812 0.061469869687005997 0 0.42710943965072512 0.080764761008918995 0 0.40780427562880051 0.074340584248736047 0 0.41794119589964812 0.061469869687005997 0 0.42710943965072512 0.080764761008918995 0 0.40780427562880051 0.074340584248736047 0 0.41050144950628809 0.092342992232264526 0 0.41050144950628809 0.092342992232264526 0 0.39288103188780799 0.079211850819119467 0 0.39173805803946632 0.094638931286680023 0 0.40780427562880051 0.074340584248736047 0 0.41050144950628809 0.092342992232264526 0 0.39288103188780799 0.079211850819119467 0 0.40780427562880051 0.074340584248736047 0 0.39058826119953283 0.057913447496371839 0 0.41794119589964812 0.061469869687005997 0 0.40780427562880051 0.074340584248736047 0 0.39288103188780799 0.079211850819119467 0 0.39058826119953283 0.057913447496371839 0 0.39288103188780799 0.079211850819119467 0 0.37575225644292037 0.071709270247263784 0 0.39058826119953283 0.057913447496371839 0 0.3742009225581896 0.091268948227223284 0 0.39288103188780799 0.079211850819119467 0 0.39173805803946632 0.094638931286680023 0 0.3742009225581896 0.091268948227223284 0 0.39288103188780799 0.079211850819119467 0 0.37575225644292037 0.071709270247263784 0 0.3742009225581896 0.091268948227223284 0 0.39215883637124299 0.11134692133279479 0 0.39173805803946632 0.094638931286680023 0 0.3742009225581896 0.091268948227223284 0 0.39215883637124299 0.11134692133279479 0 0.3742009225581896 0.091268948227223284 0 0.3795225325030368 0.1068242515199407 0 0.39215883637124299 0.11134692133279479 0 0.3795225325030368 0.1068242515199407 0 0.39215883637124299 0.11134692133279479 0 0.3795225325030368 0.1068242515199407 0 0.38138511069115272 0.12353481432135879 0 0.3942733283070321 0.11371104406223111 0 0.36649271172908648 0.1176987398754743 0 0.3795225325030368 0.1068242515199407 0 0.38138511069115272 0.12353481432135879 0 0.39421974672685411 0.13240309148155921 0 0.38138511069115272 0.12353481432135879 0 0.3942733283070321 0.11371104406223111 0 0.3795225325030368 0.1068242515199407 0 0.3942733283070321 0.11371104406223111 0 0.3795225325030368 0.1068242515199407 0 0.39215883637124299 0.11134692133279479 0 0.3942733283070321 0.11371104406223111 0 0.41135066019799099 0.1182158826350982 0 0.39215883637124299 0.11134692133279479 0 0.40605193543095291 0.1101899923625959 0 0.41135066019799099 0.1182158826350982 0 0.39215883637124299 0.11134692133279479 0 0.3942733283070321 0.11371104406223111 0 0.41135066019799099 0.1182158826350982 0 0.39215883637124299 0.11134692133279479 0 0.41199731756477831 0.13352747615702071 0 0.40856435551682457 0.1195913393650266 0 0.3942733283070321 0.11371104406223111 0 0.41199731756477831 0.13352747615702071 0 0.3942733283070321 0.11371104406223111 0 0.40856435551682457 0.1195913393650266 0 0.41135066019799099 0.1182158826350982 0 0.3942733283070321 0.11371104406223111 0 0.39215883637124299 0.11134692133279479 0 0.3942733283070321 0.11371104406223111 0 0.40856435551682457 0.1195913393650266 0 0.3942733283070321 0.11371104406223111 0 0.39215883637124299 0.11134692133279479 0 0.40408322644931421 0.10337105767737099 0 0.39173805803946632 0.094638931286680023 0 0.39215883637124299 0.11134692133279479 0 0.40605193543095291 0.1101899923625959 0 0.40408322644931421 0.10337105767737099 0 0.41050144950628809 0.092342992232264526 0 0.40408322644931421 0.10337105767737099 0 0.39173805803946632 0.094638931286680023 0 0.4038432128890253 0.016274120358417851 0 0.39452024459155199 0.029629145094844 0 0.3798040161112804 0.028996110171619349 0 0.4038432128890253 0.016274120358417851 0 0.39452024459155199 0.029629145094844 0 0.40714332068978548 0.032011032787191827 0 0.4038432128890253 0.016274120358417851 0 0.3798040161112804 0.028996110171619349 0 0.4038432128890253 0.016274120358417851 0 0.39390920682105918 0.0040204267233196643 0 0.38813729234829519 0.016219836643301819 0 0.4038432128890253 0.016274120358417851 0 0.39390920682105918 0.0040204267233196643 0 0.40369857438468087 -0.0060371637805465179 0 0.39390920682105918 0.0040204267233196643 0 0.38212023564171321 0.001094655884648786 0 0.38813729234829519 0.016219836643301819 0 0.38212023564171321 0.001094655884648786 0 0.37537418671591988 0.012891754799621079 0 0.3700201466167648 -0.002195575246397889 0 0.38212023564171321 0.001094655884648786 0 0.37537418671591988 0.012891754799621079 0 0.38813729234829519 0.016219836643301819 0 0.38029426512156322 0.021339738828328979 0 0.38813729234829519 0.016219836643301819 0 0.3798040161112804 0.028996110171619349 0 0.4038432128890253 0.016274120358417851 0 0.38813729234829519 0.016219836643301819 0 0.3798040161112804 0.028996110171619349 0 0.37537418671591988 0.012891754799621079 0 0.38029426512156322 0.021339738828328979 0 0.37786156531075732 0.02725125369877367 0 0.37537418671591988 0.012891754799621079 0 0.38029426512156322 0.021339738828328979 0 0.38813729234829519 0.016219836643301819 0 0.39452024459155199 0.029629145094844 0 0.3798040161112804 0.028996110171619349 0 0.384792923869274 0.033192425096464057 0 0.38029426512156322 0.021339738828328979 0 0.3798040161112804 0.028996110171619349 0 0.37786156531075732 0.02725125369877367 0 0.36984281421283938 0.03924660656396721 0 0.3798040161112804 0.028996110171619349 0 0.37675727284589372 0.036323400775862158 0 0.3798040161112804 0.028996110171619349 0 0.38012370578730592 0.033949837724153123 0 0.37675727284589372 0.036323400775862158 0 0.3798040161112804 0.028996110171619349 0 0.38012370578730592 0.033949837724153123 0 0.384792923869274 0.033192425096464057 0 0.38012370578730592 0.033949837724153123 0 0.38115894465086869 0.037510150111343843 0 0.384792923869274 0.033192425096464057 0 0.38012370578730592 0.033949837724153123 0 0.38115894465086869 0.037510150111343843 0 0.37675727284589372 0.036323400775862158 0 0.38115894465086869 0.037510150111343843 0 0.37675727284589372 0.036323400775862158 0 0.37726993283737248 0.041439113600633092 0 0.37726993283737248 0.041439113600633092 0 0.38325871491723518 0.0441773091346798 0 0.37608467898805159 0.048096788967416412 0 0.38115894465086869 0.037510150111343843 0 0.37726993283737248 0.041439113600633092 0 0.38325871491723518 0.0441773091346798 0 0.38115894465086869 0.037510150111343843 0 0.38325871491723518 0.0441773091346798 0 0.38884635116990662 0.036871995634108659 0 0.38325871491723518 0.0441773091346798 0 0.38884635116990662 0.036871995634108659 0 0.39118926401298038 0.043344116461786472 0 0.39452024459155199 0.029629145094844 0 0.38884635116990662 0.036871995634108659 0 0.384792923869274 0.033192425096464057 0 0.38115894465086869 0.037510150111343843 0 0.38884635116990662 0.036871995634108659 0 0.384792923869274 0.033192425096464057 0 0.36737709041569239 0.056764699852256018 0 0.39058826119953283 0.057913447496371839 0 0.36443667806580698 0.054513224756226962 0 0.37608467898805159 0.048096788967416412 0 0.39058826119953283 0.057913447496371839 0 0.36737709041569239 0.056764699852256018 0 0.37575225644292037 0.071709270247263784 0 0.39058826119953283 0.057913447496371839 0 0.36443667806580698 0.054513224756226962 0 0.39058826119953283 0.057913447496371839 0 0.38325871491723518 0.0441773091346798 0 0.37608467898805159 0.048096788967416412 0 0.39058826119953283 0.057913447496371839 0 0.38325871491723518 0.0441773091346798 0 0.39058826119953283 0.057913447496371839 0 0.39118926401298038 0.043344116461786472 0 0.39058826119953283 0.057913447496371839 0 0.39917917489280202 0.048669550515315511 0 0.40824027372044169 0.058787065978875973 0 0.39058826119953283 0.057913447496371839 0 0.40824027372044169 0.058787065978875973 0 0.39058826119953283 0.057913447496371839 0 0.41794119589964812 0.061469869687005997 0 0.40824027372044169 0.058787065978875973 0 0.39058826119953283 0.057913447496371839 0 0.41794119589964812 0.061469869687005997 0 0.39058826119953283 0.057913447496371839 0 0.39917917489280202 0.048669550515315511 0 0.39118926401298038 0.043344116461786472 0 0.39917917489280202 0.048669550515315511 0 0.40803146459590139 0.044566129264659721 0 0.40824027372044169 0.058787065978875973 0 0.39452024459155199 0.029629145094844 0 0.38884635116990662 0.036871995634108659 0 0.39784661093515339 0.038736993374884177 0 0.39917917489280202 0.048669550515315511 0 0.39784661093515339 0.038736993374884177 0 0.39118926401298038 0.043344116461786472 0 0.38884635116990662 0.036871995634108659 0 0.39784661093515339 0.038736993374884177 0 0.39118926401298038 0.043344116461786472 0 0.39917917489280202 0.048669550515315511 0 0.39784661093515339 0.038736993374884177 0 0.40803146459590139 0.044566129264659721 0 0.39452024459155199 0.029629145094844 0 0.39784661093515339 0.038736993374884177 0 0.40714332068978548 0.032011032787191827 0 0.39784661093515339 0.038736993374884177 0 0.40714332068978548 0.032011032787191827 0 0.40803146459590139 0.044566129264659721 0 0.40714332068978548 0.032011032787191827 0 0.40803146459590139 0.044566129264659721 0 0.41964440497126981 0.040250358009145122 0 0.40803146459590139 0.044566129264659721 0 0.41964440497126981 0.040250358009145122 0 0.41733432138732551 0.050785193364838402 0 0.40714332068978548 0.032011032787191827 0 0.41964440497126981 0.040250358009145122 0 0.41891932927970088 0.026081136014491389 0 0.40824027372044169 0.058787065978875973 0 0.41733432138732551 0.050785193364838402 0 0.42589228624135061 0.059660684461379461 0 0.40824027372044169 0.058787065978875973 0 0.42589228624135061 0.059660684461379461 0 0.41794119589964812 0.061469869687005997 0 0.40824027372044169 0.058787065978875973 0 0.42589228624135061 0.059660684461379461 0 0.40803146459590139 0.044566129264659721 0 0.40824027372044169 0.058787065978875973 0 0.41733432138732551 0.050785193364838402 0 0.41964440497126981 0.040250358009145122 0 0.41733432138732551 0.050785193364838402 0 0.42647272639553008 0.050672874727357403 0 0.44529413059976319 0.065026291877640793 0 0.42589228624135061 0.059660684461379461 0 0.43583307009461808 0.053135938561971199 0 0.44529413059976319 0.065026291877640793 0 0.41794119589964812 0.061469869687005997 0 0.42589228624135061 0.059660684461379461 0 0.42589228624135061 0.059660684461379461 0 0.42647272639553008 0.050672874727357403 0 0.43583307009461808 0.053135938561971199 0 0.41733432138732551 0.050785193364838402 0 0.42589228624135061 0.059660684461379461 0 0.42647272639553008 0.050672874727357403 0 0.42647272639553008 0.050672874727357403 0 0.43583307009461808 0.053135938561971199 0 0.4340740022190257 0.043822740937536728 0 0.41964440497126981 0.040250358009145122 0 0.42987588244635011 0.033334548906864728 0 0.41891932927970088 0.026081136014491389 0 0.41964440497126981 0.040250358009145122 0 0.4340740022190257 0.043822740937536728 0 0.42987588244635011 0.033334548906864728 0 0.41964440497126981 0.040250358009145122 0 0.42647272639553008 0.050672874727357403 0 0.4340740022190257 0.043822740937536728 0 0.4340740022190257 0.043822740937536728 0 0.42987588244635011 0.033334548906864728 0 0.44528176508543132 0.032905620831071007 0 0.42987588244635011 0.033334548906864728 0 0.43184963590009789 0.021236349906575389 0 0.44528176508543132 0.032905620831071007 0 0.43184963590009789 0.021236349906575389 0 0.42259879527057942 0.015927249454054739 0 0.43188165484739188 0.01287087804949661 0 0.43184963590009789 0.021236349906575389 0 0.42259879527057942 0.015927249454054739 0 0.41891932927970088 0.026081136014491389 0 0.42987588244635011 0.033334548906864728 0 0.43184963590009789 0.021236349906575389 0 0.41891932927970088 0.026081136014491389 0 0.4038432128890253 0.016274120358417851 0 0.42259879527057942 0.015927249454054739 0 0.41891932927970088 0.026081136014491389 0 0.4038432128890253 0.016274120358417851 0 0.40714332068978548 0.032011032787191827 0 0.41891932927970088 0.026081136014491389 0 0.4038432128890253 0.016274120358417851 0 0.41402040698134779 -0.0025911497673051101 0 0.40369857438468087 -0.0060371637805465179 0 0.4038432128890253 0.016274120358417851 0 0.42788240966677021 0.003552130545216341 0 0.4038432128890253 0.016274120358417851 0 0.42101935538117791 0.0050386314779034547 0 0.41402040698134779 -0.0025911497673051101 0 0.4038432128890253 0.016274120358417851 0 0.42259879527057942 0.015927249454054739 0 0.42788240966677021 0.003552130545216341 0 0.4038432128890253 0.016274120358417851 0 0.42101935538117791 0.0050386314779034547 0 0.42788240966677021 0.003552130545216341 0 0.42788240966677021 0.003552130545216341 0 0.43188165484739188 0.01287087804949661 0 0.44740740452026229 0.01137317045841814 0 0.42259879527057942 0.015927249454054739 0 0.42788240966677021 0.003552130545216341 0 0.43188165484739188 0.01287087804949661 0 0.43184963590009789 0.021236349906575389 0 0.43188165484739188 0.01287087804949661 0 0.44740740452026229 0.01137317045841814 0 0.42788240966677021 0.003552130545216341 0 0.44740740452026229 0.01137317045841814 0 0.45192160644451512 -0.0091698592679851504 0 0.43184963590009789 0.021236349906575389 0 0.44740740452026229 0.01137317045841814 0 0.44528176508543132 0.032905620831071007 0 0.44740740452026229 0.01137317045841814 0 0.44528176508543132 0.032905620831071007 0 0.46875558315454652 0.02621282055229885 0 0.44740740452026229 0.01137317045841814 0 0.4740075662235973 0.0028935560396234419 0 0.46875558315454652 0.02621282055229885 0 0.44740740452026229 0.01137317045841814 0 0.4740075662235973 0.0028935560396234419 0 0.45192160644451512 -0.0091698592679851504 0 0.44529413059976319 0.065026291877640793 0 0.44587589901867808 0.047550444472131762 0 0.4614262583005877 0.04791767975015173 0 0.44529413059976319 0.065026291877640793 0 0.43583307009461808 0.053135938561971199 0 0.44587589901867808 0.047550444472131762 0 0.43583307009461808 0.053135938561971199 0 0.4340740022190257 0.043822740937536728 0 0.44587589901867808 0.047550444472131762 0 0.44587589901867808 0.047550444472131762 0 0.44528176508543132 0.032905620831071007 0 0.4614262583005877 0.04791767975015173 0 0.4340740022190257 0.043822740937536728 0 0.44587589901867808 0.047550444472131762 0 0.44528176508543132 0.032905620831071007 0 0.44528176508543132 0.032905620831071007 0 0.4614262583005877 0.04791767975015173 0 0.46875558315454652 0.02621282055229885 0 0.47264706529987838 0.068582714068275596 0 0.44529413059976319 0.065026291877640793 0 0.4614262583005877 0.04791767975015173 0 0.47264706529987838 0.068582714068275596 0 0.4614262583005877 0.04791767975015173 0 0.48053199367993171 0.043851827509569327 0 0.4614262583005877 0.04791767975015173 0 0.48053199367993171 0.043851827509569327 0 0.46875558315454652 0.02621282055229885 0 0.48053199367993171 0.043851827509569327 0 0.5 0.04545089247058498 0 0.5 0.018762648682260189 0 0.49999999999999389 0.072139136258909636 0 0.47264706529987838 0.068582714068275596 0 0.48053199367993171 0.043851827509569327 0 0.49999999999999389 0.072139136258909636 0 0.48053199367993171 0.043851827509569327 0 0.5 0.04545089247058498 0 0.48053199367993171 0.043851827509569327 0 0.46875558315454652 0.02621282055229885 0 0.5 0.018762648682260189 0 0.4740075662235973 0.0028935560396234419 0 0.46875558315454652 0.02621282055229885 0 0.5 0.018762648682260189 0 0.4740075662235973 0.0028935560396234419 0 0.5 0.018762648682260189 0 0.5 -0.0079255951060647756 0 0.4740075662235973 0.0028935560396234419 0 0.5 -0.0079255951060647756 0 0.47596080322225992 -0.02189184908118659 0 0.47596080322225992 -0.02189184908118659 0 0.50000000000000377 -0.034613838894389633 0 0.5 -0.0079255951060647756 0 0.47596080322225992 -0.02189184908118659 0 0.50000000000000377 -0.034613838894389633 0 0.47596080322225992 -0.02189184908118659 0 0.50000000000000377 -0.034613838894389633 0 0.48339532061042467 -0.042675677639817791 0 0.50000000000000377 -0.034613838894389633 0 0.5 -0.052291970509826757 0 0.48339532061042467 -0.042675677639817791 0 0.5 -0.052291970509826757 0 0.48378938215607542 -0.060491629721736481 0 0.49999999999999678 -0.069970102125263903 0 0.5 -0.052291970509826757 0 0.48378938215607542 -0.060491629721736481 0 0.48339532061042467 -0.042675677639817791 0 0.48378938215607542 -0.060491629721736481 0 0.47035919737641452 -0.05083356829212015 0 0.48339532061042467 -0.042675677639817791 0 0.48378938215607542 -0.060491629721736481 0 0.47035919737641452 -0.05083356829212015 0 0.46263532094350251 -0.0655193079319734 0 0.47596080322225992 -0.02189184908118659 0 0.48339532061042467 -0.042675677639817791 0 0.46122373864745198 -0.034064038759572521 0 0.47035919737641452 -0.05083356829212015 0 0.48339532061042467 -0.042675677639817791 0 0.46122373864745198 -0.034064038759572521 0 0.46122373864745198 -0.034064038759572521 0 0.45641225836005789 -0.05051217933658872 0 0.44483042593949818 -0.041063070916932051 0 0.47035919737641452 -0.05083356829212015 0 0.46122373864745198 -0.034064038759572521 0 0.45641225836005789 -0.05051217933658872 0 0.45641225836005789 -0.05051217933658872 0 0.44526353314296241 -0.062107813217869068 0 0.46263532094350251 -0.0655193079319734 0 0.47035919737641452 -0.05083356829212015 0 0.45641225836005789 -0.05051217933658872 0 0.46263532094350251 -0.0655193079319734 0 0.45641225836005789 -0.05051217933658872 0 0.44526353314296241 -0.062107813217869068 0 0.44483042593949818 -0.041063070916932051 0 0.44526353314296241 -0.062107813217869068 0 0.44483042593949818 -0.041063070916932051 0 0.42768193525564641 -0.052738548234870043 0 0.46122373864745198 -0.034064038759572521 0 0.44483042593949818 -0.041063070916932051 0 0.44260817666721519 -0.025216613737701819 0 0.44483042593949818 -0.041063070916932051 0 0.44260817666721519 -0.025216613737701819 0 0.43454865465473302 -0.032105158367880783 0 0.46122373864745198 -0.034064038759572521 0 0.44260817666721519 -0.025216613737701819 0 0.45192160644451512 -0.0091698592679851504 0 0.42788240966677021 0.003552130545216341 0 0.45192160644451512 -0.0091698592679851504 0 0.44260817666721519 -0.025216613737701819 0 0.45192160644451512 -0.0091698592679851504 0 0.43543049063324413 -0.012350052332502739 0 0.42788240966677021 0.003552130545216341 0 0.45192160644451512 -0.0091698592679851504 0 0.43543049063324413 -0.012350052332502739 0 0.4740075662235973 0.0028935560396234419 0 0.47596080322225992 -0.02189184908118659 0 0.45192160644451512 -0.0091698592679851504 0 0.47596080322225992 -0.02189184908118659 0 0.45192160644451512 -0.0091698592679851504 0 0.47596080322225992 -0.02189184908118659 0 0.46122373864745198 -0.034064038759572521 0 0.45192160644451512 -0.0091698592679851504 0 0.47621403880257929 -0.099362679963144546 0 0.45825176112352212 -0.1171944005084963 0 0.47461064769812122 -0.12772964805397971 0 0.50000000000000433 -0.1143432737178363 0 0.47621403880257929 -0.099362679963144546 0 0.47461064769812122 -0.12772964805397971 0 0.50000000000000433 -0.1143432737178363 0 0.47461064769812122 -0.12772964805397971 0 0.49999999999998102 -0.1000967699598443 0 0.47621403880257929 -0.099362679963144546 0 0.49999999999998102 -0.1000967699598443 0 0.47621403880257929 -0.099362679963144546 0 0.48785951469139027 -0.086657123706384981 0 0.50000000000000433 -0.1143432737178363 0 0.49999999999998102 -0.1000967699598443 0 0.47621403880257929 -0.099362679963144546 0 0.47621403880257929 -0.099362679963144546 0 0.48785951469139027 -0.086657123706384981 0 0.47522401996300467 -0.077198942777287505 0 0.47621403880257929 -0.099362679963144546 0 0.47522401996300467 -0.077198942777287505 0 0.46460819440086443 -0.0896918568577834 0 0.49999999999998102 -0.1000967699598443 0 0.48785951469139027 -0.086657123706384981 0 0.49999999999999678 -0.069970102125263903 0 0.49999999999999678 -0.069970102125263903 0 0.47522401996300467 -0.077198942777287505 0 0.48785951469139027 -0.086657123706384981 0 0.49999999999999678 -0.069970102125263903 0 0.47522401996300467 -0.077198942777287505 0 0.48378938215607542 -0.060491629721736481 0 0.49999999999999678 -0.069970102125263903 0 0.47522401996300467 -0.077198942777287505 0 0.48378938215607542 -0.060491629721736481 0 0.47522401996300467 -0.077198942777287505 0 0.46263532094350251 -0.0655193079319734 0 0.47522401996300467 -0.077198942777287505 0 0.46263532094350251 -0.0655193079319734 0 0.4504480399260129 -0.084427783429311939 0 0.44526353314296241 -0.062107813217869068 0 0.46263532094350251 -0.0655193079319734 0 0.4504480399260129 -0.084427783429311939 0 0.44526353314296241 -0.062107813217869068 0 0.4504480399260129 -0.084427783429311939 0 0.43069868055782679 -0.078899440675300136 0 0.4504480399260129 -0.084427783429311939 0 0.45242807760517778 -0.098628589966444233 0 0.42864211640777627 -0.097894499969741214 0 0.4504480399260129 -0.084427783429311939 0 0.42567205988902129 -0.091656624081337568 0 0.47522401996300467 -0.077198942777287505 0 0.4504480399260129 -0.084427783429311939 0 0.47522401996300467 -0.077198942777287505 0 0.4504480399260129 -0.084427783429311939 0 0.46460819440086443 -0.0896918568577834 0 0.4504480399260129 -0.084427783429311939 0 0.46460819440086443 -0.0896918568577834 0 0.45242807760517778 -0.098628589966444233 0 0.47621403880257929 -0.099362679963144546 0 0.45242807760517778 -0.098628589966444233 0 0.45825176112352212 -0.1171944005084963 0 0.47621403880257929 -0.099362679963144546 0 0.45242807760517778 -0.098628589966444233 0 0.47621403880257929 -0.099362679963144546 0 0.46460819440086443 -0.0896918568577834 0 0.45242807760517778 -0.098628589966444233 0 0.45242807760517778 -0.098628589966444233 0 0.42864211640777627 -0.097894499969741214 0 0.45242807760517778 -0.098628589966444233 0 0.43893170590200609 -0.1195052611799315 0 0.42864211640777627 -0.097894499969741214 0 0.45242807760517778 -0.098628589966444233 0 0.43893170590200609 -0.1195052611799315 0 0.45825176112352212 -0.1171944005084963 0 0.42080162445294911 -0.1170697999396166 0 0.40604313277712428 -0.1171380761358455 0 0.41368108829086198 -0.13554811058748131 0 0.42080162445294911 -0.1170697999396166 0 0.40662173914453831 -0.097214899993173481 0 0.40604313277712428 -0.1171380761358455 0 0.43893170590200609 -0.1195052611799315 0 0.42080162445294911 -0.1170697999396166 0 0.430889964195386 -0.135117951771525 0 0.43893170590200609 -0.1195052611799315 0 0.42080162445294911 -0.1170697999396166 0 0.42864211640777627 -0.097894499969741214 0 0.43893170590200609 -0.1195052611799315 0 0.42864211640777627 -0.097894499969741214 0 0.42864211640777627 -0.097894499969741214 0 0.42567205988902129 -0.091656624081337568 0 0.42864211640777627 -0.097894499969741214 0 0.40662173914453831 -0.097214899993173481 0 0.42567205988902129 -0.091656624081337568 0 0.42080162445294911 -0.1170697999396166 0 0.42864211640777627 -0.097894499969741214 0 0.40662173914453831 -0.097214899993173481 0 0.42864211640777627 -0.097894499969741214 0 0.40662173914453831 -0.097214899993173481 0 0.40662173914453831 -0.097214899993173481 0 0.42567205988902129 -0.091656624081337568 0 0.40662173914453831 -0.097214899993173481 0 0.41829766411352998 -0.087706900461061957 0 0.42567205988902129 -0.091656624081337568 0 0.40662173914453831 -0.097214899993173481 0 0.41020628866808312 -0.08357079425946129 0 0.41829766411352998 -0.087706900461061957 0 0.41020628866808312 -0.08357079425946129 0 0.42012861486432151 -0.07981881462850364 0 0.41094109939792961 -0.074512111623280808 0 0.41020628866808312 -0.08357079425946129 0 0.41094109939792961 -0.074512111623280808 0 0.40556094342569721 -0.078918860306745137 0 0.41020628866808312 -0.08357079425946129 0 0.42012861486432151 -0.07981881462850364 0 0.41829766411352998 -0.087706900461061957 0 0.42012861486432151 -0.07981881462850364 0 0.41829766411352998 -0.087706900461061957 0 0.42254342745458301 -0.084546146485576762 0 0.41829766411352998 -0.087706900461061957 0 0.42461385466063262 -0.08943412331831832 0 0.42254342745458301 -0.084546146485576762 0 0.42567205988902129 -0.091656624081337568 0 0.42461385466063262 -0.08943412331831832 0 0.43069868055782679 -0.078899440675300136 0 0.4504480399260129 -0.084427783429311939 0 0.42567205988902129 -0.091656624081337568 0 0.43069868055782679 -0.078899440675300136 0 0.4504480399260129 -0.084427783429311939 0 0.42864211640777627 -0.097894499969741214 0 0.42567205988902129 -0.091656624081337568 0 0.42567205988902129 -0.091656624081337568 0 0.42461385466063262 -0.08943412331831832 0 0.41829766411352998 -0.087706900461061957 0 0.42567205988902129 -0.091656624081337568 0 0.42461385466063262 -0.08943412331831832 0 0.42012861486432151 -0.07981881462850364 0 0.43069868055782679 -0.078899440675300136 0 0.42254342745458301 -0.084546146485576762 0 0.42461385466063262 -0.08943412331831832 0 0.43069868055782679 -0.078899440675300136 0 0.42254342745458301 -0.084546146485576762 0 0.43069868055782679 -0.078899440675300136 0 0.42085386234523608 -0.065266903626460593 0 0.41911482919747139 -0.073234494934215744 0 0.43069868055782679 -0.078899440675300136 0 0.42085386234523608 -0.065266903626460593 0 0.42768193525564641 -0.052738548234870043 0 0.44526353314296241 -0.062107813217869068 0 0.43069868055782679 -0.078899440675300136 0 0.42768193525564641 -0.052738548234870043 0 0.43069868055782679 -0.078899440675300136 0 0.42768193525564641 -0.052738548234870043 0 0.42012861486432151 -0.07981881462850364 0 0.43069868055782679 -0.078899440675300136 0 0.41911482919747139 -0.073234494934215744 0 0.42085386234523608 -0.065266903626460593 0 0.41911482919747139 -0.073234494934215744 0 0.41247118756252621 -0.068972059658544485 0 0.41911482919747139 -0.073234494934215744 0 0.41094109939792961 -0.074512111623280808 0 0.41247118756252621 -0.068972059658544485 0 0.42012861486432151 -0.07981881462850364 0 0.41911482919747139 -0.073234494934215744 0 0.41094109939792961 -0.074512111623280808 0 0.41094109939792961 -0.074512111623280808 0 0.41247118756252621 -0.068972059658544485 0 0.40519344017519737 -0.069697512887539489 0 0.42085386234523608 -0.065266903626460593 0 0.41247118756252621 -0.068972059658544485 0 0.40625270669679608 -0.06214927522122575 0 0.41247118756252621 -0.068972059658544485 0 0.40519344017519737 -0.069697512887539489 0 0.40625270669679608 -0.06214927522122575 0 0.40519344017519737 -0.069697512887539489 0 0.3909339432522656 -0.07145852807871525 0 0.40625270669679608 -0.06214927522122575 0 0.41094109939792961 -0.074512111623280808 0 0.40094221169150912 -0.074554002884685597 0 0.40556094342569721 -0.078918860306745137 0 0.40519344017519737 -0.069697512887539489 0 0.40094221169150912 -0.074554002884685597 0 0.3909339432522656 -0.07145852807871525 0 0.41094109939792961 -0.074512111623280808 0 0.40519344017519737 -0.069697512887539489 0 0.40094221169150912 -0.074554002884685597 0 0.40094221169150912 -0.074554002884685597 0 0.3909339432522656 -0.07145852807871525 0 0.39616481607021642 -0.077435810443283751 0 0.3909339432522656 -0.07145852807871525 0 0.39616481607021642 -0.077435810443283751 0 0.39262893539182381 -0.080692178350181262 0 0.39181446083091098 -0.066763706552935329 0 0.38421934743036401 -0.068446750892908373 0 0.38398729378694407 -0.058429379279077209 0 0.38421934743036401 -0.068446750892908373 0 0.37813424473731178 -0.068262582352726586 0 0.38398729378694407 -0.058429379279077209 0 0.37813424473731178 -0.068262582352726586 0 0.38294139036628899 -0.080331335386894381 0 0.37353404377441052 -0.075370636612477671 0 0.38421934743036401 -0.068446750892908373 0 0.37813424473731178 -0.068262582352726586 0 0.38294139036628899 -0.080331335386894381 0 0.39181446083091098 -0.066763706552935329 0 0.38294139036628899 -0.080331335386894381 0 0.39181446083091098 -0.066763706552935329 0 0.38421934743036401 -0.068446750892908373 0 0.38294139036628899 -0.080331335386894381 0 0.3909339432522656 -0.07145852807871525 0 0.39181446083091098 -0.066763706552935329 0 0.38294139036628899 -0.080331335386894381 0 0.38598565568847482 -0.085166122563822014 0 0.39289996883908601 -0.089154852807517448 0 0.39262893539182381 -0.080692178350181262 0 0.3909339432522656 -0.07145852807871525 0 0.38598565568847482 -0.085166122563822014 0 0.39262893539182381 -0.080692178350181262 0 0.3909339432522656 -0.07145852807871525 0 0.37406831990166722 -0.093898964220853504 0 0.3909339432522656 -0.07145852807871525 0 0.38598565568847482 -0.085166122563822014 0 0.37406831990166722 -0.093898964220853504 0 0.3909339432522656 -0.07145852807871525 0 0.38294139036628899 -0.080331335386894381 0 0.37406831990166722 -0.093898964220853504 0 0.38294139036628899 -0.080331335386894381 0 0.37406831990166722 -0.093898964220853504 0 0.38598565568847482 -0.085166122563822014 0 0.38240509603332101 -0.092127683864182172 0 0.37406831990166722 -0.093898964220853504 0 0.38240509603332101 -0.092127683864182172 0 0.39289996883908601 -0.089154852807517448 0 0.38960421283109031 -0.096689699614190994 0 0.38598565568847482 -0.085166122563822014 0 0.38240509603332101 -0.092127683864182172 0 0.39289996883908601 -0.089154852807517448 0 0.39289996883908601 -0.089154852807517448 0 0.39262893539182381 -0.080692178350181262 0 0.40015417394526698 -0.083038532459552866 0 0.39616481607021642 -0.077435810443283751 0 0.39262893539182381 -0.080692178350181262 0 0.40015417394526698 -0.083038532459552866 0 0.40094221169150912 -0.074554002884685597 0 0.40556094342569721 -0.078918860306745137 0 0.40015417394526698 -0.083038532459552866 0 0.40094221169150912 -0.074554002884685597 0 0.39616481607021642 -0.077435810443283751 0 0.40015417394526698 -0.083038532459552866 0 0.41020628866808312 -0.08357079425946129 0 0.40556094342569721 -0.078918860306745137 0 0.40015417394526698 -0.083038532459552866 0 0.40662173914453831 -0.097214899993173481 0 0.39289996883908601 -0.089154852807517448 0 0.40015417394526698 -0.083038532459552866 0 0.40662173914453831 -0.097214899993173481 0 0.41020628866808312 -0.08357079425946129 0 0.40015417394526698 -0.083038532459552866 0 0.40662173914453831 -0.097214899993173481 0 0.3851668720105898 -0.10347474583943909 0 0.38960421283109031 -0.096689699614190994 0 0.40662173914453831 -0.097214899993173481 0 0.3851668720105898 -0.10347474583943909 0 0.40662173914453831 -0.097214899993173481 0 0.39289996883908601 -0.089154852807517448 0 0.38960421283109031 -0.096689699614190994 0 0.40662173914453831 -0.097214899993173481 0 0.38960421283109031 -0.096689699614190994 0 0.40662173914453831 -0.097214899993173481 0 0.3851668720105898 -0.10347474583943909 0 0.39374350655696688 -0.1137959578468639 0 0.38960421283109031 -0.096689699614190994 0 0.37237061700676077 -0.09615783082836224 0 0.3851668720105898 -0.10347474583943909 0 0.38960421283109031 -0.096689699614190994 0 0.37237061700676077 -0.09615783082836224 0 0.38240509603332101 -0.092127683864182172 0 0.38960421283109031 -0.096689699614190994 0 0.37237061700676077 -0.09615783082836224 0 0.38240509603332101 -0.092127683864182172 0 0.37406831990166722 -0.093898964220853504 0 0.37237061700676077 -0.09615783082836224 0 0.3785150876385216 -0.1195111518185689 0 0.39374350655696688 -0.1137959578468639 0 0.39237070121405998 -0.13164091544729051 0 0.3851668720105898 -0.10347474583943909 0 0.3785150876385216 -0.1195111518185689 0 0.36371200487664068 -0.10973459168570281 0 0.3851668720105898 -0.10347474583943909 0 0.3785150876385216 -0.1195111518185689 0 0.39374350655696688 -0.1137959578468639 0 0.40662173914453831 -0.097214899993173481 0 0.39374350655696688 -0.1137959578468639 0 0.40604313277712428 -0.1171380761358455 0 0.39374350655696688 -0.1137959578468639 0 0.40604313277712428 -0.1171380761358455 0 0.39237070121405998 -0.13164091544729051 0 0.41728163952739061 -0.019334187549187701 0 0.42284227266732188 -0.010769512158268201 0 0.42466518995346408 -0.026577655794440151 0 0.41728163952739061 -0.019334187549187701 0 0.41227128108974659 -0.029924501558089681 0 0.42466518995346408 -0.026577655794440151 0 0.41227128108974659 -0.029924501558089681 0 0.40863720631140932 -0.019892986955346081 0 0.40014031603924488 -0.033106741091830219 0 0.41728163952739061 -0.019334187549187701 0 0.41227128108974659 -0.029924501558089681 0 0.40863720631140932 -0.019892986955346081 0 0.41728163952739061 -0.019334187549187701 0 0.40863720631140932 -0.019892986955346081 0 0.41436166681859882 -0.01226683791037885 0 0.40863720631140932 -0.019892986955346081 0 0.41436166681859882 -0.01226683791037885 0 0.40369857438468087 -0.0060371637805465179 0 0.42101935538117791 0.0050386314779034547 0 0.41402040698134779 -0.0025911497673051101 0 0.42284227266732188 -0.010769512158268201 0 0.41402040698134779 -0.0025911497673051101 0 0.41436166681859882 -0.01226683791037885 0 0.40369857438468087 -0.0060371637805465179 0 0.41402040698134779 -0.0025911497673051101 0 0.41436166681859882 -0.01226683791037885 0 0.42284227266732188 -0.010769512158268201 0 0.41728163952739061 -0.019334187549187701 0 0.41436166681859882 -0.01226683791037885 0 0.42284227266732188 -0.010769512158268201 0 0.42284227266732188 -0.010769512158268201 0 0.43543049063324413 -0.012350052332502739 0 0.42769414368384923 -0.02254750278133769 0 0.42101935538117791 0.0050386314779034547 0 0.42284227266732188 -0.010769512158268201 0 0.42101935538117791 0.0050386314779034547 0 0.42788240966677021 0.003552130545216341 0 0.42284227266732188 -0.010769512158268201 0 0.42788240966677021 0.003552130545216341 0 0.42284227266732188 -0.010769512158268201 0 0.43543049063324413 -0.012350052332502739 0 0.42284227266732188 -0.010769512158268201 0 0.42466518995346408 -0.026577655794440151 0 0.42284227266732188 -0.010769512158268201 0 0.42769414368384923 -0.02254750278133769 0 0.42466518995346408 -0.026577655794440151 0 0.44260817666721519 -0.025216613737701819 0 0.43543049063324413 -0.012350052332502739 0 0.42769414368384923 -0.02254750278133769 0 0.42769414368384923 -0.02254750278133769 0 0.42466518995346408 -0.026577655794440151 0 0.43454865465473302 -0.032105158367880783 0 0.42769414368384923 -0.02254750278133769 0 0.42466518995346408 -0.026577655794440151 0 0.44260817666721519 -0.025216613737701819 0 0.42769414368384923 -0.02254750278133769 0 0.43454865465473302 -0.032105158367880783 0 0.42466518995346408 -0.026577655794440151 0 0.43454865465473302 -0.032105158367880783 0 0.42768193525564641 -0.052738548234870043 0 0.42466518995346408 -0.026577655794440151 0 0.42768193525564641 -0.052738548234870043 0 0.44483042593949818 -0.041063070916932051 0 0.43454865465473302 -0.032105158367880783 0 0.42768193525564641 -0.052738548234870043 0 0.42085386234523608 -0.065266903626460593 0 0.42768193525564641 -0.052738548234870043 0 0.40779956660286398 -0.049018091936576927 0 0.42085386234523608 -0.065266903626460593 0 0.40779956660286398 -0.049018091936576927 0 0.40625270669679608 -0.06214927522122575 0 0.42466518995346408 -0.026577655794440151 0 0.42768193525564641 -0.052738548234870043 0 0.40779956660286398 -0.049018091936576927 0 0.42466518995346408 -0.026577655794440151 0 0.40779956660286398 -0.049018091936576927 0 0.41227128108974659 -0.029924501558089681 0 0.42466518995346408 -0.026577655794440151 0 0.40779956660286398 -0.049018091936576927 0 0.41227128108974659 -0.029924501558089681 0 0.40779956660286398 -0.049018091936576927 0 0.40014031603924488 -0.033106741091830219 0 0.40779956660286398 -0.049018091936576927 0 0.40014031603924488 -0.033106741091830219 0 0.3912967176308087 -0.04756724484766426 0 0.40014031603924488 -0.033106741091830219 0 0.3912967176308087 -0.04756724484766426 0 0.38547037370043469 -0.032308846426106139 0 0.3909339432522656 -0.07145852807871525 0 0.40779956660286398 -0.049018091936576927 0 0.40625270669679608 -0.06214927522122575 0 0.3909339432522656 -0.07145852807871525 0 0.39181446083091098 -0.066763706552935329 0 0.40779956660286398 -0.049018091936576927 0 0.39181446083091098 -0.066763706552935329 0 0.40779956660286398 -0.049018091936576927 0 0.3912967176308087 -0.04756724484766426 0 0.3909339432522656 -0.07145852807871525 0 0.40779956660286398 -0.049018091936576927 0 0.3912967176308087 -0.04756724484766426 0 0.38398729378694407 -0.058429379279077209 0 0.37514153202862571 -0.045861082966856079 0 0.39181446083091098 -0.066763706552935329 0 0.3912967176308087 -0.04756724484766426 0 0.38398729378694407 -0.058429379279077209 0 0.38398729378694407 -0.058429379279077209 0 0.37514153202862571 -0.045861082966856079 0 0.37192531576168952 -0.05914395824800911 0 0.37813424473731178 -0.068262582352726586 0 0.38398729378694407 -0.058429379279077209 0 0.37192531576168952 -0.05914395824800911 0 0.3912967176308087 -0.04756724484766426 0 0.38547037370043469 -0.032308846426106139 0 0.37514153202862571 -0.045861082966856079 0 0.38547037370043469 -0.032308846426106139 0 0.37514153202862571 -0.045861082966856079 0 0.36877413775607049 -0.02995327657106206 0 0.38547037370043469 -0.032308846426106139 0 0.37927030083329177 -0.015743113788958679 0 0.36877413775607049 -0.02995327657106206 0 0.38547037370043469 -0.032308846426106139 0 0.37927030083329177 -0.015743113788958679 0 0.39536675090020662 -0.019928774827198261 0 0.40014031603924488 -0.033106741091830219 0 0.38547037370043469 -0.032308846426106139 0 0.39536675090020662 -0.019928774827198261 0 0.40863720631140932 -0.019892986955346081 0 0.40014031603924488 -0.033106741091830219 0 0.39536675090020662 -0.019928774827198261 0 0.40863720631140932 -0.019892986955346081 0 0.39536675090020662 -0.019928774827198261 0 0.40369857438468087 -0.0060371637805465179 0 0.39536675090020662 -0.019928774827198261 0 0.40369857438468087 -0.0060371637805465179 0 0.39174671884158141 -0.0074493154892236006 0 0.39390920682105918 0.0040204267233196643 0 0.40369857438468087 -0.0060371637805465179 0 0.39174671884158141 -0.0074493154892236006 0 0.38212023564171321 0.001094655884648786 0 0.37927030083329177 -0.015743113788958679 0 0.39174671884158141 -0.0074493154892236006 0 0.38212023564171321 0.001094655884648786 0 0.37927030083329177 -0.015743113788958679 0 0.3700201466167648 -0.002195575246397889 0 0.37927030083329177 -0.015743113788958679 0 0.39536675090020662 -0.019928774827198261 0 0.39174671884158141 -0.0074493154892236006 0 0.39390920682105918 0.0040204267233196643 0 0.38212023564171321 0.001094655884648786 0 0.39174671884158141 -0.0074493154892236006 0 0.35686418876597309 0.010252504770385159 0 0.3700201466167648 -0.002195575246397889 0 0.35727920934793722 -0.0129667368589869 0 0.37927030083329177 -0.015743113788958679 0 0.3700201466167648 -0.002195575246397889 0 0.35727920934793722 -0.0129667368589869 0 0.36877413775607049 -0.02995327657106206 0 0.35727920934793722 -0.0129667368589869 0 0.35227314840285812 -0.03152257084722427 0 0.37927030083329177 -0.015743113788958679 0 0.36877413775607049 -0.02995327657106206 0 0.35727920934793722 -0.0129667368589869 0 0.35727920934793722 -0.0129667368589869 0 0.33875503928457851 -0.02222753562310531 0 0.35227314840285812 -0.03152257084722427 0 0.35727920934793722 -0.0129667368589869 0 0.33586681222118892 -0.0067462441580033658 0 0.33875503928457851 -0.02222753562310531 0 0.35686418876597309 0.010252504770385159 0 0.35727920934793722 -0.0129667368589869 0 0.33586681222118892 -0.0067462441580033658 0 0.33586681222118892 -0.0067462441580033658 0 0.33875503928457851 -0.02222753562310531 0 0.31486943567640469 -0.023744993086391868 0 0.33875503928457851 -0.02222753562310531 0 0.31486943567640469 -0.023744993086391868 0 0.33348659077450338 -0.036157133164920148 0 0.33875503928457851 -0.02222753562310531 0 0.33348659077450338 -0.036157133164920148 0 0.35227314840285812 -0.03152257084722427 0 0.31046320235639918 0.0067575729804437252 0 0.33586681222118892 -0.0067462441580033658 0 0.3153830815233527 -0.0087530987426132929 0 0.33586681222118892 -0.0067462441580033658 0 0.31486943567640469 -0.023744993086391868 0 0.3153830815233527 -0.0087530987426132929 0 0.33586681222118892 -0.0067462441580033658 0 0.31486943567640469 -0.023744993086391868 0 0.32115491610998381 -0.052976688016941227 0 0.32092150739102382 -0.073097043805500014 0 0.30601744289912669 -0.055409131432484229 0 0.32115491610998381 -0.052976688016941227 0 0.31197137499350902 -0.041008225260955711 0 0.30601744289912669 -0.055409131432484229 0 0.31486943567640469 -0.023744993086391868 0 0.33348659077450338 -0.036157133164920148 0 0.31197137499350902 -0.041008225260955711 0 0.32115491610998381 -0.052976688016941227 0 0.33348659077450338 -0.036157133164920148 0 0.31197137499350902 -0.041008225260955711 0 0.33348659077450338 -0.036157133164920148 0 0.3363568723602065 -0.050864743298462772 0 0.35116628403686417 -0.048621598638038131 0 0.32115491610998381 -0.052976688016941227 0 0.33348659077450338 -0.036157133164920148 0 0.3363568723602065 -0.050864743298462772 0 0.32115491610998381 -0.052976688016941227 0 0.3363568723602065 -0.050864743298462772 0 0.33388625794764348 -0.064812423232177271 0 0.3363568723602065 -0.050864743298462772 0 0.34794047334546518 -0.063974584280765273 0 0.33388625794764348 -0.064812423232177271 0 0.3363568723602065 -0.050864743298462772 0 0.35116628403686417 -0.048621598638038131 0 0.34794047334546518 -0.063974584280765273 0 0.35116628403686417 -0.048621598638038131 0 0.35914505774559541 -0.060409417065886872 0 0.36392372675137458 -0.051574144679805103 0 0.35116628403686417 -0.048621598638038131 0 0.36240463436463582 -0.041692596330413237 0 0.36392372675137458 -0.051574144679805103 0 0.35116628403686417 -0.048621598638038131 0 0.35914505774559541 -0.060409417065886872 0 0.34794047334546518 -0.063974584280765273 0 0.35116628403686417 -0.048621598638038131 0 0.35227314840285812 -0.03152257084722427 0 0.36240463436463582 -0.041692596330413237 0 0.33348659077450338 -0.036157133164920148 0 0.35116628403686417 -0.048621598638038131 0 0.35227314840285812 -0.03152257084722427 0 0.37514153202862571 -0.045861082966856079 0 0.36877413775607049 -0.02995327657106206 0 0.36240463436463582 -0.041692596330413237 0 0.36877413775607049 -0.02995327657106206 0 0.35227314840285812 -0.03152257084722427 0 0.36240463436463582 -0.041692596330413237 0 0.37514153202862571 -0.045861082966856079 0 0.36240463436463582 -0.041692596330413237 0 0.36392372675137458 -0.051574144679805103 0 0.35914505774559541 -0.060409417065886872 0 0.36392372675137458 -0.051574144679805103 0 0.37192531576168952 -0.05914395824800911 0 0.37514153202862571 -0.045861082966856079 0 0.36392372675137458 -0.051574144679805103 0 0.37192531576168952 -0.05914395824800911 0 0.37813424473731178 -0.068262582352726586 0 0.37192531576168952 -0.05914395824800911 0 0.3680772617285144 -0.06977757947088653 0 0.35914505774559541 -0.060409417065886872 0 0.37192531576168952 -0.05914395824800911 0 0.3680772617285144 -0.06977757947088653 0 0.35914505774559541 -0.060409417065886872 0 0.3680772617285144 -0.06977757947088653 0 0.35837286676988928 -0.071968688592424085 0 0.3680772617285144 -0.06977757947088653 0 0.36498327826552668 -0.083111049239403226 0 0.35837286676988928 -0.071968688592424085 0 0.3680772617285144 -0.06977757947088653 0 0.37353404377441052 -0.075370636612477671 0 0.36498327826552668 -0.083111049239403226 0 0.37813424473731178 -0.068262582352726586 0 0.3680772617285144 -0.06977757947088653 0 0.37353404377441052 -0.075370636612477671 0 0.38294139036628899 -0.080331335386894381 0 0.37353404377441052 -0.075370636612477671 0 0.36498327826552668 -0.083111049239403226 0 0.36498327826552668 -0.083111049239403226 0 0.37237061700676077 -0.09615783082836224 0 0.34241852099989789 -0.095233439592861846 0 0.38294139036628899 -0.080331335386894381 0 0.36498327826552668 -0.083111049239403226 0 0.37406831990166722 -0.093898964220853504 0 0.36498327826552668 -0.083111049239403226 0 0.37406831990166722 -0.093898964220853504 0 0.37237061700676077 -0.09615783082836224 0 0.36498327826552668 -0.083111049239403226 0 0.3449175019875389 -0.076917716904771144 0 0.34241852099989789 -0.095233439592861846 0 0.36498327826552668 -0.083111049239403226 0 0.3449175019875389 -0.076917716904771144 0 0.35837286676988928 -0.071968688592424085 0 0.3449175019875389 -0.076917716904771144 0 0.34794047334546518 -0.063974584280765273 0 0.35837286676988928 -0.071968688592424085 0 0.35914505774559541 -0.060409417065886872 0 0.34794047334546518 -0.063974584280765273 0 0.35837286676988928 -0.071968688592424085 0 0.36371200487664068 -0.10973459168570281 0 0.35664352332635268 -0.13060513793896061 0 0.36779594019891898 -0.12729788290040461 0 0.3785150876385216 -0.1195111518185689 0 0.36371200487664068 -0.10973459168570281 0 0.36779594019891898 -0.12729788290040461 0 0.36371200487664068 -0.10973459168570281 0 0.37237061700676077 -0.09615783082836224 0 0.34241852099989789 -0.095233439592861846 0 0.3851668720105898 -0.10347474583943909 0 0.36371200487664068 -0.10973459168570281 0 0.37237061700676077 -0.09615783082836224 0 0.3851668720105898 -0.10347474583943909 0 0.36371200487664068 -0.10973459168570281 0 0.36371200487664068 -0.10973459168570281 0 0.37237061700676077 -0.09615783082836224 0 0.37406831990166722 -0.093898964220853504 0 0.37237061700676077 -0.09615783082836224 0 0.36371200487664068 -0.10973459168570281 0 0.34332012240242971 -0.1020930362129598 0 0.34241852099989789 -0.095233439592861846 0 0.36371200487664068 -0.10973459168570281 0 0.35002252173753962 -0.112446561286345 0 0.34332012240242971 -0.1020930362129598 0 0.37237061700676077 -0.09615783082836224 0 0.34241852099989789 -0.095233439592861846 0 0.35002252173753962 -0.112446561286345 0 0.34025414842832208 -0.11782241666052221 0 0.34332012240242971 -0.1020930362129598 0 0.36371200487664068 -0.10973459168570281 0 0.35355367174401742 -0.1211945845718113 0 0.34779048707731292 -0.1340798558009649 0 0.36371200487664068 -0.10973459168570281 0 0.35664352332635268 -0.13060513793896061 0 0.34779048707731292 -0.1340798558009649 0 0.36371200487664068 -0.10973459168570281 0 0.34779048707731292 -0.1340798558009649 0 0.36371200487664068 -0.10973459168570281 0 0.35002252173753962 -0.112446561286345 0 0.35355367174401742 -0.1211945845718113 0 0.36371200487664068 -0.10973459168570281 0 0.35355367174401742 -0.1211945845718113 0 0.35002252173753962 -0.112446561286345 0 0.35355367174401742 -0.1211945845718113 0 0.34025414842832208 -0.11782241666052221 0 0.35355367174401742 -0.1211945845718113 0 0.34025414842832208 -0.11782241666052221 0 0.34381162934489939 -0.12854128697128539 0 0.33094534805706732 -0.1177437606496905 0 0.31854024801571379 -0.1183964408803808 0 0.33718817445421712 -0.13355179710808501 0 0.34025414842832208 -0.11782241666052221 0 0.33378984816934337 -0.1086297847084315 0 0.34332012240242971 -0.1020930362129598 0 0.33094534805706732 -0.1177437606496905 0 0.34025414842832208 -0.11782241666052221 0 0.33718817445421712 -0.13355179710808501 0 0.34025414842832208 -0.11782241666052221 0 0.34332012240242971 -0.1020930362129598 0 0.33094534805706732 -0.1177437606496905 0 0.33378984816934337 -0.1086297847084315 0 0.32495432121773932 -0.110318363891034 0 0.33094534805706732 -0.1177437606496905 0 0.34025414842832208 -0.11782241666052221 0 0.33378984816934337 -0.1086297847084315 0 0.33378984816934337 -0.1086297847084315 0 0.32725903490077729 -0.10071499943534749 0 0.32495432121773932 -0.110318363891034 0 0.33378984816934337 -0.1086297847084315 0 0.33669688161811212 -0.1016678149874002 0 0.32725903490077729 -0.10071499943534749 0 0.33378984816934337 -0.1086297847084315 0 0.34332012240242971 -0.1020930362129598 0 0.33669688161811212 -0.1016678149874002 0 0.34332012240242971 -0.1020930362129598 0 0.33669688161811212 -0.1016678149874002 0 0.34241852099989789 -0.095233439592861846 0 0.33669688161811212 -0.1016678149874002 0 0.34241852099989789 -0.095233439592861846 0 0.32725903490077729 -0.10071499943534749 0 0.34241852099989789 -0.095233439592861846 0 0.31246642499303512 -0.0943090483573608 0 0.34241852099989789 -0.095233439592861846 0 0.32725903490077729 -0.10071499943534749 0 0.31246642499303512 -0.0943090483573608 0 0.32725903490077729 -0.10071499943534749 0 0.31716114910448651 -0.10565591717263 0 0.31246642499303512 -0.0943090483573608 0 0.32725903490077729 -0.10071499943534749 0 0.31716114910448651 -0.10565591717263 0 0.32495432121773932 -0.110318363891034 0 0.33094534805706732 -0.1177437606496905 0 0.32495432121773932 -0.110318363891034 0 0.31854024801571379 -0.1183964408803808 0 0.31716114910448651 -0.10565591717263 0 0.32495432121773932 -0.110318363891034 0 0.31854024801571379 -0.1183964408803808 0 0.31716114910448651 -0.10565591717263 0 0.31854024801571379 -0.1183964408803808 0 0.30531265091832138 -0.10738965970164049 0 0.3449175019875389 -0.076917716904771144 0 0.33388625794764348 -0.064812423232177271 0 0.32092150739102382 -0.073097043805500014 0 0.3449175019875389 -0.076917716904771144 0 0.34794047334546518 -0.063974584280765273 0 0.33388625794764348 -0.064812423232177271 0 0.3449175019875389 -0.076917716904771144 0 0.34241852099989789 -0.095233439592861846 0 0.32092150739102382 -0.073097043805500014 0 0.34241852099989789 -0.095233439592861846 0 0.32092150739102382 -0.073097043805500014 0 0.31246642499303512 -0.0943090483573608 0 0.32115491610998381 -0.052976688016941227 0 0.33388625794764348 -0.064812423232177271 0 0.32092150739102382 -0.073097043805500014 0 0.32092150739102382 -0.073097043805500014 0 0.28819319405889499 -0.06706419956831737 0 0.31246642499303512 -0.0943090483573608 0 0.32092150739102382 -0.073097043805500014 0 0.28819319405889499 -0.06706419956831737 0 0.30601744289912669 -0.055409131432484229 0 0.28251432898617262 -0.093384657121855619 0 0.28819319405889499 -0.06706419956831737 0 0.31246642499303512 -0.0943090483573608 0 0.28251432898617262 -0.093384657121855619 0 0.28819319405889499 -0.06706419956831737 0 0.28251432898617262 -0.093384657121855619 0 0.28819319405889499 -0.06706419956831737 0 0.2788070763813692 -0.075616481315712358 0 0.30531265091832138 -0.10738965970164049 0 0.29209333803684512 -0.1204183792118467 0 0.30316218715013699 -0.13585617877411299 0 0.31854024801571379 -0.1183964408803808 0 0.30531265091832138 -0.10738965970164049 0 0.30316218715013699 -0.13585617877411299 0 0.30531265091832138 -0.10738965970164049 0 0.30316218715013699 -0.13585617877411299 0 0.30531265091832138 -0.10738965970164049 0 0.31246642499303512 -0.0943090483573608 0 0.2913954051317153 -0.1063448066268642 0 0.28251432898617262 -0.093384657121855619 0 0.31246642499303512 -0.0943090483573608 0 0.31716114910448651 -0.10565591717263 0 0.30531265091832138 -0.10738965970164049 0 0.31246642499303512 -0.0943090483573608 0 0.28251432898617262 -0.093384657121855619 0 0.31246642499303512 -0.0943090483573608 0 0.2913954051317153 -0.1063448066268642 0 0.28251432898617262 -0.093384657121855619 0 0.2913954051317153 -0.1063448066268642 0 0.27794998204403759 -0.11453953550188679 0 0.30531265091832138 -0.10738965970164049 0 0.2913954051317153 -0.1063448066268642 0 0.29209333803684512 -0.1204183792118467 0 0.2913954051317153 -0.1063448066268642 0 0.29209333803684512 -0.1204183792118467 0 0.27794998204403759 -0.11453953550188679 0 0.27794998204403759 -0.11453953550188679 0 0.25915390151091949 -0.11811210275817149 0 0.27338563510190422 -0.1356944138819183 0 0.29209333803684512 -0.1204183792118467 0 0.27794998204403759 -0.11453953550188679 0 0.27338563510190422 -0.1356944138819183 0 0.28251432898617262 -0.093384657121855619 0 0.27794998204403759 -0.11453953550188679 0 0.25666672159796139 -0.092586939936295867 0 0.28251432898617262 -0.093384657121855619 0 0.27794998204403759 -0.11453953550188679 0 0.25915390151091949 -0.11811210275817149 0 0.25666672159796139 -0.092586939936295867 0 0.23839025179526999 -0.1151992729885977 0 0.27794998204403759 -0.11453953550188679 0 0.25915390151091949 -0.11811210275817149 0 0.25666672159796139 -0.092586939936295867 0 0.28819319405889499 -0.06706419956831737 0 0.27512965144911827 -0.070681904186227995 0 0.27783686619476677 -0.05372527893061739 0 0.26897876163713708 -0.070467118147906876 0 0.27512965144911827 -0.070681904186227995 0 0.27783686619476677 -0.05372527893061739 0 0.26897876163713708 -0.070467118147906876 0 0.26180167325791431 -0.066706815846455908 0 0.27783686619476677 -0.05372527893061739 0 0.27067132333055188 -0.076788874412469815 0 0.26897876163713708 -0.070467118147906876 0 0.26145119023330071 -0.079000043976386408 0 0.27067132333055188 -0.076788874412469815 0 0.26897876163713708 -0.070467118147906876 0 0.2788070763813692 -0.075616481315712358 0 0.26897876163713708 -0.070467118147906876 0 0.27512965144911827 -0.070681904186227995 0 0.28819319405889499 -0.06706419956831737 0 0.2788070763813692 -0.075616481315712358 0 0.27512965144911827 -0.070681904186227995 0 0.26897876163713708 -0.070467118147906876 0 0.2788070763813692 -0.075616481315712358 0 0.26897876163713708 -0.070467118147906876 0 0.2788070763813692 -0.075616481315712358 0 0.27512965144911827 -0.070681904186227995 0 0.28251432898617262 -0.093384657121855619 0 0.25666672159796139 -0.092586939936295867 0 0.28251432898617262 -0.093384657121855619 0 0.27051227275229911 -0.08315566172012806 0 0.25666672159796139 -0.092586939936295867 0 0.28251432898617262 -0.093384657121855619 0 0.2788070763813692 -0.075616481315712358 0 0.27051227275229911 -0.08315566172012806 0 0.27067132333055188 -0.076788874412469815 0 0.27051227275229911 -0.08315566172012806 0 0.26145119023330071 -0.079000043976386408 0 0.27067132333055188 -0.076788874412469815 0 0.2788070763813692 -0.075616481315712358 0 0.27051227275229911 -0.08315566172012806 0 0.26145119023330071 -0.079000043976386408 0 0.25666672159796139 -0.092586939936295867 0 0.24423239209720191 -0.080930297464084477 0 0.27051227275229911 -0.08315566172012806 0 0.26145119023330071 -0.079000043976386408 0 0.25666672159796139 -0.092586939936295867 0 0.26180167325791431 -0.066706815846455908 0 0.25764566998465072 -0.070071372177431313 0 0.24120587699226881 -0.055916030502087773 0 0.26145119023330071 -0.079000043976386408 0 0.25764566998465072 -0.070071372177431313 0 0.24423239209720191 -0.080930297464084477 0 0.25764566998465072 -0.070071372177431313 0 0.24423239209720191 -0.080930297464084477 0 0.26897876163713708 -0.070467118147906876 0 0.26145119023330071 -0.079000043976386408 0 0.25764566998465072 -0.070071372177431313 0 0.26897876163713708 -0.070467118147906876 0 0.26180167325791431 -0.066706815846455908 0 0.25764566998465072 -0.070071372177431313 0 0.26897876163713708 -0.070467118147906876 0 0.25764566998465072 -0.070071372177431313 0 0.26897876163713708 -0.070467118147906876 0 0.26180167325791431 -0.066706815846455908 0 0.26180167325791431 -0.066706815846455908 0 0.25764566998465072 -0.070071372177431313 0 0.26180167325791431 -0.066706815846455908 0 0.26029261894245981 -0.048826031507571623 0 0.24120587699226881 -0.055916030502087773 0 0.26180167325791431 -0.066706815846455908 0 0.24120587699226881 -0.055916030502087773 0 0.26180167325791431 -0.066706815846455908 0 0.26029261894245981 -0.048826031507571623 0 0.27783686619476677 -0.05372527893061739 0 0.26180167325791431 -0.066706815846455908 0 0.27783686619476677 -0.05372527893061739 0 0.26029261894245981 -0.048826031507571623 0 0.27783686619476677 -0.05372527893061739 0 0.27031708646619812 -0.033638605470610219 0 0.27783686619476677 -0.05372527893061739 0 0.27031708646619812 -0.033638605470610219 0 0.28437966209514692 -0.033534114227583768 0 0.26029261894245981 -0.048826031507571623 0 0.27031708646619812 -0.033638605470610219 0 0.25030159180115191 -0.034143426788088307 0 0.26029261894245981 -0.048826031507571623 0 0.25030159180115191 -0.034143426788088307 0 0.24120587699226881 -0.055916030502087773 0 0.25030159180115191 -0.034143426788088307 0 0.26299580833271302 -0.019789195105520681 0 0.2464198669495459 -0.012097030270161889 0 0.27031708646619812 -0.033638605470610219 0 0.25030159180115191 -0.034143426788088307 0 0.26299580833271302 -0.019789195105520681 0 0.25322369798355371 0.0032948183560677501 0 0.26778398551549509 -0.0036893303100333872 0 0.2464198669495459 -0.012097030270161889 0 0.26299580833271302 -0.019789195105520681 0 0.26778398551549509 -0.0036893303100333872 0 0.2464198669495459 -0.012097030270161889 0 0.26299580833271302 -0.019789195105520681 0 0.26778398551549509 -0.0036893303100333872 0 0.28231604015163769 -0.018351258625531171 0 0.2895407867033607 0.0013395930438658619 0 0.26778398551549509 -0.0036893303100333872 0 0.28231604015163769 -0.018351258625531171 0 0.27031708646619812 -0.033638605470610219 0 0.26299580833271302 -0.019789195105520681 0 0.28231604015163769 -0.018351258625531171 0 0.27031708646619812 -0.033638605470610219 0 0.28231604015163769 -0.018351258625531171 0 0.28437966209514692 -0.033534114227583768 0 0.28231604015163769 -0.018351258625531171 0 0.29600028882747859 -0.03087980289019443 0 0.28437966209514692 -0.033534114227583768 0 0.28231604015163769 -0.018351258625531171 0 0.29600028882747859 -0.03087980289019443 0 0.30132541624728598 -0.01217829343577128 0 0.2895407867033607 0.0013395930438658619 0 0.28231604015163769 -0.018351258625531171 0 0.30132541624728598 -0.01217829343577128 0 0.31046320235639918 0.0067575729804437252 0 0.2895407867033607 0.0013395930438658619 0 0.30132541624728598 -0.01217829343577128 0 0.31046320235639918 0.0067575729804437252 0 0.3153830815233527 -0.0087530987426132929 0 0.30132541624728598 -0.01217829343577128 0 0.31486943567640469 -0.023744993086391868 0 0.3153830815233527 -0.0087530987426132929 0 0.30132541624728598 -0.01217829343577128 0 0.31486943567640469 -0.023744993086391868 0 0.29600028882747859 -0.03087980289019443 0 0.30132541624728598 -0.01217829343577128 0 0.31486943567640469 -0.023744993086391868 0 0.31197137499350902 -0.041008225260955711 0 0.29387205913161968 -0.04074374201477949 0 0.31486943567640469 -0.023744993086391868 0 0.29600028882747859 -0.03087980289019443 0 0.29387205913161968 -0.04074374201477949 0 0.31486943567640469 -0.023744993086391868 0 0.29387205913161968 -0.04074374201477949 0 0.31197137499350902 -0.041008225260955711 0 0.30601744289912669 -0.055409131432484229 0 0.29387205913161968 -0.04074374201477949 0 0.28819319405889499 -0.06706419956831737 0 0.27783686619476677 -0.05372527893061739 0 0.29387205913161968 -0.04074374201477949 0 0.28819319405889499 -0.06706419956831737 0 0.29387205913161968 -0.04074374201477949 0 0.27783686619476677 -0.05372527893061739 0 0.29387205913161968 -0.04074374201477949 0 0.28819319405889499 -0.06706419956831737 0 0.30601744289912669 -0.055409131432484229 0 0.29387205913161968 -0.04074374201477949 0 0.27783686619476677 -0.05372527893061739 0 0.28437966209514692 -0.033534114227583768 0 0.29387205913161968 -0.04074374201477949 0 0.29600028882747859 -0.03087980289019443 0 0.28437966209514692 -0.033534114227583768 0 0.29387205913161968 -0.04074374201477949 0 0.29600028882747859 -0.03087980289019443 0 0.29387205913161968 -0.04074374201477949 0 0.28925369461552242 -0.21547475378801551 0 0.29798535605087828 -0.20438389051808681 0 0.27851755886665591 -0.20371457102860641 0 0.28925369461552242 -0.21547475378801551 0 0.28465086540799672 -0.2254021489655588 0 0.27851755886665591 -0.20371457102860641 0 0.28925369461552242 -0.21547475378801551 0 0.29798535605087828 -0.20438389051808681 0 0.29625974568445868 -0.22722646109941139 0 0.28994099481116897 -0.19128490440727269 0 0.29798535605087828 -0.20438389051808681 0 0.29971096641729777 -0.18154131993676231 0 0.28994099481116897 -0.19128490440727269 0 0.27851755886665591 -0.20371457102860641 0 0.28355009790984409 -0.17549983614563519 0 0.28994099481116897 -0.19128490440727269 0 0.29798535605087828 -0.20438389051808681 0 0.27851755886665591 -0.20371457102860641 0 0.30866677822314281 -0.19370433905286669 0 0.29798535605087828 -0.20438389051808681 0 0.29971096641729777 -0.18154131993676231 0 0.29798535605087828 -0.20438389051808681 0 0.29971096641729777 -0.18154131993676231 0 0.30866677822314281 -0.19370433905286669 0 0.30817512199612251 -0.208018461664154 0 0.29798535605087828 -0.20438389051808681 0 0.29798535605087828 -0.20438389051808681 0 0.29625974568445868 -0.22722646109941139 0 0.30367267472900389 -0.2178556058656746 0 0.31200739898088131 -0.22851072207886541 0 0.31883562653249692 -0.20986103607638071 0 0.29798535605087828 -0.20438389051808681 0 0.30367267472900389 -0.2178556058656746 0 0.29625974568445868 -0.22722646109941139 0 0.30817512199612251 -0.208018461664154 0 0.29798535605087828 -0.20438389051808681 0 0.30367267472900389 -0.2178556058656746 0 0.30817512199612251 -0.208018461664154 0 0.30367267472900389 -0.2178556058656746 0 0.31883562653249692 -0.20986103607638071 0 0.30367267472900389 -0.2178556058656746 0 0.31883562653249692 -0.20986103607638071 0 0.31200739898088131 -0.22851072207886541 0 0.30517917142926537 -0.24716040808135001 0 0.29625974568445868 -0.22722646109941139 0 0.30367267472900389 -0.2178556058656746 0 0.31200739898088131 -0.22851072207886541 0 0.29625974568445868 -0.22722646109941139 0 0.31200739898088131 -0.22851072207886541 0 0.30517917142926537 -0.24716040808135001 0 0.30517917142926537 -0.24716040808135001 0 0.28765229627979871 -0.24304032400626949 0 0.29625974568445868 -0.22722646109941139 0 0.28765229627979871 -0.24304032400626949 0 0.29625974568445868 -0.22722646109941139 0 0.28465086540799672 -0.2254021489655588 0 0.28765229627979871 -0.24304032400626949 0 0.28465086540799672 -0.2254021489655588 0 0.27348501982346762 -0.23192930591157759 0 0.28925369461552242 -0.21547475378801551 0 0.29625974568445868 -0.22722646109941139 0 0.28465086540799672 -0.2254021489655588 0 0.28465086540799672 -0.2254021489655588 0 0.27348501982346762 -0.23192930591157759 0 0.27851755886665591 -0.20371457102860641 0 0.27348501982346762 -0.23192930591157759 0 0.25787859859726192 -0.24372773219337371 0 0.26845248078028039 -0.26014404079454911 0 0.28765229627979871 -0.24304032400626949 0 0.27348501982346762 -0.23192930591157759 0 0.26845248078028039 -0.26014404079454911 0 0.27348501982346762 -0.23192930591157759 0 0.26845248078028039 -0.26014404079454911 0 0.27348501982346762 -0.23192930591157759 0 0.25787859859726192 -0.24372773219337371 0 0.2485278721491469 -0.22983386195931649 0 0.27348501982346762 -0.23192930591157759 0 0.25806059678156651 -0.21160485628964759 0 0.2485278721491469 -0.22983386195931649 0 0.27348501982346762 -0.23192930591157759 0 0.27851755886665591 -0.20371457102860641 0 0.27348501982346762 -0.23192930591157759 0 0.25806059678156651 -0.21160485628964759 0 0.27851755886665591 -0.20371457102860641 0 0.27851755886665591 -0.20371457102860641 0 0.26140201073716351 -0.19316186481753209 0 0.27335445324682811 -0.1824409541049711 0 0.25806059678156651 -0.21160485628964759 0 0.27851755886665591 -0.20371457102860641 0 0.26140201073716351 -0.19316186481753209 0 0.27851755886665591 -0.20371457102860641 0 0.28355009790984409 -0.17549983614563519 0 0.25806059678156651 -0.21160485628964759 0 0.26140201073716351 -0.19316186481753209 0 0.24624710011957149 -0.19756578472926509 0 0.26140201073716351 -0.19316186481753209 0 0.25030889548151403 -0.1837077448593728 0 0.24624710011957149 -0.19756578472926509 0 0.25969225384889538 -0.18295045636353721 0 0.2550208565069661 -0.17514012483034949 0 0.27335445324682811 -0.1824409541049711 0 0.26140201073716351 -0.19316186481753209 0 0.25030889548151403 -0.1837077448593728 0 0.25969225384889538 -0.18295045636353721 0 0.25030889548151403 -0.1837077448593728 0 0.25969225384889538 -0.18295045636353721 0 0.2550208565069661 -0.17514012483034949 0 0.2550208565069661 -0.17514012483034949 0 0.2530488896403309 -0.16079061319898569 0 0.27335445324682811 -0.1824409541049711 0 0.26140201073716351 -0.19316186481753209 0 0.25969225384889538 -0.18295045636353721 0 0.27335445324682811 -0.1824409541049711 0 0.2530488896403309 -0.16079061319898569 0 0.272260185211738 -0.168331689764908 0 0.26878477807763418 -0.16016356734556891 0 0.2530488896403309 -0.16079061319898569 0 0.26878477807763418 -0.16016356734556891 0 0.26293682869207591 -0.15391070786642169 0 0.2530488896403309 -0.16079061319898569 0 0.27335445324682811 -0.1824409541049711 0 0.272260185211738 -0.168331689764908 0 0.27899515764395177 -0.15443660918041571 0 0.28355009790984409 -0.17549983614563519 0 0.2530488896403309 -0.16079061319898569 0 0.272260185211738 -0.168331689764908 0 0.27335445324682811 -0.1824409541049711 0 0.272260185211738 -0.168331689764908 0 0.26878477807763418 -0.16016356734556891 0 0.27899515764395177 -0.15443660918041571 0 0.272260185211738 -0.168331689764908 0 0.27335445324682811 -0.1824409541049711 0 0.28355009790984409 -0.17549983614563519 0 0.27851755886665591 -0.20371457102860641 0 0.27335445324682811 -0.1824409541049711 0 0.28355009790984409 -0.17549983614563519 0 0.25915390151091949 -0.11811210275817149 0 0.25133622254172122 -0.13557462765415079 0 0.27338563510190422 -0.1356944138819183 0 0.25133622254172122 -0.13557462765415079 0 0.27338563510190422 -0.1356944138819183 0 0.25133622254172122 -0.13557462765415079 0 0.25208407187516418 -0.1419613505697605 0 0.27338563510190422 -0.1356944138819183 0 0.26557247671991108 -0.14774187414890411 0 0.25208407187516418 -0.1419613505697605 0 0.27142481771649529 -0.14478242884651979 0 0.25208407187516418 -0.1419613505697605 0 0.27142481771649529 -0.14478242884651979 0 0.2530488896403309 -0.16079061319898569 0 0.25208407187516418 -0.1419613505697605 0 0.26293682869207591 -0.15391070786642169 0 0.26557247671991108 -0.14774187414890411 0 0.25208407187516418 -0.1419613505697605 0 0.26293682869207591 -0.15391070786642169 0 0.27899515764395177 -0.15443660918041571 0 0.27142481771649529 -0.14478242884651979 0 0.28858263695303038 -0.1472851012626637 0 0.25208407187516418 -0.1419613505697605 0 0.27142481771649529 -0.14478242884651979 0 0.27338563510190422 -0.1356944138819183 0 0.27142481771649529 -0.14478242884651979 0 0.28858263695303038 -0.1472851012626637 0 0.27142481771649529 -0.14478242884651979 0 0.27338563510190422 -0.1356944138819183 0 0.28952553314766588 -0.14199879033185039 0 0.26878477807763418 -0.16016356734556891 0 0.27009527632936597 -0.15279308215900331 0 0.27899515764395177 -0.15443660918041571 0 0.26557247671991108 -0.14774187414890411 0 0.27009527632936597 -0.15279308215900331 0 0.27142481771649529 -0.14478242884651979 0 0.26878477807763418 -0.16016356734556891 0 0.26293682869207591 -0.15391070786642169 0 0.27009527632936597 -0.15279308215900331 0 0.26557247671991108 -0.14774187414890411 0 0.26293682869207591 -0.15391070786642169 0 0.27009527632936597 -0.15279308215900331 0 0.27009527632936597 -0.15279308215900331 0 0.27899515764395177 -0.15443660918041571 0 0.27142481771649529 -0.14478242884651979 0 0.27794998204403759 -0.11453953550188679 0 0.27338563510190422 -0.1356944138819183 0 0.27142481771649529 -0.14478242884651979 0 0.27338563510190422 -0.1356944138819183 0 0.27338563510190422 -0.1356944138819183 0 0.30316218715013699 -0.13585617877411299 0 0.29209333803684512 -0.1204183792118467 0 0.27338563510190422 -0.1356944138819183 0 0.30316218715013699 -0.13585617877411299 0 0.27338563510190422 -0.1356944138819183 0 0.28952553314766588 -0.14199879033185039 0 0.30316218715013699 -0.13585617877411299 0 0.27142481771649529 -0.14478242884651979 0 0.28952553314766588 -0.14199879033185039 0 0.28858263695303038 -0.1472851012626637 0 0.28858263695303038 -0.1472851012626637 0 0.30013596324633868 -0.14897029159077979 0 0.28952553314766588 -0.14199879033185039 0 0.28858263695303038 -0.1472851012626637 0 0.30013596324633868 -0.14897029159077979 0 0.28952553314766588 -0.14199879033185039 0 0.28858263695303038 -0.1472851012626637 0 0.28858263695303038 -0.1472851012626637 0 0.30013596324633868 -0.14897029159077979 0 0.29372711844303928 -0.1600295372122347 0 0.30316218715013699 -0.13585617877411299 0 0.30143657678371732 -0.15869874935543771 0 0.30013596324633868 -0.14897029159077979 0 0.30316218715013699 -0.13585617877411299 0 0.30143657678371732 -0.15869874935543771 0 0.30316218715013699 -0.13585617877411299 0 0.30143657678371732 -0.15869874935543771 0 0.31253980123811259 -0.14771969478669131 0 0.30013596324633868 -0.14897029159077979 0 0.29372711844303928 -0.1600295372122347 0 0.30143657678371732 -0.15869874935543771 0 0.30143657678371732 -0.15869874935543771 0 0.31557079919726838 -0.1590044961535387 0 0.31253980123811259 -0.14771969478669131 0 0.28952553314766588 -0.14199879033185039 0 0.30013596324633868 -0.14897029159077979 0 0.30316218715013699 -0.13585617877411299 0 0.30316218715013699 -0.13585617877411299 0 0.31993283661344418 -0.13594728745244961 0 0.31253980123811259 -0.14771969478669131 0 0.30316218715013699 -0.13585617877411299 0 0.31993283661344418 -0.13594728745244961 0 0.28994099481116897 -0.19128490440727269 0 0.28355009790984409 -0.17549983614563519 0 0.29971096641729777 -0.18154131993676231 0 0.28355009790984409 -0.17549983614563519 0 0.29493031732226571 -0.16969370770665679 0 0.29971096641729777 -0.18154131993676231 0 0.27899515764395177 -0.15443660918041571 0 0.28858263695303038 -0.1472851012626637 0 0.28355009790984409 -0.17549983614563519 0 0.28858263695303038 -0.1472851012626637 0 0.28355009790984409 -0.17549983614563519 0 0.28858263695303038 -0.1472851012626637 0 0.28355009790984409 -0.17549983614563519 0 0.29372711844303928 -0.1600295372122347 0 0.29372711844303928 -0.1600295372122347 0 0.29493031732226571 -0.16969370770665679 0 0.30143657678371732 -0.15869874935543771 0 0.28355009790984409 -0.17549983614563519 0 0.29372711844303928 -0.1600295372122347 0 0.29493031732226571 -0.16969370770665679 0 0.30143657678371732 -0.15869874935543771 0 0.29971096641729777 -0.18154131993676231 0 0.30143657678371732 -0.15869874935543771 0 0.30809610970482848 -0.16795036279156811 0 0.29971096641729777 -0.18154131993676231 0 0.29493031732226571 -0.16969370770665679 0 0.30143657678371732 -0.15869874935543771 0 0.29971096641729777 -0.18154131993676231 0 0.30143657678371732 -0.15869874935543771 0 0.30809610970482848 -0.16795036279156811 0 0.31557079919726838 -0.1590044961535387 0 0.29971096641729777 -0.18154131993676231 0 0.31498869866721663 -0.1848028620899877 0 0.3156660964210305 -0.17255688572053399 0 0.30809610970482848 -0.16795036279156811 0 0.29971096641729777 -0.18154131993676231 0 0.3156660964210305 -0.17255688572053399 0 0.30866677822314281 -0.19370433905286669 0 0.29971096641729777 -0.18154131993676231 0 0.31498869866721663 -0.1848028620899877 0 0.32729102930978993 -0.18432716657830939 0 0.3156660964210305 -0.17255688572053399 0 0.33199725769327038 -0.160182781354547 0 0.31498869866721663 -0.1848028620899877 0 0.32729102930978993 -0.18432716657830939 0 0.3156660964210305 -0.17255688572053399 0 0.3156660964210305 -0.17255688572053399 0 0.31557079919726838 -0.1590044961535387 0 0.33199725769327038 -0.160182781354547 0 0.30809610970482848 -0.16795036279156811 0 0.3156660964210305 -0.17255688572053399 0 0.31557079919726838 -0.1590044961535387 0 0.32729102930978993 -0.18432716657830939 0 0.34572674800851178 -0.17666980330527179 0 0.34152908302092871 -0.19789605564194099 0 0.32729102930978993 -0.18432716657830939 0 0.33199725769327038 -0.160182781354547 0 0.34572674800851178 -0.17666980330527179 0 0.32729102930978993 -0.18432716657830939 0 0.33199725769327038 -0.160182781354547 0 0.31854024801571379 -0.1183964408803808 0 0.30316218715013699 -0.13585617877411299 0 0.31993283661344418 -0.13594728745244961 0 0.31993283661344418 -0.13594728745244961 0 0.32334883616376942 -0.1477785311756023 0 0.33670348607675138 -0.13603839613078461 0 0.31854024801571379 -0.1183964408803808 0 0.31993283661344418 -0.13594728745244961 0 0.33718817445421712 -0.13355179710808501 0 0.31854024801571379 -0.1183964408803808 0 0.33718817445421712 -0.13355179710808501 0 0.31557079919726838 -0.1590044961535387 0 0.33199725769327038 -0.160182781354547 0 0.32334883616376942 -0.1477785311756023 0 0.31993283661344418 -0.13594728745244961 0 0.32334883616376942 -0.1477785311756023 0 0.31253980123811259 -0.14771969478669131 0 0.31557079919726838 -0.1590044961535387 0 0.32334883616376942 -0.1477785311756023 0 0.31253980123811259 -0.14771969478669131 0 0.33199725769327038 -0.160182781354547 0 0.34027166502062639 -0.13605778071504529 0 0.33670348607675138 -0.13603839613078461 0 0.33199725769327038 -0.160182781354547 0 0.32334883616376942 -0.1477785311756023 0 0.33670348607675138 -0.13603839613078461 0 0.33199725769327038 -0.160182781354547 0 0.33670348607675138 -0.13603839613078461 0 0.31993283661344418 -0.13594728745244961 0 0.33670348607675138 -0.13603839613078461 0 0.31993283661344418 -0.13594728745244961 0 0.33670348607675138 -0.13603839613078461 0 0.33718817445421712 -0.13355179710808501 0 0.34025414842832208 -0.11782241666052221 0 0.33718817445421712 -0.13355179710808501 0 0.34381162934489939 -0.12854128697128539 0 0.34025414842832208 -0.11782241666052221 0 0.33718817445421712 -0.13355179710808501 0 0.34027166502062639 -0.13605778071504529 0 0.33670348607675138 -0.13603839613078461 0 0.33718817445421712 -0.13355179710808501 0 0.34027166502062639 -0.13605778071504529 0 0.33718817445421712 -0.13355179710808501 0 0.34027166502062639 -0.13605778071504529 0 0.33670348607675138 -0.13603839613078461 0 0.33670348607675138 -0.13603839613078461 0 0.33718817445421712 -0.13355179710808501 0 0.34027166502062639 -0.13605778071504529 0 0.33718817445421712 -0.13355179710808501 0 0.34381162934489939 -0.12854128697128539 0 0.33199725769327038 -0.160182781354547 0 0.34027166502062639 -0.13605778071504529 0 0.36359383050920879 -0.15501193774405861 0 0.35355367174401742 -0.1211945845718113 0 0.34381162934489939 -0.12854128697128539 0 0.34779048707731292 -0.1340798558009649 0 0.34027166502062639 -0.13605778071504529 0 0.34884821061351562 -0.13610437388577321 0 0.35664352332635268 -0.13060513793896061 0 0.34779048707731292 -0.1340798558009649 0 0.34884821061351562 -0.13610437388577321 0 0.34027166502062639 -0.13605778071504529 0 0.34779048707731292 -0.1340798558009649 0 0.34884821061351562 -0.13610437388577321 0 0.34027166502062639 -0.13605778071504529 0 0.34381162934489939 -0.12854128697128539 0 0.34779048707731292 -0.1340798558009649 0 0.35664352332635268 -0.13060513793896061 0 0.34884821061351562 -0.13610437388577321 0 0.36374720336072303 -0.13810563056468389 0 0.34884821061351562 -0.13610437388577321 0 0.36359383050920879 -0.15501193774405861 0 0.36374720336072303 -0.13810563056468389 0 0.34027166502062639 -0.13605778071504529 0 0.36359383050920879 -0.15501193774405861 0 0.34027166502062639 -0.13605778071504529 0 0.34884821061351562 -0.13610437388577321 0 0.36359383050920879 -0.15501193774405861 0 0.36359383050920879 -0.15501193774405861 0 0.36374720336072303 -0.13810563056468389 0 0.37656812491251679 -0.13846106794218549 0 0.3785150876385216 -0.1195111518185689 0 0.36779594019891898 -0.12729788290040461 0 0.37656812491251679 -0.13846106794218549 0 0.36374720336072303 -0.13810563056468389 0 0.36779594019891898 -0.12729788290040461 0 0.37656812491251679 -0.13846106794218549 0 0.35664352332635268 -0.13060513793896061 0 0.36374720336072303 -0.13810563056468389 0 0.36779594019891898 -0.12729788290040461 0 0.33199725769327038 -0.160182781354547 0 0.36359383050920879 -0.15501193774405861 0 0.34572674800851178 -0.17666980330527179 0 0.34572674800851178 -0.17666980330527179 0 0.36422253950936112 -0.1859310752075029 0 0.34152908302092871 -0.19789605564194099 0 0.36359383050920879 -0.15501193774405861 0 0.34572674800851178 -0.17666980330527179 0 0.36422253950936112 -0.1859310752075029 0 0.36359383050920879 -0.15501193774405861 0 0.36422253950936112 -0.1859310752075029 0 0.38691599599779503 -0.1739660947730671 0 0.36422253950936112 -0.1859310752075029 0 0.37220629557919183 -0.19612338441269381 0 0.37910290544765168 -0.18685571494790659 0 0.36422253950936112 -0.1859310752075029 0 0.37220629557919183 -0.19612338441269381 0 0.35685044422528578 -0.20027094664828951 0 0.37220629557919183 -0.19612338441269381 0 0.3556522221671049 -0.2162457527497984 0 0.35685044422528578 -0.20027094664828951 0 0.37220629557919183 -0.19612338441269381 0 0.3556522221671049 -0.2162457527497984 0 0.37273333868611941 -0.2093978965492076 0 0.3556522221671049 -0.2162457527497984 0 0.3731990688381891 -0.2228302363117915 0 0.37220629557919183 -0.19612338441269381 0 0.37273333868611941 -0.2093978965492076 0 0.3556522221671049 -0.2162457527497984 0 0.34913249600123192 -0.20719712371303781 0 0.34152908302092871 -0.19789605564194099 0 0.34144894007629428 -0.2139395960038605 0 0.3556522221671049 -0.2162457527497984 0 0.34913249600123192 -0.20719712371303781 0 0.35685044422528578 -0.20027094664828951 0 0.3556522221671049 -0.2162457527497984 0 0.34913249600123192 -0.20719712371303781 0 0.34144894007629428 -0.2139395960038605 0 0.36422253950936112 -0.1859310752075029 0 0.35685044422528578 -0.20027094664828951 0 0.34152908302092871 -0.19789605564194099 0 0.36422253950936112 -0.1859310752075029 0 0.34152908302092871 -0.19789605564194099 0 0.34913249600123192 -0.20719712371303781 0 0.35685044422528578 -0.20027094664828951 0 0.34152908302092871 -0.19789605564194099 0 0.32729102930978993 -0.18432716657830939 0 0.34152908302092871 -0.19789605564194099 0 0.32289957828838461 -0.19876131457419149 0 0.34152908302092871 -0.19789605564194099 0 0.31883562653249692 -0.20986103607638071 0 0.34152908302092871 -0.19789605564194099 0 0.34144894007629428 -0.2139395960038605 0 0.31883562653249692 -0.20986103607638071 0 0.34144894007629428 -0.2139395960038605 0 0.31883562653249692 -0.20986103607638071 0 0.32331405575278033 -0.23055000204260581 0 0.31883562653249692 -0.20986103607638071 0 0.32289957828838461 -0.19876131457419149 0 0.30817512199612251 -0.208018461664154 0 0.31883562653249692 -0.20986103607638071 0 0.32289957828838461 -0.19876131457419149 0 0.30866677822314281 -0.19370433905286669 0 0.30817512199612251 -0.208018461664154 0 0.32289957828838461 -0.19876131457419149 0 0.34152908302092871 -0.19789605564194099 0 0.31883562653249692 -0.20986103607638071 0 0.32289957828838461 -0.19876131457419149 0 0.30866677822314281 -0.19370433905286669 0 0.31498869866721663 -0.1848028620899877 0 0.32289957828838461 -0.19876131457419149 0 0.31498869866721663 -0.1848028620899877 0 0.32729102930978993 -0.18432716657830939 0 0.32289957828838461 -0.19876131457419149 0 0.30517917142926537 -0.24716040808135001 0 0.32331405575278033 -0.23055000204260581 0 0.30517917142926537 -0.24716040808135001 0 0.32331405575278033 -0.23055000204260581 0 0.322544075342931 -0.25649048942400782 0 0.31200739898088131 -0.22851072207886541 0 0.30517917142926537 -0.24716040808135001 0 0.32331405575278033 -0.23055000204260581 0 0.31200739898088131 -0.22851072207886541 0 0.31883562653249692 -0.20986103607638071 0 0.31200739898088131 -0.22851072207886541 0 0.31883562653249692 -0.20986103607638071 0 0.32331405575278033 -0.23055000204260581 0 0.34144894007629428 -0.2139395960038605 0 0.32331405575278033 -0.23055000204260581 0 0.34144894007629428 -0.2139395960038605 0 0.32331405575278033 -0.23055000204260581 0 0.33909814875501798 -0.23636812108690311 0 0.33909814875501798 -0.23636812108690311 0 0.322544075342931 -0.25649048942400782 0 0.32331405575278033 -0.23055000204260581 0 0.33909814875501798 -0.23636812108690311 0 0.322544075342931 -0.25649048942400782 0 0.33909814875501798 -0.23636812108690311 0 0.35007299243335749 -0.24785688602667111 0 0.33700232267718733 -0.25494009872172468 0 0.33909814875501798 -0.23636812108690311 0 0.322544075342931 -0.25649048942400782 0 0.33700232267718733 -0.25494009872172468 0 0.33909814875501798 -0.23636812108690311 0 0.35007299243335749 -0.24785688602667111 0 0.35471840821638012 -0.232162972911199 0 0.35007299243335749 -0.24785688602667111 0 0.35471840821638012 -0.232162972911199 0 0.36225179838031341 -0.2439392928582107 0 0.35007299243335749 -0.24785688602667111 0 0.36225179838031341 -0.2439392928582107 0 0.36124693131331159 -0.25807728632712912 0 0.3556522221671049 -0.2162457527497984 0 0.33909814875501798 -0.23636812108690311 0 0.3556522221671049 -0.2162457527497984 0 0.33909814875501798 -0.23636812108690311 0 0.35471840821638012 -0.232162972911199 0 0.3556522221671049 -0.2162457527497984 0 0.34144894007629428 -0.2139395960038605 0 0.33909814875501798 -0.23636812108690311 0 0.35471840821638012 -0.232162972911199 0 0.3731990688381891 -0.2228302363117915 0 0.36225179838031341 -0.2439392928582107 0 0.3556522221671049 -0.2162457527497984 0 0.35471840821638012 -0.232162972911199 0 0.3731990688381891 -0.2228302363117915 0 0.3731990688381891 -0.2228302363117915 0 0.36225179838031341 -0.2439392928582107 0 0.3731990688381891 -0.2228302363117915 0 0.36225179838031341 -0.2439392928582107 0 0.38186963046980549 -0.2367879359972051 0 0.36225179838031341 -0.2439392928582107 0 0.38186963046980549 -0.2367879359972051 0 0.37510228513818711 -0.25237727586059511 0 0.38186963046980549 -0.2367879359972051 0 0.39206528024080278 -0.24921397013056479 0 0.37510228513818711 -0.25237727586059511 0 0.39206528024080278 -0.24921397013056479 0 0.40137725565661481 -0.22692044649349019 0 0.4148006158986044 -0.24103970595398019 0 0.39206528024080278 -0.24921397013056479 0 0.4148006158986044 -0.24103970595398019 0 0.40884184876520419 -0.25890250189124958 0 0.38186963046980549 -0.2367879359972051 0 0.39206528024080278 -0.24921397013056479 0 0.40137725565661481 -0.22692044649349019 0 0.40137725565661481 -0.22692044649349019 0 0.39915185452682361 -0.21610044156742811 0 0.41396763236883027 -0.21470461273584779 0 0.40137725565661481 -0.22692044649349019 0 0.38700545273377529 -0.2233412248148075 0 0.39915185452682361 -0.21610044156742811 0 0.38186963046980549 -0.2367879359972051 0 0.40137725565661481 -0.22692044649349019 0 0.38700545273377529 -0.2233412248148075 0 0.3731990688381891 -0.2228302363117915 0 0.38186963046980549 -0.2367879359972051 0 0.38700545273377529 -0.2233412248148075 0 0.3731990688381891 -0.2228302363117915 0 0.38414633929606479 -0.2017211797653724 0 0.37273333868611941 -0.2093978965492076 0 0.3731990688381891 -0.2228302363117915 0 0.38414633929606479 -0.2017211797653724 0 0.3731990688381891 -0.2228302363117915 0 0.38675328488958288 -0.2095276895359276 0 0.38414633929606479 -0.2017211797653724 0 0.3731990688381891 -0.2228302363117915 0 0.38700545273377529 -0.2233412248148075 0 0.38675328488958288 -0.2095276895359276 0 0.38675328488958288 -0.2095276895359276 0 0.38414633929606479 -0.2017211797653724 0 0.39287005569986072 -0.20314648074516001 0 0.38414633929606479 -0.2017211797653724 0 0.38373621375160438 -0.1885238144486111 0 0.39509360975394031 -0.18061212321895309 0 0.38414633929606479 -0.2017211797653724 0 0.39509360975394031 -0.18061212321895309 0 0.37999921147615667 -0.19503406661491049 0 0.38373621375160438 -0.1885238144486111 0 0.37910290544765168 -0.18685571494790659 0 0.37999921147615667 -0.19503406661491049 0 0.38414633929606479 -0.2017211797653724 0 0.38373621375160438 -0.1885238144486111 0 0.37220629557919183 -0.19612338441269381 0 0.37999921147615667 -0.19503406661491049 0 0.37910290544765168 -0.18685571494790659 0 0.37220629557919183 -0.19612338441269381 0 0.37273333868611941 -0.2093978965492076 0 0.38414633929606479 -0.2017211797653724 0 0.37220629557919183 -0.19612338441269381 0 0.37999921147615667 -0.19503406661491049 0 0.38414633929606479 -0.2017211797653724 0 0.38414633929606479 -0.2017211797653724 0 0.39694758591794982 -0.18886739411602391 0 0.39509360975394031 -0.18061212321895309 0 0.39694758591794982 -0.18886739411602391 0 0.3969424320709618 -0.1972324897541754 0 0.40101572763622523 -0.19231380306325679 0 0.38414633929606479 -0.2017211797653724 0 0.39694758591794982 -0.18886739411602391 0 0.3969424320709618 -0.1972324897541754 0 0.38414633929606479 -0.2017211797653724 0 0.3969424320709618 -0.1972324897541754 0 0.39287005569986072 -0.20314648074516001 0 0.3969424320709618 -0.1972324897541754 0 0.400612395600416 -0.20053006859666331 0 0.39287005569986072 -0.20314648074516001 0 0.3969424320709618 -0.1972324897541754 0 0.4059814476455269 -0.19573306963025069 0 0.400612395600416 -0.20053006859666331 0 0.4059814476455269 -0.19573306963025069 0 0.400612395600416 -0.20053006859666331 0 0.40665564698531481 -0.2060082342570673 0 0.3969424320709618 -0.1972324897541754 0 0.4059814476455269 -0.19573306963025069 0 0.40101572763622523 -0.19231380306325679 0 0.4059814476455269 -0.19573306963025069 0 0.40101572763622523 -0.19231380306325679 0 0.40419144491046238 -0.1874222587525772 0 0.39694758591794982 -0.18886739411602391 0 0.40101572763622523 -0.19231380306325679 0 0.40419144491046238 -0.1874222587525772 0 0.38675328488958288 -0.2095276895359276 0 0.40665564698531481 -0.2060082342570673 0 0.38675328488958288 -0.2095276895359276 0 0.39915185452682361 -0.21610044156742811 0 0.40665564698531481 -0.2060082342570673 0 0.38675328488958288 -0.2095276895359276 0 0.39287005569986072 -0.20314648074516001 0 0.40665564698531481 -0.2060082342570673 0 0.38700545273377529 -0.2233412248148075 0 0.38675328488958288 -0.2095276895359276 0 0.39915185452682361 -0.21610044156742811 0 0.400612395600416 -0.20053006859666331 0 0.39287005569986072 -0.20314648074516001 0 0.40665564698531481 -0.2060082342570673 0 0.41396763236883027 -0.21470461273584779 0 0.40665564698531481 -0.2060082342570673 0 0.42655800908104652 -0.20248877897820619 0 0.40665564698531481 -0.2060082342570673 0 0.42655800908104652 -0.20248877897820619 0 0.39915185452682361 -0.21610044156742811 0 0.41396763236883027 -0.21470461273584779 0 0.40665564698531481 -0.2060082342570673 0 0.41396763236883027 -0.21470461273584779 0 0.42655800908104652 -0.20248877897820619 0 0.40665564698531481 -0.2060082342570673 0 0.41640017291144837 -0.19588579121564459 0 0.42655800908104652 -0.20248877897820619 0 0.4059814476455269 -0.19573306963025069 0 0.41640017291144837 -0.19588579121564459 0 0.41453364601533049 -0.1862870086825022 0 0.4059814476455269 -0.19573306963025069 0 0.40419144491046238 -0.1874222587525772 0 0.41453364601533049 -0.1862870086825022 0 0.4059814476455269 -0.19573306963025069 0 0.40665564698531481 -0.2060082342570673 0 0.41640017291144837 -0.19588579121564459 0 0.41640017291144837 -0.19588579121564459 0 0.42581299264578848 -0.18832250896932939 0 0.41453364601533049 -0.1862870086825022 0 0.42655800908104652 -0.20248877897820619 0 0.444302871767289 -0.18527179670816579 0 0.42581299264578848 -0.18832250896932939 0 0.42655800908104652 -0.20248877897820619 0 0.444302871767289 -0.18527179670816579 0 0.41640017291144837 -0.19588579121564459 0 0.42581299264578848 -0.18832250896932939 0 0.42655800908104652 -0.20248877897820619 0 0.42655800908104652 -0.20248877897820619 0 0.43237997939727391 -0.21969514264188619 0 0.44995934289594253 -0.19835057932979169 0 0.41396763236883027 -0.21470461273584779 0 0.42655800908104652 -0.20248877897820619 0 0.43237997939727391 -0.21969514264188619 0 0.43237997939727391 -0.21969514264188619 0 0.43199948472716282 -0.23703470349933331 0 0.4148006158986044 -0.24103970595398019 0 0.43237997939727391 -0.21969514264188619 0 0.4148006158986044 -0.24103970595398019 0 0.43199948472716282 -0.23703470349933331 0 0.4148006158986044 -0.24103970595398019 0 0.42892204251950339 -0.2594807324876427 0 0.43199948472716282 -0.23703470349933331 0 0.44338493428344739 -0.24574379201886831 0 0.42892204251950339 -0.2594807324876427 0 0.43237997939727391 -0.21969514264188619 0 0.4148006158986044 -0.24103970595398019 0 0.41563137083033092 -0.22558997695630109 0 0.41396763236883027 -0.21470461273584779 0 0.43237997939727391 -0.21969514264188619 0 0.41563137083033092 -0.22558997695630109 0 0.40137725565661481 -0.22692044649349019 0 0.4148006158986044 -0.24103970595398019 0 0.41563137083033092 -0.22558997695630109 0 0.40137725565661481 -0.22692044649349019 0 0.41396763236883027 -0.21470461273584779 0 0.40137725565661481 -0.22692044649349019 0 0.41396763236883027 -0.21470461273584779 0 0.41563137083033092 -0.22558997695630109 0 0.39237070121405998 -0.13164091544729051 0 0.39988799210863701 -0.14408364481314989 0 0.41368108829086198 -0.13554811058748131 0 0.40604313277712428 -0.1171380761358455 0 0.39237070121405998 -0.13164091544729051 0 0.41368108829086198 -0.13554811058748131 0 0.39237070121405998 -0.13164091544729051 0 0.37656812491251679 -0.13846106794218549 0 0.38605620033535121 -0.1499684147877679 0 0.3785150876385216 -0.1195111518185689 0 0.39237070121405998 -0.13164091544729051 0 0.37656812491251679 -0.13846106794218549 0 0.36359383050920879 -0.15501193774405861 0 0.37656812491251679 -0.13846106794218549 0 0.38605620033535121 -0.1499684147877679 0 0.39237070121405998 -0.13164091544729051 0 0.38605620033535121 -0.1499684147877679 0 0.39988799210863701 -0.14408364481314989 0 0.38605620033535121 -0.1499684147877679 0 0.39988799210863701 -0.14408364481314989 0 0.39700055726989097 -0.15664682800685811 0 0.39988799210863701 -0.14408364481314989 0 0.39700055726989097 -0.15664682800685811 0 0.40766935758353628 -0.1563629578155839 0 0.40291487034120532 -0.16553079014728059 0 0.39700055726989097 -0.15664682800685811 0 0.38691599599779503 -0.1739660947730671 0 0.40291487034120532 -0.16553079014728059 0 0.38691599599779503 -0.1739660947730671 0 0.40291487034120532 -0.16553079014728059 0 0.39700055726989097 -0.15664682800685811 0 0.40766935758353628 -0.1563629578155839 0 0.40291487034120532 -0.16553079014728059 0 0.40766935758353628 -0.1563629578155839 0 0.38605620033535121 -0.1499684147877679 0 0.39700055726989097 -0.15664682800685811 0 0.38691599599779503 -0.1739660947730671 0 0.36359383050920879 -0.15501193774405861 0 0.38691599599779503 -0.1739660947730671 0 0.36359383050920879 -0.15501193774405861 0 0.38605620033535121 -0.1499684147877679 0 0.38691599599779503 -0.1739660947730671 0 0.36422253950936112 -0.1859310752075029 0 0.38691599599779503 -0.1739660947730671 0 0.37910290544765168 -0.18685571494790659 0 0.36422253950936112 -0.1859310752075029 0 0.38691599599779503 -0.1739660947730671 0 0.38691599599779503 -0.1739660947730671 0 0.38753717637180268 -0.18155585423065651 0 0.39509360975394031 -0.18061212321895309 0 0.38373621375160438 -0.1885238144486111 0 0.38753717637180268 -0.18155585423065651 0 0.39509360975394031 -0.18061212321895309 0 0.38691599599779503 -0.1739660947730671 0 0.37910290544765168 -0.18685571494790659 0 0.38753717637180268 -0.18155585423065651 0 0.38373621375160438 -0.1885238144486111 0 0.37910290544765168 -0.18685571494790659 0 0.38753717637180268 -0.18155585423065651 0 0.40291487034120532 -0.16553079014728059 0 0.38691599599779503 -0.1739660947730671 0 0.39509360975394031 -0.18061212321895309 0 0.39694758591794982 -0.18886739411602391 0 0.39665445354372708 -0.18451779314135289 0 0.39509360975394031 -0.18061212321895309 0 0.39694758591794982 -0.18886739411602391 0 0.39665445354372708 -0.18451779314135289 0 0.40021252966215071 -0.18382207331845951 0 0.39665445354372708 -0.18451779314135289 0 0.39509360975394031 -0.18061212321895309 0 0.40021252966215071 -0.18382207331845951 0 0.38691599599779503 -0.1739660947730671 0 0.39509360975394031 -0.18061212321895309 0 0.40291487034120532 -0.16553079014728059 0 0.39509360975394031 -0.18061212321895309 0 0.40549068313545528 -0.17742909809594989 0 0.40291487034120532 -0.16553079014728059 0 0.39509360975394031 -0.18061212321895309 0 0.40549068313545528 -0.17742909809594989 0 0.40419144491046238 -0.1874222587525772 0 0.40021252966215071 -0.18382207331845951 0 0.39509360975394031 -0.18061212321895309 0 0.40549068313545528 -0.17742909809594989 0 0.40021252966215071 -0.18382207331845951 0 0.39694758591794982 -0.18886739411602391 0 0.40419144491046238 -0.1874222587525772 0 0.40021252966215071 -0.18382207331845951 0 0.42581299264578848 -0.18832250896932939 0 0.41453364601533049 -0.1862870086825022 0 0.42235201908535791 -0.17050045814039369 0 0.40549068313545528 -0.17742909809594989 0 0.41453364601533049 -0.1862870086825022 0 0.42235201908535791 -0.17050045814039369 0 0.40549068313545528 -0.17742909809594989 0 0.40419144491046238 -0.1874222587525772 0 0.41453364601533049 -0.1862870086825022 0 0.42235201908535791 -0.17050045814039369 0 0.44127751826325029 -0.16493106072254701 0 0.444302871767289 -0.18527179670816579 0 0.42581299264578848 -0.18832250896932939 0 0.42235201908535791 -0.17050045814039369 0 0.444302871767289 -0.18527179670816579 0 0.42235201908535791 -0.17050045814039369 0 0.42606808286872072 -0.1533234062687002 0 0.44127751826325029 -0.16493106072254701 0 0.40291487034120532 -0.16553079014728059 0 0.40766935758353628 -0.1563629578155839 0 0.42606808286872072 -0.1533234062687002 0 0.40291487034120532 -0.16553079014728059 0 0.42606808286872072 -0.1533234062687002 0 0.40291487034120532 -0.16553079014728059 0 0.42235201908535791 -0.17050045814039369 0 0.42606808286872072 -0.1533234062687002 0 0.40291487034120532 -0.16553079014728059 0 0.40549068313545528 -0.17742909809594989 0 0.42235201908535791 -0.17050045814039369 0 0.41182663021293903 -0.1473295298712288 0 0.42606808286872072 -0.1533234062687002 0 0.41368108829086198 -0.13554811058748131 0 0.40766935758353628 -0.1563629578155839 0 0.41182663021293903 -0.1473295298712288 0 0.42606808286872072 -0.1533234062687002 0 0.39988799210863701 -0.14408364481314989 0 0.40766935758353628 -0.1563629578155839 0 0.41182663021293903 -0.1473295298712288 0 0.39988799210863701 -0.14408364481314989 0 0.41182663021293903 -0.1473295298712288 0 0.41368108829086198 -0.13554811058748131 0 0.42606808286872072 -0.1533234062687002 0 0.430889964195386 -0.135117951771525 0 0.44922129539623712 -0.14111602239012119 0 0.42606808286872072 -0.1533234062687002 0 0.430889964195386 -0.135117951771525 0 0.41368108829086198 -0.13554811058748131 0 0.42080162445294911 -0.1170697999396166 0 0.430889964195386 -0.135117951771525 0 0.41368108829086198 -0.13554811058748131 0 0.45825176112352212 -0.1171944005084963 0 0.44922129539623712 -0.14111602239012119 0 0.47461064769812122 -0.12772964805397971 0 0.44922129539623712 -0.14111602239012119 0 0.47461064769812122 -0.12772964805397971 0 0.44922129539623712 -0.14111602239012119 0 0.47041229806123103 -0.14236165737458781 0 0.47461064769812122 -0.12772964805397971 0 0.43893170590200609 -0.1195052611799315 0 0.430889964195386 -0.135117951771525 0 0.44922129539623712 -0.14111602239012119 0 0.43893170590200609 -0.1195052611799315 0 0.45825176112352212 -0.1171944005084963 0 0.44922129539623712 -0.14111602239012119 0 0.43893170590200609 -0.1195052611799315 0 0.44922129539623712 -0.14111602239012119 0 0.42606808286872072 -0.1533234062687002 0 0.44922129539623712 -0.14111602239012119 0 0.44127751826325029 -0.16493106072254701 0 0.42606808286872072 -0.1533234062687002 0 0.44922129539623712 -0.14111602239012119 0 0.44922129539623712 -0.14111602239012119 0 0.46204773445353348 -0.16805481443812731 0 0.44922129539623712 -0.14111602239012119 0 0.46204773445353348 -0.16805481443812731 0 0.47041229806123103 -0.14236165737458781 0 0.44922129539623712 -0.14111602239012119 0 0.46204773445353348 -0.16805481443812731 0 0.44127751826325029 -0.16493106072254701 0 0.46204773445353348 -0.16805481443812731 0 0.44127751826325029 -0.16493106072254701 0 0.444302871767289 -0.18527179670816579 0 0.46204773445353348 -0.16805481443812731 0 0.444302871767289 -0.18527179670816579 0 0.46675991992270621 -0.1779516052682695 0 0.47013600328087812 -0.185042241033678 0 0.44995934289594253 -0.19835057932979169 0 0.444302871767289 -0.18527179670816579 0 0.46675991992270621 -0.1779516052682695 0 0.44995934289594253 -0.19835057932979169 0 0.46204773445353348 -0.16805481443812731 0 0.444302871767289 -0.18527179670816579 0 0.46675991992270621 -0.1779516052682695 0 0.46204773445353348 -0.16805481443812731 0 0.46675991992270621 -0.1779516052682695 0 0.46675991992270621 -0.1779516052682695 0 0.47013600328087812 -0.185042241033678 0 0.46675991992270621 -0.1779516052682695 0 0.48388214138120561 -0.17390417728894431 0 0.47927416581767118 -0.18397687174081401 0 0.46675991992270621 -0.1779516052682695 0 0.47013600328087812 -0.185042241033678 0 0.47927416581767118 -0.18397687174081401 0 0.48388214138120561 -0.17390417728894431 0 0.47927416581767118 -0.18397687174081401 0 0.48987334582395858 -0.18140433091368091 0 0.48987334582395858 -0.18140433091368091 0 0.5 -0.16492372169971509 0 0.5 -0.19225537639104809 0 0.48388214138120561 -0.17390417728894431 0 0.48987334582395858 -0.18140433091368091 0 0.5 -0.16492372169971509 0 0.47927416581767118 -0.18397687174081401 0 0.48987334582395858 -0.18140433091368091 0 0.48552241192915191 -0.19206174635411891 0 0.48388214138120561 -0.17390417728894431 0 0.5 -0.16492372169971509 0 0.48337995996135552 -0.1577718361383266 0 0.46675991992270621 -0.1779516052682695 0 0.48388214138120561 -0.17390417728894431 0 0.48337995996135552 -0.1577718361383266 0 0.46204773445353348 -0.16805481443812731 0 0.46675991992270621 -0.1779516052682695 0 0.48337995996135552 -0.1577718361383266 0 0.46204773445353348 -0.16805481443812731 0 0.48337995996135552 -0.1577718361383266 0 0.47713463147989749 -0.15341672773068571 0 0.46675991992270621 -0.1779516052682695 0 0.48337995996135552 -0.1577718361383266 0 0.46204773445353348 -0.16805481443812731 0 0.47713463147989749 -0.15341672773068571 0 0.46204773445353348 -0.16805481443812731 0 0.47041229806123103 -0.14236165737458781 0 0.47713463147989749 -0.15341672773068571 0 0.48337995996135552 -0.1577718361383266 0 0.47713463147989749 -0.15341672773068571 0 0.48456351921585428 -0.1397192317593817 0 0.47041229806123103 -0.14236165737458781 0 0.47713463147989749 -0.15341672773068571 0 0.48456351921585428 -0.1397192317593817 0 0.48337995996135552 -0.1577718361383266 0 0.50000000000000311 -0.1375920670083822 0 0.48456351921585428 -0.1397192317593817 0 0.5 -0.16492372169971509 0 0.48337995996135552 -0.1577718361383266 0 0.50000000000000311 -0.1375920670083822 0 0.48337995996135552 -0.1577718361383266 0 0.50000000000000311 -0.1375920670083822 0 0.50000000000000433 -0.1143432737178363 0 0.50000000000000311 -0.1375920670083822 0 0.48456351921585428 -0.1397192317593817 0 0.50000000000000433 -0.1143432737178363 0 0.48456351921585428 -0.1397192317593817 0 0.47461064769812122 -0.12772964805397971 0 0.47041229806123103 -0.14236165737458781 0 0.48456351921585428 -0.1397192317593817 0 0.47461064769812122 -0.12772964805397971 0 0.46695018322910392 -0.22473955239466681 0 0.44975785303280541 -0.2255898949688982 0 0.46528918090086291 -0.2095084705765255 0 0.46695018322910392 -0.22473955239466681 0 0.46086119099944728 -0.24298014516654151 0 0.44975785303280541 -0.2255898949688982 0 0.46086119099944728 -0.24298014516654151 0 0.44338493428344739 -0.24574379201886831 0 0.44975785303280541 -0.2255898949688982 0 0.43199948472716282 -0.23703470349933331 0 0.44338493428344739 -0.24574379201886831 0 0.44975785303280541 -0.2255898949688982 0 0.46086119099944728 -0.24298014516654151 0 0.44338493428344739 -0.24574379201886831 0 0.45165913482636821 -0.26068325523694041 0 0.43237997939727391 -0.21969514264188619 0 0.43199948472716282 -0.23703470349933331 0 0.44975785303280541 -0.2255898949688982 0 0.43237997939727391 -0.21969514264188619 0 0.44975785303280541 -0.2255898949688982 0 0.44995934289594253 -0.19835057932979169 0 0.43237997939727391 -0.21969514264188619 0 0.44995934289594253 -0.19835057932979169 0 0.42655800908104652 -0.20248877897820619 0 0.444302871767289 -0.18527179670816579 0 0.44995934289594253 -0.19835057932979169 0 0.42655800908104652 -0.20248877897820619 0 0.44995934289594253 -0.19835057932979169 0 0.46675991992270621 -0.1779516052682695 0 0.44995934289594253 -0.19835057932979169 0 0.44995934289594253 -0.19835057932979169 0 0.46774087741254722 -0.19520616284195491 0 0.47013600328087812 -0.185042241033678 0 0.44995934289594253 -0.19835057932979169 0 0.46774087741254722 -0.19520616284195491 0 0.44995934289594253 -0.19835057932979169 0 0.46774087741254722 -0.19520616284195491 0 0.46528918090086291 -0.2095084705765255 0 0.44975785303280541 -0.2255898949688982 0 0.44995934289594253 -0.19835057932979169 0 0.46528918090086291 -0.2095084705765255 0 0.46695018322910392 -0.22473955239466681 0 0.46528918090086291 -0.2095084705765255 0 0.48029579162163721 -0.21558854579597769 0 0.46528918090086291 -0.2095084705765255 0 0.47801733861628259 -0.20339364304417529 0 0.48029579162163721 -0.21558854579597769 0 0.47801733861628259 -0.20339364304417529 0 0.48029579162163721 -0.21558854579597769 0 0.48876710843341442 -0.20457726853354019 0 0.46774087741254722 -0.19520616284195491 0 0.47801733861628259 -0.20339364304417529 0 0.48552241192915191 -0.19206174635411891 0 0.47927416581767118 -0.18397687174081401 0 0.46774087741254722 -0.19520616284195491 0 0.48552241192915191 -0.19206174635411891 0 0.46774087741254722 -0.19520616284195491 0 0.48552241192915191 -0.19206174635411891 0 0.47013600328087812 -0.185042241033678 0 0.47927416581767118 -0.18397687174081401 0 0.46774087741254722 -0.19520616284195491 0 0.46774087741254722 -0.19520616284195491 0 0.46528918090086291 -0.2095084705765255 0 0.47801733861628259 -0.20339364304417529 0 0.47801733861628259 -0.20339364304417529 0 0.48552241192915191 -0.19206174635411891 0 0.48876710843341442 -0.20457726853354019 0 0.48987334582395858 -0.18140433091368091 0 0.48552241192915191 -0.19206174635411891 0 0.5 -0.19225537639104809 0 0.48552241192915191 -0.19206174635411891 0 0.5 -0.19225537639104809 0 0.48876710843341442 -0.20457726853354019 0 0.5 -0.19225537639104809 0 0.48876710843341442 -0.20457726853354019 0 0.5 -0.21958703108238101 0 0.48029579162163721 -0.21558854579597769 0 0.48876710843341442 -0.20457726853354019 0 0.5 -0.21958703108238101 0 0.5 -0.21958703108238101 0 0.48033598971293961 -0.23536730169414519 0 0.5 -0.24691868577371379 0 0.48029579162163721 -0.21558854579597769 0 0.5 -0.21958703108238101 0 0.48033598971293961 -0.23536730169414519 0 0.46695018322910392 -0.22473955239466681 0 0.46086119099944728 -0.24298014516654151 0 0.48033598971293961 -0.23536730169414519 0 0.46695018322910392 -0.22473955239466681 0 0.48029579162163721 -0.21558854579597769 0 0.48033598971293961 -0.23536730169414519 0 0.46086119099944728 -0.24298014516654151 0 0.48033598971293961 -0.23536730169414519 0 0.47450143065275591 -0.2599846894272051 0 0.48033598971293961 -0.23536730169414519 0 0.5 -0.24691868577371379 0 0.47450143065275591 -0.2599846894272051 0 0.5 -0.24691868577371379 0 0.50000000000000222 -0.27425034046504659 0 0.47450143065275591 -0.2599846894272051 0 0.50000000000000222 -0.27425034046504659 0 0.47605513413645029 -0.28008102786359129 0 0.47450143065275591 -0.2599846894272051 0 0.47605513413645029 -0.28008102786359129 0 0.47450143065275591 -0.2599846894272051 0 0.45931845050930209 -0.27772900618102819 0 0.46086119099944728 -0.24298014516654151 0 0.47450143065275591 -0.2599846894272051 0 0.45165913482636821 -0.26068325523694041 0 0.47450143065275591 -0.2599846894272051 0 0.45931845050930209 -0.27772900618102819 0 0.45165913482636821 -0.26068325523694041 0 0.45931845050930209 -0.27772900618102819 0 0.44355941821905998 -0.27577600561597132 0 0.45165913482636821 -0.26068325523694041 0 0.44338493428344739 -0.24574379201886831 0 0.45165913482636821 -0.26068325523694041 0 0.42892204251950339 -0.2594807324876427 0 0.44355941821905998 -0.27577600561597132 0 0.45165913482636821 -0.26068325523694041 0 0.42892204251950339 -0.2594807324876427 0 0.44743457629936911 -0.29125199491084608 0 0.45088585771739531 -0.31517042999936162 0 0.43686388954492023 -0.30206384222820981 0 0.45088585771739531 -0.31517042999936162 0 0.43602078127065758 -0.31524868357114688 0 0.43686388954492023 -0.30206384222820981 0 0.45931845050930209 -0.27772900618102819 0 0.44355941821905998 -0.27577600561597132 0 0.44743457629936911 -0.29125199491084608 0 0.44355941821905998 -0.27577600561597132 0 0.44743457629936911 -0.29125199491084608 0 0.42611848489587972 -0.28658767974219163 0 0.47605513413645029 -0.28008102786359129 0 0.45931845050930209 -0.27772900618102819 0 0.46516191830632447 -0.295844547827811 0 0.45931845050930209 -0.27772900618102819 0 0.44743457629936911 -0.29125199491084608 0 0.46516191830632447 -0.295844547827811 0 0.44743457629936911 -0.29125199491084608 0 0.46516191830632447 -0.295844547827811 0 0.45088585771739531 -0.31517042999936162 0 0.46516191830632447 -0.295844547827811 0 0.47218478901913252 -0.31616939882945228 0 0.45088585771739531 -0.31517042999936162 0 0.4860923945095682 -0.29520986964724988 0 0.47218478901913252 -0.31616939882945228 0 0.50000000000000222 -0.27425034046504659 0 0.4860923945095682 -0.29520986964724988 0 0.5 -0.307151228172029 0 0.46516191830632447 -0.295844547827811 0 0.4860923945095682 -0.29520986964724988 0 0.47218478901913252 -0.31616939882945228 0 0.47605513413645029 -0.28008102786359129 0 0.46516191830632447 -0.295844547827811 0 0.4860923945095682 -0.29520986964724988 0 0.50000000000000222 -0.27425034046504659 0 0.47605513413645029 -0.28008102786359129 0 0.4860923945095682 -0.29520986964724988 0 0.50000000000000222 -0.27425034046504659 0 0.4860923945095682 -0.29520986964724988 0 0.4860923945095682 -0.29520986964724988 0 0.5 -0.307151228172029 0 0.47218478901913252 -0.31616939882945228 0 0.5 -0.307151228172029 0 0.47500442815187882 -0.33618410333150461 0 0.5 -0.35237408365171952 0 0.5 -0.307151228172029 0 0.47500442815187882 -0.33618410333150461 0 0.47218478901913252 -0.31616939882945228 0 0.47500442815187882 -0.33618410333150461 0 0.5 -0.35237408365171952 0 0.46252966193221051 -0.36479181955861489 0 0.5 -0.35237408365171952 0 0.46252966193221051 -0.36479181955861489 0 0.4680243894331878 -0.39009447735167219 0 0.46252966193221051 -0.36479181955861489 0 0.44439653888602387 -0.37108278870097211 0 0.45518384933885458 -0.37953704158418422 0 0.46252966193221051 -0.36479181955861489 0 0.4490308344886651 -0.35295870566956811 0 0.45703493443123322 -0.33948916176555749 0 0.47500442815187882 -0.33618410333150461 0 0.46252966193221051 -0.36479181955861489 0 0.45703493443123322 -0.33948916176555749 0 0.46252966193221051 -0.36479181955861489 0 0.45703493443123322 -0.33948916176555749 0 0.4490308344886651 -0.35295870566956811 0 0.44439653888602387 -0.37108278870097211 0 0.43547581015886039 -0.35374612963373181 0 0.44432011104097457 -0.34600420025309703 0 0.4490308344886651 -0.35295870566956811 0 0.45042795048268808 -0.34263813410543531 0 0.4490308344886651 -0.35295870566956811 0 0.45703493443123322 -0.33948916176555749 0 0.45042795048268808 -0.34263813410543531 0 0.44432011104097457 -0.34600420025309703 0 0.4490308344886651 -0.35295870566956811 0 0.43547581015886039 -0.35374612963373181 0 0.44432011104097457 -0.34600420025309703 0 0.43877314986606192 -0.33818418946214152 0 0.43547581015886039 -0.35374612963373181 0 0.46252966193221051 -0.36479181955861489 0 0.4490308344886651 -0.35295870566956811 0 0.44439653888602387 -0.37108278870097211 0 0.47218478901913252 -0.31616939882945228 0 0.45845081404400378 -0.32484725803309861 0 0.45088585771739531 -0.31517042999936162 0 0.47218478901913252 -0.31616939882945228 0 0.45845081404400378 -0.32484725803309861 0 0.45827718352869679 -0.33712892801165451 0 0.47218478901913252 -0.31616939882945228 0 0.45827718352869679 -0.33712892801165451 0 0.45845081404400378 -0.32484725803309861 0 0.45465012105844921 -0.33200612518688721 0 0.44755831468875862 -0.32470483606049327 0 0.47500442815187882 -0.33618410333150461 0 0.45703493443123322 -0.33948916176555749 0 0.45827718352869679 -0.33712892801165451 0 0.47500442815187882 -0.33618410333150461 0 0.47218478901913252 -0.31616939882945228 0 0.45827718352869679 -0.33712892801165451 0 0.45703493443123322 -0.33948916176555749 0 0.4547926195999189 -0.33699511694280199 0 0.45042795048268808 -0.34263813410543531 0 0.45703493443123322 -0.33948916176555749 0 0.45827718352869679 -0.33712892801165451 0 0.4547926195999189 -0.33699511694280199 0 0.45845081404400378 -0.32484725803309861 0 0.45827718352869679 -0.33712892801165451 0 0.45465012105844921 -0.33200612518688721 0 0.4547926195999189 -0.33699511694280199 0 0.45465012105844921 -0.33200612518688721 0 0.45190540097192972 -0.33615439765103378 0 0.45827718352869679 -0.33712892801165451 0 0.4547926195999189 -0.33699511694280199 0 0.45465012105844921 -0.33200612518688721 0 0.45465012105844921 -0.33200612518688721 0 0.44749393872662357 -0.33307274595813069 0 0.44755831468875862 -0.32470483606049327 0 0.45465012105844921 -0.33200612518688721 0 0.44749393872662357 -0.33307274595813069 0 0.45190540097192972 -0.33615439765103378 0 0.4547926195999189 -0.33699511694280199 0 0.45042795048268808 -0.34263813410543531 0 0.45190540097192972 -0.33615439765103378 0 0.45042795048268808 -0.34263813410543531 0 0.45190540097192972 -0.33615439765103378 0 0.44691761172297523 -0.33872250108465612 0 0.44749393872662357 -0.33307274595813069 0 0.45190540097192972 -0.33615439765103378 0 0.44691761172297523 -0.33872250108465612 0 0.44432011104097457 -0.34600420025309703 0 0.45042795048268808 -0.34263813410543531 0 0.44691761172297523 -0.33872250108465612 0 0.44432011104097457 -0.34600420025309703 0 0.44691761172297523 -0.33872250108465612 0 0.43877314986606192 -0.33818418946214152 0 0.44749393872662357 -0.33307274595813069 0 0.44691761172297523 -0.33872250108465612 0 0.43877314986606192 -0.33818418946214152 0 0.44749393872662357 -0.33307274595813069 0 0.43877314986606192 -0.33818418946214152 0 0.43784837531542259 -0.32788377361433518 0 0.44749393872662357 -0.33307274595813069 0 0.43784837531542259 -0.32788377361433518 0 0.44755831468875862 -0.32470483606049327 0 0.43784837531542259 -0.32788377361433518 0 0.44755831468875862 -0.32470483606049327 0 0.43602078127065758 -0.31524868357114688 0 0.45845081404400378 -0.32484725803309861 0 0.44755831468875862 -0.32470483606049327 0 0.45088585771739531 -0.31517042999936162 0 0.44755831468875862 -0.32470483606049327 0 0.45088585771739531 -0.31517042999936162 0 0.43602078127065758 -0.31524868357114688 0 0.43784837531542259 -0.32788377361433518 0 0.42583518759170652 -0.33528639298719382 0 0.41775460495295358 -0.31793141321765611 0 0.43784837531542259 -0.32788377361433518 0 0.43602078127065758 -0.31524868357114688 0 0.41775460495295358 -0.31793141321765611 0 0.43877314986606192 -0.33818418946214152 0 0.43784837531542259 -0.32788377361433518 0 0.42583518759170652 -0.33528639298719382 0 0.43877314986606192 -0.33818418946214152 0 0.42583518759170652 -0.33528639298719382 0 0.43547581015886039 -0.35374612963373181 0 0.41250416259223432 -0.33960725990233392 0 0.41775460495295358 -0.31793141321765611 0 0.39805431729583179 -0.33510365622952631 0 0.41250416259223432 -0.33960725990233392 0 0.41775460495295358 -0.31793141321765611 0 0.42583518759170652 -0.33528639298719382 0 0.41250416259223432 -0.33960725990233392 0 0.41775460495295358 -0.31793141321765611 0 0.42583518759170652 -0.33528639298719382 0 0.41250416259223432 -0.33960725990233392 0 0.42034794007649889 -0.35298104146800569 0 0.43547581015886039 -0.35374612963373181 0 0.42034794007649889 -0.35298104146800569 0 0.42578668388574042 -0.37577956855813549 0 0.44439653888602387 -0.37108278870097211 0 0.43547581015886039 -0.35374612963373181 0 0.42578668388574042 -0.37577956855813549 0 0.42583518759170652 -0.33528639298719382 0 0.43547581015886039 -0.35374612963373181 0 0.42034794007649889 -0.35298104146800569 0 0.41250416259223432 -0.33960725990233392 0 0.42034794007649889 -0.35298104146800569 0 0.40725372023151529 -0.36128310658701179 0 0.41250416259223432 -0.33960725990233392 0 0.40725372023151529 -0.36128310658701179 0 0.40725372023151529 -0.36128310658701179 0 0.42578668388574042 -0.37577956855813549 0 0.40193856510946419 -0.3832261124550107 0 0.40725372023151529 -0.36128310658701179 0 0.42578668388574042 -0.37577956855813549 0 0.42034794007649889 -0.35298104146800569 0 0.40725372023151529 -0.36128310658701179 0 0.42578668388574042 -0.37577956855813549 0 0.40725372023151529 -0.36128310658701179 0 0.39425043507280438 -0.36432915978129837 0 0.40193856510946419 -0.3832261124550107 0 0.40725372023151529 -0.36128310658701179 0 0.40193856510946419 -0.3832261124550107 0 0.39425043507280438 -0.36432915978129837 0 0.38081427771294768 -0.36737052156009248 0 0.40193856510946419 -0.3832261124550107 0 0.40725372023151529 -0.36128310658701179 0 0.38699517723729038 -0.34543689852307891 0 0.39805431729583179 -0.33510365622952631 0 0.40725372023151529 -0.36128310658701179 0 0.39425043507280438 -0.36432915978129837 0 0.38699517723729038 -0.34543689852307891 0 0.40725372023151529 -0.36128310658701179 0 0.38699517723729038 -0.34543689852307891 0 0.41250416259223432 -0.33960725990233392 0 0.40725372023151529 -0.36128310658701179 0 0.39805431729583179 -0.33510365622952631 0 0.38699517723729038 -0.34543689852307891 0 0.38081427771294768 -0.36737052156009248 0 0.37640125955739012 -0.35149107478397351 0 0.38465179156333151 -0.34360390505586791 0 0.36805061276354478 -0.3427907498460791 0 0.39425043507280438 -0.36432915978129837 0 0.38699517723729038 -0.34543689852307891 0 0.38081427771294768 -0.36737052156009248 0 0.38699517723729038 -0.34543689852307891 0 0.37640125955739012 -0.35149107478397351 0 0.38081427771294768 -0.36737052156009248 0 0.38699517723729038 -0.34543689852307891 0 0.38465179156333151 -0.34360390505586791 0 0.38699517723729038 -0.34543689852307891 0 0.37640125955739012 -0.35149107478397351 0 0.38465179156333151 -0.34360390505586791 0 0.41775460495295358 -0.31793141321765611 0 0.39401776620237461 -0.32051644503610022 0 0.39805431729583179 -0.33510365622952631 0 0.38699517723729038 -0.34543689852307891 0 0.39401776620237461 -0.32051644503610022 0 0.39805431729583179 -0.33510365622952631 0 0.38699517723729038 -0.34543689852307891 0 0.39401776620237461 -0.32051644503610022 0 0.38465179156333151 -0.34360390505586791 0 0.37858644206980091 -0.32769985780377792 0 0.36805061276354478 -0.3427907498460791 0 0.38699517723729038 -0.34543689852307891 0 0.39401776620237461 -0.32051644503610022 0 0.38465179156333151 -0.34360390505586791 0 0.39401776620237461 -0.32051644503610022 0 0.38465179156333151 -0.34360390505586791 0 0.37858644206980091 -0.32769985780377792 0 0.39401776620237461 -0.32051644503610022 0 0.37858644206980091 -0.32769985780377792 0 0.37861767820969228 -0.30691821554646831 0 0.41775460495295358 -0.31793141321765611 0 0.39401776620237461 -0.32051644503610022 0 0.40104035516745928 -0.29559599154912142 0 0.39401776620237461 -0.32051644503610022 0 0.37861767820969228 -0.30691821554646831 0 0.40104035516745928 -0.29559599154912142 0 0.39401776620237461 -0.32051644503610022 0 0.40104035516745928 -0.29559599154912142 0 0.40104035516745928 -0.29559599154912142 0 0.38498320530945151 -0.287592927137584 0 0.39655653748852282 -0.27284147297554762 0 0.38498320530945151 -0.287592927137584 0 0.37764450162479901 -0.26965755496232408 0 0.36873774536035581 -0.28861226174546889 0 0.37861767820969228 -0.30691821554646831 0 0.40104035516745928 -0.29559599154912142 0 0.38498320530945151 -0.287592927137584 0 0.37861767820969228 -0.30691821554646831 0 0.38498320530945151 -0.287592927137584 0 0.36873774536035581 -0.28861226174546889 0 0.38498320530945151 -0.287592927137584 0 0.37764450162479901 -0.26965755496232408 0 0.39655653748852282 -0.27284147297554762 0 0.39206528024080278 -0.24921397013056479 0 0.37764450162479901 -0.26965755496232408 0 0.39655653748852282 -0.27284147297554762 0 0.39206528024080278 -0.24921397013056479 0 0.37764450162479901 -0.26965755496232408 0 0.37510228513818711 -0.25237727586059511 0 0.39206528024080278 -0.24921397013056479 0 0.39655653748852282 -0.27284147297554762 0 0.40884184876520419 -0.25890250189124958 0 0.40104035516745928 -0.29559599154912142 0 0.39655653748852282 -0.27284147297554762 0 0.4136044294752057 -0.2739163227279473 0 0.39655653748852282 -0.27284147297554762 0 0.4136044294752057 -0.2739163227279473 0 0.40884184876520419 -0.25890250189124958 0 0.4148006158986044 -0.24103970595398019 0 0.40884184876520419 -0.25890250189124958 0 0.42892204251950339 -0.2594807324876427 0 0.4136044294752057 -0.2739163227279473 0 0.40884184876520419 -0.25890250189124958 0 0.42892204251950339 -0.2594807324876427 0 0.4136044294752057 -0.2739163227279473 0 0.42892204251950339 -0.2594807324876427 0 0.42611848489587972 -0.28658767974219163 0 0.44355941821905998 -0.27577600561597132 0 0.42892204251950339 -0.2594807324876427 0 0.42611848489587972 -0.28658767974219163 0 0.44743457629936911 -0.29125199491084608 0 0.42611848489587972 -0.28658767974219163 0 0.43686388954492023 -0.30206384222820981 0 0.43602078127065758 -0.31524868357114688 0 0.41775460495295358 -0.31793141321765611 0 0.42179240152309172 -0.30222108271158582 0 0.42611848489587972 -0.28658767974219163 0 0.43686388954492023 -0.30206384222820981 0 0.42179240152309172 -0.30222108271158582 0 0.43602078127065758 -0.31524868357114688 0 0.43686388954492023 -0.30206384222820981 0 0.42179240152309172 -0.30222108271158582 0 0.41775460495295358 -0.31793141321765611 0 0.40104035516745928 -0.29559599154912142 0 0.42179240152309172 -0.30222108271158582 0 0.40104035516745928 -0.29559599154912142 0 0.4136044294752057 -0.2739163227279473 0 0.42611848489587972 -0.28658767974219163 0 0.40104035516745928 -0.29559599154912142 0 0.42611848489587972 -0.28658767974219163 0 0.42179240152309172 -0.30222108271158582 0 0.5 -0.5 0 0.478892924595126 -0.45923392689990328 0 0.5 -0.41454166856117469 0 0.5 -0.5 0 0.47943423265092072 -0.49342116463239621 0 0.40014079662082208 -0.5 0 0.43983937115661631 -0.46972557693384148 0 0.47943423265092072 -0.49342116463239621 0 0.40014079662082208 -0.5 0 0.43983937115661631 -0.46972557693384148 0 0.46715606132834708 -0.47012790102379598 0 0.47943423265092072 -0.49342116463239621 0 0.5 -0.5 0 0.47943423265092072 -0.49342116463239621 0 0.478892924595126 -0.45923392689990328 0 0.46715606132834708 -0.47012790102379598 0 0.47943423265092072 -0.49342116463239621 0 0.478892924595126 -0.45923392689990328 0 0.46715606132834708 -0.47012790102379598 0 0.47943423265092072 -0.49342116463239621 0 0.478892924595126 -0.45923392689990328 0 0.45487789000577361 -0.44683463741519602 0 0.47188936358571532 -0.4304781897668572 0 0.46715606132834708 -0.47012790102379598 0 0.45487789000577361 -0.44683463741519602 0 0.46715606132834708 -0.47012790102379598 0 0.478892924595126 -0.45923392689990328 0 0.45487789000577361 -0.44683463741519602 0 0.43983937115661631 -0.46972557693384148 0 0.46715606132834708 -0.47012790102379598 0 0.45487789000577361 -0.44683463741519602 0 0.43983937115661631 -0.46972557693384148 0 0.45487789000577361 -0.44683463741519602 0 0.43095981599733307 -0.44753658110846528 0 0.45487789000577361 -0.44683463741519602 0 0.43408281430989271 -0.43319973453275151 0 0.43095981599733307 -0.44753658110846528 0 0.45487789000577361 -0.44683463741519602 0 0.44259971868320003 -0.42354137380659601 0 0.45487789000577361 -0.44683463741519602 0 0.44259971868320003 -0.42354137380659601 0 0.43408281430989271 -0.43319973453275151 0 0.45487789000577361 -0.44683463741519602 0 0.44259971868320003 -0.42354137380659601 0 0.45959372781066021 -0.42263882295877442 0 0.44259971868320003 -0.42354137380659601 0 0.45186952978880229 -0.40983589673226128 0 0.45959372781066021 -0.42263882295877442 0 0.44259971868320003 -0.42354137380659601 0 0.45186952978880229 -0.40983589673226128 0 0.44161148704613862 -0.40579593671517361 0 0.44259971868320003 -0.42354137380659601 0 0.44161148704613862 -0.40579593671517361 0 0.43098246877755192 -0.41858878846052949 0 0.45186952978880229 -0.40983589673226128 0 0.45959372781066021 -0.42263882295877442 0 0.46285261119418991 -0.40477249250038388 0 0.45959372781066021 -0.42263882295877442 0 0.4735191169341651 -0.41539713514472942 0 0.46285261119418991 -0.40477249250038388 0 0.45959372781066021 -0.42263882295877442 0 0.47188936358571532 -0.4304781897668572 0 0.4735191169341651 -0.41539713514472942 0 0.45487789000577361 -0.44683463741519602 0 0.45959372781066021 -0.42263882295877442 0 0.47188936358571532 -0.4304781897668572 0 0.5 -0.41454166856117469 0 0.4735191169341651 -0.41539713514472942 0 0.4680243894331878 -0.39009447735167219 0 0.478892924595126 -0.45923392689990328 0 0.47188936358571532 -0.4304781897668572 0 0.5 -0.41454166856117469 0 0.47188936358571532 -0.4304781897668572 0 0.5 -0.41454166856117469 0 0.4735191169341651 -0.41539713514472942 0 0.5 -0.35237408365171952 0 0.5 -0.41454166856117469 0 0.4680243894331878 -0.39009447735167219 0 0.4735191169341651 -0.41539713514472942 0 0.4680243894331878 -0.39009447735167219 0 0.46252966193221051 -0.36479181955861489 0 0.45518384933885458 -0.37953704158418422 0 0.4680243894331878 -0.39009447735167219 0 0.45518384933885458 -0.37953704158418422 0 0.4680243894331878 -0.39009447735167219 0 0.44431964753996511 -0.39027603052925969 0 0.46252966193221051 -0.36479181955861489 0 0.4680243894331878 -0.39009447735167219 0 0.4735191169341651 -0.41539713514472942 0 0.4680243894331878 -0.39009447735167219 0 0.46285261119418991 -0.40477249250038388 0 0.4680243894331878 -0.39009447735167219 0 0.46285261119418991 -0.40477249250038388 0 0.44431964753996511 -0.39027603052925969 0 0.46285261119418991 -0.40477249250038388 0 0.44431964753996511 -0.39027603052925969 0 0.45186952978880229 -0.40983589673226128 0 0.44161148704613862 -0.40579593671517361 0 0.44431964753996511 -0.39027603052925969 0 0.45186952978880229 -0.40983589673226128 0 0.46285261119418991 -0.40477249250038388 0 0.44431964753996511 -0.39027603052925969 0 0.44439653888602387 -0.37108278870097211 0 0.44431964753996511 -0.39027603052925969 0 0.42578668388574042 -0.37577956855813549 0 0.44439653888602387 -0.37108278870097211 0 0.45518384933885458 -0.37953704158418422 0 0.44431964753996511 -0.39027603052925969 0 0.44431964753996511 -0.39027603052925969 0 0.42578668388574042 -0.37577956855813549 0 0.42627525148907153 -0.39512359141131242 0 0.44431964753996511 -0.39027603052925969 0 0.42578668388574042 -0.37577956855813549 0 0.44161148704613862 -0.40579593671517361 0 0.44431964753996511 -0.39027603052925969 0 0.42627525148907153 -0.39512359141131242 0 0.44161148704613862 -0.40579593671517361 0 0.42627525148907153 -0.39512359141131242 0 0.41380476734409732 -0.40903711363024231 0 0.41288573556315727 -0.39366710087554208 0 0.39662340998741341 -0.40516911832300972 0 0.41380476734409732 -0.40903711363024231 0 0.42627525148907153 -0.39512359141131242 0 0.41288573556315727 -0.39366710087554208 0 0.41380476734409732 -0.40903711363024231 0 0.42578668388574042 -0.37577956855813549 0 0.41288573556315727 -0.39366710087554208 0 0.40193856510946419 -0.3832261124550107 0 0.42578668388574042 -0.37577956855813549 0 0.42627525148907153 -0.39512359141131242 0 0.41288573556315727 -0.39366710087554208 0 0.38081427771294768 -0.36737052156009248 0 0.37463337818860382 -0.38930414459710588 0 0.3737028077843495 -0.38742295831448542 0 0.38081427771294768 -0.36737052156009248 0 0.38897026210220897 -0.39170162293651239 0 0.37463337818860382 -0.38930414459710588 0 0.38081427771294768 -0.36737052156009248 0 0.37463337818860382 -0.38930414459710588 0 0.38081427771294768 -0.36737052156009248 0 0.40193856510946419 -0.3832261124550107 0 0.38897026210220897 -0.39170162293651239 0 0.38599804764205609 -0.41227829054531151 0 0.37463337818860382 -0.38930414459710588 0 0.38897026210220897 -0.39170162293651239 0 0.39662340998741341 -0.40516911832300972 0 0.38599804764205609 -0.41227829054531151 0 0.38599804764205609 -0.41227829054531151 0 0.36755341006792419 -0.41442821452601158 0 0.37463337818860382 -0.38930414459710588 0 0.38897026210220897 -0.39170162293651239 0 0.38599804764205609 -0.41227829054531151 0 0.37463337818860382 -0.38930414459710588 0 0.40193856510946419 -0.3832261124550107 0 0.38897026210220897 -0.39170162293651239 0 0.39662340998741341 -0.40516911832300972 0 0.41288573556315727 -0.39366710087554208 0 0.40193856510946419 -0.3832261124550107 0 0.39662340998741341 -0.40516911832300972 0 0.40193856510946419 -0.3832261124550107 0 0.39662340998741341 -0.40516911832300972 0 0.38599804764205609 -0.41227829054531151 0 0.41380476734409732 -0.40903711363024231 0 0.39662340998741341 -0.40516911832300972 0 0.38599804764205609 -0.41227829054531151 0 0.41380476734409732 -0.40903711363024231 0 0.40147331832312588 -0.42054231308375889 0 0.38599804764205609 -0.41227829054531151 0 0.41380476734409732 -0.40903711363024231 0 0.38599804764205609 -0.41227829054531151 0 0.36755341006792419 -0.41442821452601158 0 0.38599804764205609 -0.41227829054531151 0 0.37837193070639508 -0.43074191130029282 0 0.36755341006792419 -0.41442821452601158 0 0.38599804764205609 -0.41227829054531151 0 0.37837193070639508 -0.43074191130029282 0 0.39716653888589531 -0.43485585418744782 0 0.37837193070639508 -0.43074191130029282 0 0.39716653888589531 -0.43485585418744782 0 0.38455236834147782 -0.44235831893697952 0 0.38599804764205609 -0.41227829054531151 0 0.39716653888589531 -0.43485585418744782 0 0.40147331832312588 -0.42054231308375889 0 0.38599804764205609 -0.41227829054531151 0 0.39716653888589531 -0.43485585418744782 0 0.40147331832312588 -0.42054231308375889 0 0.39716653888589531 -0.43485585418744782 0 0.40988830344794153 -0.42850982814637428 0 0.39716653888589531 -0.43485585418744782 0 0.40988830344794153 -0.42850982814637428 0 0.41424956646142452 -0.44145335337101582 0 0.40988830344794153 -0.42850982814637428 0 0.42255857874347952 -0.42798536962106742 0 0.41424956646142452 -0.44145335337101582 0 0.40147331832312588 -0.42054231308375889 0 0.40988830344794153 -0.42850982814637428 0 0.41380476734409732 -0.40903711363024231 0 0.40988830344794153 -0.42850982814637428 0 0.41380476734409732 -0.40903711363024231 0 0.42255857874347952 -0.42798536962106742 0 0.44161148704613862 -0.40579593671517361 0 0.41380476734409732 -0.40903711363024231 0 0.43098246877755192 -0.41858878846052949 0 0.44161148704613862 -0.40579593671517361 0 0.41380476734409732 -0.40903711363024231 0 0.41380476734409732 -0.40903711363024231 0 0.43098246877755192 -0.41858878846052949 0 0.42255857874347952 -0.42798536962106742 0 0.43408281430989271 -0.43319973453275151 0 0.42255857874347952 -0.42798536962106742 0 0.43095981599733307 -0.44753658110846528 0 0.44259971868320003 -0.42354137380659601 0 0.43098246877755192 -0.41858878846052949 0 0.43408281430989271 -0.43319973453275151 0 0.43098246877755192 -0.41858878846052949 0 0.43408281430989271 -0.43319973453275151 0 0.42255857874347952 -0.42798536962106742 0 0.42255857874347952 -0.42798536962106742 0 0.43095981599733307 -0.44753658110846528 0 0.41424956646142452 -0.44145335337101582 0 0.43983937115661631 -0.46972557693384148 0 0.42706067288056998 -0.45966910190407051 0 0.41707216494033877 -0.46659444091922031 0 0.43983937115661631 -0.46972557693384148 0 0.43095981599733307 -0.44753658110846528 0 0.42706067288056998 -0.45966910190407051 0 0.43095981599733307 -0.44753658110846528 0 0.42706067288056998 -0.45966910190407051 0 0.42037133942799187 -0.45481980865475502 0 0.42037133942799187 -0.45481980865475502 0 0.41707216494033877 -0.46659444091922031 0 0.40833503012973449 -0.45743341782958391 0 0.42706067288056998 -0.45966910190407051 0 0.42037133942799187 -0.45481980865475502 0 0.41707216494033877 -0.46659444091922031 0 0.41707216494033877 -0.46659444091922031 0 0.40833503012973449 -0.45743341782958391 0 0.39424227281986102 -0.46676003377889269 0 0.43095981599733307 -0.44753658110846528 0 0.42037133942799187 -0.45481980865475502 0 0.41424956646142452 -0.44145335337101582 0 0.42037133942799187 -0.45481980865475502 0 0.40833503012973449 -0.45743341782958391 0 0.41424956646142452 -0.44145335337101582 0 0.39716653888589531 -0.43485585418744782 0 0.40833503012973449 -0.45743341782958391 0 0.41424956646142452 -0.44145335337101582 0 0.39716653888589531 -0.43485585418744782 0 0.39345157537004599 -0.45057062730194619 0 0.38455236834147782 -0.44235831893697952 0 0.39716653888589531 -0.43485585418744782 0 0.40833503012973449 -0.45743341782958391 0 0.39345157537004599 -0.45057062730194619 0 0.39716653888589531 -0.43485585418744782 0 0.40833503012973449 -0.45743341782958391 0 0.39345157537004599 -0.45057062730194619 0 0.38455236834147782 -0.44235831893697952 0 0.38182359321740972 -0.45292134106576409 0 0.38455236834147782 -0.44235831893697952 0 0.38182359321740972 -0.45292134106576409 0 0.37194820352764257 -0.4427018608294464 0 0.37837193070639508 -0.43074191130029282 0 0.38455236834147782 -0.44235831893697952 0 0.37194820352764257 -0.4427018608294464 0 0.38182359321740972 -0.45292134106576409 0 0.39424227281986102 -0.46676003377889269 0 0.37141238069938332 -0.46692562663856529 0 0.39345157537004599 -0.45057062730194619 0 0.38182359321740972 -0.45292134106576409 0 0.39424227281986102 -0.46676003377889269 0 0.39424227281986102 -0.46676003377889269 0 0.37141238069938332 -0.46692562663856529 0 0.40833503012973449 -0.45743341782958391 0 0.39345157537004599 -0.45057062730194619 0 0.39424227281986102 -0.46676003377889269 0 0.41707216494033877 -0.46659444091922031 0 0.39424227281986102 -0.46676003377889269 0 0.41707216494033877 -0.46659444091922031 0 0.39424227281986102 -0.46676003377889269 0 0.40014079662082208 -0.5 0 0.39424227281986102 -0.46676003377889269 0 0.40014079662082208 -0.5 0 0.37141238069938332 -0.46692562663856529 0 0.43983937115661631 -0.46972557693384148 0 0.41707216494033877 -0.46659444091922031 0 0.40014079662082208 -0.5 0 0.40014079662082208 -0.5 0 0.32546065004022617 -0.5 0 0.3462765218470546 -0.48033279556006703 0 0.32546065004022617 -0.5 0 0.3462765218470546 -0.48033279556006703 0 0.30631021868456298 -0.48072311486568892 0 0.3462765218470546 -0.48033279556006703 0 0.32575259645842791 -0.46725681235791028 0 0.30631021868456298 -0.48072311486568892 0 0.3462765218470546 -0.48033279556006703 0 0.3485824885789055 -0.46709121949823779 0 0.32575259645842791 -0.46725681235791028 0 0.40014079662082208 -0.5 0 0.3462765218470546 -0.48033279556006703 0 0.37141238069938332 -0.46692562663856529 0 0.3462765218470546 -0.48033279556006703 0 0.3485824885789055 -0.46709121949823779 0 0.37141238069938332 -0.46692562663856529 0 0.3485824885789055 -0.46709121949823779 0 0.37141238069938332 -0.46692562663856529 0 0.35324569388809701 -0.44989359131069062 0 0.3485824885789055 -0.46709121949823779 0 0.35324569388809701 -0.44989359131069062 0 0.33806214337105372 -0.45777686618061397 0 0.38182359321740972 -0.45292134106576409 0 0.37141238069938332 -0.46692562663856529 0 0.35324569388809701 -0.44989359131069062 0 0.3485824885789055 -0.46709121949823779 0 0.37141238069938332 -0.46692562663856529 0 0.36060935802898147 -0.43906997082244181 0 0.37194820352764257 -0.4427018608294464 0 0.35324569388809701 -0.44989359131069062 0 0.38182359321740972 -0.45292134106576409 0 0.35324569388809701 -0.44989359131069062 0 0.37837193070639508 -0.43074191130029282 0 0.36060935802898147 -0.43906997082244181 0 0.37194820352764257 -0.4427018608294464 0 0.38182359321740972 -0.45292134106576409 0 0.37194820352764257 -0.4427018608294464 0 0.35324569388809701 -0.44989359131069062 0 0.36060935802898147 -0.43906997082244181 0 0.35324569388809701 -0.44989359131069062 0 0.34315104194743368 -0.43483422324315929 0 0.32466779455878442 -0.44686584155561709 0 0.32761501992215097 -0.43116249501185328 0 0.34315104194743368 -0.43483422324315929 0 0.35324569388809701 -0.44989359131069062 0 0.33806214337105372 -0.45777686618061397 0 0.32466779455878442 -0.44686584155561709 0 0.35324569388809701 -0.44989359131069062 0 0.32466779455878442 -0.44686584155561709 0 0.34315104194743368 -0.43483422324315929 0 0.35324569388809701 -0.44989359131069062 0 0.32466779455878442 -0.44686584155561709 0 0.3485824885789055 -0.46709121949823779 0 0.32575259645842791 -0.46725681235791028 0 0.3485824885789055 -0.46709121949823779 0 0.33806214337105372 -0.45777686618061397 0 0.32575259645842791 -0.46725681235791028 0 0.33806214337105372 -0.45777686618061397 0 0.32575259645842791 -0.46725681235791028 0 0.32466779455878442 -0.44686584155561709 0 0.32575259645842791 -0.46725681235791028 0 0.30904716904302271 -0.45792120175055678 0 0.30631021868456298 -0.48072311486568892 0 0.32575259645842791 -0.46725681235791028 0 0.32466779455878442 -0.44686584155561709 0 0.30904716904302271 -0.45792120175055678 0 0.32466779455878442 -0.44686584155561709 0 0.31800868577585262 -0.43516031519895321 0 0.30735360635596409 -0.43632211706289747 0 0.32466779455878442 -0.44686584155561709 0 0.32761501992215097 -0.43116249501185328 0 0.31800868577585262 -0.43516031519895321 0 0.32761501992215097 -0.43116249501185328 0 0.32339131420283213 -0.41656724990055422 0 0.31239832226651099 -0.42629080716544471 0 0.32761501992215097 -0.43116249501185328 0 0.31800868577585262 -0.43516031519895321 0 0.31239832226651099 -0.42629080716544471 0 0.31800868577585262 -0.43516031519895321 0 0.31239832226651099 -0.42629080716544471 0 0.30735360635596409 -0.43632211706289747 0 0.32339131420283213 -0.41656724990055422 0 0.31120060169272079 -0.4133373498197 0 0.31239832226651099 -0.42629080716544471 0 0.32339131420283213 -0.41656724990055422 0 0.319673984964159 -0.40346676889879052 0 0.31120060169272079 -0.4133373498197 0 0.319673984964159 -0.40346676889879052 0 0.30884060304287331 -0.40229515593698711 0 0.31120060169272079 -0.4133373498197 0 0.32339131420283213 -0.41656724990055422 0 0.33281994217864741 -0.40778505865636938 0 0.319673984964159 -0.40346676889879052 0 0.32761501992215097 -0.43116249501185328 0 0.32339131420283213 -0.41656724990055422 0 0.33796042338316851 -0.41787760036937549 0 0.32339131420283213 -0.41656724990055422 0 0.33281994217864741 -0.40778505865636938 0 0.33796042338316851 -0.41787760036937549 0 0.33281994217864741 -0.40778505865636938 0 0.33796042338316851 -0.41787760036937549 0 0.34601675315157321 -0.40486547886918423 0 0.32761501992215097 -0.43116249501185328 0 0.33796042338316851 -0.41787760036937549 0 0.34315104194743368 -0.43483422324315929 0 0.33796042338316851 -0.41787760036937549 0 0.34315104194743368 -0.43483422324315929 0 0.35231855835687692 -0.42655250224024699 0 0.36060935802898147 -0.43906997082244181 0 0.34315104194743368 -0.43483422324315929 0 0.35231855835687692 -0.42655250224024699 0 0.37837193070639508 -0.43074191130029282 0 0.36060935802898147 -0.43906997082244181 0 0.36755341006792419 -0.41442821452601158 0 0.36060935802898147 -0.43906997082244181 0 0.35231855835687692 -0.42655250224024699 0 0.36755341006792419 -0.41442821452601158 0 0.36060935802898147 -0.43906997082244181 0 0.36755341006792419 -0.41442821452601158 0 0.33796042338316851 -0.41787760036937549 0 0.35231855835687692 -0.42655250224024699 0 0.36755341006792419 -0.41442821452601158 0 0.33796042338316851 -0.41787760036937549 0 0.36755341006792419 -0.41442821452601158 0 0.34601675315157321 -0.40486547886918423 0 0.33796042338316851 -0.41787760036937549 0 0.36755341006792419 -0.41442821452601158 0 0.36755341006792419 -0.41442821452601158 0 0.34601675315157321 -0.40486547886918423 0 0.35566250251704978 -0.3975177511027051 0 0.34601675315157321 -0.40486547886918423 0 0.34667365318154342 -0.39629832909528578 0 0.35566250251704978 -0.3975177511027051 0 0.34667365318154342 -0.39629832909528578 0 0.34795812186604658 -0.38666189116531141 0 0.33705723519150399 -0.3961481952439429 0 0.34667365318154342 -0.39629832909528578 0 0.35566250251704978 -0.3975177511027051 0 0.34795812186604658 -0.38666189116531141 0 0.36755341006792419 -0.41442821452601158 0 0.35566250251704978 -0.3975177511027051 0 0.36706103815962848 -0.39187921332532882 0 0.36755341006792419 -0.41442821452601158 0 0.37463337818860382 -0.38930414459710588 0 0.36755341006792419 -0.41442821452601158 0 0.36706103815962848 -0.39187921332532882 0 0.37463337818860382 -0.38930414459710588 0 0.35566250251704978 -0.3975177511027051 0 0.36706103815962848 -0.39187921332532882 0 0.35924801608749379 -0.38543857686598643 0 0.38081427771294768 -0.36737052156009248 0 0.36848073339739068 -0.37517807712711049 0 0.3737028077843495 -0.38742295831448542 0 0.36848073339739068 -0.37517807712711049 0 0.3737028077843495 -0.38742295831448542 0 0.36599997940964812 -0.38379980358563692 0 0.36706103815962848 -0.39187921332532882 0 0.3737028077843495 -0.38742295831448542 0 0.36599997940964812 -0.38379980358563692 0 0.36706103815962848 -0.39187921332532882 0 0.37463337818860382 -0.38930414459710588 0 0.3737028077843495 -0.38742295831448542 0 0.37463337818860382 -0.38930414459710588 0 0.3737028077843495 -0.38742295831448542 0 0.36706103815962848 -0.39187921332532882 0 0.36599997940964812 -0.38379980358563692 0 0.35924801608749379 -0.38543857686598643 0 0.36599997940964812 -0.38379980358563692 0 0.36207090148421361 -0.37959838259465167 0 0.35924801608749379 -0.38543857686598643 0 0.36848073339739068 -0.37517807712711049 0 0.36599997940964812 -0.38379980358563692 0 0.36207090148421361 -0.37959838259465167 0 0.36848073339739068 -0.37517807712711049 0 0.36207090148421361 -0.37959838259465167 0 0.3554566368260581 -0.37480617727887811 0 0.36207090148421361 -0.37959838259465167 0 0.35924801608749379 -0.38543857686598643 0 0.3554566368260581 -0.37480617727887811 0 0.35924801608749379 -0.38543857686598643 0 0.34795812186604658 -0.38666189116531141 0 0.3554566368260581 -0.37480617727887811 0 0.35566250251704978 -0.3975177511027051 0 0.35924801608749379 -0.38543857686598643 0 0.34795812186604658 -0.38666189116531141 0 0.34795812186604658 -0.38666189116531141 0 0.34537995690420659 -0.3737828605913362 0 0.3554566368260581 -0.37480617727887811 0 0.34795812186604658 -0.38666189116531141 0 0.33323562740676532 -0.37769939737979058 0 0.34537995690420659 -0.3737828605913362 0 0.34795812186604658 -0.38666189116531141 0 0.33323562740676532 -0.37769939737979058 0 0.33705723519150399 -0.3961481952439429 0 0.33323562740676532 -0.37769939737979058 0 0.33705723519150399 -0.3961481952439429 0 0.319673984964159 -0.40346676889879052 0 0.33281994217864741 -0.40778505865636938 0 0.33705723519150399 -0.3961481952439429 0 0.319673984964159 -0.40346676889879052 0 0.33281994217864741 -0.40778505865636938 0 0.34601675315157321 -0.40486547886918423 0 0.33705723519150399 -0.3961481952439429 0 0.34601675315157321 -0.40486547886918423 0 0.34667365318154342 -0.39629832909528578 0 0.33705723519150399 -0.3961481952439429 0 0.33323562740676532 -0.37769939737979058 0 0.319673984964159 -0.40346676889879052 0 0.31422368515007948 -0.393427126581603 0 0.319673984964159 -0.40346676889879052 0 0.31422368515007948 -0.393427126581603 0 0.30884060304287331 -0.40229515593698711 0 0.33323562740676532 -0.37769939737979058 0 0.319673984964159 -0.40346676889879052 0 0.31422368515007948 -0.393427126581603 0 0.30591552541026101 -0.37751124227982003 0 0.32002671755222051 -0.36641101040373808 0 0.33323562740676532 -0.37769939737979058 0 0.31422368515007948 -0.393427126581603 0 0.32002671755222051 -0.36641101040373808 0 0.31422368515007948 -0.393427126581603 0 0.32002671755222051 -0.36641101040373808 0 0.30591552541026101 -0.37751124227982003 0 0.29934269892459558 -0.39453707190143028 0 0.28871394442674109 -0.38265385864092483 0 0.31422368515007948 -0.393427126581603 0 0.30591552541026101 -0.37751124227982003 0 0.29934269892459558 -0.39453707190143028 0 0.31422368515007948 -0.393427126581603 0 0.30884060304287331 -0.40229515593698711 0 0.29934269892459558 -0.39453707190143028 0 0.30884060304287331 -0.40229515593698711 0 0.29934269892459558 -0.39453707190143028 0 0.29896657827583012 -0.40866065312134409 0 0.28871394442674109 -0.38265385864092483 0 0.27786210523133942 -0.40981541802129928 0 0.29934269892459558 -0.39453707190143028 0 0.27786210523133942 -0.40981541802129928 0 0.29896657827583012 -0.40866065312134409 0 0.29934269892459558 -0.39453707190143028 0 0.28871394442674109 -0.38265385864092483 0 0.27786210523133942 -0.40981541802129928 0 0.28871394442674109 -0.38265385864092483 0 0.26416245427686541 -0.38049931320234009 0 0.26125098829365018 -0.39969694482297641 0 0.28871394442674109 -0.38265385864092483 0 0.26416245427686541 -0.38049931320234009 0 0.27571190406721402 -0.36345127203525351 0 0.26416245427686541 -0.38049931320234009 0 0.24971336314328341 -0.36520417674804972 0 0.24502858373403441 -0.39146921073642488 0 0.26416245427686541 -0.38049931320234009 0 0.26125098829365018 -0.39969694482297641 0 0.24502858373403441 -0.39146921073642488 0 0.28871394442674109 -0.38265385864092483 0 0.26125098829365018 -0.39969694482297641 0 0.27786210523133942 -0.40981541802129928 0 0.26125098829365018 -0.39969694482297641 0 0.25610826383841628 -0.42120346698794331 0 0.2333640889907381 -0.41241884790723538 0 0.26125098829365018 -0.39969694482297641 0 0.27786210523133942 -0.40981541802129928 0 0.25610826383841628 -0.42120346698794331 0 0.25610826383841628 -0.42120346698794331 0 0.26701026603593758 -0.43697697740167368 0 0.2518592606704963 -0.43815060111373921 0 0.27786210523133942 -0.40981541802129928 0 0.26701026603593758 -0.43697697740167368 0 0.28078102790119369 -0.4274552938509788 0 0.27786210523133942 -0.40981541802129928 0 0.26701026603593758 -0.43697697740167368 0 0.27786210523133942 -0.40981541802129928 0 0.25610826383841628 -0.42120346698794331 0 0.26701026603593758 -0.43697697740167368 0 0.26701026603593758 -0.43697697740167368 0 0.28078102790119369 -0.4274552938509788 0 0.27712236562531017 -0.4375193999175232 0 0.28078102790119369 -0.4274552938509788 0 0.28865243891263809 -0.43215364344327012 0 0.27712236562531017 -0.4375193999175232 0 0.28865243891263809 -0.43215364344327012 0 0.28959476197880307 -0.44168956347039928 0 0.27712236562531017 -0.4375193999175232 0 0.28865243891263809 -0.43215364344327012 0 0.29503220707493127 -0.43614369036708622 0 0.29829711678041942 -0.42866378264525379 0 0.28865243891263809 -0.43215364344327012 0 0.29503220707493127 -0.43614369036708622 0 0.28959476197880307 -0.44168956347039928 0 0.28865243891263809 -0.43215364344327012 0 0.29108715411517122 -0.42145013040837909 0 0.29829711678041942 -0.42866378264525379 0 0.28078102790119369 -0.4274552938509788 0 0.28865243891263809 -0.43215364344327012 0 0.29108715411517122 -0.42145013040837909 0 0.27786210523133942 -0.40981541802129928 0 0.28078102790119369 -0.4274552938509788 0 0.29108715411517122 -0.42145013040837909 0 0.27786210523133942 -0.40981541802129928 0 0.29108715411517122 -0.42145013040837909 0 0.29896657827583012 -0.40866065312134409 0 0.29108715411517122 -0.42145013040837909 0 0.30377653118007591 -0.4205559058691733 0 0.29896657827583012 -0.40866065312134409 0 0.30377653118007591 -0.4205559058691733 0 0.29896657827583012 -0.40866065312134409 0 0.31120060169272079 -0.4133373498197 0 0.30884060304287331 -0.40229515593698711 0 0.29896657827583012 -0.40866065312134409 0 0.31120060169272079 -0.4133373498197 0 0.30377653118007591 -0.4205559058691733 0 0.31120060169272079 -0.4133373498197 0 0.31239832226651099 -0.42629080716544471 0 0.30377653118007591 -0.4205559058691733 0 0.31239832226651099 -0.42629080716544471 0 0.29829711678041942 -0.42866378264525379 0 0.31239832226651099 -0.42629080716544471 0 0.30735360635596409 -0.43632211706289747 0 0.29829711678041942 -0.42866378264525379 0 0.29503220707493127 -0.43614369036708622 0 0.30735360635596409 -0.43632211706289747 0 0.29829711678041942 -0.42866378264525379 0 0.29108715411517122 -0.42145013040837909 0 0.30377653118007591 -0.4205559058691733 0 0.29829711678041942 -0.42866378264525379 0 0.32466779455878442 -0.44686584155561709 0 0.30904716904302271 -0.45792120175055678 0 0.29608989522947149 -0.44383809180054362 0 0.32466779455878442 -0.44686584155561709 0 0.29608989522947149 -0.44383809180054362 0 0.32466779455878442 -0.44686584155561709 0 0.30735360635596409 -0.43632211706289747 0 0.29608989522947149 -0.44383809180054362 0 0.30904716904302271 -0.45792120175055678 0 0.29860320416278402 -0.45529674645956592 0 0.29608989522947149 -0.44383809180054362 0 0.29503220707493127 -0.43614369036708622 0 0.30735360635596409 -0.43632211706289747 0 0.29608989522947149 -0.44383809180054362 0 0.30904716904302271 -0.45792120175055678 0 0.29721119201091789 -0.46522563712477349 0 0.30631021868456298 -0.48072311486568892 0 0.30904716904302271 -0.45792120175055678 0 0.29721119201091789 -0.46522563712477349 0 0.29860320416278402 -0.45529674645956592 0 0.28932919617959602 -0.45338424297023883 0 0.27756010650442758 -0.45518222858252849 0 0.28072062580449653 -0.47155582870540619 0 0.29721119201091789 -0.46522563712477349 0 0.28932919617959602 -0.45338424297023883 0 0.28072062580449653 -0.47155582870540619 0 0.29721119201091789 -0.46522563712477349 0 0.29860320416278402 -0.45529674645956592 0 0.28932919617959602 -0.45338424297023883 0 0.28932919617959602 -0.45338424297023883 0 0.28959476197880307 -0.44168956347039928 0 0.27756010650442758 -0.45518222858252849 0 0.29860320416278402 -0.45529674645956592 0 0.28932919617959602 -0.45338424297023883 0 0.29608989522947149 -0.44383809180054362 0 0.28932919617959602 -0.45338424297023883 0 0.29608989522947149 -0.44383809180054362 0 0.28959476197880307 -0.44168956347039928 0 0.29503220707493127 -0.43614369036708622 0 0.29608989522947149 -0.44383809180054362 0 0.28959476197880307 -0.44168956347039928 0 0.28959476197880307 -0.44168956347039928 0 0.26138620688844749 -0.44792543592233808 0 0.26701026603593758 -0.43697697740167368 0 0.27712236562531017 -0.4375193999175232 0 0.26138620688844749 -0.44792543592233808 0 0.28959476197880307 -0.44168956347039928 0 0.26138620688844749 -0.44792543592233808 0 0.27756010650442758 -0.45518222858252849 0 0.28959476197880307 -0.44168956347039928 0 0.27712236562531017 -0.4375193999175232 0 0.26138620688844749 -0.44792543592233808 0 0.26701026603593758 -0.43697697740167368 0 0.26138620688844749 -0.44792543592233808 0 0.2518592606704963 -0.43815060111373921 0 0.26138620688844749 -0.44792543592233808 0 0.26339579246569877 -0.46312143350125029 0 0.23317765179809191 -0.45416130837427687 0 0.26138620688844749 -0.44792543592233808 0 0.26339579246569877 -0.46312143350125029 0 0.27756010650442758 -0.45518222858252849 0 0.26339579246569877 -0.46312143350125029 0 0.27756010650442758 -0.45518222858252849 0 0.28072062580449653 -0.47155582870540619 0 0.28072062580449653 -0.47155582870540619 0 0.2532296876789632 -0.47497352743918242 0 0.27004646425256568 -0.5 0 0.26339579246569877 -0.46312143350125029 0 0.28072062580449653 -0.47155582870540619 0 0.2532296876789632 -0.47497352743918242 0 0.32546065004022617 -0.5 0 0.27004646425256568 -0.5 0 0.30631021868456298 -0.48072311486568892 0 0.28072062580449653 -0.47155582870540619 0 0.27004646425256568 -0.5 0 0.30631021868456298 -0.48072311486568892 0 0.29721119201091789 -0.46522563712477349 0 0.28072062580449653 -0.47155582870540619 0 0.30631021868456298 -0.48072311486568892 0 0.33743581475864359 -0.28536266187014298 0 0.3388307833371127 -0.27886836189579028 0 0.34706744656536048 -0.28007479224216619 0 0.33743581475864359 -0.28536266187014298 0 0.3388307833371127 -0.27886836189579028 0 0.33743581475864359 -0.28536266187014298 0 0.33163278235650262 -0.31237877804800812 0 0.33743581475864359 -0.28536266187014298 0 0.33163278235650262 -0.31237877804800812 0 0.34308905326158867 -0.30070827197480321 0 0.33743581475864359 -0.28536266187014298 0 0.33163278235650262 -0.31237877804800812 0 0.32364365619397351 -0.29600562892690968 0 0.33163278235650262 -0.31237877804800812 0 0.32364365619397351 -0.29600562892690968 0 0.30954970221622308 -0.30462347215273478 0 0.31296692944630888 -0.29314018565426941 0 0.32364365619397351 -0.29600562892690968 0 0.30954970221622308 -0.30462347215273478 0 0.31296692944630888 -0.29314018565426941 0 0.32364365619397351 -0.29600562892690968 0 0.31569414790308259 -0.28159305760617132 0 0.33743581475864359 -0.28536266187014298 0 0.32364365619397351 -0.29600562892690968 0 0.31569414790308259 -0.28159305760617132 0 0.33743581475864359 -0.28536266187014298 0 0.31569414790308259 -0.28159305760617132 0 0.33743581475864359 -0.28536266187014298 0 0.31569414790308259 -0.28159305760617132 0 0.32852563272885182 -0.27784073863383552 0 0.31569414790308259 -0.28159305760617132 0 0.31275786215232049 -0.27168837282467972 0 0.32066228436037369 -0.27402337931129878 0 0.31275786215232049 -0.27168837282467972 0 0.32001527731196461 -0.26686042829596718 0 0.31054181011664339 -0.26140137874582919 0 0.31275786215232049 -0.27168837282467972 0 0.32001527731196461 -0.26686042829596718 0 0.32066228436037369 -0.27402337931129878 0 0.32001527731196461 -0.26686042829596718 0 0.32631850170564902 -0.27213429919584042 0 0.32066228436037369 -0.27402337931129878 0 0.32001527731196461 -0.26686042829596718 0 0.32631850170564902 -0.27213429919584042 0 0.32861545200372733 -0.26431566092564712 0 0.32631850170564902 -0.27213429919584042 0 0.32066228436037369 -0.27402337931129878 0 0.32852563272885182 -0.27784073863383552 0 0.31569414790308259 -0.28159305760617132 0 0.32066228436037369 -0.27402337931129878 0 0.32852563272885182 -0.27784073863383552 0 0.30517917142926537 -0.24716040808135001 0 0.322544075342931 -0.25649048942400782 0 0.31054181011664339 -0.26140137874582919 0 0.32001527731196461 -0.26686042829596718 0 0.322544075342931 -0.25649048942400782 0 0.31054181011664339 -0.26140137874582919 0 0.32001527731196461 -0.26686042829596718 0 0.322544075342931 -0.25649048942400782 0 0.32861545200372733 -0.26431566092564712 0 0.322544075342931 -0.25649048942400782 0 0.32861545200372733 -0.26431566092564712 0 0.33700232267718733 -0.25494009872172468 0 0.32861545200372733 -0.26431566092564712 0 0.33700232267718733 -0.25494009872172468 0 0.3370936559567923 -0.26597622971595652 0 0.33700232267718733 -0.25494009872172468 0 0.3370936559567923 -0.26597622971595652 0 0.34612034525793539 -0.26165354425485998 0 0.32852563272885182 -0.27784073863383552 0 0.33374486488877292 -0.2728357791174113 0 0.3388307833371127 -0.27886836189579028 0 0.33743581475864359 -0.28536266187014298 0 0.32852563272885182 -0.27784073863383552 0 0.3388307833371127 -0.27886836189579028 0 0.32631850170564902 -0.27213429919584042 0 0.32852563272885182 -0.27784073863383552 0 0.33374486488877292 -0.2728357791174113 0 0.32631850170564902 -0.27213429919584042 0 0.32861545200372733 -0.26431566092564712 0 0.33374486488877292 -0.2728357791174113 0 0.32861545200372733 -0.26431566092564712 0 0.33374486488877292 -0.2728357791174113 0 0.3370936559567923 -0.26597622971595652 0 0.34349817463331772 -0.27223575233246988 0 0.3370936559567923 -0.26597622971595652 0 0.34612034525793539 -0.26165354425485998 0 0.33374486488877292 -0.2728357791174113 0 0.34349817463331772 -0.27223575233246988 0 0.3370936559567923 -0.26597622971595652 0 0.33374486488877292 -0.2728357791174113 0 0.34349817463331772 -0.27223575233246988 0 0.3388307833371127 -0.27886836189579028 0 0.34349817463331772 -0.27223575233246988 0 0.3388307833371127 -0.27886836189579028 0 0.34706744656536048 -0.28007479224216619 0 0.34349817463331772 -0.27223575233246988 0 0.34706744656536048 -0.28007479224216619 0 0.35711558672006172 -0.27354793744083078 0 0.34349817463331772 -0.27223575233246988 0 0.35711558672006172 -0.27354793744083078 0 0.34612034525793539 -0.26165354425485998 0 0.34706744656536048 -0.28007479224216619 0 0.35711558672006172 -0.27354793744083078 0 0.35357832102308678 -0.28816147489813743 0 0.35007299243335749 -0.24785688602667111 0 0.33700232267718733 -0.25494009872172468 0 0.34612034525793539 -0.26165354425485998 0 0.35711558672006172 -0.27354793744083078 0 0.34612034525793539 -0.26165354425485998 0 0.36124693131331159 -0.25807728632712912 0 0.35007299243335749 -0.24785688602667111 0 0.34612034525793539 -0.26165354425485998 0 0.36124693131331159 -0.25807728632712912 0 0.37764450162479901 -0.26965755496232408 0 0.37510228513818711 -0.25237727586059511 0 0.36124693131331159 -0.25807728632712912 0 0.36225179838031341 -0.2439392928582107 0 0.37510228513818711 -0.25237727586059511 0 0.36124693131331159 -0.25807728632712912 0 0.37764450162479901 -0.26965755496232408 0 0.35711558672006172 -0.27354793744083078 0 0.36124693131331159 -0.25807728632712912 0 0.37764450162479901 -0.26965755496232408 0 0.35711558672006172 -0.27354793744083078 0 0.36873774536035581 -0.28861226174546889 0 0.36873774536035581 -0.28861226174546889 0 0.35357832102308678 -0.28816147489813743 0 0.36087634202934032 -0.30211297570133377 0 0.35711558672006172 -0.27354793744083078 0 0.36873774536035581 -0.28861226174546889 0 0.35357832102308678 -0.28816147489813743 0 0.33743581475864359 -0.28536266187014298 0 0.35357832102308678 -0.28816147489813743 0 0.33743581475864359 -0.28536266187014298 0 0.34706744656536048 -0.28007479224216619 0 0.35357832102308678 -0.28816147489813743 0 0.33743581475864359 -0.28536266187014298 0 0.34308905326158867 -0.30070827197480321 0 0.35357832102308678 -0.28816147489813743 0 0.34308905326158867 -0.30070827197480321 0 0.36087634202934032 -0.30211297570133377 0 0.3603589122919777 -0.32616465434179109 0 0.34308905326158867 -0.30070827197480321 0 0.35357832102308678 -0.28816147489813743 0 0.36087634202934032 -0.30211297570133377 0 0.37861767820969228 -0.30691821554646831 0 0.36873774536035581 -0.28861226174546889 0 0.36087634202934032 -0.30211297570133377 0 0.37861767820969228 -0.30691821554646831 0 0.36087634202934032 -0.30211297570133377 0 0.3603589122919777 -0.32616465434179109 0 0.37858644206980091 -0.32769985780377792 0 0.37861767820969228 -0.30691821554646831 0 0.3603589122919777 -0.32616465434179109 0 0.37858644206980091 -0.32769985780377792 0 0.3603589122919777 -0.32616465434179109 0 0.36805061276354478 -0.3427907498460791 0 0.3603589122919777 -0.32616465434179109 0 0.34679726984937148 -0.35193202586079081 0 0.3603589122919777 -0.32616465434179109 0 0.34679726984937148 -0.35193202586079081 0 0.3423644242317993 -0.33453707324987059 0 0.3603589122919777 -0.32616465434179109 0 0.36805061276354478 -0.3427907498460791 0 0.34679726984937148 -0.35193202586079081 0 0.33163278235650262 -0.31237877804800812 0 0.34308905326158867 -0.30070827197480321 0 0.3603589122919777 -0.32616465434179109 0 0.33163278235650262 -0.31237877804800812 0 0.3603589122919777 -0.32616465434179109 0 0.3423644242317993 -0.33453707324987059 0 0.37640125955739012 -0.35149107478397351 0 0.38081427771294768 -0.36737052156009248 0 0.36600013168445039 -0.36059477107615401 0 0.36848073339739068 -0.37517807712711049 0 0.36600013168445039 -0.36059477107615401 0 0.3554566368260581 -0.37480617727887811 0 0.38081427771294768 -0.36737052156009248 0 0.36848073339739068 -0.37517807712711049 0 0.36600013168445039 -0.36059477107615401 0 0.36805061276354478 -0.3427907498460791 0 0.36600013168445039 -0.36059477107615401 0 0.34679726984937148 -0.35193202586079081 0 0.37640125955739012 -0.35149107478397351 0 0.36805061276354478 -0.3427907498460791 0 0.36600013168445039 -0.36059477107615401 0 0.36600013168445039 -0.36059477107615401 0 0.34679726984937148 -0.35193202586079081 0 0.3554566368260581 -0.37480617727887811 0 0.34679726984937148 -0.35193202586079081 0 0.34537995690420659 -0.3737828605913362 0 0.3554566368260581 -0.37480617727887811 0 0.33323562740676532 -0.37769939737979058 0 0.33171275220581908 -0.35441984147836231 0 0.32002671755222051 -0.36641101040373808 0 0.33323562740676532 -0.37769939737979058 0 0.34679726984937148 -0.35193202586079081 0 0.33323562740676532 -0.37769939737979058 0 0.34679726984937148 -0.35193202586079081 0 0.34537995690420659 -0.3737828605913362 0 0.33323562740676532 -0.37769939737979058 0 0.34679726984937148 -0.35193202586079081 0 0.33171275220581908 -0.35441984147836231 0 0.34679726984937148 -0.35193202586079081 0 0.33171275220581908 -0.35441984147836231 0 0.3423644242317993 -0.33453707324987059 0 0.33171275220581908 -0.35441984147836231 0 0.32002671755222051 -0.36641101040373808 0 0.32582974995436148 -0.33939489422587321 0 0.32002671755222051 -0.36641101040373808 0 0.32582974995436148 -0.33939489422587321 0 0.31500009593534162 -0.35119999692538878 0 0.32002671755222051 -0.36641101040373808 0 0.32582974995436148 -0.33939489422587321 0 0.33163278235650262 -0.31237877804800812 0 0.32582974995436148 -0.33939489422587321 0 0.33163278235650262 -0.31237877804800812 0 0.3423644242317993 -0.33453707324987059 0 0.32582974995436148 -0.33939489422587321 0 0.33171275220581908 -0.35441984147836231 0 0.3423644242317993 -0.33453707324987059 0 0.32582974995436148 -0.33939489422587321 0 0.31500009593534162 -0.35119999692538878 0 0.32582974995436148 -0.33939489422587321 0 0.31041762281754448 -0.32833073988017608 0 0.33163278235650262 -0.31237877804800812 0 0.32582974995436148 -0.33939489422587321 0 0.31041762281754448 -0.32833073988017608 0 0.33163278235650262 -0.31237877804800812 0 0.31041762281754448 -0.32833073988017608 0 0.30954970221622308 -0.30462347215273478 0 0.31041762281754448 -0.32833073988017608 0 0.29592063247569211 -0.31558436997640987 0 0.30954970221622308 -0.30462347215273478 0 0.31041762281754448 -0.32833073988017608 0 0.29132656616613523 -0.33188180257029998 0 0.29592063247569211 -0.31558436997640987 0 0.31041762281754448 -0.32833073988017608 0 0.29132656616613523 -0.33188180257029998 0 0.29956578362214281 -0.35549229926055048 0 0.31041762281754448 -0.32833073988017608 0 0.29956578362214281 -0.35549229926055048 0 0.29132656616613523 -0.33188180257029998 0 0.28219501787468609 -0.34702129220438421 0 0.27282035448602859 -0.33554085100614839 0 0.29132656616613523 -0.33188180257029998 0 0.29592063247569211 -0.31558436997640987 0 0.27986439667319313 -0.31630171845149863 0 0.29132656616613523 -0.33188180257029998 0 0.27986439667319313 -0.31630171845149863 0 0.27282035448602859 -0.33554085100614839 0 0.30591552541026101 -0.37751124227982003 0 0.28871394442674109 -0.38265385864092483 0 0.29956578362214281 -0.35549229926055048 0 0.30591552541026101 -0.37751124227982003 0 0.32002671755222051 -0.36641101040373808 0 0.29956578362214281 -0.35549229926055048 0 0.31500009593534162 -0.35119999692538878 0 0.32002671755222051 -0.36641101040373808 0 0.29956578362214281 -0.35549229926055048 0 0.31500009593534162 -0.35119999692538878 0 0.31041762281754448 -0.32833073988017608 0 0.29956578362214281 -0.35549229926055048 0 0.29956578362214281 -0.35549229926055048 0 0.28219501787468609 -0.34702129220438421 0 0.27571190406721402 -0.36345127203525351 0 0.29132656616613523 -0.33188180257029998 0 0.29956578362214281 -0.35549229926055048 0 0.28219501787468609 -0.34702129220438421 0 0.28871394442674109 -0.38265385864092483 0 0.29956578362214281 -0.35549229926055048 0 0.27571190406721402 -0.36345127203525351 0 0.28871394442674109 -0.38265385864092483 0 0.29956578362214281 -0.35549229926055048 0 0.28219501787468609 -0.34702129220438421 0 0.27571190406721402 -0.36345127203525351 0 0.2669677564247489 -0.35003134695070198 0 0.28219501787468609 -0.34702129220438421 0 0.2669677564247489 -0.35003134695070198 0 0.27282035448602859 -0.33554085100614839 0 0.2669677564247489 -0.35003134695070198 0 0.2543981425525324 -0.33893914275967452 0 0.24971336314328341 -0.36520417674804972 0 0.2543981425525324 -0.33893914275967452 0 0.24971336314328341 -0.36520417674804972 0 0.26416245427686541 -0.38049931320234009 0 0.27571190406721402 -0.36345127203525351 0 0.24971336314328341 -0.36520417674804972 0 0.27571190406721402 -0.36345127203525351 0 0.2669677564247489 -0.35003134695070198 0 0.24971336314328341 -0.36520417674804972 0 0.27986439667319313 -0.31630171845149863 0 0.27282035448602859 -0.33554085100614839 0 0.27986439667319313 -0.31630171845149863 0 0.27282035448602859 -0.33554085100614839 0 0.2590829219617814 -0.31267410877129931 0 0.2669677564247489 -0.35003134695070198 0 0.27282035448602859 -0.33554085100614839 0 0.2543981425525324 -0.33893914275967452 0 0.27282035448602859 -0.33554085100614839 0 0.2543981425525324 -0.33893914275967452 0 0.2590829219617814 -0.31267410877129931 0 0.2543981425525324 -0.33893914275967452 0 0.2590829219617814 -0.31267410877129931 0 0.24087195768162309 -0.32614810142562012 0 0.2543981425525324 -0.33893914275967452 0 0.2590829219617814 -0.31267410877129931 0 0.2590829219617814 -0.31267410877129931 0 0.26376770137103039 -0.2864090747829241 0 0.27385105082646688 -0.29718155094811333 0 0.2590829219617814 -0.31267410877129931 0 0.26376770137103039 -0.2864090747829241 0 0.24821325608307901 -0.29522124281265988 0 0.2590829219617814 -0.31267410877129931 0 0.26376770137103039 -0.2864090747829241 0 0.26376770137103039 -0.2864090747829241 0 0.24785603391849151 -0.27709942466880599 0 0.24821325608307901 -0.29522124281265988 0 0.26376770137103039 -0.2864090747829241 0 0.27275834958840189 -0.28372268528309152 0 0.2724225943816766 -0.27409056785933389 0 0.26376770137103039 -0.2864090747829241 0 0.27275834958840189 -0.28372268528309152 0 0.27385105082646688 -0.29718155094811333 0 0.28072449650403741 -0.28691913250301798 0 0.27385105082646688 -0.29718155094811333 0 0.2869084388603575 -0.29706258589684881 0 0.27275834958840189 -0.28372268528309152 0 0.28072449650403741 -0.28691913250301798 0 0.27385105082646688 -0.29718155094811333 0 0.27275834958840189 -0.28372268528309152 0 0.28072449650403741 -0.28691913250301798 0 0.27996448038040939 -0.28063895974691061 0 0.27986439667319313 -0.31630171845149863 0 0.2590829219617814 -0.31267410877129931 0 0.27385105082646688 -0.29718155094811333 0 0.27986439667319313 -0.31630171845149863 0 0.27385105082646688 -0.29718155094811333 0 0.2869084388603575 -0.29706258589684881 0 0.27986439667319313 -0.31630171845149863 0 0.2869084388603575 -0.29706258589684881 0 0.29592063247569211 -0.31558436997640987 0 0.27986439667319313 -0.31630171845149863 0 0.2869084388603575 -0.29706258589684881 0 0.2869084388603575 -0.29706258589684881 0 0.30298021147195658 -0.29033858393126172 0 0.29395248104752192 -0.27782345334219888 0 0.28072449650403741 -0.28691913250301798 0 0.2869084388603575 -0.29706258589684881 0 0.29395248104752192 -0.27782345334219888 0 0.2869084388603575 -0.29706258589684881 0 0.29395248104752192 -0.27782345334219888 0 0.28072449650403741 -0.28691913250301798 0 0.29395248104752192 -0.27782345334219888 0 0.27996448038040939 -0.28063895974691061 0 0.31569414790308259 -0.28159305760617132 0 0.30298021147195658 -0.29033858393126172 0 0.29395248104752192 -0.27782345334219888 0 0.31296692944630888 -0.29314018565426941 0 0.31569414790308259 -0.28159305760617132 0 0.30298021147195658 -0.29033858393126172 0 0.31296692944630888 -0.29314018565426941 0 0.30298021147195658 -0.29033858393126172 0 0.30954970221622308 -0.30462347215273478 0 0.2869084388603575 -0.29706258589684881 0 0.30298021147195658 -0.29033858393126172 0 0.30954970221622308 -0.30462347215273478 0 0.29592063247569211 -0.31558436997640987 0 0.2869084388603575 -0.29706258589684881 0 0.30954970221622308 -0.30462347215273478 0 0.30517917142926537 -0.24716040808135001 0 0.31054181011664339 -0.26140137874582919 0 0.2976408850071105 -0.26774945168120262 0 0.30517917142926537 -0.24716040808135001 0 0.2976408850071105 -0.26774945168120262 0 0.31275786215232049 -0.27168837282467972 0 0.2976408850071105 -0.26774945168120262 0 0.29395248104752192 -0.27782345334219888 0 0.31275786215232049 -0.27168837282467972 0 0.2976408850071105 -0.26774945168120262 0 0.31275786215232049 -0.27168837282467972 0 0.31054181011664339 -0.26140137874582919 0 0.2976408850071105 -0.26774945168120262 0 0.31569414790308259 -0.28159305760617132 0 0.29395248104752192 -0.27782345334219888 0 0.31569414790308259 -0.28159305760617132 0 0.31275786215232049 -0.27168837282467972 0 0.29395248104752192 -0.27782345334219888 0 0.2976408850071105 -0.26774945168120262 0 0.28600938745522969 -0.26471871668720698 0 0.2976408850071105 -0.26774945168120262 0 0.29395248104752192 -0.27782345334219888 0 0.29395248104752192 -0.27782345334219888 0 0.27996448038040939 -0.28063895974691061 0 0.2724225943816766 -0.27409056785933389 0 0.29395248104752192 -0.27782345334219888 0 0.28600938745522969 -0.26471871668720698 0 0.27658132089261911 -0.27335422882897692 0 0.2976408850071105 -0.26774945168120262 0 0.29395248104752192 -0.27782345334219888 0 0.28600938745522969 -0.26471871668720698 0 0.29395248104752192 -0.27782345334219888 0 0.2724225943816766 -0.27409056785933389 0 0.28600938745522969 -0.26471871668720698 0 0.27658132089261911 -0.27335422882897692 0 0.30517917142926537 -0.24716040808135001 0 0.28600938745522969 -0.26471871668720698 0 0.30517917142926537 -0.24716040808135001 0 0.2976408850071105 -0.26774945168120262 0 0.28600938745522969 -0.26471871668720698 0 0.30517917142926537 -0.24716040808135001 0 0.28765229627979871 -0.24304032400626949 0 0.28600938745522969 -0.26471871668720698 0 0.28600938745522969 -0.26471871668720698 0 0.26845248078028039 -0.26014404079454911 0 0.28765229627979871 -0.24304032400626949 0 0.28600938745522969 -0.26471871668720698 0 0.26845248078028039 -0.26014404079454911 0 0.26376770137103039 -0.2864090747829241 0 0.26845248078028039 -0.26014404079454911 0 0.2724225943816766 -0.27409056785933389 0 0.28600938745522969 -0.26471871668720698 0 0.26845248078028039 -0.26014404079454911 0 0.27658132089261911 -0.27335422882897692 0 0.26376770137103039 -0.2864090747829241 0 0.26845248078028039 -0.26014404079454911 0 0.29395248104752192 -0.27782345334219888 0 0.27658132089261911 -0.27335422882897692 0 0.2724225943816766 -0.27409056785933389 0 0.27275834958840189 -0.28372268528309152 0 0.27996448038040939 -0.28063895974691061 0 0.2724225943816766 -0.27409056785933389 0 0.26845248078028039 -0.26014404079454911 0 0.27658132089261911 -0.27335422882897692 0 0.2724225943816766 -0.27409056785933389 0 0.26376770137103039 -0.2864090747829241 0 0.26845248078028039 -0.26014404079454911 0 0.24785603391849151 -0.27709942466880599 0 0.26845248078028039 -0.26014404079454911 0 0.2410490216361528 -0.25300372010805161 0 0.26845248078028039 -0.26014404079454911 0 0.2410490216361528 -0.25300372010805161 0 0.24785603391849151 -0.27709942466880599 0 0.25787859859726192 -0.24372773219337371 0 0.26845248078028039 -0.26014404079454911 0 0.2410490216361528 -0.25300372010805161 0 0.2410490216361528 -0.25300372010805161 0 0.24785603391849151 -0.27709942466880599 0 0.23139485578507429 -0.27647983237136509 0 0.23139485578507429 -0.27647983237136509 0 0.2171028506536257 -0.26700629366950379 0 0.21674952071488601 -0.28686299221921707 0 0.2410490216361528 -0.25300372010805161 0 0.23139485578507429 -0.27647983237136509 0 0.2171028506536257 -0.26700629366950379 0 0.2410490216361528 -0.25300372010805161 0 0.2171028506536257 -0.26700629366950379 0 0.2136455624920251 -0.24586339942155419 0 0.2171028506536257 -0.26700629366950379 0 0.1960217485778272 -0.26205501631648559 0 0.2136455624920251 -0.24586339942155419 0 0.2171028506536257 -0.26700629366950379 0 0.2037572178097509 -0.27803645254629672 0 0.1960217485778272 -0.26205501631648559 0 0.2171028506536257 -0.26700629366950379 0 0.2037572178097509 -0.27803645254629672 0 0.21674952071488601 -0.28686299221921707 0 0.2037572178097509 -0.27803645254629672 0 0.1960217485778272 -0.26205501631648559 0 0.18672217274589489 -0.28463667424064248 0 0.1960217485778272 -0.26205501631648559 0 0.2136455624920251 -0.24586339942155419 0 0.1970165427207646 -0.2431475676051908 0 0.1960217485778272 -0.26205501631648559 0 0.1970165427207646 -0.2431475676051908 0 0.18013525364959199 -0.24590787480667409 0 0.19163287831415901 -0.30538761534618902 0 0.20219697373587131 -0.29192032270869461 0 0.2153952098199983 -0.30425933719731207 0 0.2037572178097509 -0.27803645254629672 0 0.20219697373587131 -0.29192032270869461 0 0.18672217274589489 -0.28463667424064248 0 0.19163287831415901 -0.30538761534618902 0 0.20219697373587131 -0.29192032270869461 0 0.18672217274589489 -0.28463667424064248 0 0.20219697373587131 -0.29192032270869461 0 0.21674952071488601 -0.28686299221921707 0 0.2153952098199983 -0.30425933719731207 0 0.2037572178097509 -0.27803645254629672 0 0.20219697373587131 -0.29192032270869461 0 0.21674952071488601 -0.28686299221921707 0 0.19163287831415901 -0.30538761534618902 0 0.2153952098199983 -0.30425933719731207 0 0.20381788977078771 -0.32236963909420019 0 0.2153952098199983 -0.30425933719731207 0 0.2333373149176502 -0.29099433783704243 0 0.2370223082464416 -0.30892926800322767 0 0.2153952098199983 -0.30425933719731207 0 0.2370223082464416 -0.30892926800322767 0 0.22300958304019269 -0.32335118517261402 0 0.21674952071488601 -0.28686299221921707 0 0.2153952098199983 -0.30425933719731207 0 0.2333373149176502 -0.29099433783704243 0 0.23139485578507429 -0.27647983237136509 0 0.21674952071488601 -0.28686299221921707 0 0.2333373149176502 -0.29099433783704243 0 0.24785603391849151 -0.27709942466880599 0 0.2333373149176502 -0.29099433783704243 0 0.24821325608307901 -0.29522124281265988 0 0.24785603391849151 -0.27709942466880599 0 0.23139485578507429 -0.27647983237136509 0 0.2333373149176502 -0.29099433783704243 0 0.2333373149176502 -0.29099433783704243 0 0.24821325608307901 -0.29522124281265988 0 0.2370223082464416 -0.30892926800322767 0 0.2590829219617814 -0.31267410877129931 0 0.24821325608307901 -0.29522124281265988 0 0.2370223082464416 -0.30892926800322767 0 0.2590829219617814 -0.31267410877129931 0 0.2370223082464416 -0.30892926800322767 0 0.24087195768162309 -0.32614810142562012 0 0.2543981425525324 -0.33893914275967452 0 0.24087195768162309 -0.32614810142562012 0 0.2308468326071676 -0.34684680242128502 0 0.24087195768162309 -0.32614810142562012 0 0.22300958304019269 -0.32335118517261402 0 0.2308468326071676 -0.34684680242128502 0 0.22300958304019269 -0.32335118517261402 0 0.2308468326071676 -0.34684680242128502 0 0.21275128108028149 -0.33749920242868869 0 0.2370223082464416 -0.30892926800322767 0 0.24087195768162309 -0.32614810142562012 0 0.22300958304019269 -0.32335118517261402 0 0.24971336314328341 -0.36520417674804972 0 0.2308468326071676 -0.34684680242128502 0 0.229200177642885 -0.36995291413531828 0 0.2543981425525324 -0.33893914275967452 0 0.24971336314328341 -0.36520417674804972 0 0.2308468326071676 -0.34684680242128502 0 0.229200177642885 -0.36995291413531828 0 0.20725651587090471 -0.36571099534901208 0 0.22031030243082139 -0.38906492162812378 0 0.2308468326071676 -0.34684680242128502 0 0.229200177642885 -0.36995291413531828 0 0.20725651587090471 -0.36571099534901208 0 0.2308468326071676 -0.34684680242128502 0 0.20725651587090471 -0.36571099534901208 0 0.21275128108028149 -0.33749920242868869 0 0.20725651587090471 -0.36571099534901208 0 0.21275128108028149 -0.33749920242868869 0 0.194202729310988 -0.34235706906990038 0 0.20725651587090471 -0.36571099534901208 0 0.194202729310988 -0.34235706906990038 0 0.180238718969634 -0.3612454971324468 0 0.20725651587090471 -0.36571099534901208 0 0.194202729310988 -0.34235706906990038 0 0.20725651587090471 -0.36571099534901208 0 0.19261827162763251 -0.374541644607297 0 0.180238718969634 -0.3612454971324468 0 0.22300958304019269 -0.32335118517261402 0 0.20381788977078771 -0.32236963909420019 0 0.21275128108028149 -0.33749920242868869 0 0.2153952098199983 -0.30425933719731207 0 0.22300958304019269 -0.32335118517261402 0 0.20381788977078771 -0.32236963909420019 0 0.20381788977078771 -0.32236963909420019 0 0.21275128108028149 -0.33749920242868869 0 0.194202729310988 -0.34235706906990038 0 0.20381788977078771 -0.32236963909420019 0 0.194202729310988 -0.34235706906990038 0 0.18384400034678741 -0.32250280289756078 0 0.19163287831415901 -0.30538761534618902 0 0.20381788977078771 -0.32236963909420019 0 0.18384400034678741 -0.32250280289756078 0 0.18384400034678741 -0.32250280289756078 0 0.17702055828029431 -0.33666004199980942 0 0.15719449589681389 -0.32866913917705798 0 0.194202729310988 -0.34235706906990038 0 0.18384400034678741 -0.32250280289756078 0 0.17702055828029431 -0.33666004199980942 0 0.15719449589681389 -0.32866913917705798 0 0.16581699513551909 -0.35306125248096398 0 0.17702055828029431 -0.33666004199980942 0 0.15719449589681389 -0.32866913917705798 0 0.16581699513551909 -0.35306125248096398 0 0.18384400034678741 -0.32250280289756078 0 0.15719449589681389 -0.32866913917705798 0 0.17186855286937899 -0.30453082832045192 0 0.180238718969634 -0.3612454971324468 0 0.1834568796589737 -0.38583095226508418 0 0.17443949437422429 -0.37745336578486988 0 0.180238718969634 -0.3612454971324468 0 0.16581699513551909 -0.35306125248096398 0 0.17443949437422429 -0.37745336578486988 0 0.180238718969634 -0.3612454971324468 0 0.1834568796589737 -0.38583095226508418 0 0.19261827162763251 -0.374541644607297 0 0.180238718969634 -0.3612454971324468 0 0.1834568796589737 -0.38583095226508418 0 0.17702055828029431 -0.33666004199980942 0 0.180238718969634 -0.3612454971324468 0 0.16581699513551909 -0.35306125248096398 0 0.17702055828029431 -0.33666004199980942 0 0.180238718969634 -0.3612454971324468 0 0.194202729310988 -0.34235706906990038 0 0.17702055828029431 -0.33666004199980942 0 0.180238718969634 -0.3612454971324468 0 0.16581699513551909 -0.35306125248096398 0 0.1602354860011011 -0.36875954027416918 0 0.14952990885070691 -0.36034775620209553 0 0.16581699513551909 -0.35306125248096398 0 0.17443949437422429 -0.37745336578486988 0 0.16581699513551909 -0.35306125248096398 0 0.1602354860011011 -0.36875954027416918 0 0.17443949437422429 -0.37745336578486988 0 0.1602354860011011 -0.36875954027416918 0 0.14673951295096799 -0.37363029079717242 0 0.14952990885070691 -0.36034775620209553 0 0.16581699513551909 -0.35306125248096398 0 0.14952990885070691 -0.36034775620209553 0 0.144826286403443 -0.34676284914488159 0 0.14952990885070691 -0.36034775620209553 0 0.144826286403443 -0.34676284914488159 0 0.12334710111447229 -0.36406834251145731 0 0.144826286403443 -0.34676284914488159 0 0.12334710111447229 -0.36406834251145731 0 0.144826286403443 -0.34676284914488159 0 0.12334710111447229 -0.36406834251145731 0 0.11573058637367541 -0.34380091622275832 0 0.13273239812562251 -0.3803535413873157 0 0.1208593498238435 -0.38006314209191833 0 0.12334710111447229 -0.36406834251145731 0 0.14673951295096799 -0.37363029079717242 0 0.14952990885070691 -0.36034775620209553 0 0.12334710111447229 -0.36406834251145731 0 0.14673951295096799 -0.37363029079717242 0 0.13273239812562251 -0.3803535413873157 0 0.12334710111447229 -0.36406834251145731 0 0.15719449589681389 -0.32866913917705798 0 0.13978194378111039 -0.33004063130878142 0 0.14857199665810869 -0.30427702587315197 0 0.15719449589681389 -0.32866913917705798 0 0.14857199665810869 -0.30427702587315197 0 0.15719449589681389 -0.32866913917705798 0 0.144826286403443 -0.34676284914488159 0 0.13978194378111039 -0.33004063130878142 0 0.15719449589681389 -0.32866913917705798 0 0.16581699513551909 -0.35306125248096398 0 0.144826286403443 -0.34676284914488159 0 0.13978194378111039 -0.33004063130878142 0 0.1249111379911398 -0.32186001205002218 0 0.11573058637367541 -0.34380091622275832 0 0.144826286403443 -0.34676284914488159 0 0.13978194378111039 -0.33004063130878142 0 0.11573058637367541 -0.34380091622275832 0 0.13978194378111039 -0.33004063130878142 0 0.14857199665810869 -0.30427702587315197 0 0.1249111379911398 -0.32186001205002218 0 0.14857199665810869 -0.30427702587315197 0 0.13584279120622419 -0.29064916595208462 0 0.1212075847983899 -0.30357596212866123 0 0.14857199665810869 -0.30427702587315197 0 0.1212075847983899 -0.30357596212866123 0 0.1249111379911398 -0.32186001205002218 0 0.14857199665810869 -0.30427702587315197 0 0.14941647374314521 -0.28066083506566319 0 0.1659314811884508 -0.28303851802095531 0 0.14857199665810869 -0.30427702587315197 0 0.13584279120622419 -0.29064916595208462 0 0.14941647374314521 -0.28066083506566319 0 0.13554841089854469 -0.28148943716570812 0 0.13584279120622419 -0.29064916595208462 0 0.14941647374314521 -0.28066083506566319 0 0.13554841089854469 -0.28148943716570812 0 0.13584279120622419 -0.29064916595208462 0 0.1176113560141319 -0.2851589593963586 0 0.1376178273856396 -0.2676878026278281 0 0.13932302263067731 -0.26948878824872591 0 0.1176113560141319 -0.2851589593963586 0 0.13554841089854469 -0.28148943716570812 0 0.13932302263067731 -0.26948878824872591 0 0.1176113560141319 -0.2851589593963586 0 0.13932302263067731 -0.26948878824872591 0 0.1176113560141319 -0.2851589593963586 0 0.1376178273856396 -0.2676878026278281 0 0.1200034520355143 -0.24749468667538321 0 0.1376178273856396 -0.2676878026278281 0 0.1200034520355143 -0.24749468667538321 0 0.1412434604122122 -0.24631040783256791 0 0.1376178273856396 -0.2676878026278281 0 0.16103468924722281 -0.25381861710109321 0 0.1412434604122122 -0.24631040783256791 0 0.1376178273856396 -0.2676878026278281 0 0.13932302263067731 -0.26948878824872591 0 0.16103468924722281 -0.25381861710109321 0 0.13932302263067731 -0.26948878824872591 0 0.16103468924722281 -0.25381861710109321 0 0.13932302263067731 -0.26948878824872591 0 0.14941647374314521 -0.28066083506566319 0 0.16103468924722281 -0.25381861710109321 0 0.13554841089854469 -0.28148943716570812 0 0.13932302263067731 -0.26948878824872591 0 0.14941647374314521 -0.28066083506566319 0 0.14941647374314521 -0.28066083506566319 0 0.16103468924722281 -0.25381861710109321 0 0.1659314811884508 -0.28303851802095531 0 0.16103468924722281 -0.25381861710109321 0 0.1779690690817976 -0.26589134009717008 0 0.1659314811884508 -0.28303851802095531 0 0.16103468924722281 -0.25381861710109321 0 0.1779690690817976 -0.26589134009717008 0 0.18013525364959199 -0.24590787480667409 0 0.1960217485778272 -0.26205501631648559 0 0.1779690690817976 -0.26589134009717008 0 0.18013525364959199 -0.24590787480667409 0 0.1960217485778272 -0.26205501631648559 0 0.1779690690817976 -0.26589134009717008 0 0.18672217274589489 -0.28463667424064248 0 0.1779690690817976 -0.26589134009717008 0 0.18672217274589489 -0.28463667424064248 0 0.1659314811884508 -0.28303851802095531 0 0.18672217274589489 -0.28463667424064248 0 0.17186855286937899 -0.30453082832045192 0 0.1659314811884508 -0.28303851802095531 0 0.19163287831415901 -0.30538761534618902 0 0.18384400034678741 -0.32250280289756078 0 0.17186855286937899 -0.30453082832045192 0 0.19163287831415901 -0.30538761534618902 0 0.18672217274589489 -0.28463667424064248 0 0.17186855286937899 -0.30453082832045192 0 0.14857199665810869 -0.30427702587315197 0 0.17186855286937899 -0.30453082832045192 0 0.1659314811884508 -0.28303851802095531 0 0.15719449589681389 -0.32866913917705798 0 0.14857199665810869 -0.30427702587315197 0 0.17186855286937899 -0.30453082832045192 0 0.27004646425256568 -0.5 0 0.19840125792562099 -0.499999999999995 0 0.2258071254777905 -0.47806137695806639 0 0.19840125792562099 -0.499999999999995 0 0.1955652389629654 -0.47833395417678298 0 0.19840125792562099 -0.499999999999995 0 0.1955652389629654 -0.47833395417678298 0 0.1857239970351309 -0.48926605560099218 0 0.1955652389629654 -0.47833395417678298 0 0.2258071254777905 -0.47806137695806639 0 0.20496909670773639 -0.46039718082621561 0 0.19840125792562099 -0.499999999999995 0 0.1955652389629654 -0.47833395417678298 0 0.2258071254777905 -0.47806137695806639 0 0.2532296876789632 -0.47497352743918242 0 0.27004646425256568 -0.5 0 0.2258071254777905 -0.47806137695806639 0 0.2532296876789632 -0.47497352743918242 0 0.2258071254777905 -0.47806137695806639 0 0.23317765179809191 -0.45416130837427687 0 0.2258071254777905 -0.47806137695806639 0 0.23317765179809191 -0.45416130837427687 0 0.20496909670773639 -0.46039718082621561 0 0.23317765179809191 -0.45416130837427687 0 0.20496909670773639 -0.46039718082621561 0 0.26339579246569877 -0.46312143350125029 0 0.2532296876789632 -0.47497352743918242 0 0.23317765179809191 -0.45416130837427687 0 0.26138620688844749 -0.44792543592233808 0 0.2518592606704963 -0.43815060111373921 0 0.23317765179809191 -0.45416130837427687 0 0.26138620688844749 -0.44792543592233808 0 0.23317765179809191 -0.45416130837427687 0 0.2518592606704963 -0.43815060111373921 0 0.23317765179809191 -0.45416130837427687 0 0.24161391479158839 -0.43048581688246368 0 0.23317765179809191 -0.45416130837427687 0 0.21274467024756119 -0.44537306322652892 0 0.22596778666418391 -0.43195218695593612 0 0.23317765179809191 -0.45416130837427687 0 0.22596778666418391 -0.43195218695593612 0 0.24161391479158839 -0.43048581688246368 0 0.20738663592967541 -0.43977689630152639 0 0.21274467024756119 -0.44537306322652892 0 0.21231789143938981 -0.43260924517595267 0 0.20738663592967541 -0.43977689630152639 0 0.20306963394956029 -0.44528763306514119 0 0.2014143480821905 -0.43583764373848299 0 0.20738663592967541 -0.43977689630152639 0 0.21274467024756119 -0.44537306322652892 0 0.20306963394956029 -0.44528763306514119 0 0.21274467024756119 -0.44537306322652892 0 0.20306963394956029 -0.44528763306514119 0 0.20202636709778779 -0.45196992376671852 0 0.21274467024756119 -0.44537306322652892 0 0.20496909670773639 -0.46039718082621561 0 0.20202636709778779 -0.45196992376671852 0 0.23317765179809191 -0.45416130837427687 0 0.21274467024756119 -0.44537306322652892 0 0.20496909670773639 -0.46039718082621561 0 0.1955652389629654 -0.47833395417678298 0 0.20496909670773639 -0.46039718082621561 0 0.1927292200003092 -0.45666790835357102 0 0.1955652389629654 -0.47833395417678298 0 0.1927292200003092 -0.45666790835357102 0 0.1955652389629654 -0.47833395417678298 0 0.19047701204926121 -0.46094242075341862 0 0.1927292200003092 -0.45666790835357102 0 0.20496909670773639 -0.46039718082621561 0 0.1927292200003092 -0.45666790835357102 0 0.20202636709778779 -0.45196992376671852 0 0.19047701204926121 -0.46094242075341862 0 0.1927292200003092 -0.45666790835357102 0 0.1876592352144193 -0.45673372923780892 0 0.1927292200003092 -0.45666790835357102 0 0.1876592352144193 -0.45673372923780892 0 0.18777566972406101 -0.44981142861604279 0 0.1927292200003092 -0.45666790835357102 0 0.19595067699787469 -0.4453334870477933 0 0.18989320103765239 -0.43500186253035911 0 0.1927292200003092 -0.45666790835357102 0 0.18989320103765239 -0.43500186253035911 0 0.1927292200003092 -0.45666790835357102 0 0.18777566972406101 -0.44981142861604279 0 0.18989320103765239 -0.43500186253035911 0 0.19521760998379711 -0.43854214036159178 0 0.19595067699787469 -0.4453334870477933 0 0.1916906899727929 -0.43609695451772118 0 0.19595067699787469 -0.4453334870477933 0 0.1916906899727929 -0.43609695451772118 0 0.18989320103765239 -0.43500186253035911 0 0.19521760998379711 -0.43854214036159178 0 0.19821003569121751 -0.44088076654097252 0 0.19595067699787469 -0.4453334870477933 0 0.19821003569121751 -0.44088076654097252 0 0.20306963394956029 -0.44528763306514119 0 0.19595067699787469 -0.4453334870477933 0 0.19821003569121751 -0.44088076654097252 0 0.20306963394956029 -0.44528763306514119 0 0.2014143480821905 -0.43583764373848299 0 0.19521760998379711 -0.43854214036159178 0 0.19821003569121751 -0.44088076654097252 0 0.19632921389935129 -0.43529695882979857 0 0.20306963394956029 -0.44528763306514119 0 0.20202636709778779 -0.45196992376671852 0 0.19595067699787469 -0.4453334870477933 0 0.1927292200003092 -0.45666790835357102 0 0.20202636709778779 -0.45196992376671852 0 0.19595067699787469 -0.4453334870477933 0 0.18989320103765239 -0.43500186253035911 0 0.193210065479164 -0.42351508711829272 0 0.18667504034831339 -0.41041640739772162 0 0.18989320103765239 -0.43500186253035911 0 0.18667504034831339 -0.41041640739772162 0 0.1973860855611401 -0.42692030526330021 0 0.193210065479164 -0.42351508711829272 0 0.19846083006015189 -0.42045811652912207 0 0.1973860855611401 -0.42692030526330021 0 0.19846083006015189 -0.42045811652912207 0 0.20326441538295181 -0.42746054266679712 0 0.1973860855611401 -0.42692030526330021 0 0.19826447490927249 -0.43151164360587502 0 0.20326441538295181 -0.42746054266679712 0 0.2014143480821905 -0.43583764373848299 0 0.19826447490927249 -0.43151164360587502 0 0.20326441538295181 -0.42746054266679712 0 0.19821003569121751 -0.44088076654097252 0 0.2014143480821905 -0.43583764373848299 0 0.19632921389935129 -0.43529695882979857 0 0.2014143480821905 -0.43583764373848299 0 0.19632921389935129 -0.43529695882979857 0 0.19826447490927249 -0.43151164360587502 0 0.19632921389935129 -0.43529695882979857 0 0.19826447490927249 -0.43151164360587502 0 0.1929283116207289 -0.43204276753099607 0 0.1973860855611401 -0.42692030526330021 0 0.19826447490927249 -0.43151164360587502 0 0.1929283116207289 -0.43204276753099607 0 0.1929283116207289 -0.43204276753099607 0 0.18989320103765239 -0.43500186253035911 0 0.193210065479164 -0.42351508711829272 0 0.19521760998379711 -0.43854214036159178 0 0.19632921389935129 -0.43529695882979857 0 0.19377820557052011 -0.43520734882518619 0 0.19521760998379711 -0.43854214036159178 0 0.19377820557052011 -0.43520734882518619 0 0.1916906899727929 -0.43609695451772118 0 0.19632921389935129 -0.43529695882979857 0 0.1929283116207289 -0.43204276753099607 0 0.19377820557052011 -0.43520734882518619 0 0.1929283116207289 -0.43204276753099607 0 0.19210490899723079 -0.4345610298626873 0 0.18989320103765239 -0.43500186253035911 0 0.19377820557052011 -0.43520734882518619 0 0.19210490899723079 -0.4345610298626873 0 0.1916906899727929 -0.43609695451772118 0 0.1929283116207289 -0.43204276753099607 0 0.19377820557052011 -0.43520734882518619 0 0.19210490899723079 -0.4345610298626873 0 0.1916906899727929 -0.43609695451772118 0 0.18989320103765239 -0.43500186253035911 0 0.19210490899723079 -0.4345610298626873 0 0.1916906899727929 -0.43609695451772118 0 0.18989320103765239 -0.43500186253035911 0 0.1973860855611401 -0.42692030526330021 0 0.1929283116207289 -0.43204276753099607 0 0.193210065479164 -0.42351508711829272 0 0.193210065479164 -0.42351508711829272 0 0.1939169242469973 -0.41625106345825691 0 0.18667504034831339 -0.41041640739772162 0 0.193210065479164 -0.42351508711829272 0 0.1939169242469973 -0.41625106345825691 0 0.19846083006015189 -0.42045811652912207 0 0.1968341740193896 -0.41150644481021997 0 0.19418069224578771 -0.40518464808912641 0 0.18667504034831339 -0.41041640739772162 0 0.1939169242469973 -0.41625106345825691 0 0.1968341740193896 -0.41150644481021997 0 0.18667504034831339 -0.41041640739772162 0 0.1968341740193896 -0.41150644481021997 0 0.20469814770209749 -0.41520386531910081 0 0.20485234226760879 -0.40188257102108682 0 0.19846083006015189 -0.42045811652912207 0 0.20469814770209749 -0.41520386531910081 0 0.20326441538295181 -0.42746054266679712 0 0.1939169242469973 -0.41625106345825691 0 0.1968341740193896 -0.41150644481021997 0 0.19846083006015189 -0.42045811652912207 0 0.1968341740193896 -0.41150644481021997 0 0.19846083006015189 -0.42045811652912207 0 0.20469814770209749 -0.41520386531910081 0 0.20469814770209749 -0.41520386531910081 0 0.21626227209603979 -0.41615869782113413 0 0.20326441538295181 -0.42746054266679712 0 0.20469814770209749 -0.41520386531910081 0 0.21626227209603979 -0.41615869782113413 0 0.20485234226760879 -0.40188257102108682 0 0.21626227209603979 -0.41615869782113413 0 0.20326441538295181 -0.42746054266679712 0 0.21231789143938981 -0.43260924517595267 0 0.21626227209603979 -0.41615869782113413 0 0.21231789143938981 -0.43260924517595267 0 0.22596778666418391 -0.43195218695593612 0 0.20738663592967541 -0.43977689630152639 0 0.2014143480821905 -0.43583764373848299 0 0.21231789143938981 -0.43260924517595267 0 0.2014143480821905 -0.43583764373848299 0 0.20326441538295181 -0.42746054266679712 0 0.21231789143938981 -0.43260924517595267 0 0.21274467024756119 -0.44537306322652892 0 0.21231789143938981 -0.43260924517595267 0 0.22596778666418391 -0.43195218695593612 0 0.22596778666418391 -0.43195218695593612 0 0.24161391479158839 -0.43048581688246368 0 0.2333640889907381 -0.41241884790723538 0 0.25610826383841628 -0.42120346698794331 0 0.2518592606704963 -0.43815060111373921 0 0.24161391479158839 -0.43048581688246368 0 0.25610826383841628 -0.42120346698794331 0 0.24161391479158839 -0.43048581688246368 0 0.2333640889907381 -0.41241884790723538 0 0.21626227209603979 -0.41615869782113413 0 0.22596778666418391 -0.43195218695593612 0 0.2333640889907381 -0.41241884790723538 0 0.2333640889907381 -0.41241884790723538 0 0.24502858373403441 -0.39146921073642488 0 0.22031030243082139 -0.38906492162812378 0 0.21626227209603979 -0.41615869782113413 0 0.2333640889907381 -0.41241884790723538 0 0.22031030243082139 -0.38906492162812378 0 0.2333640889907381 -0.41241884790723538 0 0.22031030243082139 -0.38906492162812378 0 0.26125098829365018 -0.39969694482297641 0 0.2333640889907381 -0.41241884790723538 0 0.24502858373403441 -0.39146921073642488 0 0.24971336314328341 -0.36520417674804972 0 0.24502858373403441 -0.39146921073642488 0 0.24971336314328341 -0.36520417674804972 0 0.229200177642885 -0.36995291413531828 0 0.24502858373403441 -0.39146921073642488 0 0.229200177642885 -0.36995291413531828 0 0.24502858373403441 -0.39146921073642488 0 0.22031030243082139 -0.38906492162812378 0 0.20725651587090471 -0.36571099534901208 0 0.22031030243082139 -0.38906492162812378 0 0.19952097201101759 -0.38537913368264481 0 0.20725651587090471 -0.36571099534901208 0 0.22031030243082139 -0.38906492162812378 0 0.21626227209603979 -0.41615869782113413 0 0.22031030243082139 -0.38906492162812378 0 0.20485234226760879 -0.40188257102108682 0 0.22031030243082139 -0.38906492162812378 0 0.20485234226760879 -0.40188257102108682 0 0.19952097201101759 -0.38537913368264481 0 0.20485234226760879 -0.40188257102108682 0 0.19159455078491761 -0.39726910731705511 0 0.19952097201101759 -0.38537913368264481 0 0.1968341740193896 -0.41150644481021997 0 0.20485234226760879 -0.40188257102108682 0 0.19418069224578771 -0.40518464808912641 0 0.20485234226760879 -0.40188257102108682 0 0.19418069224578771 -0.40518464808912641 0 0.19159455078491761 -0.39726910731705511 0 0.19418069224578771 -0.40518464808912641 0 0.19159455078491761 -0.39726910731705511 0 0.18667504034831339 -0.41041640739772162 0 0.20725651587090471 -0.36571099534901208 0 0.19261827162763251 -0.374541644607297 0 0.19952097201101759 -0.38537913368264481 0 0.19261827162763251 -0.374541644607297 0 0.19952097201101759 -0.38537913368264481 0 0.1834568796589737 -0.38583095226508418 0 0.19159455078491761 -0.39726910731705511 0 0.19952097201101759 -0.38537913368264481 0 0.1834568796589737 -0.38583095226508418 0 0.17443949437422429 -0.37745336578486988 0 0.18306199361292941 -0.40184547908877583 0 0.1834568796589737 -0.38583095226508418 0 0.17443949437422429 -0.37745336578486988 0 0.18306199361292941 -0.40184547908877583 0 0.17443949437422429 -0.37745336578486988 0 0.18306199361292941 -0.40184547908877583 0 0.1699565165384864 -0.39219147373696051 0 0.19159455078491761 -0.39726910731705511 0 0.1834568796589737 -0.38583095226508418 0 0.18667504034831339 -0.41041640739772162 0 0.1834568796589737 -0.38583095226508418 0 0.18667504034831339 -0.41041640739772162 0 0.1834568796589737 -0.38583095226508418 0 0.18306199361292941 -0.40184547908877583 0 0.18667504034831339 -0.41041640739772162 0 0.18306199361292941 -0.40184547908877583 0 0.1699565165384864 -0.39219147373696051 0 0.17103987791038719 -0.40450309618882169 0 0.18306199361292941 -0.40184547908877583 0 0.17103987791038719 -0.40450309618882169 0 0.1814131781600461 -0.40758752999736902 0 0.1699565165384864 -0.39219147373696051 0 0.17103987791038719 -0.40450309618882169 0 0.15993177942481909 -0.39557864441750712 0 0.17103987791038719 -0.40450309618882169 0 0.15993177942481909 -0.39557864441750712 0 0.14638679418839309 -0.40849626541203388 0 0.1699565165384864 -0.39219147373696051 0 0.15993177942481909 -0.39557864441750712 0 0.1595700277473481 -0.38298567724053401 0 0.17443949437422429 -0.37745336578486988 0 0.1699565165384864 -0.39219147373696051 0 0.1595700277473481 -0.38298567724053401 0 0.1602354860011011 -0.36875954027416918 0 0.17443949437422429 -0.37745336578486988 0 0.1595700277473481 -0.38298567724053401 0 0.1602354860011011 -0.36875954027416918 0 0.14673951295096799 -0.37363029079717242 0 0.1595700277473481 -0.38298567724053401 0 0.14673951295096799 -0.37363029079717242 0 0.1595700277473481 -0.38298567724053401 0 0.14586341328622179 -0.39002728499933198 0 0.14673951295096799 -0.37363029079717242 0 0.14586341328622179 -0.39002728499933198 0 0.13273239812562251 -0.3803535413873157 0 0.15993177942481909 -0.39557864441750712 0 0.1595700277473481 -0.38298567724053401 0 0.14586341328622179 -0.39002728499933198 0 0.14586341328622179 -0.39002728499933198 0 0.13273239812562251 -0.3803535413873157 0 0.12412735500694751 -0.39493505064503392 0 0.13273239812562251 -0.3803535413873157 0 0.12412735500694751 -0.39493505064503392 0 0.1208593498238435 -0.38006314209191833 0 0.14586341328622179 -0.39002728499933198 0 0.14638679418839309 -0.40849626541203388 0 0.12412735500694751 -0.39493505064503392 0 0.14638679418839309 -0.40849626541203388 0 0.1185943653130178 -0.41089393958744808 0 0.12412735500694751 -0.39493505064503392 0 0.14638679418839309 -0.40849626541203388 0 0.12412735500694751 -0.39493505064503392 0 0.15993177942481909 -0.39557864441750712 0 0.14586341328622179 -0.39002728499933198 0 0.14638679418839309 -0.40849626541203388 0 0.14638679418839309 -0.40849626541203388 0 0.12945713117598301 -0.42527718494859718 0 0.1185943653130178 -0.41089393958744808 0 0.12945713117598301 -0.42527718494859718 0 0.1521605439778134 -0.43517333823265708 0 0.13567485458578729 -0.448289196286278 0 0.14638679418839309 -0.40849626541203388 0 0.12945713117598301 -0.42527718494859718 0 0.1521605439778134 -0.43517333823265708 0 0.14638679418839309 -0.40849626541203388 0 0.1521605439778134 -0.43517333823265708 0 0.16864623336983819 -0.42205748017903449 0 0.1521605439778134 -0.43517333823265708 0 0.16864623336983819 -0.42205748017903449 0 0.1521605439778134 -0.43517333823265708 0 0.16864623336983819 -0.42205748017903449 0 0.16573483381671769 -0.43911683261624462 0 0.16864623336983819 -0.42205748017903449 0 0.17670256027174869 -0.43608133600128551 0 0.16573483381671769 -0.43911683261624462 0 0.17103987791038719 -0.40450309618882169 0 0.14638679418839309 -0.40849626541203388 0 0.16962733287145829 -0.41306172809692981 0 0.14638679418839309 -0.40849626541203388 0 0.16864623336983819 -0.42205748017903449 0 0.14638679418839309 -0.40849626541203388 0 0.16864623336983819 -0.42205748017903449 0 0.16962733287145829 -0.41306172809692981 0 0.16864623336983819 -0.42205748017903449 0 0.17965678171287719 -0.41329759239238029 0 0.18989320103765239 -0.43500186253035911 0 0.17965678171287719 -0.41329759239238029 0 0.18667504034831339 -0.41041640739772162 0 0.16864623336983819 -0.42205748017903449 0 0.16962733287145829 -0.41306172809692981 0 0.17965678171287719 -0.41329759239238029 0 0.17103987791038719 -0.40450309618882169 0 0.16962733287145829 -0.41306172809692981 0 0.17965678171287719 -0.41329759239238029 0 0.17103987791038719 -0.40450309618882169 0 0.17965678171287719 -0.41329759239238029 0 0.1814131781600461 -0.40758752999736902 0 0.18306199361292941 -0.40184547908877583 0 0.1814131781600461 -0.40758752999736902 0 0.18667504034831339 -0.41041640739772162 0 0.17965678171287719 -0.41329759239238029 0 0.1814131781600461 -0.40758752999736902 0 0.18667504034831339 -0.41041640739772162 0 0.18989320103765239 -0.43500186253035911 0 0.16864623336983819 -0.42205748017903449 0 0.18989320103765239 -0.43500186253035911 0 0.16864623336983819 -0.42205748017903449 0 0.17965678171287719 -0.41329759239238029 0 0.18989320103765239 -0.43500186253035911 0 0.16864623336983819 -0.42205748017903449 0 0.17670256027174869 -0.43608133600128551 0 0.18989320103765239 -0.43500186253035911 0 0.17670256027174869 -0.43608133600128551 0 0.18208037526260021 -0.440172852945236 0 0.17851738694434799 -0.45081987712854771 0 0.17618275988476059 -0.44374183802639611 0 0.18401323307134959 -0.44581129240036288 0 0.17851738694434799 -0.45081987712854771 0 0.1776998484129505 -0.456552179461992 0 0.17120073938054131 -0.45123220200337888 0 0.17851738694434799 -0.45081987712854771 0 0.17618275988476059 -0.44374183802639611 0 0.17120073938054131 -0.45123220200337888 0 0.17670256027174869 -0.43608133600128551 0 0.17618275988476059 -0.44374183802639611 0 0.16573483381671769 -0.43911683261624462 0 0.17670256027174869 -0.43608133600128551 0 0.17618275988476059 -0.44374183802639611 0 0.18208037526260021 -0.440172852945236 0 0.18989320103765239 -0.43500186253035911 0 0.18208037526260021 -0.440172852945236 0 0.18401323307134959 -0.44581129240036288 0 0.18777566972406101 -0.44981142861604279 0 0.18989320103765239 -0.43500186253035911 0 0.18401323307134959 -0.44581129240036288 0 0.17618275988476059 -0.44374183802639611 0 0.18208037526260021 -0.440172852945236 0 0.18401323307134959 -0.44581129240036288 0 0.18777566972406101 -0.44981142861604279 0 0.18401323307134959 -0.44581129240036288 0 0.18385690407389799 -0.45446609953290928 0 0.17851738694434799 -0.45081987712854771 0 0.18401323307134959 -0.44581129240036288 0 0.18385690407389799 -0.45446609953290928 0 0.19047701204926121 -0.46094242075341862 0 0.1876592352144193 -0.45673372923780892 0 0.1806900259799068 -0.46227126151247672 0 0.1876592352144193 -0.45673372923780892 0 0.18777566972406101 -0.44981142861604279 0 0.18385690407389799 -0.45446609953290928 0 0.19047701204926121 -0.46094242075341862 0 0.1806900259799068 -0.46227126151247672 0 0.17298031468751371 -0.48047121037671059 0 0.1876592352144193 -0.45673372923780892 0 0.18385690407389799 -0.45446609953290928 0 0.1806900259799068 -0.46227126151247672 0 0.18385690407389799 -0.45446609953290928 0 0.1806900259799068 -0.46227126151247672 0 0.1776998484129505 -0.456552179461992 0 0.17851738694434799 -0.45081987712854771 0 0.18385690407389799 -0.45446609953290928 0 0.1776998484129505 -0.456552179461992 0 0.1806900259799068 -0.46227126151247672 0 0.1776998484129505 -0.456552179461992 0 0.17146684144139809 -0.46446192971202138 0 0.1776998484129505 -0.456552179461992 0 0.17146684144139809 -0.46446192971202138 0 0.17120073938054131 -0.45123220200337888 0 0.17146684144139809 -0.46446192971202138 0 0.15759213853868431 -0.45113306297151079 0 0.14900727366634989 -0.46501884712825781 0 0.17146684144139809 -0.46446192971202138 0 0.15759213853868431 -0.45113306297151079 0 0.17120073938054131 -0.45123220200337888 0 0.1521605439778134 -0.43517333823265708 0 0.15759213853868431 -0.45113306297151079 0 0.16573483381671769 -0.43911683261624462 0 0.15759213853868431 -0.45113306297151079 0 0.17120073938054131 -0.45123220200337888 0 0.16573483381671769 -0.43911683261624462 0 0.17618275988476059 -0.44374183802639611 0 0.17120073938054131 -0.45123220200337888 0 0.16573483381671769 -0.43911683261624462 0 0.1521605439778134 -0.43517333823265708 0 0.15759213853868431 -0.45113306297151079 0 0.13567485458578729 -0.448289196286278 0 0.1521605439778134 -0.43517333823265708 0 0.13567485458578729 -0.448289196286278 0 0.13567485458578729 -0.448289196286278 0 0.1191891651937612 -0.46140505433989892 0 0.12203304576274319 -0.43975504748265359 0 0.12945713117598301 -0.42527718494859718 0 0.13567485458578729 -0.448289196286278 0 0.12203304576274319 -0.43975504748265359 0 0.13567485458578729 -0.448289196286278 0 0.1191891651937612 -0.46140505433989892 0 0.13567485458578729 -0.448289196286278 0 0.13480127744719991 -0.46410976413563299 0 0.1191891651937612 -0.46140505433989892 0 0.13567485458578729 -0.448289196286278 0 0.13480127744719991 -0.46410976413563299 0 0.14900727366634989 -0.46501884712825781 0 0.15759213853868431 -0.45113306297151079 0 0.13567485458578729 -0.448289196286278 0 0.14900727366634989 -0.46501884712825781 0 0.14900727366634989 -0.46501884712825781 0 0.15577652408963519 -0.48266000469618581 0 0.13873200589539489 -0.47945912496791759 0 0.13480127744719991 -0.46410976413563299 0 0.14900727366634989 -0.46501884712825781 0 0.13873200589539489 -0.47945912496791759 0 0.13480127744719991 -0.46410976413563299 0 0.13873200589539489 -0.47945912496791759 0 0.11801755443736479 -0.48060781756800708 0 0.13873200589539489 -0.47945912496791759 0 0.13581988522262109 -0.50000000000000244 0 0.11801755443736479 -0.48060781756800708 0 0.13581988522262109 -0.50000000000000244 0 0.11801755443736479 -0.48060781756800708 0 0.15577652408963519 -0.48266000469618581 0 0.13873200589539489 -0.47945912496791759 0 0.13581988522262109 -0.50000000000000244 0 0.15577652408963519 -0.48266000469618581 0 0.13581988522262109 -0.50000000000000244 0 0.15548361732576529 -0.50000000000000178 0 0.15577652408963519 -0.48266000469618581 0 0.15548361732576529 -0.50000000000000178 0 0.17298031468751371 -0.48047121037671059 0 0.15548361732576529 -0.50000000000000178 0 0.17298031468751371 -0.48047121037671059 0 0.1769424376256932 -0.5 0 0.15548361732576529 -0.50000000000000178 0 0.17298031468751371 -0.48047121037671059 0 0.17146684144139809 -0.46446192971202138 0 0.15577652408963519 -0.48266000469618581 0 0.17298031468751371 -0.48047121037671059 0 0.17146684144139809 -0.46446192971202138 0 0.14900727366634989 -0.46501884712825781 0 0.15577652408963519 -0.48266000469618581 0 0.19047701204926121 -0.46094242075341862 0 0.17298031468751371 -0.48047121037671059 0 0.1806900259799068 -0.46227126151247672 0 0.17146684144139809 -0.46446192971202138 0 0.17298031468751371 -0.48047121037671059 0 0.1955652389629654 -0.47833395417678298 0 0.19047701204926121 -0.46094242075341862 0 0.17298031468751371 -0.48047121037671059 0 0.1955652389629654 -0.47833395417678298 0 0.17298031468751371 -0.48047121037671059 0 0.1857239970351309 -0.48926605560099218 0 0.19840125792562099 -0.499999999999995 0 0.1857239970351309 -0.48926605560099218 0 0.1769424376256932 -0.5 0 0.17298031468751371 -0.48047121037671059 0 0.1857239970351309 -0.48926605560099218 0 0.1769424376256932 -0.5 0 0.074737975103940479 -0.48487994098964171 0 0.071046826552429457 -0.50000000000000733 0 0.059434139084113012 -0.47963991399004141 0 0.071046826552429457 -0.50000000000000733 0 0.059434139084113012 -0.47963991399004141 0 0.074737975103940479 -0.48487994098964171 0 0.05802097188470097 -0.46975988197928431 0 0.059434139084113012 -0.47963991399004141 0 0.074737975103940479 -0.48487994098964171 0 0.071955909258469009 -0.46877079283141743 0 0.05802097188470097 -0.46975988197928431 0 0.074737975103940479 -0.48487994098964171 0 0.071955909258469009 -0.46877079283141743 0 0.082737354296077953 -0.47427357099325013 0 0.074737975103940479 -0.48487994098964171 0 0.05802097188470097 -0.46975988197928431 0 0.074737975103940479 -0.48487994098964171 0 0.082737354296077953 -0.47427357099325013 0 0.094811061721812542 -0.48112121468145302 0 0.082737354296077953 -0.47427357099325013 0 0.094811061721812542 -0.48112121468145302 0 0.1002152236521098 -0.46121563513601083 0 0.074737975103940479 -0.48487994098964171 0 0.091454978323179614 -0.49999999999999939 0 0.094811061721812542 -0.48112121468145302 0 0.074737975103940479 -0.48487994098964171 0 0.091454978323179614 -0.49999999999999939 0 0.074737975103940479 -0.48487994098964171 0 0.071046826552429457 -0.50000000000000733 0 0.091454978323179614 -0.49999999999999939 0 0.1136374317729003 -0.5 0 0.11801755443736479 -0.48060781756800708 0 0.094811061721812542 -0.48112121468145302 0 0.091454978323179614 -0.49999999999999939 0 0.1136374317729003 -0.5 0 0.094811061721812542 -0.48112121468145302 0 0.13581988522262109 -0.50000000000000244 0 0.1136374317729003 -0.5 0 0.11801755443736479 -0.48060781756800708 0 0.11801755443736479 -0.48060781756800708 0 0.094811061721812542 -0.48112121468145302 0 0.1002152236521098 -0.46121563513601083 0 0.11801755443736479 -0.48060781756800708 0 0.1002152236521098 -0.46121563513601083 0 0.1002152236521098 -0.46121563513601083 0 0.1191891651937612 -0.46140505433989892 0 0.1082504500781146 -0.44478934181291102 0 0.11801755443736479 -0.48060781756800708 0 0.1002152236521098 -0.46121563513601083 0 0.1191891651937612 -0.46140505433989892 0 0.13480127744719991 -0.46410976413563299 0 0.11801755443736479 -0.48060781756800708 0 0.1191891651937612 -0.46140505433989892 0 0.1191891651937612 -0.46140505433989892 0 0.12203304576274319 -0.43975504748265359 0 0.1082504500781146 -0.44478934181291102 0 0.1002152236521098 -0.46121563513601083 0 0.1082504500781146 -0.44478934181291102 0 0.082412892866854714 -0.44182345270401441 0 0.1002152236521098 -0.46121563513601083 0 0.082412892866854714 -0.44182345270401441 0 0.082737354296077953 -0.47427357099325013 0 0.1002152236521098 -0.46121563513601083 0 0.07989865607697158 -0.46093656822545309 0 0.1002152236521098 -0.46121563513601083 0 0.082412892866854714 -0.44182345270401441 0 0.07989865607697158 -0.46093656822545309 0 0.071955909258469009 -0.46877079283141743 0 0.082737354296077953 -0.47427357099325013 0 0.07989865607697158 -0.46093656822545309 0 0.071955909258469009 -0.46877079283141743 0 0.07989865607697158 -0.46093656822545309 0 0.064942869781788204 -0.45298741250561531 0 0.071955909258469009 -0.46877079283141743 0 0.064942869781788204 -0.45298741250561531 0 0.05802097188470097 -0.46975988197928431 0 0.082412892866854714 -0.44182345270401441 0 0.07989865607697158 -0.46093656822545309 0 0.064942869781788204 -0.45298741250561531 0 0.082412892866854714 -0.44182345270401441 0 0.064942869781788204 -0.45298741250561531 0 0.064610562081599654 -0.42243127027201799 0 0.082412892866854714 -0.44182345270401441 0 0.064610562081599654 -0.42243127027201799 0 0.085410796704641828 -0.41553833344022301 0 0.082412892866854714 -0.44182345270401441 0 0.064610562081599654 -0.42243127027201799 0 0.064610562081599654 -0.42243127027201799 0 0.085410796704641828 -0.41553833344022301 0 0.071260751408415451 -0.40583032332525898 0 0.082412892866854714 -0.44182345270401441 0 0.085410796704641828 -0.41553833344022301 0 0.10565257718969159 -0.42402980380391259 0 0.1082504500781146 -0.44478934181291102 0 0.10565257718969159 -0.42402980380391259 0 0.1082504500781146 -0.44478934181291102 0 0.082412892866854714 -0.44182345270401441 0 0.10565257718969159 -0.42402980380391259 0 0.12203304576274319 -0.43975504748265359 0 0.1082504500781146 -0.44478934181291102 0 0.10565257718969159 -0.42402980380391259 0 0.12945713117598301 -0.42527718494859718 0 0.12203304576274319 -0.43975504748265359 0 0.10565257718969159 -0.42402980380391259 0 0.12945713117598301 -0.42527718494859718 0 0.10565257718969159 -0.42402980380391259 0 0.1185943653130178 -0.41089393958744808 0 0.10565257718969159 -0.42402980380391259 0 0.10305470430126849 -0.40327026579491432 0 0.10565257718969159 -0.42402980380391259 0 0.1185943653130178 -0.41089393958744808 0 0.10305470430126849 -0.40327026579491432 0 0.085410796704641828 -0.41553833344022301 0 0.10565257718969159 -0.42402980380391259 0 0.10305470430126849 -0.40327026579491432 0 0.10305470430126849 -0.40327026579491432 0 0.1092296532162271 -0.39195520602732847 0 0.1018679158255022 -0.38137383587803358 0 0.10305470430126849 -0.40327026579491432 0 0.1018679158255022 -0.38137383587803358 0 0.084827885114816814 -0.39510276155480978 0 0.10305470430126849 -0.40327026579491432 0 0.1018679158255022 -0.38137383587803358 0 0.1185943653130178 -0.41089393958744808 0 0.10305470430126849 -0.40327026579491432 0 0.1092296532162271 -0.39195520602732847 0 0.1185943653130178 -0.41089393958744808 0 0.1092296532162271 -0.39195520602732847 0 0.12412735500694751 -0.39493505064503392 0 0.12412735500694751 -0.39493505064503392 0 0.1208593498238435 -0.38006314209191833 0 0.1018679158255022 -0.38137383587803358 0 0.1092296532162271 -0.39195520602732847 0 0.12412735500694751 -0.39493505064503392 0 0.1018679158255022 -0.38137383587803358 0 0.12412735500694751 -0.39493505064503392 0 0.1018679158255022 -0.38137383587803358 0 0.1208593498238435 -0.38006314209191833 0 0.1018679158255022 -0.38137383587803358 0 0.12334710111447229 -0.36406834251145731 0 0.1018679158255022 -0.38137383587803358 0 0.1001863568717406 -0.38034937241650962 0 0.10879209213087419 -0.36797725762153549 0 0.1018679158255022 -0.38137383587803358 0 0.1001863568717406 -0.38034937241650962 0 0.092680417082859706 -0.38189565836938699 0 0.1018679158255022 -0.38137383587803358 0 0.1001863568717406 -0.38034937241650962 0 0.1001863568717406 -0.38034937241650962 0 0.092680417082859706 -0.38189565836938699 0 0.078941289569781151 -0.36740614783332631 0 0.1018679158255022 -0.38137383587803358 0 0.084827885114816814 -0.39510276155480978 0 0.1018679158255022 -0.38137383587803358 0 0.092680417082859706 -0.38189565836938699 0 0.084827885114816814 -0.39510276155480978 0 0.083667078469080447 -0.3817485906143725 0 0.076461538166658155 -0.38231907318138902 0 0.078941289569781151 -0.36740614783332631 0 0.092680417082859706 -0.38189565836938699 0 0.083667078469080447 -0.3817485906143725 0 0.078941289569781151 -0.36740614783332631 0 0.084827885114816814 -0.39510276155480978 0 0.073546264855348126 -0.39398280964304111 0 0.076461538166658155 -0.38231907318138902 0 0.083667078469080447 -0.3817485906143725 0 0.084827885114816814 -0.39510276155480978 0 0.076461538166658155 -0.38231907318138902 0 0.092680417082859706 -0.38189565836938699 0 0.083667078469080447 -0.3817485906143725 0 0.084827885114816814 -0.39510276155480978 0 0.085410796704641828 -0.41553833344022301 0 0.10305470430126849 -0.40327026579491432 0 0.084827885114816814 -0.39510276155480978 0 0.085410796704641828 -0.41553833344022301 0 0.084827885114816814 -0.39510276155480978 0 0.071260751408415451 -0.40583032332525898 0 0.084827885114816814 -0.39510276155480978 0 0.073546264855348126 -0.39398280964304111 0 0.071260751408415451 -0.40583032332525898 0 0.073546264855348126 -0.39398280964304111 0 0.071260751408415451 -0.40583032332525898 0 0.061634884731502082 -0.39267908051070671 0 0.076461538166658155 -0.38231907318138902 0 0.061634884731502082 -0.39267908051070671 0 0.076461538166658155 -0.38231907318138902 0 0.061634884731502082 -0.39267908051070671 0 0.061904282875925747 -0.37237526148823941 0 0.073546264855348126 -0.39398280964304111 0 0.076461538166658155 -0.38231907318138902 0 0.061634884731502082 -0.39267908051070671 0 0.051370350477500881 -0.3764161884637201 0 0.045801185216693012 -0.38580832539780119 0 0.043663507306638913 -0.36868104746756258 0 0.051370350477500881 -0.3764161884637201 0 0.061634884731502082 -0.39267908051070671 0 0.045801185216693012 -0.38580832539780119 0 0.051370350477500881 -0.3764161884637201 0 0.061634884731502082 -0.39267908051070671 0 0.061904282875925747 -0.37237526148823941 0 0.071260751408415451 -0.40583032332525898 0 0.061634884731502082 -0.39267908051070671 0 0.04680823129634433 -0.40303908784002201 0 0.061634884731502082 -0.39267908051070671 0 0.04680823129634433 -0.40303908784002201 0 0.045801185216693012 -0.38580832539780119 0 0.061634884731502082 -0.39267908051070671 0 0.04680823129634433 -0.40303908784002201 0 0.04680823129634433 -0.40303908784002201 0 0.02837172461734 -0.38295609391969199 0 0.04680823129634433 -0.40303908784002201 0 0.02837172461734 -0.38295609391969199 0 0.028215565298714249 -0.40094151263492078 0 0.045801185216693012 -0.38580832539780119 0 0.02837172461734 -0.38295609391969199 0 0.043663507306638913 -0.36868104746756258 0 0.04680823129634433 -0.40303908784002201 0 0.045801185216693012 -0.38580832539780119 0 0.02837172461734 -0.38295609391969199 0 0.02837172461734 -0.38295609391969199 0 0.0122991559467155 -0.37891225603134221 0 0.011208636448502229 -0.39508796301279092 0 -0.002178803782163227 -0.37161627006544062 0 0.0122991559467155 -0.37891225603134221 0 0.011208636448502229 -0.39508796301279092 0 -0.002178803782163227 -0.37161627006544062 0 0.011208636448502229 -0.39508796301279092 0 -0.002178803782163227 -0.37161627006544062 0 -0.0066930742226519926 -0.39143820132839208 0 0.011208636448502229 -0.39508796301279092 0 -0.001728596279610697 -0.40597762003102339 0 0.011208636448502229 -0.39508796301279092 0 0.0082246319185010179 -0.41465428951275207 0 -0.0066930742226519926 -0.39143820132839208 0 -0.001728596279610697 -0.40597762003102339 0 0.011208636448502229 -0.39508796301279092 0 0.011208636448502229 -0.39508796301279092 0 0.028215565298714249 -0.40094151263492078 0 0.024596076679173799 -0.41855965596013778 0 0.02837172461734 -0.38295609391969199 0 0.011208636448502229 -0.39508796301279092 0 0.028215565298714249 -0.40094151263492078 0 0.011208636448502229 -0.39508796301279092 0 0.024596076679173799 -0.41855965596013778 0 0.011208636448502229 -0.39508796301279092 0 0.024596076679173799 -0.41855965596013778 0 0.0082246319185010179 -0.41465428951275207 0 0.024596076679173799 -0.41855965596013778 0 0.0082246319185010179 -0.41465428951275207 0 0.01039378864355619 -0.42848339288335913 0 -0.009537301248459449 -0.42510302968362512 0 0.0082246319185010179 -0.41465428951275207 0 0.01039378864355619 -0.42848339288335913 0 0.024596076679173799 -0.41855965596013778 0 0.036208764147486278 -0.43891974197010591 0 0.024596076679173799 -0.41855965596013778 0 0.036208764147486278 -0.43891974197010591 0 0.020713539006084219 -0.44010250100644183 0 0.024596076679173799 -0.41855965596013778 0 0.01039378864355619 -0.42848339288335913 0 0.020713539006084219 -0.44010250100644183 0 0.024596076679173799 -0.41855965596013778 0 0.01039378864355619 -0.42848339288335913 0 0.024596076679173799 -0.41855965596013778 0 0.043950702345966319 -0.42295947833088071 0 0.036208764147486278 -0.43891974197010591 0 0.043950702345966319 -0.42295947833088071 0 0.051347790295756007 -0.43901682978775403 0 0.036208764147486278 -0.43891974197010591 0 0.04680823129634433 -0.40303908784002201 0 0.024596076679173799 -0.41855965596013778 0 0.04680823129634433 -0.40303908784002201 0 0.028215565298714249 -0.40094151263492078 0 0.024596076679173799 -0.41855965596013778 0 0.04680823129634433 -0.40303908784002201 0 0.024596076679173799 -0.41855965596013778 0 0.043950702345966319 -0.42295947833088071 0 0.064610562081599654 -0.42243127027201799 0 0.071260751408415451 -0.40583032332525898 0 0.04680823129634433 -0.40303908784002201 0 0.064610562081599654 -0.42243127027201799 0 0.04680823129634433 -0.40303908784002201 0 0.064610562081599654 -0.42243127027201799 0 0.04680823129634433 -0.40303908784002201 0 0.043950702345966319 -0.42295947833088071 0 0.064610562081599654 -0.42243127027201799 0 0.043950702345966319 -0.42295947833088071 0 0.051347790295756007 -0.43901682978775403 0 0.064942869781788204 -0.45298741250561531 0 0.064610562081599654 -0.42243127027201799 0 0.051347790295756007 -0.43901682978775403 0 0.064942869781788204 -0.45298741250561531 0 0.051347790295756007 -0.43901682978775403 0 0.047821451615799627 -0.45927982798007361 0 0.064942869781788204 -0.45298741250561531 0 0.047821451615799627 -0.45927982798007361 0 0.05802097188470097 -0.46975988197928431 0 0.047821451615799627 -0.45927982798007361 0 0.023714967739582489 -0.4565662814222432 0 0.032020960621095843 -0.47777188036233098 0 0.047821451615799627 -0.45927982798007361 0 0.036208764147486278 -0.43891974197010591 0 0.051347790295756007 -0.43901682978775403 0 0.047821451615799627 -0.45927982798007361 0 0.036208764147486278 -0.43891974197010591 0 0.047821451615799627 -0.45927982798007361 0 0.036208764147486278 -0.43891974197010591 0 0.023714967739582489 -0.4565662814222432 0 0.036208764147486278 -0.43891974197010591 0 0.020713539006084219 -0.44010250100644183 0 0.023714967739582489 -0.4565662814222432 0 -0.0013374034004768371 -0.44947558896604423 0 0.01039378864355619 -0.42848339288335913 0 0.020713539006084219 -0.44010250100644183 0 -0.0013374034004768371 -0.44947558896604423 0 0.020713539006084219 -0.44010250100644183 0 0.023714967739582489 -0.4565662814222432 0 -0.0013374034004768371 -0.44947558896604423 0 0.0068624944475057766 -0.47384814824846327 0 -0.0013374034004768371 -0.44947558896604423 0 0.023714967739582489 -0.4565662814222432 0 0.0068624944475057766 -0.47384814824846327 0 0.023714967739582489 -0.4565662814222432 0 0.0068624944475057766 -0.47384814824846327 0 0.032020960621095843 -0.47777188036233098 0 0.0068624944475057766 -0.47384814824846327 0 0.0150623922954884 -0.49822070753088238 0 0.032020960621095843 -0.47777188036233098 0 -0.015217900669161011 -0.5 0 0.0024053695883212941 -0.48891336768777249 0 0.013537008404702511 -0.5 0 0.0068624944475057766 -0.47384814824846327 0 0.0024053695883212941 -0.48891336768777249 0 0.0150623922954884 -0.49822070753088238 0 0.0068624944475057766 -0.47384814824846327 0 0.0150623922954884 -0.49822070753088238 0 0.0024053695883212941 -0.48891336768777249 0 0.0150623922954884 -0.49822070753088238 0 0.013537008404702511 -0.5 0 0.0150623922954884 -0.49822070753088238 0 0.013537008404702511 -0.5 0 0.042291917478565873 -0.5 0 0.0150623922954884 -0.49822070753088238 0 0.042291917478565873 -0.5 0 0.032020960621095843 -0.47777188036233098 0 0.042291917478565873 -0.5 0 0.032020960621095843 -0.47777188036233098 0 0.059434139084113012 -0.47963991399004141 0 0.047821451615799627 -0.45927982798007361 0 0.032020960621095843 -0.47777188036233098 0 0.059434139084113012 -0.47963991399004141 0 0.047821451615799627 -0.45927982798007361 0 0.05802097188470097 -0.46975988197928431 0 0.059434139084113012 -0.47963991399004141 0 0.047821451615799627 -0.45927982798007361 0 0.059434139084113012 -0.47963991399004141 0 0.071046826552429457 -0.50000000000000733 0 0.042291917478565873 -0.5 0 0.059434139084113012 -0.47963991399004141 0 0.078456545354339768 -0.28525100698693651 0 0.075192778843485145 -0.3004755496101415 0 0.095899689397586599 -0.3008291305439913 0 0.078456545354339768 -0.28525100698693651 0 0.095711127176573443 -0.2751242682777974 0 0.095899689397586599 -0.3008291305439913 0 0.075192778843485145 -0.3004755496101415 0 0.095899689397586599 -0.3008291305439913 0 0.074188022781041252 -0.31649930169162399 0 0.095899689397586599 -0.3008291305439913 0 0.074188022781041252 -0.31649930169162399 0 0.075192778843485145 -0.3004755496101415 0 0.074188022781041252 -0.31649930169162399 0 0.058270312985904418 -0.30816514798469019 0 0.075192778843485145 -0.3004755496101415 0 0.068995976747761104 -0.2945131319279734 0 0.058270312985904418 -0.30816514798469019 0 0.068995976747761104 -0.2945131319279734 0 0.064064269807315097 -0.28416082313012542 0 0.058270312985904418 -0.30816514798469019 0 0.078456545354339768 -0.28525100698693651 0 0.075192778843485145 -0.3004755496101415 0 0.068995976747761104 -0.2945131319279734 0 0.078456545354339768 -0.28525100698693651 0 0.068995976747761104 -0.2945131319279734 0 0.064064269807315097 -0.28416082313012542 0 0.064064269807315097 -0.28416082313012542 0 0.069858226628725775 -0.26015649827556059 0 0.078456545354339768 -0.28525100698693651 0 0.064064269807315097 -0.28416082313012542 0 0.069858226628725775 -0.26015649827556059 0 0.069858226628725775 -0.26015649827556059 0 0.095711127176573443 -0.2751242682777974 0 0.096521476943682558 -0.25181800011133371 0 0.078456545354339768 -0.28525100698693651 0 0.069858226628725775 -0.26015649827556059 0 0.095711127176573443 -0.2751242682777974 0 0.095711127176573443 -0.2751242682777974 0 0.114720785939063 -0.26575264298982931 0 0.1176113560141319 -0.2851589593963586 0 0.095711127176573443 -0.2751242682777974 0 0.096521476943682558 -0.25181800011133371 0 0.114720785939063 -0.26575264298982931 0 0.1376178273856396 -0.2676878026278281 0 0.114720785939063 -0.26575264298982931 0 0.1200034520355143 -0.24749468667538321 0 0.096521476943682558 -0.25181800011133371 0 0.114720785939063 -0.26575264298982931 0 0.1200034520355143 -0.24749468667538321 0 0.1376178273856396 -0.2676878026278281 0 0.114720785939063 -0.26575264298982931 0 0.1176113560141319 -0.2851589593963586 0 0.13584279120622419 -0.29064916595208462 0 0.1176113560141319 -0.2851589593963586 0 0.1212075847983899 -0.30357596212866123 0 0.1176113560141319 -0.2851589593963586 0 0.095899689397586599 -0.3008291305439913 0 0.1212075847983899 -0.30357596212866123 0 0.1176113560141319 -0.2851589593963586 0 0.095899689397586599 -0.3008291305439913 0 0.095711127176573443 -0.2751242682777974 0 0.1176113560141319 -0.2851589593963586 0 0.095899689397586599 -0.3008291305439913 0 0.095899689397586599 -0.3008291305439913 0 0.1212075847983899 -0.30357596212866123 0 0.1047724191350739 -0.31963875894108951 0 0.1212075847983899 -0.30357596212866123 0 0.1249111379911398 -0.32186001205002218 0 0.1047724191350739 -0.31963875894108951 0 0.1249111379911398 -0.32186001205002218 0 0.1047724191350739 -0.31963875894108951 0 0.11573058637367541 -0.34380091622275832 0 0.094619564876377599 -0.33586527524184762 0 0.1047724191350739 -0.31963875894108951 0 0.11573058637367541 -0.34380091622275832 0 0.094619564876377599 -0.33586527524184762 0 0.1047724191350739 -0.31963875894108951 0 0.086339338786571823 -0.32698567366184278 0 0.095899689397586599 -0.3008291305439913 0 0.1047724191350739 -0.31963875894108951 0 0.086339338786571823 -0.32698567366184278 0 0.1018679158255022 -0.38137383587803358 0 0.12334710111447229 -0.36406834251145731 0 0.1018679158255022 -0.38137383587803358 0 0.12334710111447229 -0.36406834251145731 0 0.10879209213087419 -0.36797725762153549 0 0.12334710111447229 -0.36406834251145731 0 0.11573058637367541 -0.34380091622275832 0 0.10879209213087419 -0.36797725762153549 0 0.11573058637367541 -0.34380091622275832 0 0.097402960874061584 -0.35810732382917831 0 0.10879209213087419 -0.36797725762153549 0 0.094619564876377599 -0.33586527524184762 0 0.11573058637367541 -0.34380091622275832 0 0.097402960874061584 -0.35810732382917831 0 0.094619564876377599 -0.33586527524184762 0 0.097402960874061584 -0.35810732382917831 0 0.1001863568717406 -0.38034937241650962 0 0.097402960874061584 -0.35810732382917831 0 0.1001863568717406 -0.38034937241650962 0 0.097402960874061584 -0.35810732382917831 0 0.10879209213087419 -0.36797725762153549 0 0.1001863568717406 -0.38034937241650962 0 0.097402960874061584 -0.35810732382917831 0 0.078941289569781151 -0.36740614783332631 0 0.1001863568717406 -0.38034937241650962 0 0.078941289569781151 -0.36740614783332631 0 0.094619564876377599 -0.33586527524184762 0 0.097402960874061584 -0.35810732382917831 0 0.084740357312199394 -0.34701535865000288 0 0.078941289569781151 -0.36740614783332631 0 0.084740357312199394 -0.34701535865000288 0 0.072564810466095128 -0.35396504242622201 0 0.097402960874061584 -0.35810732382917831 0 0.078941289569781151 -0.36740614783332631 0 0.084740357312199394 -0.34701535865000288 0 0.078941289569781151 -0.36740614783332631 0 0.072564810466095128 -0.35396504242622201 0 0.057696222267823373 -0.35446292325014028 0 0.084740357312199394 -0.34701535865000288 0 0.072564810466095128 -0.35396504242622201 0 0.073102422775426085 -0.33909783780230318 0 0.064643683218506637 -0.34920539315333932 0 0.072564810466095128 -0.35396504242622201 0 0.073102422775426085 -0.33909783780230318 0 0.064643683218506637 -0.34920539315333932 0 0.072564810466095128 -0.35396504242622201 0 0.057696222267823373 -0.35446292325014028 0 0.078941289569781151 -0.36740614783332631 0 0.057696222267823373 -0.35446292325014028 0 0.076461538166658155 -0.38231907318138902 0 0.078941289569781151 -0.36740614783332631 0 0.061904282875925747 -0.37237526148823941 0 0.078941289569781151 -0.36740614783332631 0 0.061904282875925747 -0.37237526148823941 0 0.057696222267823373 -0.35446292325014028 0 0.095899689397586599 -0.3008291305439913 0 0.086339338786571823 -0.32698567366184278 0 0.074188022781041252 -0.31649930169162399 0 0.094619564876377599 -0.33586527524184762 0 0.084740357312199394 -0.34701535865000288 0 0.086339338786571823 -0.32698567366184278 0 0.084740357312199394 -0.34701535865000288 0 0.086339338786571823 -0.32698567366184278 0 0.073102422775426085 -0.33909783780230318 0 0.073102422775426085 -0.33909783780230318 0 0.074188022781041252 -0.31649930169162399 0 0.052476356164494947 -0.33216947283925541 0 0.064643683218506637 -0.34920539315333932 0 0.073102422775426085 -0.33909783780230318 0 0.060945063747813971 -0.34285112352430303 0 0.074188022781041252 -0.31649930169162399 0 0.052476356164494947 -0.33216947283925541 0 0.086339338786571823 -0.32698567366184278 0 0.073102422775426085 -0.33909783780230318 0 0.074188022781041252 -0.31649930169162399 0 0.052476356164494947 -0.33216947283925541 0 0.058270312985904418 -0.30816514798469019 0 0.052476356164494947 -0.33216947283925541 0 0.044648526871603783 -0.31770081170742831 0 0.058270312985904418 -0.30816514798469019 0 0.074188022781041252 -0.31649930169162399 0 0.052476356164494947 -0.33216947283925541 0 0.058270312985904418 -0.30816514798469019 0 0.052476356164494947 -0.33216947283925541 0 0.047583047975914103 -0.35244241635483559 0 0.073102422775426085 -0.33909783780230318 0 0.060945063747813971 -0.34285112352430303 0 0.052476356164494947 -0.33216947283925541 0 0.060945063747813971 -0.34285112352430303 0 0.052476356164494947 -0.33216947283925541 0 0.054181307711507642 -0.34983992205818981 0 0.052476356164494947 -0.33216947283925541 0 0.04071506683574927 -0.34065806194451792 0 0.047583047975914103 -0.35244241635483559 0 0.052476356164494947 -0.33216947283925541 0 0.04071506683574927 -0.34065806194451792 0 0.044648526871603783 -0.31770081170742831 0 0.04071506683574927 -0.34065806194451792 0 0.03015636661650286 -0.3225410253719756 0 0.04071506683574927 -0.34065806194451792 0 0.03015636661650286 -0.3225410253719756 0 0.02636863849756152 -0.33688388254537838 0 0.052476356164494947 -0.33216947283925541 0 0.04071506683574927 -0.34065806194451792 0 0.04071506683574927 -0.34065806194451792 0 0.044648526871603783 -0.31770081170742831 0 0.03015636661650286 -0.3225410253719756 0 0.044648526871603783 -0.31770081170742831 0 0.03015636661650286 -0.3225410253719756 0 0.034491627806478041 -0.30853974567073322 0 0.061904282875925747 -0.37237526148823941 0 0.053259535722039633 -0.3641180164926533 0 0.057696222267823373 -0.35446292325014028 0 0.051370350477500881 -0.3764161884637201 0 0.053259535722039633 -0.3641180164926533 0 0.043663507306638913 -0.36868104746756258 0 0.051370350477500881 -0.3764161884637201 0 0.061904282875925747 -0.37237526148823941 0 0.053259535722039633 -0.3641180164926533 0 0.053259535722039633 -0.3641180164926533 0 0.048773826387857627 -0.3544856011778737 0 0.043663507306638913 -0.36868104746756258 0 0.052476356164494947 -0.33216947283925541 0 0.047583047975914103 -0.35244241635483559 0 0.054181307711507642 -0.34983992205818981 0 0.053259535722039633 -0.3641180164926533 0 0.053244657324237762 -0.3582642649149802 0 0.048773826387857627 -0.3544856011778737 0 0.053244657324237762 -0.3582642649149802 0 0.048773826387857627 -0.3544856011778737 0 0.054181307711507642 -0.34983992205818981 0 0.048773826387857627 -0.3544856011778737 0 0.047583047975914103 -0.35244241635483559 0 0.054181307711507642 -0.34983992205818981 0 0.048773826387857627 -0.3544856011778737 0 0.047583047975914103 -0.35244241635483559 0 0.053259535722039633 -0.3641180164926533 0 0.053244657324237762 -0.3582642649149802 0 0.057696222267823373 -0.35446292325014028 0 0.053244657324237762 -0.3582642649149802 0 0.057696222267823373 -0.35446292325014028 0 0.054181307711507642 -0.34983992205818981 0 0.064643683218506637 -0.34920539315333932 0 0.057696222267823373 -0.35446292325014028 0 0.054181307711507642 -0.34983992205818981 0 0.064643683218506637 -0.34920539315333932 0 0.060945063747813971 -0.34285112352430303 0 0.054181307711507642 -0.34983992205818981 0 0.048773826387857627 -0.3544856011778737 0 0.047583047975914103 -0.35244241635483559 0 0.043663507306638913 -0.36868104746756258 0 0.04071506683574927 -0.34065806194451792 0 0.047583047975914103 -0.35244241635483559 0 0.04071506683574927 -0.34065806194451792 0 0.047583047975914103 -0.35244241635483559 0 0.03985573710467899 -0.35136837444597901 0 0.04071506683574927 -0.34065806194451792 0 0.03985573710467899 -0.35136837444597901 0 0.03205896378917665 -0.35434441690964041 0 0.04071506683574927 -0.34065806194451792 0 0.03205896378917665 -0.35434441690964041 0 0.025431496553892478 -0.35168882095041942 0 0.04071506683574927 -0.34065806194451792 0 0.025431496553892478 -0.35168882095041942 0 0.03985573710467899 -0.35136837444597901 0 0.03205896378917665 -0.35434441690964041 0 0.039065869817875902 -0.35802860257492208 0 0.047583047975914103 -0.35244241635483559 0 0.03985573710467899 -0.35136837444597901 0 0.039065869817875902 -0.35802860257492208 0 0.02837172461734 -0.38295609391969199 0 0.033371525452051833 -0.36592480980272157 0 0.043663507306638913 -0.36868104746756258 0 0.047583047975914103 -0.35244241635483559 0 0.039065869817875902 -0.35802860257492208 0 0.043663507306638913 -0.36868104746756258 0 0.047583047975914103 -0.35244241635483559 0 0.043663507306638913 -0.36868104746756258 0 0.039065869817875902 -0.35802860257492208 0 0.033371525452051833 -0.36592480980272157 0 0.043663507306638913 -0.36868104746756258 0 0.03205896378917665 -0.35434441690964041 0 0.039065869817875902 -0.35802860257492208 0 0.033371525452051833 -0.36592480980272157 0 0.02837172461734 -0.38295609391969199 0 0.0099352179383349771 -0.36287309999936251 0 0.02837172461734 -0.38295609391969199 0 0.023697561729227701 -0.3656138881417908 0 0.0099352179383349771 -0.36287309999936251 0 0.02837172461734 -0.38295609391969199 0 0.033371525452051833 -0.36592480980272157 0 0.023697561729227701 -0.3656138881417908 0 0.02837172461734 -0.38295609391969199 0 0.0122991559467155 -0.37891225603134221 0 0.0099352179383349771 -0.36287309999936251 0 0.03205896378917665 -0.35434441690964041 0 0.033371525452051833 -0.36592480980272157 0 0.023697561729227701 -0.3656138881417908 0 0.023697561729227701 -0.3656138881417908 0 0.025431496553892478 -0.35168882095041942 0 0.0099352179383349771 -0.36287309999936251 0 0.025431496553892478 -0.35168882095041942 0 0.0075807645751098419 -0.34453611388615663 0 0.025431496553892478 -0.35168882095041942 0 0.0075807645751098419 -0.34453611388615663 0 0.02636863849756152 -0.33688388254537838 0 0.025431496553892478 -0.35168882095041942 0 0.0099352179383349771 -0.36287309999936251 0 0.03205896378917665 -0.35434441690964041 0 0.023697561729227701 -0.3656138881417908 0 0.025431496553892478 -0.35168882095041942 0 0.03205896378917665 -0.35434441690964041 0 0.025431496553892478 -0.35168882095041942 0 -0.0096343958099064687 -0.34155580596031437 0 0.0099352179383349771 -0.36287309999936251 0 -0.0096343958099064687 -0.34155580596031437 0 0.0075807645751098419 -0.34453611388615663 0 0.0099352179383349771 -0.36287309999936251 0 0.025431496553892478 -0.35168882095041942 0 0.0075807645751098419 -0.34453611388615663 0 0.0099352179383349771 -0.36287309999936251 0 -0.002178803782163227 -0.37161627006544062 0 0.0122991559467155 -0.37891225603134221 0 0.0099352179383349771 -0.36287309999936251 0 -0.0070150904897389628 -0.35875101633193152 0 -0.002178803782163227 -0.37161627006544062 0 0.0099352179383349771 -0.36287309999936251 0 -0.002178803782163227 -0.37161627006544062 0 0.0099352179383349771 -0.36287309999936251 0 0.03015636661650286 -0.3225410253719756 0 0.019597666397256509 -0.30442398879943339 0 0.03015636661650286 -0.3225410253719756 0 0.014793392922354411 -0.31628120652474823 0 0.019597666397256509 -0.30442398879943339 0 0.03015636661650286 -0.3225410253719756 0 0.01453256369494863 -0.32953892791496292 0 0.014793392922354411 -0.31628120652474823 0 0.03015636661650286 -0.3225410253719756 0 0.02636863849756152 -0.33688388254537838 0 0.01453256369494863 -0.32953892791496292 0 0.0075807645751098419 -0.34453611388615663 0 0.02636863849756152 -0.33688388254537838 0 0.01453256369494863 -0.32953892791496292 0 0.04071506683574927 -0.34065806194451792 0 0.025431496553892478 -0.35168882095041942 0 0.02636863849756152 -0.33688388254537838 0 0.0075807645751098419 -0.34453611388615663 0 0.01453256369494863 -0.32953892791496292 0 0.0034794820758208261 -0.33361449123698089 0 -0.010269967403673339 -0.33738340682189533 0 0.0075807645751098419 -0.34453611388615663 0 0.0034794820758208261 -0.33361449123698089 0 0.01453256369494863 -0.32953892791496292 0 0.0034794820758208261 -0.33361449123698089 0 0.001904989571353899 -0.32214434476741449 0 0.001904989571353899 -0.32214434476741449 0 0.014793392922354411 -0.31628120652474823 0 0.0019518825097332619 -0.30029273945570772 0 0.01453256369494863 -0.32953892791496292 0 0.001904989571353899 -0.32214434476741449 0 0.014793392922354411 -0.31628120652474823 0 0.0019518825097332619 -0.30029273945570772 0 0.0090389661780101715 -0.28630695222689118 0 0.019597666397256509 -0.30442398879943339 0 0.014793392922354411 -0.31628120652474823 0 0.0019518825097332619 -0.30029273945570772 0 0.019597666397256509 -0.30442398879943339 0 -0.0020851015340006161 -0.28052611142458661 0 0.0019518825097332619 -0.30029273945570772 0 0.0090389661780101715 -0.28630695222689118 0 0.0090389661780101715 -0.28630695222689118 0 0.019597666397256509 -0.30442398879943339 0 0.0090389661780101715 -0.28630695222689118 0 0.019597666397256509 -0.30442398879943339 0 0.033821918158706138 -0.27707393290215671 0 0.03015636661650286 -0.3225410253719756 0 0.019597666397256509 -0.30442398879943339 0 0.034491627806478041 -0.30853974567073322 0 0.019597666397256509 -0.30442398879943339 0 0.034491627806478041 -0.30853974567073322 0 0.043330632548044458 -0.29475484461045087 0 0.044648526871603783 -0.31770081170742831 0 0.034491627806478041 -0.30853974567073322 0 0.043330632548044458 -0.29475484461045087 0 0.019597666397256509 -0.30442398879943339 0 0.043330632548044458 -0.29475484461045087 0 0.033821918158706138 -0.27707393290215671 0 0.043330632548044458 -0.29475484461045087 0 0.062049371387241412 -0.28749956346879602 0 0.033821918158706138 -0.27707393290215671 0 0.064064269807315097 -0.28416082313012542 0 0.058270312985904418 -0.30816514798469019 0 0.062049371387241412 -0.28749956346879602 0 0.033821918158706138 -0.27707393290215671 0 0.064064269807315097 -0.28416082313012542 0 0.062049371387241412 -0.28749956346879602 0 0.058270312985904418 -0.30816514798469019 0 0.043330632548044458 -0.29475484461045087 0 0.062049371387241412 -0.28749956346879602 0 0.058270312985904418 -0.30816514798469019 0 0.044648526871603783 -0.31770081170742831 0 0.043330632548044458 -0.29475484461045087 0 0.058270312985904418 -0.30816514798469019 0 0.069858226628725775 -0.26015649827556059 0 0.051624075113339378 -0.26919050519125598 0 0.046498349670861652 -0.24826912251879649 0 0.064064269807315097 -0.28416082313012542 0 0.069858226628725775 -0.26015649827556059 0 0.051624075113339378 -0.26919050519125598 0 0.062049371387241412 -0.28749956346879602 0 0.051624075113339378 -0.26919050519125598 0 0.033821918158706138 -0.27707393290215671 0 0.064064269807315097 -0.28416082313012542 0 0.062049371387241412 -0.28749956346879602 0 0.051624075113339378 -0.26919050519125598 0 0.051624075113339378 -0.26919050519125598 0 0.033821918158706138 -0.27707393290215671 0 0.034240698289148337 -0.25967273023798509 0 0.051624075113339378 -0.26919050519125598 0 0.034240698289148337 -0.25967273023798509 0 0.046498349670861652 -0.24826912251879649 0 0.034240698289148337 -0.25967273023798509 0 0.02296875629887114 -0.2464092256209898 0 0.046498349670861652 -0.24826912251879649 0 0.034240698289148337 -0.25967273023798509 0 0.0055944649301708496 -0.26664830233551728 0 0.02296875629887114 -0.2464092256209898 0 0.0090389661780101715 -0.28630695222689118 0 0.033821918158706138 -0.27707393290215671 0 0.0055944649301708496 -0.26664830233551728 0 0.033821918158706138 -0.27707393290215671 0 0.034240698289148337 -0.25967273023798509 0 0.0055944649301708496 -0.26664830233551728 0 0.033821918158706138 -0.27707393290215671 0 0.0055944649301708496 -0.26664830233551728 0 -0.0020851015340006161 -0.28052611142458661 0 0.0090389661780101715 -0.28630695222689118 0 0.0055944649301708496 -0.26664830233551728 0 0.0055944649301708496 -0.26664830233551728 0 0.0055632338660241776 -0.24332209518663511 0 0.02296875629887114 -0.2464092256209898 0 -0.0080727856436109482 -0.2481099565327444 0 0.0055944649301708496 -0.26664830233551728 0 0.0055632338660241776 -0.24332209518663511 0 0.0055632338660241776 -0.24332209518663511 0 0.0032521440618358652 -0.23009641691855939 0 0.019268989126464159 -0.2308348024940351 0 -0.0084819670471955304 -0.2367225590632196 0 0.0055632338660241776 -0.24332209518663511 0 0.0032521440618358652 -0.23009641691855939 0 -0.0075276580997289226 -0.21896018305478171 0 0.0032521440618358652 -0.23009641691855939 0 0.012041166441398349 -0.21677938876306921 0 0.0032521440618358652 -0.23009641691855939 0 0.019268989126464159 -0.2308348024940351 0 0.012041166441398349 -0.21677938876306921 0 0.019268989126464159 -0.2308348024940351 0 0.028464877365028059 -0.21915571909051779 0 0.012041166441398349 -0.21677938876306921 0 0.019268989126464159 -0.2308348024940351 0 0.028464877365028059 -0.21915571909051779 0 0.041174919052571327 -0.22964645066930789 0 0.0055632338660241776 -0.24332209518663511 0 0.019268989126464159 -0.2308348024940351 0 0.02296875629887114 -0.2464092256209898 0 0.019268989126464159 -0.2308348024940351 0 0.02296875629887114 -0.2464092256209898 0 0.041174919052571327 -0.22964645066930789 0 -0.0075276580997289226 -0.21896018305478171 0 0.003555539334036632 -0.19934620758084881 0 0.012041166441398349 -0.21677938876306921 0 0.003555539334036632 -0.19934620758084881 0 0.012041166441398349 -0.21677938876306921 0 0.02523310686075431 -0.20228300343967229 0 0.028464877365028059 -0.21915571909051779 0 0.012041166441398349 -0.21677938876306921 0 0.02523310686075431 -0.20228300343967229 0 0.02523310686075431 -0.20228300343967229 0 0.033125333554059701 -0.1865598477748947 0 0.018588522793563201 -0.18166153924030251 0 0.003555539334036632 -0.19934620758084881 0 0.02523310686075431 -0.20228300343967229 0 0.018588522793563201 -0.18166153924030251 0 0.048648578511840943 -0.20623258170594561 0 0.049880579816306267 -0.17970719815632741 0 0.033125333554059701 -0.1865598477748947 0 0.02523310686075431 -0.20228300343967229 0 0.048648578511840943 -0.20623258170594561 0 0.033125333554059701 -0.1865598477748947 0 0.028464877365028059 -0.21915571909051779 0 0.02523310686075431 -0.20228300343967229 0 0.048648578511840943 -0.20623258170594561 0 0.028464877365028059 -0.21915571909051779 0 0.048648578511840943 -0.20623258170594561 0 0.041174919052571327 -0.22964645066930789 0 0.048648578511840943 -0.20623258170594561 0 0.059757914812518881 -0.22869522271940709 0 0.066598585428591164 -0.21133354617687591 0 0.048648578511840943 -0.20623258170594561 0 0.067160325985138131 -0.18691533881804831 0 0.049880579816306267 -0.17970719815632741 0 0.048648578511840943 -0.20623258170594561 0 0.066598585428591164 -0.21133354617687591 0 0.067160325985138131 -0.18691533881804831 0 0.069858226628725775 -0.26015649827556059 0 0.046498349670861652 -0.24826912251879649 0 0.059757914812518881 -0.22869522271940709 0 0.02296875629887114 -0.2464092256209898 0 0.046498349670861652 -0.24826912251879649 0 0.041174919052571327 -0.22964645066930789 0 0.048648578511840943 -0.20623258170594561 0 0.041174919052571327 -0.22964645066930789 0 0.059757914812518881 -0.22869522271940709 0 0.046498349670861652 -0.24826912251879649 0 0.041174919052571327 -0.22964645066930789 0 0.059757914812518881 -0.22869522271940709 0 0.069858226628725775 -0.26015649827556059 0 0.059757914812518881 -0.22869522271940709 0 0.080941623453078815 -0.2334444244951252 0 0.069858226628725775 -0.26015649827556059 0 0.096521476943682558 -0.25181800011133371 0 0.080941623453078815 -0.2334444244951252 0 0.096521476943682558 -0.25181800011133371 0 0.080941623453078815 -0.2334444244951252 0 0.102389076685389 -0.22730157072293841 0 0.080941623453078815 -0.2334444244951252 0 0.084774701335263575 -0.20710845477049339 0 0.102389076685389 -0.22730157072293841 0 0.059757914812518881 -0.22869522271940709 0 0.080941623453078815 -0.2334444244951252 0 0.066598585428591164 -0.21133354617687591 0 0.080941623453078815 -0.2334444244951252 0 0.066598585428591164 -0.21133354617687591 0 0.084774701335263575 -0.20710845477049339 0 0.084774701335263575 -0.20710845477049339 0 0.067160325985138131 -0.18691533881804831 0 0.066598585428591164 -0.21133354617687591 0 0.084774701335263575 -0.20710845477049339 0 0.067160325985138131 -0.18691533881804831 0 0.092537347032927528 -0.18889969997864839 0 0.084774701335263575 -0.20710845477049339 0 0.067160325985138131 -0.18691533881804831 0 0.084774701335263575 -0.20710845477049339 0 0.102389076685389 -0.22730157072293841 0 0.084774701335263575 -0.20710845477049339 0 0.10575093398731179 -0.20517541990618701 0 0.102389076685389 -0.22730157072293841 0 0.092537347032927528 -0.18889969997864839 0 0.10575093398731179 -0.20517541990618701 0 0.11404320040195411 -0.17785048998131209 0 0.092537347032927528 -0.18889969997864839 0 0.084774701335263575 -0.20710845477049339 0 0.10575093398731179 -0.20517541990618701 0 0.10575093398731179 -0.20517541990618701 0 0.11404320040195411 -0.17785048998131209 0 0.12592289232087811 -0.19910656028939411 0 0.10575093398731179 -0.20517541990618701 0 0.1284413173888232 -0.22347585252773641 0 0.12592289232087811 -0.19910656028939411 0 0.10575093398731179 -0.20517541990618701 0 0.102389076685389 -0.22730157072293841 0 0.1284413173888232 -0.22347585252773641 0 0.1200034520355143 -0.24749468667538321 0 0.102389076685389 -0.22730157072293841 0 0.1284413173888232 -0.22347585252773641 0 0.1200034520355143 -0.24749468667538321 0 0.102389076685389 -0.22730157072293841 0 0.096521476943682558 -0.25181800011133371 0 0.1200034520355143 -0.24749468667538321 0 0.102389076685389 -0.22730157072293841 0 0.099885875260422058 -0.15149088269105351 0 0.1161887790728692 -0.1476769396888597 0 0.1105045846919957 -0.16013033574144619 0 0.099885875260422058 -0.15149088269105351 0 0.099597293261818404 -0.1347502866929414 0 0.1161887790728692 -0.1476769396888597 0 0.099597293261818404 -0.1347502866929414 0 0.1161887790728692 -0.1476769396888597 0 0.099597293261818404 -0.1347502866929414 0 0.1047785765018954 -0.13712350701568179 0 0.1161887790728692 -0.1476769396888597 0 0.099597293261818404 -0.1347502866929414 0 0.093527805260815264 -0.13002146576964491 0 0.104312872852085 -0.12243825994362539 0 0.099597293261818404 -0.1347502866929414 0 0.093527805260815264 -0.13002146576964491 0 0.099597293261818404 -0.1347502866929414 0 0.093527805260815264 -0.13002146576964491 0 0.092996203934319052 -0.1329056080468716 0 0.099597293261818404 -0.1347502866929414 0 0.1088944047617572 -0.13480079442927331 0 0.104312872852085 -0.12243825994362539 0 0.099597293261818404 -0.1347502866929414 0 0.1047785765018954 -0.13712350701568179 0 0.1088944047617572 -0.13480079442927331 0 0.099597293261818404 -0.1347502866929414 0 0.1088944047617572 -0.13480079442927331 0 0.1047785765018954 -0.13712350701568179 0 0.1088944047617572 -0.13480079442927331 0 0.1088944047617572 -0.13480079442927331 0 0.1161887790728692 -0.1476769396888597 0 0.13638976604354719 -0.13495016646355951 0 0.1088944047617572 -0.13480079442927331 0 0.12800820934211829 -0.12401417466047961 0 0.13638976604354719 -0.13495016646355951 0 0.1047785765018954 -0.13712350701568179 0 0.1088944047617572 -0.13480079442927331 0 0.1161887790728692 -0.1476769396888597 0 0.1088944047617572 -0.13480079442927331 0 0.104312872852085 -0.12243825994362539 0 0.12800820934211829 -0.12401417466047961 0 0.1088944047617572 -0.13480079442927331 0 0.12800820934211829 -0.12401417466047961 0 0.1088944047617572 -0.13480079442927331 0 0.13638976604354719 -0.13495016646355951 0 0.1161887790728692 -0.1476769396888597 0 0.1105045846919957 -0.16013033574144619 0 0.1305387904294309 -0.15561497697083931 0 0.1105045846919957 -0.16013033574144619 0 0.11404320040195411 -0.17785048998131209 0 0.1305387904294309 -0.15561497697083931 0 0.092537347032927528 -0.18889969997864839 0 0.11404320040195411 -0.17785048998131209 0 0.090957573454969964 -0.1674487964172009 0 0.1105045846919957 -0.16013033574144619 0 0.11404320040195411 -0.17785048998131209 0 0.090957573454969964 -0.1674487964172009 0 0.099885875260422058 -0.15149088269105351 0 0.1105045846919957 -0.16013033574144619 0 0.090957573454969964 -0.1674487964172009 0 0.099885875260422058 -0.15149088269105351 0 0.090957573454969964 -0.1674487964172009 0 0.080257725164813276 -0.1505404030764457 0 0.090957573454969964 -0.1674487964172009 0 0.065342325237630991 -0.1650228072456788 0 0.080257725164813276 -0.1505404030764457 0 0.092537347032927528 -0.18889969997864839 0 0.090957573454969964 -0.1674487964172009 0 0.067160325985138131 -0.18691533881804831 0 0.090957573454969964 -0.1674487964172009 0 0.067160325985138131 -0.18691533881804831 0 0.065342325237630991 -0.1650228072456788 0 0.065342325237630991 -0.1650228072456788 0 0.080257725164813276 -0.1505404030764457 0 0.056224073158944461 -0.14994265306170279 0 0.080257725164813276 -0.1505404030764457 0 0.069539210615093855 -0.1345869923500955 0 0.056224073158944461 -0.14994265306170279 0 0.099885875260422058 -0.15149088269105351 0 0.099597293261818404 -0.1347502866929414 0 0.080257725164813276 -0.1505404030764457 0 0.099597293261818404 -0.1347502866929414 0 0.080257725164813276 -0.1505404030764457 0 0.069539210615093855 -0.1345869923500955 0 0.099597293261818404 -0.1347502866929414 0 0.092996203934319052 -0.1329056080468716 0 0.069539210615093855 -0.1345869923500955 0 0.099597293261818404 -0.1347502866929414 0 0.069539210615093855 -0.1345869923500955 0 0.092996203934319052 -0.1329056080468716 0 0.069539210615093855 -0.1345869923500955 0 0.079322302472514483 -0.11895376470488229 0 0.093527805260815264 -0.13002146576964491 0 0.092996203934319052 -0.1329056080468716 0 0.079322302472514483 -0.11895376470488229 0 0.093527805260815264 -0.13002146576964491 0 0.092996203934319052 -0.1329056080468716 0 0.069539210615093855 -0.1345869923500955 0 0.052298963826290519 -0.1211548808236817 0 0.066569319149528045 -0.1206454253796948 0 0.069539210615093855 -0.1345869923500955 0 0.039481127968369292 -0.1344236980072451 0 0.052298963826290519 -0.1211548808236817 0 0.069539210615093855 -0.1345869923500955 0 0.056224073158944461 -0.14994265306170279 0 0.039481127968369292 -0.1344236980072451 0 0.069539210615093855 -0.1345869923500955 0 0.039481127968369292 -0.1344236980072451 0 0.056224073158944461 -0.14994265306170279 0 0.038811693183881758 -0.15444647348478721 0 0.047368807546727579 -0.16279517251764489 0 0.056224073158944461 -0.14994265306170279 0 0.038811693183881758 -0.15444647348478721 0 0.039481127968369292 -0.1344236980072451 0 0.038811693183881758 -0.15444647348478721 0 0.039481127968369292 -0.1344236980072451 0 0.019056913867763529 -0.155566515408149 0 0.034777770017858589 -0.1343981464191871 0 0.039481127968369292 -0.1344236980072451 0 0.022320289212787989 -0.1422177528203018 0 0.034777770017858589 -0.1343981464191871 0 0.039481127968369292 -0.1344236980072451 0 0.034777770017858589 -0.1343981464191871 0 0.029299678594365521 -0.12697140115214181 0 0.037800108132664212 -0.12348471533883321 0 0.034777770017858589 -0.1343981464191871 0 0.039481127968369292 -0.1344236980072451 0 0.037800108132664212 -0.12348471533883321 0 0.039481127968369292 -0.1344236980072451 0 0.052298963826290519 -0.1211548808236817 0 0.039481127968369292 -0.1344236980072451 0 0.052298963826290519 -0.1211548808236817 0 0.037800108132664212 -0.12348471533883321 0 0.067160325985138131 -0.18691533881804831 0 0.065342325237630991 -0.1650228072456788 0 0.049880579816306267 -0.17970719815632741 0 0.065342325237630991 -0.1650228072456788 0 0.049880579816306267 -0.17970719815632741 0 0.047368807546727579 -0.16279517251764489 0 0.065342325237630991 -0.1650228072456788 0 0.056224073158944461 -0.14994265306170279 0 0.047368807546727579 -0.16279517251764489 0 0.049880579816306267 -0.17970719815632741 0 0.047368807546727579 -0.16279517251764489 0 0.031927543377605602 -0.16950432842919569 0 0.038811693183881758 -0.15444647348478721 0 0.047368807546727579 -0.16279517251764489 0 0.031927543377605602 -0.16950432842919569 0 0.049880579816306267 -0.17970719815632741 0 0.031927543377605602 -0.16950432842919569 0 0.033125333554059701 -0.1865598477748947 0 0.031927543377605602 -0.16950432842919569 0 0.033125333554059701 -0.1865598477748947 0 0.018588522793563201 -0.18166153924030251 0 0.031927543377605602 -0.16950432842919569 0 0.018588522793563201 -0.18166153924030251 0 0.019056913867763529 -0.155566515408149 0 0.038811693183881758 -0.15444647348478721 0 0.031927543377605602 -0.16950432842919569 0 0.019056913867763529 -0.155566515408149 0 -0.0013673002328405961 -0.1767093328090546 0 0.018588522793563201 -0.18166153924030251 0 0.019056913867763529 -0.155566515408149 0 -0.0013673002328405961 -0.1767093328090546 0 0.019056913867763529 -0.155566515408149 0 -0.0013673002328405961 -0.1767093328090546 0 0.019056913867763529 -0.155566515408149 0 0.0027310736070901482 -0.15493719994590471 0 -0.0013673002328405961 -0.1767093328090546 0 0.003555539334036632 -0.19934620758084881 0 0.018588522793563201 -0.18166153924030251 0 0.020222670022858619 -0.12863691797839069 0 0.022320289212787989 -0.1422177528203018 0 0.0088678229424013627 -0.13941235935176011 0 0.020222670022858619 -0.12863691797839069 0 0.02665510196196769 -0.1330560545925053 0 0.022320289212787989 -0.1422177528203018 0 0.034777770017858589 -0.1343981464191871 0 0.029299678594365521 -0.12697140115214181 0 0.02665510196196769 -0.1330560545925053 0 0.020222670022858619 -0.12863691797839069 0 0.029299678594365521 -0.12697140115214181 0 0.02665510196196769 -0.1330560545925053 0 0.034777770017858589 -0.1343981464191871 0 0.02665510196196769 -0.1330560545925053 0 0.022320289212787989 -0.1422177528203018 0 0.039481127968369292 -0.1344236980072451 0 0.019056913867763529 -0.155566515408149 0 0.019056913867763529 -0.155566515408149 0 0.022320289212787989 -0.1422177528203018 0 0.0088678229424013627 -0.13941235935176011 0 0.039481127968369292 -0.1344236980072451 0 0.019056913867763529 -0.155566515408149 0 0.022320289212787989 -0.1422177528203018 0 0.019056913867763529 -0.155566515408149 0 0.0027310736070901482 -0.15493719994590471 0 0.0088678229424013627 -0.13941235935176011 0 0.020222670022858619 -0.12863691797839069 0 0.0088678229424013627 -0.13941235935176011 0 0.0015243557028834459 -0.11711868301268021 0 0.020222670022858619 -0.12863691797839069 0 0.0015243557028834459 -0.11711868301268021 0 0.0144479962461943 -0.1082343501681014 0 0.020222670022858619 -0.12863691797839069 0 0.02728947708542654 -0.1146689930447462 0 0.0144479962461943 -0.1082343501681014 0 0.020222670022858619 -0.12863691797839069 0 0.029299678594365521 -0.12697140115214181 0 0.02728947708542654 -0.1146689930447462 0 0.0144479962461943 -0.1082343501681014 0 0.01674231050701382 -0.093658367309864349 0 0.03170108987002046 -0.10050694789866579 0 0.02728947708542654 -0.1146689930447462 0 0.0144479962461943 -0.1082343501681014 0 0.03170108987002046 -0.10050694789866579 0 0.01674231050701382 -0.093658367309864349 0 0.02745527456064175 -0.089089442263575569 0 0.03170108987002046 -0.10050694789866579 0 0.0144479962461943 -0.1082343501681014 0 0.001856719827670471 -0.098182337095309047 0 0.01674231050701382 -0.093658367309864349 0 0.0015243557028834459 -0.11711868301268021 0 0.0144479962461943 -0.1082343501681014 0 0.001856719827670471 -0.098182337095309047 0 0.001856719827670471 -0.098182337095309047 0 0.0065051428120863272 -0.082127796022149757 0 0.01674231050701382 -0.093658367309864349 0 0.0065051428120863272 -0.082127796022149757 0 0.018539693253586439 -0.071597204448153262 0 0.01731060528333208 -0.084118202510935727 0 0.0065051428120863272 -0.082127796022149757 0 0.01674231050701382 -0.093658367309864349 0 0.01731060528333208 -0.084118202510935727 0 0.0065051428120863272 -0.082127796022149757 0 0.018539693253586439 -0.071597204448153262 0 0.00035237720396625368 -0.061086817302918282 0 0.018539693253586439 -0.071597204448153262 0 0.00035237720396625368 -0.061086817302918282 0 0.029337839486141829 -0.062098975348790997 0 0.018539693253586439 -0.071597204448153262 0 0.036998616429076953 -0.080413518666692163 0 0.029337839486141829 -0.062098975348790997 0 0.018539693253586439 -0.071597204448153262 0 0.039278739387756327 -0.087755278287702396 0 0.018539693253586439 -0.071597204448153262 0 0.02745527456064175 -0.089089442263575569 0 0.039278739387756327 -0.087755278287702396 0 0.018539693253586439 -0.071597204448153262 0 0.01731060528333208 -0.084118202510935727 0 0.02745527456064175 -0.089089442263575569 0 0.01674231050701382 -0.093658367309864349 0 0.01731060528333208 -0.084118202510935727 0 0.02745527456064175 -0.089089442263575569 0 0.018539693253586439 -0.071597204448153262 0 0.036998616429076953 -0.080413518666692163 0 0.039278739387756327 -0.087755278287702396 0 0.02745527456064175 -0.089089442263575569 0 0.039278739387756327 -0.087755278287702396 0 0.036114206476440321 -0.094502097047588079 0 0.036998616429076953 -0.080413518666692163 0 0.039278739387756327 -0.087755278287702396 0 0.050747139898636717 -0.081209848062237813 0 0.058323301768317432 -0.063111133394663815 0 0.029337839486141829 -0.062098975348790997 0 0.036998616429076953 -0.080413518666692163 0 0.058323301768317432 -0.063111133394663815 0 0.029337839486141829 -0.062098975348790997 0 0.036998616429076953 -0.080413518666692163 0 0.058323301768317432 -0.063111133394663815 0 0.058323301768317432 -0.063111133394663815 0 0.050747139898636717 -0.081209848062237813 0 0.060228637404373828 -0.081759239016750626 0 0.036998616429076953 -0.080413518666692163 0 0.058323301768317432 -0.063111133394663815 0 0.050747139898636717 -0.081209848062237813 0 0.039278739387756327 -0.087755278287702396 0 0.050747139898636717 -0.081209848062237813 0 0.060818353003097771 -0.090653503469919336 0 0.050747139898636717 -0.081209848062237813 0 0.060228637404373828 -0.081759239016750626 0 0.060818353003097771 -0.090653503469919336 0 0.060017785521926562 -0.10391335212725129 0 0.042153090511964017 -0.099193769589441219 0 0.043653631303676513 -0.1092911725859987 0 0.060017785521926562 -0.10391335212725129 0 0.043653631303676513 -0.1092911725859987 0 0.039278739387756327 -0.087755278287702396 0 0.060818353003097771 -0.090653503469919336 0 0.060017785521926562 -0.10391335212725129 0 0.060017785521926562 -0.10391335212725129 0 0.053375718786791107 -0.1112883554404277 0 0.043653631303676513 -0.1092911725859987 0 0.039278739387756327 -0.087755278287702396 0 0.060017785521926562 -0.10391335212725129 0 0.039278739387756327 -0.087755278287702396 0 0.060017785521926562 -0.10391335212725129 0 0.042153090511964017 -0.099193769589441219 0 0.060017785521926562 -0.10391335212725129 0 0.053375718786791107 -0.1112883554404277 0 0.065116799684213397 -0.10788606364011991 0 0.052298963826290519 -0.1211548808236817 0 0.066569319149528045 -0.1206454253796948 0 0.065116799684213397 -0.10788606364011991 0 0.052298963826290519 -0.1211548808236817 0 0.065116799684213397 -0.10788606364011991 0 0.052298963826290519 -0.1211548808236817 0 0.053375718786791107 -0.1112883554404277 0 0.065116799684213397 -0.10788606364011991 0 0.052298963826290519 -0.1211548808236817 0 0.053375718786791107 -0.1112883554404277 0 0.043653631303676513 -0.1092911725859987 0 0.02728947708542654 -0.1146689930447462 0 0.037800108132664212 -0.12348471533883321 0 0.043653631303676513 -0.1092911725859987 0 0.02728947708542654 -0.1146689930447462 0 0.043653631303676513 -0.1092911725859987 0 0.052298963826290519 -0.1211548808236817 0 0.037800108132664212 -0.12348471533883321 0 0.043653631303676513 -0.1092911725859987 0 0.029299678594365521 -0.12697140115214181 0 0.02728947708542654 -0.1146689930447462 0 0.037800108132664212 -0.12348471533883321 0 0.02728947708542654 -0.1146689930447462 0 0.03170108987002046 -0.10050694789866579 0 0.043653631303676513 -0.1092911725859987 0 0.036114206476440321 -0.094502097047588079 0 0.03170108987002046 -0.10050694789866579 0 0.042153090511964017 -0.099193769589441219 0 0.02745527456064175 -0.089089442263575569 0 0.036114206476440321 -0.094502097047588079 0 0.03170108987002046 -0.10050694789866579 0 0.039278739387756327 -0.087755278287702396 0 0.036114206476440321 -0.094502097047588079 0 0.042153090511964017 -0.099193769589441219 0 0.03170108987002046 -0.10050694789866579 0 0.042153090511964017 -0.099193769589441219 0 0.043653631303676513 -0.1092911725859987 0 0.025695344612614111 0.0095801541182225364 0 0.02812452509478746 -0.0099579005571815878 0 0.006935528729737548 -0.0054826371559186567 0 0.02812452509478746 -0.0099579005571815878 0 0.006935528729737548 -0.0054826371559186567 0 0.01889941714368459 -0.025130787452367569 0 0.006935528729737548 -0.0054826371559186567 0 0.0027408304473846411 -0.028176541972939319 0 0.01889941714368459 -0.025130787452367569 0 0.02812452509478746 -0.0099579005571815878 0 0.01889941714368459 -0.025130787452367569 0 0.035567370731091272 -0.02454493013615917 0 0.01889941714368459 -0.025130787452367569 0 0.02846567832778216 -0.042756626880165419 0 0.035567370731091272 -0.02454493013615917 0 0.01889941714368459 -0.025130787452367569 0 0.02846567832778216 -0.042756626880165419 0 0.0096258971738255473 -0.043108802377643002 0 0.02846567832778216 -0.042756626880165419 0 0.0096258971738255473 -0.043108802377643002 0 0.016945448047928951 -0.052262805477379423 0 0.01889941714368459 -0.025130787452367569 0 0.0096258971738255473 -0.043108802377643002 0 -0.01026660782967455 -0.041229232136501717 0 0.0027408304473846411 -0.028176541972939319 0 0.0096258971738255473 -0.043108802377643002 0 0.0027408304473846411 -0.028176541972939319 0 0.01889941714368459 -0.025130787452367569 0 0.0096258971738255473 -0.043108802377643002 0 0.0096258971738255473 -0.043108802377643002 0 0.00035237720396625368 -0.061086817302918282 0 0.016945448047928951 -0.052262805477379423 0 0.00035237720396625368 -0.061086817302918282 0 0.016945448047928951 -0.052262805477379423 0 0.029337839486141829 -0.062098975348790997 0 0.0096258971738255473 -0.043108802377643002 0 0.00035237720396625368 -0.061086817302918282 0 0.00035237720396625368 -0.061086817302918282 0 0.029337839486141829 -0.062098975348790997 0 0.02846567832778216 -0.042756626880165419 0 0.016945448047928951 -0.052262805477379423 0 0.029337839486141829 -0.062098975348790997 0 0.02846567832778216 -0.042756626880165419 0 0.029337839486141829 -0.062098975348790997 0 0.044041605111135473 -0.049431168693685697 0 0.058323301768317432 -0.063111133394663815 0 0.029337839486141829 -0.062098975348790997 0 0.044041605111135473 -0.049431168693685697 0 0.058323301768317432 -0.063111133394663815 0 0.044041605111135473 -0.049431168693685697 0 0.059903341899081253 -0.040049795258846832 0 0.059903341899081253 -0.040049795258846832 0 0.045154502468205723 -0.035444412579530127 0 0.052999286202529479 -0.022291816621987929 0 0.044041605111135473 -0.049431168693685697 0 0.059903341899081253 -0.040049795258846832 0 0.045154502468205723 -0.035444412579530127 0 0.02846567832778216 -0.042756626880165419 0 0.044041605111135473 -0.049431168693685697 0 0.045154502468205723 -0.035444412579530127 0 0.02846567832778216 -0.042756626880165419 0 0.045154502468205723 -0.035444412579530127 0 0.035567370731091272 -0.02454493013615917 0 0.045154502468205723 -0.035444412579530127 0 0.035567370731091272 -0.02454493013615917 0 0.052999286202529479 -0.022291816621987929 0 0.035567370731091272 -0.02454493013615917 0 0.052999286202529479 -0.022291816621987929 0 0.04138045704507981 -0.013293391242584921 0 0.02812452509478746 -0.0099579005571815878 0 0.035567370731091272 -0.02454493013615917 0 0.04138045704507981 -0.013293391242584921 0 0.059903341899081253 -0.040049795258846832 0 0.052999286202529479 -0.022291816621987929 0 0.073093181043766914 -0.026775388104941698 0 0.052999286202529479 -0.022291816621987929 0 0.049896637954744763 -0.0073960790217490677 0 0.04138045704507981 -0.013293391242584921 0 0.052999286202529479 -0.022291816621987929 0 0.049896637954744763 -0.0073960790217490677 0 0.066530330394949447 -0.012320269852860621 0 0.049896637954744763 -0.0073960790217490677 0 0.040314465242246092 -0.002276229875846851 0 0.04138045704507981 -0.013293391242584921 0 0.025695344612614111 0.0095801541182225364 0 0.02812452509478746 -0.0099579005571815878 0 0.040314465242246092 -0.002276229875846851 0 0.046640351189982193 0.001482106492276504 0 0.049896637954744763 -0.0073960790217490677 0 0.040314465242246092 -0.002276229875846851 0 0.02812452509478746 -0.0099579005571815878 0 0.040314465242246092 -0.002276229875846851 0 0.04138045704507981 -0.013293391242584921 0 0.075461568133428525 0.0044331687040122013 0 0.081703970602104437 -0.011974759962048749 0 0.098011391193308373 -0.0056982583262641584 0 0.075461568133428525 0.0044331687040122013 0 0.049896637954744763 -0.0073960790217490677 0 0.075461568133428525 0.0044331687040122013 0 0.049896637954744763 -0.0073960790217490677 0 0.066530330394949447 -0.012320269852860621 0 0.075461568133428525 0.0044331687040122013 0 0.081703970602104437 -0.011974759962048749 0 0.066530330394949447 -0.012320269852860621 0 0.081703970602104437 -0.011974759962048749 0 0.066530330394949447 -0.012320269852860621 0 0.073093181043766914 -0.026775388104941698 0 0.052999286202529479 -0.022291816621987929 0 0.066530330394949447 -0.012320269852860621 0 0.073093181043766914 -0.026775388104941698 0 0.081703970602104437 -0.011974759962048749 0 0.097837743661838034 -0.031049975793767819 0 0.098011391193308373 -0.0056982583262641584 0 0.081703970602104437 -0.011974759962048749 0 0.073093181043766914 -0.026775388104941698 0 0.097837743661838034 -0.031049975793767819 0 0.078080522715077566 -0.047080554594215653 0 0.097861902682226248 -0.045151270938537998 0 0.097837743661838034 -0.031049975793767819 0 0.073093181043766914 -0.026775388104941698 0 0.078080522715077566 -0.047080554594215653 0 0.097837743661838034 -0.031049975793767819 0 0.078080522715077566 -0.047080554594215653 0 0.097837743661838034 -0.031049975793767819 0 0.059903341899081253 -0.040049795258846832 0 0.073093181043766914 -0.026775388104941698 0 0.078080522715077566 -0.047080554594215653 0 0.058323301768317432 -0.063111133394663815 0 0.078080522715077566 -0.047080554594215653 0 0.058323301768317432 -0.063111133394663815 0 0.059903341899081253 -0.040049795258846832 0 0.078080522715077566 -0.047080554594215653 0 0.058323301768317432 -0.063111133394663815 0 0.078080522715077566 -0.047080554594215653 0 0.081939961595450139 -0.063935815506958552 0 0.078080522715077566 -0.047080554594215653 0 0.094142039140793971 -0.055881476276546937 0 0.081939961595450139 -0.063935815506958552 0 0.078080522715077566 -0.047080554594215653 0 0.094142039140793971 -0.055881476276546937 0 0.097861902682226248 -0.045151270938537998 0 0.094142039140793971 -0.055881476276546937 0 0.081939961595450139 -0.063935815506958552 0 0.1067368008806147 -0.064801708903802782 0 0.094142039140793971 -0.055881476276546937 0 0.1075629424949773 -0.053875431803618333 0 0.097861902682226248 -0.045151270938537998 0 0.094142039140793971 -0.055881476276546937 0 0.1075629424949773 -0.053875431803618333 0 0.1067368008806147 -0.064801708903802782 0 0.1075629424949773 -0.053875431803618333 0 0.1067368008806147 -0.064801708903802782 0 0.1075629424949773 -0.053875431803618333 0 0.1232921759667842 -0.047663851323270827 0 0.1067368008806147 -0.064801708903802782 0 0.1232921759667842 -0.047663851323270827 0 0.1067368008806147 -0.064801708903802782 0 0.1075629424949773 -0.053875431803618333 0 0.1232921759667842 -0.047663851323270827 0 0.1109518143893137 -0.039435966374661548 0 0.1232921759667842 -0.047663851323270827 0 0.1067368008806147 -0.064801708903802782 0 0.13548767730717889 -0.06580567532731052 0 0.1232921759667842 -0.047663851323270827 0 0.1109518143893137 -0.039435966374661548 0 0.124582941869709 -0.030507807285028901 0 0.1109518143893137 -0.039435966374661548 0 0.097861902682226248 -0.045151270938537998 0 0.097837743661838034 -0.031049975793767819 0 0.1075629424949773 -0.053875431803618333 0 0.1109518143893137 -0.039435966374661548 0 0.097861902682226248 -0.045151270938537998 0 0.097837743661838034 -0.031049975793767819 0 0.1175949646085984 -0.015019396993320021 0 0.097837743661838034 -0.031049975793767819 0 0.1175949646085984 -0.015019396993320021 0 0.098011391193308373 -0.0056982583262641584 0 0.1109518143893137 -0.039435966374661548 0 0.097837743661838034 -0.031049975793767819 0 0.1175949646085984 -0.015019396993320021 0 0.1109518143893137 -0.039435966374661548 0 0.124582941869709 -0.030507807285028901 0 0.1175949646085984 -0.015019396993320021 0 0.124582941869709 -0.030507807285028901 0 0.1175949646085984 -0.015019396993320021 0 0.13165260102391191 -0.019660205177744808 0 0.11882011836095251 0.0065886106746579649 0 0.1175949646085984 -0.015019396993320021 0 0.098011391193308373 -0.0056982583262641584 0 0.11882011836095251 0.0065886106746579649 0 0.13735218555535891 0.001011181807127467 0 0.1175949646085984 -0.015019396993320021 0 0.073111172643960082 -0.099610417542301155 0 0.10058413041743761 -0.090581864498492995 0 0.088608598291174498 -0.101420796185217 0 0.073111172643960082 -0.099610417542301155 0 0.10058413041743761 -0.090581864498492995 0 0.083297568291202648 -0.10670285905343881 0 0.088608598291174498 -0.101420796185217 0 0.073111172643960082 -0.099610417542301155 0 0.083297568291202648 -0.10670285905343881 0 0.088608598291174498 -0.101420796185217 0 0.097441521812097198 -0.10878804364663471 0 0.093527805260815264 -0.13002146576964491 0 0.079322302472514483 -0.11895376470488229 0 0.097441521812097198 -0.10878804364663471 0 0.083297568291202648 -0.10670285905343881 0 0.079322302472514483 -0.11895376470488229 0 0.097441521812097198 -0.10878804364663471 0 0.093527805260815264 -0.13002146576964491 0 0.079322302472514483 -0.11895376470488229 0 0.079322302472514483 -0.11895376470488229 0 0.065116799684213397 -0.10788606364011991 0 0.083297568291202648 -0.10670285905343881 0 0.079322302472514483 -0.11895376470488229 0 0.065116799684213397 -0.10788606364011991 0 0.079322302472514483 -0.11895376470488229 0 0.066569319149528045 -0.1206454253796948 0 0.065116799684213397 -0.10788606364011991 0 0.069539210615093855 -0.1345869923500955 0 0.079322302472514483 -0.11895376470488229 0 0.066569319149528045 -0.1206454253796948 0 0.060017785521926562 -0.10391335212725129 0 0.065116799684213397 -0.10788606364011991 0 0.060017785521926562 -0.10391335212725129 0 0.073111172643960082 -0.099610417542301155 0 0.065116799684213397 -0.10788606364011991 0 0.073111172643960082 -0.099610417542301155 0 0.083297568291202648 -0.10670285905343881 0 0.065116799684213397 -0.10788606364011991 0 0.073111172643960082 -0.099610417542301155 0 0.060017785521926562 -0.10391335212725129 0 0.065116799684213397 -0.10788606364011991 0 0.073111172643960082 -0.099610417542301155 0 0.060818353003097771 -0.090653503469919336 0 0.060017785521926562 -0.10391335212725129 0 0.073111172643960082 -0.099610417542301155 0 0.060818353003097771 -0.090653503469919336 0 0.073111172643960082 -0.099610417542301155 0 0.074211161232423301 -0.082716200610011378 0 0.060228637404373828 -0.081759239016750626 0 0.060818353003097771 -0.090653503469919336 0 0.074211161232423301 -0.082716200610011378 0 0.058323301768317432 -0.063111133394663815 0 0.081939961595450139 -0.063935815506958552 0 0.058323301768317432 -0.063111133394663815 0 0.074211161232423301 -0.082716200610011378 0 0.081939961595450139 -0.063935815506958552 0 0.058323301768317432 -0.063111133394663815 0 0.060228637404373828 -0.081759239016750626 0 0.074211161232423301 -0.082716200610011378 0 0.074211161232423301 -0.082716200610011378 0 0.081939961595450139 -0.063935815506958552 0 0.089190063779311518 -0.082965808471458069 0 0.081939961595450139 -0.063935815506958552 0 0.089190063779311518 -0.082965808471458069 0 0.1052689549146623 -0.0663211994006144 0 0.073111172643960082 -0.099610417542301155 0 0.074211161232423301 -0.082716200610011378 0 0.089190063779311518 -0.082965808471458069 0 0.073111172643960082 -0.099610417542301155 0 0.089190063779311518 -0.082965808471458069 0 0.073111172643960082 -0.099610417542301155 0 0.089190063779311518 -0.082965808471458069 0 0.10058413041743761 -0.090581864498492995 0 0.089190063779311518 -0.082965808471458069 0 0.1017080788123951 -0.087804556385465471 0 0.1052689549146623 -0.0663211994006144 0 0.089190063779311518 -0.082965808471458069 0 0.10058413041743761 -0.090581864498492995 0 0.1017080788123951 -0.087804556385465471 0 0.1017080788123951 -0.087804556385465471 0 0.1084674426683357 -0.077888137089068013 0 0.1052689549146623 -0.0663211994006144 0 0.089190063779311518 -0.082965808471458069 0 0.1052689549146623 -0.0663211994006144 0 0.081939961595450139 -0.063935815506958552 0 0.1067368008806147 -0.064801708903802782 0 0.1052689549146623 -0.0663211994006144 0 0.081939961595450139 -0.063935815506958552 0 0.1067368008806147 -0.064801708903802782 0 0.1017080788123951 -0.087804556385465471 0 0.1052689549146623 -0.0663211994006144 0 0.1084674426683357 -0.077888137089068013 0 0.1067368008806147 -0.064801708903802782 0 0.1052689549146623 -0.0663211994006144 0 0.1067368008806147 -0.064801708903802782 0 0.1052689549146623 -0.0663211994006144 0 0.1067368008806147 -0.064801708903802782 0 0.13548767730717889 -0.06580567532731052 0 0.1084674426683357 -0.077888137089068013 0 0.1067368008806147 -0.064801708903802782 0 0.1232061248222129 -0.075206297362028066 0 0.1067368008806147 -0.064801708903802782 0 0.1232061248222129 -0.075206297362028066 0 0.13548767730717889 -0.06580567532731052 0 0.1017080788123951 -0.087804556385465471 0 0.1084674426683357 -0.077888137089068013 0 0.1272797878356694 -0.088593758706814907 0 0.1017080788123951 -0.087804556385465471 0 0.1272797878356694 -0.088593758706814907 0 0.1084674426683357 -0.077888137089068013 0 0.1232061248222129 -0.075206297362028066 0 0.1272797878356694 -0.088593758706814907 0 0.1017080788123951 -0.087804556385465471 0 0.11567178204704499 -0.10568275569041199 0 0.1272797878356694 -0.088593758706814907 0 0.1017080788123951 -0.087804556385465471 0 0.11567178204704499 -0.10568275569041199 0 0.097441521812097198 -0.10878804364663471 0 0.1017080788123951 -0.087804556385465471 0 0.097441521812097198 -0.10878804364663471 0 0.088608598291174498 -0.101420796185217 0 0.10058413041743761 -0.090581864498492995 0 0.097441521812097198 -0.10878804364663471 0 0.10058413041743761 -0.090581864498492995 0 0.1017080788123951 -0.087804556385465471 0 0.097441521812097198 -0.10878804364663471 0 0.093527805260815264 -0.13002146576964491 0 0.097441521812097198 -0.10878804364663471 0 0.104312872852085 -0.12243825994362539 0 0.093527805260815264 -0.13002146576964491 0 0.097441521812097198 -0.10878804364663471 0 0.11567178204704499 -0.10568275569041199 0 0.097441521812097198 -0.10878804364663471 0 0.104312872852085 -0.12243825994362539 0 0.11567178204704499 -0.10568275569041199 0 0.104312872852085 -0.12243825994362539 0 0.12800820934211829 -0.12401417466047961 0 0.12800820934211829 -0.12401417466047961 0 0.14712201392247631 -0.1132275548916801 0 0.13655559816636781 -0.1031347463460832 0 0.12800820934211829 -0.12401417466047961 0 0.14712201392247631 -0.1132275548916801 0 0.11567178204704499 -0.10568275569041199 0 0.12800820934211829 -0.12401417466047961 0 0.13655559816636781 -0.1031347463460832 0 0.12800820934211829 -0.12401417466047961 0 0.14712201392247631 -0.1132275548916801 0 0.1486045981545247 -0.12747252536747111 0 0.14712201392247631 -0.1132275548916801 0 0.16095359288685571 -0.1184472051676727 0 0.1486045981545247 -0.12747252536747111 0 0.15146120268426411 -0.099532086410862586 0 0.13655559816636781 -0.1031347463460832 0 0.1528514968589437 -0.089382961028164357 0 0.14712201392247631 -0.1132275548916801 0 0.15146120268426411 -0.099532086410862586 0 0.16623581850283431 -0.10244093512288061 0 0.14712201392247631 -0.1132275548916801 0 0.15146120268426411 -0.099532086410862586 0 0.13655559816636781 -0.1031347463460832 0 0.11567178204704499 -0.10568275569041199 0 0.13655559816636781 -0.1031347463460832 0 0.1272797878356694 -0.088593758706814907 0 0.1272797878356694 -0.088593758706814907 0 0.13805891541926751 -0.078942206783145619 0 0.1528514968589437 -0.089382961028164357 0 0.1272797878356694 -0.088593758706814907 0 0.1528514968589437 -0.089382961028164357 0 0.13655559816636781 -0.1031347463460832 0 0.1272797878356694 -0.088593758706814907 0 0.1528514968589437 -0.089382961028164357 0 0.1232061248222129 -0.075206297362028066 0 0.1272797878356694 -0.088593758706814907 0 0.13805891541926751 -0.078942206783145619 0 0.1232061248222129 -0.075206297362028066 0 0.13805891541926751 -0.078942206783145619 0 0.13548767730717889 -0.06580567532731052 0 0.13548767730717889 -0.06580567532731052 0 0.16423855373374319 -0.066809641750814969 0 0.13548767730717889 -0.06580567532731052 0 0.1516507619880918 -0.076739651506421189 0 0.16423855373374319 -0.066809641750814969 0 0.13548767730717889 -0.06580567532731052 0 0.16423855373374319 -0.066809641750814969 0 0.16004124225532049 -0.061841453839887157 0 0.13805891541926751 -0.078942206783145619 0 0.13548767730717889 -0.06580567532731052 0 0.1516507619880918 -0.076739651506421189 0 0.13805891541926751 -0.078942206783145619 0 0.1516507619880918 -0.076739651506421189 0 0.1528514968589437 -0.089382961028164357 0 0.15146120268426411 -0.099532086410862586 0 0.1528514968589437 -0.089382961028164357 0 0.15581646250916109 -0.090151240212135456 0 0.1528514968589437 -0.089382961028164357 0 0.15581646250916109 -0.090151240212135456 0 0.17842320588221819 -0.090172163349513806 0 0.1528514968589437 -0.089382961028164357 0 0.17842320588221819 -0.090172163349513806 0 0.15581646250916109 -0.090151240212135456 0 0.16859491992305889 -0.093070393687126218 0 0.17842320588221819 -0.090172163349513806 0 0.1528514968589437 -0.089382961028164357 0 0.1653897445003264 -0.079862578323319361 0 0.17842320588221819 -0.090172163349513806 0 0.1516507619880918 -0.076739651506421189 0 0.1528514968589437 -0.089382961028164357 0 0.1653897445003264 -0.079862578323319361 0 0.1516507619880918 -0.076739651506421189 0 0.1653897445003264 -0.079862578323319361 0 0.16423855373374319 -0.066809641750814969 0 0.1653897445003264 -0.079862578323319361 0 0.16423855373374319 -0.066809641750814969 0 0.17833356117891219 -0.077628002067558224 0 0.16423855373374319 -0.066809641750814969 0 0.1727598808088672 -0.056322389892066158 0 0.1929894301603077 -0.067813608174319001 0 0.16423855373374319 -0.066809641750814969 0 0.1929894301603077 -0.067813608174319001 0 0.16423855373374319 -0.066809641750814969 0 0.17833356117891219 -0.077628002067558224 0 0.1929894301603077 -0.067813608174319001 0 0.17833356117891219 -0.077628002067558224 0 0.19040307974074269 -0.080139672987034255 0 0.1929894301603077 -0.067813608174319001 0 0.16859491992305889 -0.093070393687126218 0 0.17842320588221819 -0.090172163349513806 0 0.17335524666804841 -0.094081054567607611 0 0.17842320588221819 -0.090172163349513806 0 0.17824607109877541 -0.095663109832525739 0 0.17335524666804841 -0.094081054567607611 0 0.1653897445003264 -0.079862578323319361 0 0.17833356117891219 -0.077628002067558224 0 0.17842320588221819 -0.090172163349513806 0 0.17833356117891219 -0.077628002067558224 0 0.1854866420256687 -0.084161575248007242 0 0.19040307974074269 -0.080139672987034255 0 0.17833356117891219 -0.077628002067558224 0 0.17842320588221819 -0.090172163349513806 0 0.1854866420256687 -0.084161575248007242 0 0.18404025852736719 -0.096743595743047278 0 0.18504385230606449 -0.10434071571553651 0 0.19243594079672521 -0.096163448387799222 0 0.17824607109877541 -0.095663109832525739 0 0.18504385230606449 -0.10434071571553651 0 0.16623581850283431 -0.10244093512288061 0 0.18504385230606449 -0.10434071571553651 0 0.18014950107347269 -0.1188522098678762 0 0.16623581850283431 -0.10244093512288061 0 0.18404025852736719 -0.096743595743047278 0 0.17824607109877541 -0.095663109832525739 0 0.18504385230606449 -0.10434071571553651 0 0.17842320588221819 -0.090172163349513806 0 0.18404025852736719 -0.096743595743047278 0 0.19243594079672521 -0.096163448387799222 0 0.17842320588221819 -0.090172163349513806 0 0.18404025852736719 -0.096743595743047278 0 0.17824607109877541 -0.095663109832525739 0 0.17824607109877541 -0.095663109832525739 0 0.17335524666804841 -0.094081054567607611 0 0.16623581850283431 -0.10244093512288061 0 0.17824607109877541 -0.095663109832525739 0 0.16623581850283431 -0.10244093512288061 0 0.18504385230606449 -0.10434071571553651 0 0.18014950107347269 -0.1188522098678762 0 0.1922879604253335 -0.1099500278873989 0 0.18014950107347269 -0.1188522098678762 0 0.16623581850283431 -0.10244093512288061 0 0.18014950107347269 -0.1188522098678762 0 0.16095359288685571 -0.1184472051676727 0 0.16623581850283431 -0.10244093512288061 0 0.14712201392247631 -0.1132275548916801 0 0.16095359288685571 -0.1184472051676727 0 0.16623581850283431 -0.10244093512288061 0 0.18014950107347269 -0.1188522098678762 0 0.16095359288685571 -0.1184472051676727 0 0.16265603278097029 -0.1302428005884553 0 0.14712201392247631 -0.1132275548916801 0 0.16623581850283431 -0.10244093512288061 0 0.15581646250916109 -0.090151240212135456 0 0.16859491992305889 -0.093070393687126218 0 0.16623581850283431 -0.10244093512288061 0 0.15146120268426411 -0.099532086410862586 0 0.15581646250916109 -0.090151240212135456 0 0.16623581850283431 -0.10244093512288061 0 0.15581646250916109 -0.090151240212135456 0 0.16623581850283431 -0.10244093512288061 0 0.16859491992305889 -0.093070393687126218 0 0.17335524666804841 -0.094081054567607611 0 0.16623581850283431 -0.10244093512288061 0 0.13735218555535891 0.001011181807127467 0 0.1449152044553462 -0.019939696741877431 0 0.14216046477152491 0.0049125148476896544 0 0.15727218843160701 -0.01758578836774349 0 0.15849764294065671 -0.0060544572746906826 0 0.14216046477152491 0.0049125148476896544 0 0.15727218843160701 -0.01758578836774349 0 0.14216046477152491 0.0049125148476896544 0 0.1449152044553462 -0.019939696741877431 0 0.15727218843160701 -0.01758578836774349 0 0.14216046477152491 0.0049125148476896544 0 0.13735218555535891 0.001011181807127467 0 0.1449152044553462 -0.019939696741877431 0 0.13735218555535891 0.001011181807127467 0 0.1175949646085984 -0.015019396993320021 0 0.13735218555535891 0.001011181807127467 0 0.1175949646085984 -0.015019396993320021 0 0.13165260102391191 -0.019660205177744808 0 0.13735218555535891 0.001011181807127467 0 0.13165260102391191 -0.019660205177744808 0 0.1449152044553462 -0.019939696741877431 0 0.13165260102391191 -0.019660205177744808 0 0.13984755105295521 -0.030525993742740402 0 0.1449152044553462 -0.019939696741877431 0 0.124582941869709 -0.030507807285028901 0 0.13165260102391191 -0.019660205177744808 0 0.13984755105295521 -0.030525993742740402 0 0.1449152044553462 -0.019939696741877431 0 0.15247822335533329 -0.040890575290882317 0 0.15727218843160701 -0.01758578836774349 0 0.13984755105295521 -0.030525993742740402 0 0.1449152044553462 -0.019939696741877431 0 0.15247822335533329 -0.040890575290882317 0 0.1449152044553462 -0.019939696741877431 0 0.15247822335533329 -0.040890575290882317 0 0.15247822335533329 -0.040890575290882317 0 0.1379109625223634 -0.045605004272587249 0 0.14629243763992239 -0.054068479542427092 0 0.13984755105295521 -0.030525993742740402 0 0.15247822335533329 -0.040890575290882317 0 0.1379109625223634 -0.045605004272587249 0 0.1232921759667842 -0.047663851323270827 0 0.13984755105295521 -0.030525993742740402 0 0.1379109625223634 -0.045605004272587249 0 0.1232921759667842 -0.047663851323270827 0 0.124582941869709 -0.030507807285028901 0 0.13984755105295521 -0.030525993742740402 0 0.1232921759667842 -0.047663851323270827 0 0.13984755105295521 -0.030525993742740402 0 0.1232921759667842 -0.047663851323270827 0 0.13548767730717889 -0.06580567532731052 0 0.1379109625223634 -0.045605004272587249 0 0.13548767730717889 -0.06580567532731052 0 0.1379109625223634 -0.045605004272587249 0 0.14629243763992239 -0.054068479542427092 0 0.13548767730717889 -0.06580567532731052 0 0.14629243763992239 -0.054068479542427092 0 0.16004124225532049 -0.061841453839887157 0 0.15247822335533329 -0.040890575290882317 0 0.14629243763992239 -0.054068479542427092 0 0.16004124225532049 -0.061841453839887157 0 0.15247822335533329 -0.040890575290882317 0 0.16004124225532049 -0.061841453839887157 0 0.1644158146278025 -0.049784627651503079 0 0.1644158146278025 -0.049784627651503079 0 0.1727598808088672 -0.056322389892066158 0 0.1723839120916891 -0.040084091583176683 0 0.15247822335533329 -0.040890575290882317 0 0.16004124225532049 -0.061841453839887157 0 0.16423855373374319 -0.066809641750814969 0 0.16004124225532049 -0.061841453839887157 0 0.1727598808088672 -0.056322389892066158 0 0.16004124225532049 -0.061841453839887157 0 0.1644158146278025 -0.049784627651503079 0 0.1727598808088672 -0.056322389892066158 0 0.1727598808088672 -0.056322389892066158 0 0.18434240851125541 -0.050289724698312777 0 0.1723839120916891 -0.040084091583176683 0 0.1727598808088672 -0.056322389892066158 0 0.18434240851125541 -0.050289724698312777 0 0.1929894301603077 -0.067813608174319001 0 0.1723839120916891 -0.040084091583176683 0 0.18077822909658589 -0.032018797610549231 0 0.17598651952492231 -0.0227560541305885 0 0.18434240851125541 -0.050289724698312777 0 0.1723839120916891 -0.040084091583176683 0 0.18674227588606429 -0.037749552466939278 0 0.1723839120916891 -0.040084091583176683 0 0.18674227588606429 -0.037749552466939278 0 0.18077822909658589 -0.032018797610549231 0 0.18674227588606429 -0.037749552466939278 0 0.18077822909658589 -0.032018797610549231 0 0.18610830639217099 -0.030062433202775862 0 0.15247822335533329 -0.040890575290882317 0 0.1723839120916891 -0.040084091583176683 0 0.15727218843160701 -0.01758578836774349 0 0.15247822335533329 -0.040890575290882317 0 0.1644158146278025 -0.049784627651503079 0 0.1723839120916891 -0.040084091583176683 0 0.1723839120916891 -0.040084091583176683 0 0.15727218843160701 -0.01758578836774349 0 0.1723839120916891 -0.040084091583176683 0 0.1668946229318731 -0.019675061199070819 0 0.17598651952492231 -0.0227560541305885 0 0.1723839120916891 -0.040084091583176683 0 0.15727218843160701 -0.01758578836774349 0 0.1668946229318731 -0.019675061199070819 0 0.1668946229318731 -0.019675061199070819 0 0.17598651952492231 -0.0227560541305885 0 0.16985348277487761 -0.0099868764823510571 0 0.18077822909658589 -0.032018797610549231 0 0.18438258456793261 -0.021379302004443181 0 0.17598651952492231 -0.0227560541305885 0 0.18077822909658589 -0.032018797610549231 0 0.18610830639217099 -0.030062433202775862 0 0.18438258456793261 -0.021379302004443181 0 0.18438258456793261 -0.021379302004443181 0 0.17598651952492231 -0.0227560541305885 0 0.17878486519392331 -0.011645355321630489 0 0.17598651952492231 -0.0227560541305885 0 0.17878486519392331 -0.011645355321630489 0 0.16985348277487761 -0.0099868764823510571 0 0.17878486519392331 -0.011645355321630489 0 0.17506184651935949 -0.0021247232161890161 0 0.16985348277487761 -0.0099868764823510571 0 0.18438258456793261 -0.021379302004443181 0 0.17878486519392331 -0.011645355321630489 0 0.18863989258252481 -0.001979820774580698 0 0.17878486519392331 -0.011645355321630489 0 0.17506184651935949 -0.0021247232161890161 0 0.18863989258252481 -0.001979820774580698 0 0.1628037813635097 0.0015330777282007481 0 0.17506184651935949 -0.0021247232161890161 0 0.16985348277487761 -0.0099868764823510571 0 0.1668946229318731 -0.019675061199070819 0 0.16985348277487761 -0.0099868764823510571 0 0.15849764294065671 -0.0060544572746906826 0 0.15727218843160701 -0.01758578836774349 0 0.1668946229318731 -0.019675061199070819 0 0.15849764294065671 -0.0060544572746906826 0 0.1628037813635097 0.0015330777282007481 0 0.16985348277487761 -0.0099868764823510571 0 0.15849764294065671 -0.0060544572746906826 0 0.1628037813635097 0.0015330777282007481 0 0.15453230216132671 0.0032055715019124438 0 0.15849764294065671 -0.0060544572746906826 0 0.21174544862736719 0.0096628206364345465 0 0.20589386385567829 -0.0063134785331596111 0 0.2185782736923042 -0.0038367730406402641 0 0.20589386385567829 -0.0063134785331596111 0 0.2185782736923042 -0.0038367730406402641 0 0.2199828155312514 -0.0225516893132638 0 0.20589386385567829 -0.0063134785331596111 0 0.18863989258252481 -0.001979820774580698 0 0.1936475112771239 -0.030998707124919651 0 0.20589386385567829 -0.0063134785331596111 0 0.1936475112771239 -0.030998707124919651 0 0.20001428446098229 -0.034334459813343092 0 0.18863989258252481 -0.001979820774580698 0 0.1936475112771239 -0.030998707124919651 0 0.20589386385567829 -0.0063134785331596111 0 0.20001428446098229 -0.034334459813343092 0 0.18438258456793261 -0.021379302004443181 0 0.18863989258252481 -0.001979820774580698 0 0.1936475112771239 -0.030998707124919651 0 0.18610830639217099 -0.030062433202775862 0 0.18438258456793261 -0.021379302004443181 0 0.1936475112771239 -0.030998707124919651 0 0.20589386385567829 -0.0063134785331596111 0 0.20001428446098229 -0.034334459813343092 0 0.2199828155312514 -0.0225516893132638 0 0.20001428446098229 -0.034334459813343092 0 0.22061008072662569 -0.045125245157715169 0 0.20001428446098229 -0.034334459813343092 0 0.22061008072662569 -0.045125245157715169 0 0.2199828155312514 -0.0225516893132638 0 0.20001428446098229 -0.034334459813343092 0 0.19683654360934791 -0.049478981375062181 0 0.22061008072662569 -0.045125245157715169 0 0.1936475112771239 -0.030998707124919651 0 0.19683654360934791 -0.049478981375062181 0 0.18674227588606429 -0.037749552466939278 0 0.1936475112771239 -0.030998707124919651 0 0.19683654360934791 -0.049478981375062181 0 0.1936475112771239 -0.030998707124919651 0 0.20001428446098229 -0.034334459813343092 0 0.19683654360934791 -0.049478981375062181 0 0.1936475112771239 -0.030998707124919651 0 0.20001428446098229 -0.034334459813343092 0 0.18674227588606429 -0.037749552466939278 0 0.18610830639217099 -0.030062433202775862 0 0.1936475112771239 -0.030998707124919651 0 0.18434240851125541 -0.050289724698312777 0 0.18674227588606429 -0.037749552466939278 0 0.19683654360934791 -0.049478981375062181 0 0.20001428446098229 -0.034334459813343092 0 0.19683654360934791 -0.049478981375062181 0 0.19683654360934791 -0.049478981375062181 0 0.1929894301603077 -0.067813608174319001 0 0.2000429458732931 -0.068059913463883598 0 0.19683654360934791 -0.049478981375062181 0 0.21158346953455981 -0.057932445704329483 0 0.2000429458732931 -0.068059913463883598 0 0.19683654360934791 -0.049478981375062181 0 0.2000429458732931 -0.068059913463883598 0 0.19683654360934791 -0.049478981375062181 0 0.1929894301603077 -0.067813608174319001 0 0.18434240851125541 -0.050289724698312777 0 0.19683654360934791 -0.049478981375062181 0 0.1929894301603077 -0.067813608174319001 0 0.19683654360934791 -0.049478981375062181 0 0.21158346953455981 -0.057932445704329483 0 0.22061008072662569 -0.045125245157715169 0 0.24120587699226881 -0.055916030502087773 0 0.22061008072662569 -0.045125245157715169 0 0.2288443079289719 -0.069065642820655804 0 0.21158346953455981 -0.057932445704329483 0 0.22061008072662569 -0.045125245157715169 0 0.2288443079289719 -0.069065642820655804 0 0.24120587699226881 -0.055916030502087773 0 0.22061008072662569 -0.045125245157715169 0 0.25030159180115191 -0.034143426788088307 0 0.24120587699226881 -0.055916030502087773 0 0.23430517811137791 -0.037629801295311363 0 0.25030159180115191 -0.034143426788088307 0 0.23430517811137791 -0.037629801295311363 0 0.23651070060392609 -0.023431292744830981 0 0.22061008072662569 -0.045125245157715169 0 0.23430517811137791 -0.037629801295311363 0 0.2199828155312514 -0.0225516893132638 0 0.24120587699226881 -0.055916030502087773 0 0.22061008072662569 -0.045125245157715169 0 0.23430517811137791 -0.037629801295311363 0 0.2199828155312514 -0.0225516893132638 0 0.23651070060392609 -0.023431292744830981 0 0.2300866381754704 -0.0072438550720441714 0 0.23430517811137791 -0.037629801295311363 0 0.2199828155312514 -0.0225516893132638 0 0.23651070060392609 -0.023431292744830981 0 0.25030159180115191 -0.034143426788088307 0 0.23651070060392609 -0.023431292744830981 0 0.2464198669495459 -0.012097030270161889 0 0.23790413247208811 0.0091049515404343275 0 0.2464198669495459 -0.012097030270161889 0 0.2300866381754704 -0.0072438550720441714 0 0.23651070060392609 -0.023431292744830981 0 0.2464198669495459 -0.012097030270161889 0 0.2300866381754704 -0.0072438550720441714 0 0.2185782736923042 -0.0038367730406402641 0 0.2199828155312514 -0.0225516893132638 0 0.2300866381754704 -0.0072438550720441714 0 0.22518260227175371 0.0072623370788317187 0 0.2185782736923042 -0.0038367730406402641 0 0.2300866381754704 -0.0072438550720441714 0 0.20666963866093291 -0.1113398018781358 0 0.20399491490549271 -0.090961365670864353 0 0.20666963866093291 -0.1113398018781358 0 0.23081911420975029 -0.091789222750733895 0 0.20666963866093291 -0.1113398018781358 0 0.20399491490549271 -0.090961365670864353 0 0.23081911420975029 -0.091789222750733895 0 0.2184940671700534 -0.12394732724419751 0 0.20666963866093291 -0.1113398018781358 0 0.22056261316880149 -0.1108234873110058 0 0.2184940671700534 -0.12394732724419751 0 0.20975191972323501 -0.12432290509972491 0 0.20666963866093291 -0.1113398018781358 0 0.2184940671700534 -0.12394732724419751 0 0.20666963866093291 -0.1113398018781358 0 0.20975191972323501 -0.12432290509972491 0 0.20666963866093291 -0.1113398018781358 0 0.1971408692894723 -0.1190539635876471 0 0.20975191972323501 -0.12432290509972491 0 0.20666963866093291 -0.1113398018781358 0 0.18014950107347269 -0.1188522098678762 0 0.1971408692894723 -0.1190539635876471 0 0.19406318364410949 -0.13526348461287321 0 0.20666963866093291 -0.1113398018781358 0 0.1971408692894723 -0.1190539635876471 0 0.18014950107347269 -0.1188522098678762 0 0.1971408692894723 -0.1190539635876471 0 0.1922879604253335 -0.1099500278873989 0 0.20666963866093291 -0.1113398018781358 0 0.1971408692894723 -0.1190539635876471 0 0.1922879604253335 -0.1099500278873989 0 0.20666963866093291 -0.1113398018781358 0 0.19243594079672521 -0.096163448387799222 0 0.20399491490549271 -0.090961365670864353 0 0.18504385230606449 -0.10434071571553651 0 0.1922879604253335 -0.1099500278873989 0 0.19243594079672521 -0.096163448387799222 0 0.20666963866093291 -0.1113398018781358 0 0.1922879604253335 -0.1099500278873989 0 0.19243594079672521 -0.096163448387799222 0 0.20666963866093291 -0.1113398018781358 0 0.19243594079672521 -0.096163448387799222 0 0.1854866420256687 -0.084161575248007242 0 0.19040307974074269 -0.080139672987034255 0 0.20399491490549271 -0.090961365670864353 0 0.17842320588221819 -0.090172163349513806 0 0.19243594079672521 -0.096163448387799222 0 0.20399491490549271 -0.090961365670864353 0 0.17842320588221819 -0.090172163349513806 0 0.20399491490549271 -0.090961365670864353 0 0.17842320588221819 -0.090172163349513806 0 0.1854866420256687 -0.084161575248007242 0 0.20399491490549271 -0.090961365670864353 0 0.2000429458732931 -0.068059913463883598 0 0.20399491490549271 -0.090961365670864353 0 0.19040307974074269 -0.080139672987034255 0 0.2000429458732931 -0.068059913463883598 0 0.20399491490549271 -0.090961365670864353 0 0.19040307974074269 -0.080139672987034255 0 0.1929894301603077 -0.067813608174319001 0 0.2000429458732931 -0.068059913463883598 0 0.19040307974074269 -0.080139672987034255 0 0.1929894301603077 -0.067813608174319001 0 0.1929894301603077 -0.067813608174319001 0 0.2000429458732931 -0.068059913463883598 0 0.2000429458732931 -0.068059913463883598 0 0.2288443079289719 -0.069065642820655804 0 0.2000429458732931 -0.068059913463883598 0 0.21771238563745279 -0.081480669998114597 0 0.2288443079289719 -0.069065642820655804 0 0.21158346953455981 -0.057932445704329483 0 0.2000429458732931 -0.068059913463883598 0 0.2288443079289719 -0.069065642820655804 0 0.2000429458732931 -0.068059913463883598 0 0.20399491490549271 -0.090961365670864353 0 0.21771238563745279 -0.081480669998114597 0 0.20399491490549271 -0.090961365670864353 0 0.21771238563745279 -0.081480669998114597 0 0.23081911420975029 -0.091789222750733895 0 0.20399491490549271 -0.090961365670864353 0 0.23081911420975029 -0.091789222750733895 0 0.21771238563745279 -0.081480669998114597 0 0.23081911420975029 -0.091789222750733895 0 0.2288443079289719 -0.069065642820655804 0 0.25764566998465072 -0.070071372177431313 0 0.24120587699226881 -0.055916030502087773 0 0.2288443079289719 -0.069065642820655804 0 0.25764566998465072 -0.070071372177431313 0 0.2288443079289719 -0.069065642820655804 0 0.25764566998465072 -0.070071372177431313 0 0.2288443079289719 -0.069065642820655804 0 0.24423239209720191 -0.080930297464084477 0 0.25666672159796139 -0.092586939936295867 0 0.23081911420975029 -0.091789222750733895 0 0.23081911420975029 -0.091789222750733895 0 0.2288443079289719 -0.069065642820655804 0 0.24423239209720191 -0.080930297464084477 0 0.25666672159796139 -0.092586939936295867 0 0.23081911420975029 -0.091789222750733895 0 0.24423239209720191 -0.080930297464084477 0 0.23081911420975029 -0.091789222750733895 0 0.24423239209720191 -0.080930297464084477 0 0.25666672159796139 -0.092586939936295867 0 0.23081911420975029 -0.091789222750733895 0 0.23839025179526999 -0.1151992729885977 0 0.20666963866093291 -0.1113398018781358 0 0.23081911420975029 -0.091789222750733895 0 0.22056261316880149 -0.1108234873110058 0 0.23081911420975029 -0.091789222750733895 0 0.22056261316880149 -0.1108234873110058 0 0.23839025179526999 -0.1151992729885977 0 0.2184940671700534 -0.12394732724419751 0 0.22056261316880149 -0.1108234873110058 0 0.23839025179526999 -0.1151992729885977 0 0.2184940671700534 -0.12394732724419751 0 0.23839025179526999 -0.1151992729885977 0 0.22928680998153819 -0.13545484142638689 0 0.25915390151091949 -0.11811210275817149 0 0.25133622254172122 -0.13557462765415079 0 0.23839025179526999 -0.1151992729885977 0 0.25133622254172122 -0.13557462765415079 0 0.25208407187516418 -0.1419613505697605 0 0.23274332603383319 -0.13914027229300069 0 0.25133622254172122 -0.13557462765415079 0 0.23839025179526999 -0.1151992729885977 0 0.22928680998153819 -0.13545484142638689 0 0.25133622254172122 -0.13557462765415079 0 0.22928680998153819 -0.13545484142638689 0 0.25133622254172122 -0.13557462765415079 0 0.23274332603383319 -0.13914027229300069 0 0.22928680998153819 -0.13545484142638689 0 0.25208407187516418 -0.1419613505697605 0 0.23274332603383319 -0.13914027229300069 0 0.2530488896403309 -0.16079061319898569 0 0.23274332603383319 -0.13914027229300069 0 0.2530488896403309 -0.16079061319898569 0 0.23274332603383319 -0.13914027229300069 0 0.2334622085995452 -0.15779257262933219 0 0.2530488896403309 -0.16079061319898569 0 0.25208407187516418 -0.1419613505697605 0 0.23274332603383319 -0.13914027229300069 0 0.22694604844669111 -0.15137512496012309 0 0.2202725953444182 -0.1456731206256075 0 0.22100128495381829 -0.16152072110389429 0 0.22694604844669111 -0.15137512496012309 0 0.23274332603383319 -0.13914027229300069 0 0.2334622085995452 -0.15779257262933219 0 0.22694604844669111 -0.15137512496012309 0 0.2202725953444182 -0.1456731206256075 0 0.23274332603383319 -0.13914027229300069 0 0.23274332603383319 -0.13914027229300069 0 0.20959101376118139 -0.13576323162740581 0 0.22928680998153819 -0.13545484142638689 0 0.2116749968128239 -0.1353591630196288 0 0.23274332603383319 -0.13914027229300069 0 0.22928680998153819 -0.13545484142638689 0 0.2116749968128239 -0.1353591630196288 0 0.2184940671700534 -0.12394732724419751 0 0.22928680998153819 -0.13545484142638689 0 0.2116749968128239 -0.1353591630196288 0 0.2202725953444182 -0.1456731206256075 0 0.23274332603383319 -0.13914027229300069 0 0.20959101376118139 -0.13576323162740581 0 0.23274332603383319 -0.13914027229300069 0 0.22928680998153819 -0.13545484142638689 0 0.2184940671700534 -0.12394732724419751 0 0.22928680998153819 -0.13545484142638689 0 0.23274332603383319 -0.13914027229300069 0 0.20959101376118139 -0.13576323162740581 0 0.2116749968128239 -0.1353591630196288 0 0.20975191972323501 -0.12432290509972491 0 0.2116749968128239 -0.1353591630196288 0 0.19406318364410949 -0.13526348461287321 0 0.2184940671700534 -0.12394732724419751 0 0.20975191972323501 -0.12432290509972491 0 0.2116749968128239 -0.1353591630196288 0 0.20959101376118139 -0.13576323162740581 0 0.2116749968128239 -0.1353591630196288 0 0.19406318364410949 -0.13526348461287321 0 0.2202725953444182 -0.1456731206256075 0 0.21077041390333781 -0.15496976615408631 0 0.22100128495381829 -0.16152072110389429 0 0.2202725953444182 -0.1456731206256075 0 0.20959101376118139 -0.13576323162740581 0 0.21077041390333781 -0.15496976615408631 0 0.20959101376118139 -0.13576323162740581 0 0.21077041390333781 -0.15496976615408631 0 0.19406318364410949 -0.13526348461287321 0 0.21077041390333781 -0.15496976615408631 0 0.19019323353294471 -0.15547991582157239 0 0.19406318364410949 -0.13526348461287321 0 0.21077041390333781 -0.15496976615408631 0 0.19406318364410949 -0.13526348461287321 0 0.20975191972323501 -0.12432290509972491 0 0.1971408692894723 -0.1190539635876471 0 0.19406318364410949 -0.13526348461287321 0 0.2116749968128239 -0.1353591630196288 0 0.19406318364410949 -0.13526348461287321 0 0.2064216300685435 -0.1763378775815001 0 0.19333004299069351 -0.19482382871724169 0 0.185888281266576 -0.1738959907954824 0 0.21077041390333781 -0.15496976615408631 0 0.19019323353294471 -0.15547991582157239 0 0.2064216300685435 -0.1763378775815001 0 0.19019323353294471 -0.15547991582157239 0 0.2064216300685435 -0.1763378775815001 0 0.185888281266576 -0.1738959907954824 0 0.21077041390333781 -0.15496976615408631 0 0.2064216300685435 -0.1763378775815001 0 0.22100128495381829 -0.16152072110389429 0 0.2064216300685435 -0.1763378775815001 0 0.22637928715471201 -0.1750627007060517 0 0.22100128495381829 -0.16152072110389429 0 0.2064216300685435 -0.1763378775815001 0 0.22637928715471201 -0.1750627007060517 0 0.2213864998634191 -0.19074186604973761 0 0.22637928715471201 -0.1750627007060517 0 0.2363010186387848 -0.18586727398715949 0 0.2213864998634191 -0.19074186604973761 0 0.22637928715471201 -0.1750627007060517 0 0.22100128495381829 -0.16152072110389429 0 0.2334622085995452 -0.15779257262933219 0 0.22637928715471201 -0.1750627007060517 0 0.2334622085995452 -0.15779257262933219 0 0.24133419147104179 -0.17110858194103351 0 0.22694604844669111 -0.15137512496012309 0 0.22100128495381829 -0.16152072110389429 0 0.2334622085995452 -0.15779257262933219 0 0.2530488896403309 -0.16079061319898569 0 0.2334622085995452 -0.15779257262933219 0 0.24133419147104179 -0.17110858194103351 0 0.2550208565069661 -0.17514012483034949 0 0.2530488896403309 -0.16079061319898569 0 0.24133419147104179 -0.17110858194103351 0 0.22637928715471201 -0.1750627007060517 0 0.24133419147104179 -0.17110858194103351 0 0.2363010186387848 -0.18586727398715949 0 0.25030889548151403 -0.1837077448593728 0 0.2550208565069661 -0.17514012483034949 0 0.24133419147104179 -0.17110858194103351 0 0.25030889548151403 -0.1837077448593728 0 0.24133419147104179 -0.17110858194103351 0 0.2363010186387848 -0.18586727398715949 0 0.25030889548151403 -0.1837077448593728 0 0.2363010186387848 -0.18586727398715949 0 0.24624710011957149 -0.19756578472926509 0 0.2363010186387848 -0.18586727398715949 0 0.24624710011957149 -0.19756578472926509 0 0.23232272155890341 -0.19906227567560569 0 0.24624710011957149 -0.19756578472926509 0 0.2390873575194972 -0.2119906927462733 0 0.23232272155890341 -0.19906227567560569 0 0.25806059678156651 -0.21160485628964759 0 0.24624710011957149 -0.19756578472926509 0 0.2390873575194972 -0.2119906927462733 0 0.25806059678156651 -0.21160485628964759 0 0.2390873575194972 -0.2119906927462733 0 0.2485278721491469 -0.22983386195931649 0 0.22156570902884701 -0.2081716276760221 0 0.2275965143199381 -0.22680811778712909 0 0.21130945108473639 -0.22000441216527869 0 0.2390873575194972 -0.2119906927462733 0 0.22156570902884701 -0.2081716276760221 0 0.23232272155890341 -0.19906227567560569 0 0.2390873575194972 -0.2119906927462733 0 0.22156570902884701 -0.2081716276760221 0 0.2275965143199381 -0.22680811778712909 0 0.22156570902884701 -0.2081716276760221 0 0.2213864998634191 -0.19074186604973761 0 0.23232272155890341 -0.19906227567560569 0 0.2363010186387848 -0.18586727398715949 0 0.2213864998634191 -0.19074186604973761 0 0.23232272155890341 -0.19906227567560569 0 0.2410490216361528 -0.25300372010805161 0 0.2485278721491469 -0.22983386195931649 0 0.2275965143199381 -0.22680811778712909 0 0.25787859859726192 -0.24372773219337371 0 0.2410490216361528 -0.25300372010805161 0 0.2485278721491469 -0.22983386195931649 0 0.2390873575194972 -0.2119906927462733 0 0.2485278721491469 -0.22983386195931649 0 0.2275965143199381 -0.22680811778712909 0 0.2410490216361528 -0.25300372010805161 0 0.2275965143199381 -0.22680811778712909 0 0.2136455624920251 -0.24586339942155419 0 0.2410490216361528 -0.25300372010805161 0 0.2136455624920251 -0.24586339942155419 0 0.2136455624920251 -0.24586339942155419 0 0.1995187067769538 -0.22648505830905971 0 0.1970165427207646 -0.2431475676051908 0 0.2275965143199381 -0.22680811778712909 0 0.2136455624920251 -0.24586339942155419 0 0.21130945108473639 -0.22000441216527869 0 0.2136455624920251 -0.24586339942155419 0 0.21130945108473639 -0.22000441216527869 0 0.1995187067769538 -0.22648505830905971 0 0.1995187067769538 -0.22648505830905971 0 0.1970165427207646 -0.2431475676051908 0 0.1843931124890181 -0.23269732176232691 0 0.21130945108473639 -0.22000441216527869 0 0.1995187067769538 -0.22648505830905971 0 0.19847161958806309 -0.21206345826637629 0 0.2064216300685435 -0.1763378775815001 0 0.2213864998634191 -0.19074186604973761 0 0.20705859430259141 -0.20063481153153051 0 0.22156570902884701 -0.2081716276760221 0 0.2213864998634191 -0.19074186604973761 0 0.20705859430259141 -0.20063481153153051 0 0.22156570902884701 -0.2081716276760221 0 0.21130945108473639 -0.22000441216527869 0 0.20705859430259141 -0.20063481153153051 0 0.21130945108473639 -0.22000441216527869 0 0.20705859430259141 -0.20063481153153051 0 0.19847161958806309 -0.21206345826637629 0 0.19847161958806309 -0.21206345826637629 0 0.19333004299069351 -0.19482382871724169 0 0.184507054165965 -0.21658659277756609 0 0.1995187067769538 -0.22648505830905971 0 0.19847161958806309 -0.21206345826637629 0 0.184507054165965 -0.21658659277756609 0 0.20705859430259141 -0.20063481153153051 0 0.19847161958806309 -0.21206345826637629 0 0.19333004299069351 -0.19482382871724169 0 0.2064216300685435 -0.1763378775815001 0 0.20705859430259141 -0.20063481153153051 0 0.19333004299069351 -0.19482382871724169 0 0.1776330785524223 -0.18942424135099509 0 0.184507054165965 -0.21658659277756609 0 0.16837846483810831 -0.20319749351435479 0 0.19333004299069351 -0.19482382871724169 0 0.1776330785524223 -0.18942424135099509 0 0.184507054165965 -0.21658659277756609 0 0.1776330785524223 -0.18942424135099509 0 0.184507054165965 -0.21658659277756609 0 0.184507054165965 -0.21658659277756609 0 0.1749867686249286 -0.21735889230250449 0 0.16837846483810831 -0.20319749351435479 0 0.1749867686249286 -0.21735889230250449 0 0.16837846483810831 -0.20319749351435479 0 0.15045483047290331 -0.2082327262959493 0 0.1749867686249286 -0.21735889230250449 0 0.15045483047290331 -0.2082327262959493 0 0.1749867686249286 -0.21735889230250449 0 0.16226861639455931 -0.22172210758959859 0 0.15045483047290331 -0.2082327262959493 0 0.16837846483810831 -0.20319749351435479 0 0.15045483047290331 -0.2082327262959493 0 0.15431059237432221 -0.18438501484475869 0 0.1776330785524223 -0.18942424135099509 0 0.16837846483810831 -0.20319749351435479 0 0.15431059237432221 -0.18438501484475869 0 0.1970165427207646 -0.2431475676051908 0 0.18013525364959199 -0.24590787480667409 0 0.1843931124890181 -0.23269732176232691 0 0.18013525364959199 -0.24590787480667409 0 0.1843931124890181 -0.23269732176232691 0 0.17030829067285161 -0.2305872157882054 0 0.1995187067769538 -0.22648505830905971 0 0.1749867686249286 -0.21735889230250449 0 0.1995187067769538 -0.22648505830905971 0 0.1749867686249286 -0.21735889230250449 0 0.1843931124890181 -0.23269732176232691 0 0.1995187067769538 -0.22648505830905971 0 0.184507054165965 -0.21658659277756609 0 0.1749867686249286 -0.21735889230250449 0 0.1749867686249286 -0.21735889230250449 0 0.1843931124890181 -0.23269732176232691 0 0.17030829067285161 -0.2305872157882054 0 0.16226861639455931 -0.22172210758959859 0 0.17030829067285161 -0.2305872157882054 0 0.15332457580755371 -0.23070959597173549 0 0.1749867686249286 -0.21735889230250449 0 0.16226861639455931 -0.22172210758959859 0 0.17030829067285161 -0.2305872157882054 0 0.16103468924722281 -0.25381861710109321 0 0.18013525364959199 -0.24590787480667409 0 0.17030829067285161 -0.2305872157882054 0 0.16103468924722281 -0.25381861710109321 0 0.17030829067285161 -0.2305872157882054 0 0.15332457580755371 -0.23070959597173549 0 0.16103468924722281 -0.25381861710109321 0 0.1412434604122122 -0.24631040783256791 0 0.15332457580755371 -0.23070959597173549 0 0.1412434604122122 -0.24631040783256791 0 0.15332457580755371 -0.23070959597173549 0 0.1284413173888232 -0.22347585252773641 0 0.15332457580755371 -0.23070959597173549 0 0.1284413173888232 -0.22347585252773641 0 0.15045483047290331 -0.2082327262959493 0 0.16226861639455931 -0.22172210758959859 0 0.15332457580755371 -0.23070959597173549 0 0.15045483047290331 -0.2082327262959493 0 0.1200034520355143 -0.24749468667538321 0 0.1412434604122122 -0.24631040783256791 0 0.1284413173888232 -0.22347585252773641 0 0.15045483047290331 -0.2082327262959493 0 0.12592289232087811 -0.19910656028939411 0 0.15431059237432221 -0.18438501484475869 0 0.15045483047290331 -0.2082327262959493 0 0.12592289232087811 -0.19910656028939411 0 0.1284413173888232 -0.22347585252773641 0 0.15045483047290331 -0.2082327262959493 0 0.12592289232087811 -0.19910656028939411 0 0.11404320040195411 -0.17785048998131209 0 0.12592289232087811 -0.19910656028939411 0 0.1362427207560932 -0.1734399905344442 0 0.12592289232087811 -0.19910656028939411 0 0.1362427207560932 -0.1734399905344442 0 0.15431059237432221 -0.18438501484475869 0 0.1362427207560932 -0.1734399905344442 0 0.15431059237432221 -0.18438501484475869 0 0.1498051255961938 -0.157092757972084 0 0.11404320040195411 -0.17785048998131209 0 0.1362427207560932 -0.1734399905344442 0 0.1305387904294309 -0.15561497697083931 0 0.1362427207560932 -0.1734399905344442 0 0.1498051255961938 -0.157092757972084 0 0.1305387904294309 -0.15561497697083931 0 0.1498051255961938 -0.157092757972084 0 0.1305387904294309 -0.15561497697083931 0 0.13638976604354719 -0.13495016646355951 0 0.1161887790728692 -0.1476769396888597 0 0.1305387904294309 -0.15561497697083931 0 0.13638976604354719 -0.13495016646355951 0 0.12800820934211829 -0.12401417466047961 0 0.13638976604354719 -0.13495016646355951 0 0.1486045981545247 -0.12747252536747111 0 0.13638976604354719 -0.13495016646355951 0 0.16388512732533739 -0.13509953849785281 0 0.13638976604354719 -0.13495016646355951 0 0.1486045981545247 -0.12747252536747111 0 0.16388512732533739 -0.13509953849785281 0 0.1498051255961938 -0.157092757972084 0 0.13638976604354719 -0.13495016646355951 0 0.16388512732533739 -0.13509953849785281 0 0.16388512732533739 -0.13509953849785281 0 0.17075910293887969 -0.16226188992442411 0 0.1498051255961938 -0.157092757972084 0 0.16388512732533739 -0.13509953849785281 0 0.17075910293887969 -0.16226188992442411 0 0.18014950107347269 -0.1188522098678762 0 0.16265603278097029 -0.1302428005884553 0 0.16388512732533739 -0.13509953849785281 0 0.16095359288685571 -0.1184472051676727 0 0.1486045981545247 -0.12747252536747111 0 0.16265603278097029 -0.1302428005884553 0 0.1486045981545247 -0.12747252536747111 0 0.16265603278097029 -0.1302428005884553 0 0.16388512732533739 -0.13509953849785281 0 0.16265603278097029 -0.1302428005884553 0 0.16388512732533739 -0.13509953849785281 0 0.19406318364410949 -0.13526348461287321 0 0.16388512732533739 -0.13509953849785281 0 0.18014950107347269 -0.1188522098678762 0 0.19406318364410949 -0.13526348461287321 0 0.18014950107347269 -0.1188522098678762 0 0.19406318364410949 -0.13526348461287321 0 0.16388512732533739 -0.13509953849785281 0 0.19019323353294471 -0.15547991582157239 0 0.16388512732533739 -0.13509953849785281 0 0.17075910293887969 -0.16226188992442411 0 0.19019323353294471 -0.15547991582157239 0 0.19406318364410949 -0.13526348461287321 0 0.16388512732533739 -0.13509953849785281 0 0.19019323353294471 -0.15547991582157239 0 0.185888281266576 -0.1738959907954824 0 0.17075910293887969 -0.16226188992442411 0 0.1776330785524223 -0.18942424135099509 0 0.185888281266576 -0.1738959907954824 0 0.17075910293887969 -0.16226188992442411 0 0.1776330785524223 -0.18942424135099509 0 0.17075910293887969 -0.16226188992442411 0 0.19333004299069351 -0.19482382871724169 0 0.1776330785524223 -0.18942424135099509 0 0.185888281266576 -0.1738959907954824 0 0.1776330785524223 -0.18942424135099509 0 0.15431059237432221 -0.18438501484475869 0 0.17075910293887969 -0.16226188992442411 0 0.15431059237432221 -0.18438501484475869 0 0.1498051255961938 -0.157092757972084 0 0.17075910293887969 -0.16226188992442411 0 
</DataArray>
</Points>
<Cells>
<DataArray type="UInt32" Name="connectivity" format="ascii">
0 1 2 3 4 5 6 7 8 9 10 11 12 13 14 15 16 17 18 19 20 21 22 23 24 25 26 27 28 29 30 31 32 33 34 35 36 37 38 39 40 41 42 43 44 45 46 47 48 49 50 51 52 53 54 55 56 57 58 59 60 61 62 63 64 65 66 67 68 69 70 71 72 73 74 75 76 77 78 79 80 81 82 83 84 85 86 87 88 89 90 91 92 93 94 95 96 97 98 99 100 101 102 103 104 105 106 107 108 109 110 111 112 113 114 115 116 117 118 119 120 121 122 123 124 125 126 127 128 129 130 131 132 133 134 135 136 137 138 139 140 141 142 143 144 145 146 147 148 149 150 151 152 153 154 155 156 157 158 159 160 161 162 163 164 165 166 167 168 169 170 171 172 173 174 175 176 177 178 179 180 181 182 183 184 185 186 187 188 189 190 191 192 193 194 195 196 197 198 199 200 201 202 203 204 205 206 207 208 209 210 211 212 213 214 215 216 217 218 219 220 221 222 223 224 225 226 227 228 229 230 231 232 233 234 235 236 237 238 239 240 241 242 243 244 245 246 247 248 249 250 251 252 253 254 255 256 257 258 259 260 261 262 263 264 265 266 267 268 269 270 271 272 273 274 275 276 277 278 279 280 281 282 283 284 285 286 287 288 289 290 291 292 293 294 295 296 297 298 299 300 301 302 303 304 305 306 307 308 309 310 311 312 313 314 315 316 317 318 319 320 321 322 323 324 325 326 327 328 329 330 331 332 333 334 335 336 337 338 339 340 341 342 343 344 345 346 347 348 349 350 351 352 353 354 355 356 357 358 359 360 361 362 363 364 365 366 367 368 369 370 371 372 373 374 375 376 377 378 379 380 381 382 383 384 385 386 387 388 389 390 391 392 393 394 395 396 397 398 399 400 401 402 403 404 405 406 407 408 409 410 411 412 413 414 415 416 417 418 419 420 421 422 423 424 425 426 427 428 429 430 431 432 433 434 435 436 437 438 439 440 441 442 443 444 445 446 447 448 449 450 451 452 453 454 455 456 457 458 459 460 461 462 463 464 465 466 467 468 469 470 471 472 473 474 475 476 477 478 479 480 481 482 483 484 485 486 487 488 489 490 491 492 493 494 495 496 497 498 499 500 501 502 503 504 505 506 507 508 509 510 511 512 513 514 515 516 517 518 519 520 521 522 523 524 525 526 527 528 529 530 531 532 533 534 535 536 537 538 539 540 541 542 543 544 545 546 547 548 549 550 551 552 553 554 555 556 557 558 559 560 561 562 563 564 565 566 567 568 569 570 571 572 573 574 575 576 577 578 579 580 581 582 583 584 585 586 587 588 589 590 591 592 593 594 595 596 597 598 599 600 601 602 603 604 605 606 607 608 609 610 611 612 613 614 615 616 617 618 619 620 621 622 623 624 625 626 627 628 629 630 631 632 633 634 635 636 637 638 639 640 641 642 643 644 645 646 647 648 649 650 651 652 653 654 655 656 657 658 659 660 661 662 663 664 665 666 667 668 669 670 671 672 673 674 675 676 677 678 679 680 681 682 683 684 685 686 687 688 689 690 691 692 693 694 695 696 697 698 699 700 701 702 703 704 705 706 707 708 709 710 711 712 713 714 715 716 717 718 719 720 721 722 723 724 725 726 727 728 729 730 731 732 733 734 735 736 737 738 739 740 741 742 743 744 745 746 747 748 749 750 751 752 753 754 755 756 757 758 759 760 761 762 763 764 765 766 767 768 769 770 771 772 773 774 775 776 777 778 779 780 781 782 783 784 785 786 787 788 789 790 791 792 793 794 795 796 797 798 799 800 801 802 803 804 805 806 807 808 809 810 811 812 813 814 815 816 817 818 819 820 821 822 823 824 825 826 827 828 829 830 831 832 833 834 835 836 837 838 839 840 841 842 843 844 845 846 847 848 849 850 851 852 853 854 855 856 857 858 859 860 861 862 863 864 865 866 867 868 869 870 871 872 873 874 875 876 877 878 879 880 881 882 883 884 885 886 887 888 889 890 891 892 893 894 895 896 897 898 899 900 901 902 903 904 905 906 907 908 909 910 911 912 913 914 915 916 917 918 919 920 921 922 923 924 925 926 927 928 929 930 931 932 933 934 935 936 937 938 939 940 941 942 943 944 945 946 947 948 949 950 951 952 953 954 955 956 957 958 959 960 961 962 963 964 965 966 967 968 969 970 971 972 973 974 975 976 977 978 979 980 981 982 983 984 985 986 987 988 989 990 991 992 993 994 995 996 997 998 999 1000 1001 1002 1003 1004 1005 1006 1007 1008 1009 1010 1011 1012 1013 1014 1015 1016 1017 1018 1019 1020 1021 1022 1023 1024 1025 1026 1027 1028 1029 1030 1031 1032 1033 1034 1035 1036 1037 1038 1039 1040 1041 1042 1043 1044 1045 1046 1047 1048 1049 1050 1051 1052 1053 1054 1055 1056 1057 1058 1059 1060 1061 1062 1063 1064 1065 1066 1067 1068 1069 1070 1071 1072 1073 1074 1075 1076 1077 1078 1079 1080 1081 1082 1083 1084 1085 1086 1087 1088 1089 1090 1091 1092 1093 1094 1095 1096 1097 1098 1099 1100 1101 1102 1103 1104 1105 1106 1107 1108 1109 1110 1111 1112 1113 1114 1115 1116 1117 1118 1119 1120 1121 1122 1123 1124 1125 1126 1127 1128 1129 1130 1131 1132 1133 1134 1135 1136 1137 1138 1139 1140 1141 1142 1143 1144 1145 1146 1147 1148 1149 1150 1151 1152 1153 1154 1155 1156 1157 1158 1159 1160 1161 1162 1163 1164 1165 1166 1167 1168 1169 1170 1171 1172 1173 1174 1175 1176 1177 1178 1179 1180 1181 1182 1183 1184 1185 1186 1187 1188 1189 1190 1191 1192 1193 1194 1195 1196 1197 1198 1199 1200 1201 1202 1203 1204 1205 1206 1207 1208 1209 1210 1211 1212 1213 1214 1215 1216 1217 1218 1219 1220 1221 1222 1223 1224 1225 1226 1227 1228 1229 1230 1231 1232 1233 1234 1235 1236 1237 1238 1239 1240 1241 1242 1243 1244 1245 1246 1247 1248 1249 1250 1251 1252 1253 1254 1255 1256 1257 1258 1259 1260 1261 1262 1263 1264 1265 1266 1267 1268 1269 1270 1271 1272 1273 1274 1275 1276 1277 1278 1279 1280 1281 1282 1283 1284 1285 1286 1287 1288 1289 1290 1291 1292 1293 1294 1295 1296 1297 1298 1299 1300 1301 1302 1303 1304 1305 1306 1307 1308 1309 1310 1311 1312 1313 1314 1315 1316 1317 1318 1319 1320 1321 1322 1323 1324 1325 1326 1327 1328 1329 1330 1331 1332 1333 1334 1335 1336 1337 1338 1339 1340 1341 1342 1343 1344 1345 1346 1347 1348 1349 1350 1351 1352 1353 1354 1355 1356 1357 1358 1359 1360 1361 1362 1363 1364 1365 1366 1367 1368 1369 1370 1371 1372 1373 1374 1375 1376 1377 1378 1379 1380 1381 1382 1383 1384 1385 1386 1387 1388 1389 1390 1391 1392 1393 1394 1395 1396 1397 1398 1399 1400 1401 1402 1403 1404 1405 1406 1407 1408 1409 1410 1411 1412 1413 1414 1415 1416 1417 1418 1419 1420 1421 1422 1423 1424 1425 1426 1427 1428 1429 1430 1431 1432 1433 1434 1435 1436 1437 1438 1439 1440 1441 1442 1443 1444 1445 1446 1447 1448 1449 1450 1451 1452 1453 1454 1455 1456 1457 1458 1459 1460 1461 1462 1463 1464 1465 1466 1467 1468 1469 1470 1471 1472 1473 1474 1475 1476 1477 1478 1479 1480 1481 1482 1483 1484 1485 1486 1487 1488 1489 1490 1491 1492 1493 1494 1495 1496 1497 1498 1499 1500 1501 1502 1503 1504 1505 1506 1507 1508 1509 1510 1511 1512 1513 1514 1515 1516 1517 1518 1519 1520 1521 1522 1523 1524 1525 1526 1527 1528 1529 1530 1531 1532 1533 1534 1535 1536 1537 1538 1539 1540 1541 1542 1543 1544 1545 1546 1547 1548 1549 1550 1551 1552 1553 1554 1555 1556 1557 1558 1559 1560 1561 1562 1563 1564 1565 1566 1567 1568 1569 1570 1571 1572 1573 1574 1575 1576 1577 1578 1579 1580 1581 1582 1583 1584 1585 1586 1587 1588 1589 1590 1591 1592 1593 1594 1595 1596 1597 1598 1599 1600 1601 1602 1603 1604 1605 1606 1607 1608 1609 1610 1611 1612 1613 1614 1615 1616 1617 1618 1619 1620 1621 1622 1623 1624 1625 1626 1627 1628 1629 1630 1631 1632 1633 1634 1635 1636 1637 1638 1639 1640 1641 1642 1643 1644 1645 1646 1647 1648 1649 1650 1651 1652 1653 1654 1655 1656 1657 1658 1659 1660 1661 1662 1663 1664 1665 1666 1667 1668 1669 1670 1671 1672 1673 1674 1675 1676 1677 1678 1679 1680 1681 1682 1683 1684 1685 1686 1687 1688 1689 1690 1691 1692 1693 1694 1695 1696 1697 1698 1699 1700 1701 1702 1703 1704 1705 1706 1707 1708 1709 1710 1711 1712 1713 1714 1715 1716 1717 1718 1719 1720 1721 1722 1723 1724 1725 1726 1727 1728 1729 1730 1731 1732 1733 1734 1735 1736 1737 1738 1739 1740 1741 1742 1743 1744 1745 1746 1747 1748 1749 1750 1751 1752 1753 1754 1755 1756 1757 1758 1759 1760 1761 1762 1763 1764 1765 1766 1767 1768 1769 1770 1771 1772 1773 1774 1775 1776 1777 1778 1779 1780 1781 1782 1783 1784 1785 1786 1787 1788 1789 1790 1791 1792 1793 1794 1795 1796 1797 1798 1799 1800 1801 1802 1803 1804 1805 1806 1807 1808 1809 1810 1811 1812 1813 1814 1815 1816 1817 1818 1819 1820 1821 1822 1823 1824 1825 1826 1827 1828 1829 1830 1831 1832 1833 1834 1835 1836 1837 1838 1839 1840 1841 1842 1843 1844 1845 1846 1847 1848 1849 1850 1851 1852 1853 1854 1855 1856 1857 1858 1859 1860 1861 1862 1863 1864 1865 1866 1867 1868 1869 1870 1871 1872 1873 1874 1875 1876 1877 1878 1879 1880 1881 1882 1883 1884 1885 1886 1887 1888 1889 1890 1891 1892 1893 1894 1895 1896 1897 1898 1899 1900 1901 1902 1903 1904 1905 1906 1907 1908 1909 1910 1911 1912 1913 1914 1915 1916 1917 1918 1919 1920 1921 1922 1923 1924 1925 1926 1927 1928 1929 1930 1931 1932 1933 1934 1935 1936 1937 1938 1939 1940 1941 1942 1943 1944 1945 1946 1947 1948 1949 1950 1951 1952 1953 1954 1955 1956 1957 1958 1959 1960 1961 1962 1963 1964 1965 1966 1967 1968 1969 1970 1971 1972 1973 1974 1975 1976 1977 1978 1979 1980 1981 1982 1983 1984 1985 1986 1987 1988 1989 1990 1991 1992 1993 1994 1995 1996 1997 1998 1999 2000 2001 2002 2003 2004 2005 2006 2007 2008 2009 2010 2011 2012 2013 2014 2015 2016 2017 2018 2019 2020 2021 2022 2023 2024 2025 2026 2027 2028 2029 2030 2031 2032 2033 2034 2035 2036 2037 2038 2039 2040 2041 2042 2043 2044 2045 2046 2047 2048 2049 2050 2051 2052 2053 2054 2055 2056 2057 2058 2059 2060 2061 2062 2063 2064 2065 2066 2067 2068 2069 2070 2071 2072 2073 2074 2075 2076 2077 2078 2079 2080 2081 2082 2083 2084 2085 2086 2087 2088 2089 2090 2091 2092 2093 2094 2095 2096 2097 2098 2099 2100 2101 2102 2103 2104 2105 2106 2107 2108 2109 2110 2111 2112 2113 2114 2115 2116 2117 2118 2119 2120 2121 2122 2123 2124 2125 2126 2127 2128 2129 2130 2131 2132 2133 2134 2135 2136 2137 2138 2139 2140 2141 2142 2143 2144 2145 2146 2147 2148 2149 2150 2151 2152 2153 2154 2155 2156 2157 2158 2159 2160 2161 2162 2163 2164 2165 2166 2167 2168 2169 2170 2171 2172 2173 2174 2175 2176 2177 2178 2179 2180 2181 2182 2183 2184 2185 2186 2187 2188 2189 2190 2191 2192 2193 2194 2195 2196 2197 2198 2199 2200 2201 2202 2203 2204 2205 2206 2207 2208 2209 2210 2211 2212 2213 2214 2215 2216 2217 2218 2219 2220 2221 2222 2223 2224 2225 2226 2227 2228 2229 2230 2231 2232 2233 2234 2235 2236 2237 2238 2239 2240 2241 2242 2243 2244 2245 2246 2247 2248 2249 2250 2251 2252 2253 2254 2255 2256 2257 2258 2259 2260 2261 2262 2263 2264 2265 2266 2267 2268 2269 2270 2271 2272 2273 2274 2275 2276 2277 2278 2279 2280 2281 2282 2283 2284 2285 2286 2287 2288 2289 2290 2291 2292 2293 2294 2295 2296 2297 2298 2299 2300 2301 2302 2303 2304 2305 2306 2307 2308 2309 2310 2311 2312 2313 2314 2315 2316 2317 2318 2319 2320 2321 2322 2323 2324 2325 2326 2327 2328 2329 2330 2331 2332 2333 2334 2335 2336 2337 2338 2339 2340 2341 2342 2343 2344 2345 2346 2347 2348 2349 2350 2351 2352 2353 2354 2355 2356 2357 2358 2359 2360 2361 2362 2363 2364 2365 2366 2367 2368 2369 2370 2371 2372 2373 2374 2375 2376 2377 2378 2379 2380 2381 2382 2383 2384 2385 2386 2387 2388 2389 2390 2391 2392 2393 2394 2395 2396 2397 2398 2399 2400 2401 2402 2403 2404 2405 2406 2407 2408 2409 2410 2411 2412 2413 2414 2415 2416 2417 2418 2419 2420 2421 2422 2423 2424 2425 2426 2427 2428 2429 2430 2431 2432 2433 2434 2435 2436 2437 2438 2439 2440 2441 2442 2443 2444 2445 2446 2447 2448 2449 2450 2451 2452 2453 2454 2455 2456 2457 2458 2459 2460 2461 2462 2463 2464 2465 2466 2467 2468 2469 2470 2471 2472 2473 2474 2475 2476 2477 2478 2479 2480 2481 2482 2483 2484 2485 2486 2487 2488 2489 2490 2491 2492 2493 2494 2495 2496 2497 2498 2499 2500 2501 2502 2503 2504 2505 2506 2507 2508 2509 2510 2511 2512 2513 2514 2515 2516 2517 2518 2519 2520 2521 2522 2523 2524 2525 2526 2527 2528 2529 2530 2531 2532 2533 2534 2535 2536 2537 2538 2539 2540 2541 2542 2543 2544 2545 2546 2547 2548 2549 2550 2551 2552 2553 2554 2555 2556 2557 2558 2559 2560 2561 2562 2563 2564 2565 2566 2567 2568 2569 2570 2571 2572 2573 2574 2575 2576 2577 2578 2579 2580 2581 2582 2583 2584 2585 2586 2587 2588 2589 2590 2591 2592 2593 2594 2595 2596 2597 2598 2599 2600 2601 2602 2603 2604 2605 2606 2607 2608 2609 2610 2611 2612 2613 2614 2615 2616 2617 2618 2619 2620 2621 2622 2623 2624 2625 2626 2627 2628 2629 2630 2631 2632 2633 2634 2635 2636 2637 2638 2639 2640 2641 2642 2643 2644 2645 2646 2647 2648 2649 2650 2651 2652 2653 2654 2655 2656 2657 2658 2659 2660 2661 2662 2663 2664 2665 2666 2667 2668 2669 2670 2671 2672 2673 2674 2675 2676 2677 2678 2679 2680 2681 2682 2683 2684 2685 2686 2687 2688 2689 2690 2691 2692 2693 2694 2695 2696 2697 2698 2699 2700 2701 2702 2703 2704 2705 2706 2707 2708 2709 2710 2711 2712 2713 2714 2715 2716 2717 2718 2719 2720 2721 2722 2723 2724 2725 2726 2727 2728 2729 2730 2731 2732 2733 2734 2735 2736 2737 2738 2739 2740 2741 2742 2743 2744 2745 2746 2747 2748 2749 2750 2751 2752 2753 2754 2755 2756 2757 2758 2759 2760 2761 2762 2763 2764 2765 2766 2767 2768 2769 2770 2771 2772 2773 2774 2775 2776 2777 2778 2779 2780 2781 2782 2783 2784 2785 2786 2787 2788 2789 2790 2791 2792 2793 2794 2795 2796 2797 2798 2799 2800 2801 2802 2803 2804 2805 2806 2807 2808 2809 2810 2811 2812 2813 2814 2815 2816 2817 2818 2819 2820 2821 2822 2823 2824 2825 2826 2827 2828 2829 2830 2831 2832 2833 2834 2835 2836 2837 2838 2839 2840 2841 2842 2843 2844 2845 2846 2847 2848 2849 2850 2851 2852 2853 2854 2855 2856 2857 2858 2859 2860 2861 2862 2863 2864 2865 2866 2867 2868 2869 2870 2871 2872 2873 2874 2875 2876 2877 2878 2879 2880 2881 2882 2883 2884 2885 2886 2887 2888 2889 2890 2891 2892 2893 2894 2895 2896 2897 2898 2899 2900 2901 2902 2903 2904 2905 2906 2907 2908 2909 2910 2911 2912 2913 2914 2915 2916 2917 2918 2919 2920 2921 2922 2923 2924 2925 2926 2927 2928 2929 2930 2931 2932 2933 2934 2935 2936 2937 2938 2939 2940 2941 2942 2943 2944 2945 2946 2947 2948 2949 2950 2951 2952 2953 2954 2955 2956 2957 2958 2959 2960 2961 2962 2963 2964 2965 2966 2967 2968 2969 2970 2971 2972 2973 2974 2975 2976 2977 2978 2979 2980 2981 2982 2983 2984 2985 2986 2987 2988 2989 2990 2991 2992 2993 2994 2995 2996 2997 2998 2999 3000 3001 3002 3003 3004 3005 3006 3007 3008 3009 3010 3011 3012 3013 3014 3015 3016 3017 3018 3019 3020 3021 3022 3023 3024 3025 3026 3027 3028 3029 3030 3031 3032 3033 3034 3035 3036 3037 3038 3039 3040 3041 3042 3043 3044 3045 3046 3047 3048 3049 3050 3051 3052 3053 3054 3055 3056 3057 3058 3059 3060 3061 3062 3063 3064 3065 3066 3067 3068 3069 3070 3071 3072 3073 3074 3075 3076 3077 3078 3079 3080 3081 3082 3083 3084 3085 3086 3087 3088 3089 3090 3091 3092 3093 3094 3095 3096 3097 3098 3099 3100 3101 3102 3103 3104 3105 3106 3107 3108 3109 3110 3111 3112 3113 3114 3115 3116 3117 3118 3119 3120 3121 3122 3123 3124 3125 3126 3127 3128 3129 3130 3131 3132 3133 3134 3135 3136 3137 3138 3139 3140 3141 3142 3143 3144 3145 3146 3147 3148 3149 3150 3151 3152 3153 3154 3155 3156 3157 3158 3159 3160 3161 3162 3163 3164 3165 3166 3167 3168 3169 3170 3171 3172 3173 3174 3175 3176 3177 3178 3179 3180 3181 3182 3183 3184 3185 3186 3187 3188 3189 3190 3191 3192 3193 3194 3195 3196 3197 3198 3199 3200 3201 3202 3203 3204 3205 3206 3207 3208 3209 3210 3211 3212 3213 3214 3215 3216 3217 3218 3219 3220 3221 3222 3223 3224 3225 3226 3227 3228 3229 3230 3231 3232 3233 3234 3235 3236 3237 3238 3239 3240 3241 3242 3243 3244 3245 3246 3247 3248 3249 3250 3251 3252 3253 3254 3255 3256 3257 3258 3259 3260 3261 3262 3263 3264 3265 3266 3267 3268 3269 3270 3271 3272 3273 3274 3275 3276 3277 3278 3279 3280 3281 3282 3283 3284 3285 3286 3287 3288 3289 3290 3291 3292 3293 3294 3295 3296 3297 3298 3299 3300 3301 3302 3303 3304 3305 3306 3307 3308 3309 3310 3311 3312 3313 3314 3315 3316 3317 3318 3319 3320 3321 3322 3323 3324 3325 3326 3327 3328 3329 3330 3331 3332 3333 3334 3335 3336 3337 3338 3339 3340 3341 3342 3343 3344 3345 3346 3347 3348 3349 3350 3351 3352 3353 3354 3355 3356 3357 3358 3359 3360 3361 3362 3363 3364 3365 3366 3367 3368 3369 3370 3371 3372 3373 3374 3375 3376 3377 3378 3379 3380 3381 3382 3383 3384 3385 3386 3387 3388 3389 3390 3391 3392 3393 3394 3395 3396 3397 3398 3399 3400 3401 3402 3403 3404 3405 3406 3407 3408 3409 3410 3411 3412 3413 3414 3415 3416 3417 3418 3419 3420 3421 3422 3423 3424 3425 3426 3427 3428 3429 3430 3431 3432 3433 3434 3435 3436 3437 3438 3439 3440 3441 3442 3443 3444 3445 3446 3447 3448 3449 3450 3451 3452 3453 3454 3455 3456 3457 3458 3459 3460 3461 3462 3463 3464 3465 3466 3467 3468 3469 3470 3471 3472 3473 3474 3475 3476 3477 3478 3479 3480 3481 3482 3483 3484 3485 3486 3487 3488 3489 3490 3491 3492 3493 3494 3495 3496 3497 3498 3499 3500 3501 3502 3503 3504 3505 3506 3507 3508 3509 3510 3511 3512 3513 3514 3515 3516 3517 3518 3519 3520 3521 3522 3523 3524 3525 3526 3527 3528 3529 3530 3531 3532 3533 3534 3535 3536 3537 3538 3539 3540 3541 3542 3543 3544 3545 3546 3547 3548 3549 3550 3551 3552 3553 3554 3555 3556 3557 3558 3559 3560 3561 3562 3563 3564 3565 3566 3567 3568 3569 3570 3571 3572 3573 3574 3575 3576 3577 3578 3579 3580 3581 3582 3583 3584 3585 3586 3587 3588 3589 3590 3591 3592 3593 3594 3595 3596 3597 3598 3599 3600 3601 3602 3603 3604 3605 3606 3607 3608 3609 3610 3611 3612 3613 3614 3615 3616 3617 3618 3619 3620 3621 3622 3623 3624 3625 3626 3627 3628 3629 3630 3631 3632 3633 3634 3635 3636 3637 3638 3639 3640 3641 3642 3643 3644 3645 3646 3647 3648 3649 3650 3651 3652 3653 3654 3655 3656 3657 3658 3659 3660 3661 3662 3663 3664 3665 3666 3667 3668 3669 3670 3671 3672 3673 3674 3675 3676 3677 3678 3679 3680 3681 3682 3683 3684 3685 3686 3687 3688 3689 3690 3691 3692 3693 3694 3695 3696 3697 3698 3699 3700 3701 3702 3703 3704 3705 3706 3707 3708 3709 3710 3711 3712 3713 3714 3715 3716 3717 3718 3719 3720 3721 3722 3723 3724 3725 3726 3727 3728 3729 3730 3731 3732 3733 3734 3735 3736 3737 3738 3739 3740 3741 3742 3743 3744 3745 3746 3747 3748 3749 3750 3751 3752 3753 3754 3755 3756 3757 3758 3759 3760 3761 3762 3763 3764 3765 3766 3767 3768 3769 3770 3771 3772 3773 3774 3775 3776 3777 3778 3779 3780 3781 3782 3783 3784 3785 3786 3787 3788 3789 3790 3791 3792 3793 3794 3795 3796 3797 3798 3799 3800 3801 3802 3803 3804 3805 3806 3807 3808 3809 3810 3811 3812 3813 3814 3815 3816 3817 3818 3819 3820 3821 3822 3823 3824 3825 3826 3827 3828 3829 3830 3831 3832 3833 3834 3835 3836 3837 3838 3839 3840 3841 3842 3843 3844 3845 3846 3847 3848 3849 3850 3851 3852 3853 3854 3855 3856 3857 3858 3859 3860 3861 3862 3863 3864 3865 3866 3867 3868 3869 3870 3871 3872 3873 3874 3875 3876 3877 3878 3879 3880 3881 3882 3883 3884 3885 3886 3887 3888 3889 3890 3891 3892 3893 3894 3895 3896 3897 3898 3899 3900 3901 3902 3903 3904 3905 3906 3907 3908 3909 3910 3911 3912 3913 3914 3915 3916 3917 3918 3919 3920 3921 3922 3923 3924 3925 3926 3927 3928 3929 3930 3931 3932 3933 3934 3935 3936 3937 3938 3939 3940 3941 3942 3943 3944 3945 3946 3947 3948 3949 3950 3951 3952 3953 3954 3955 3956 3957 3958 3959 3960 3961 3962 3963 3964 3965 3966 3967 3968 3969 3970 3971 3972 3973 3974 3975 3976 3977 3978 3979 3980 3981 3982 3983 3984 3985 3986 3987 3988 3989 3990 3991 3992 3993 3994 3995 3996 3997 3998 3999 4000 4001 4002 4003 4004 4005 4006 4007 4008 4009 4010 4011 4012 4013 4014 4015 4016 4017 4018 4019 4020 4021 4022 4023 4024 4025 4026 4027 4028 4029 4030 4031 4032 4033 4034 4035 4036 4037 4038 4039 4040 4041 4042 4043 4044 4045 4046 4047 4048 4049 4050 4051 4052 4053 4054 4055 4056 4057 4058 4059 4060 4061 4062 4063 4064 4065 4066 4067 4068 4069 4070 4071 4072 4073 4074 4075 4076 4077 4078 4079 4080 4081 4082 4083 4084 4085 4086 4087 4088 4089 4090 4091 4092 4093 4094 4095 4096 4097 4098 4099 4100 4101 4102 4103 4104 4105 4106 4107 4108 4109 4110 4111 4112 4113 4114 4115 4116 4117 4118 4119 4120 4121 4122 4123 4124 4125 4126 4127 4128 4129 4130 4131 4132 4133 4134 4135 4136 4137 4138 4139 4140 4141 4142 4143 4144 4145 4146 4147 4148 4149 4150 4151 4152 4153 4154 4155 4156 4157 4158 4159 4160 4161 4162 4163 4164 4165 4166 4167 4168 4169 4170 4171 4172 4173 4174 4175 4176 4177 4178 4179 4180 4181 4182 4183 4184 4185 4186 4187 4188 4189 4190 4191 4192 4193 4194 4195 4196 4197 4198 4199 4200 4201 4202 4203 4204 4205 4206 4207 4208 4209 4210 4211 4212 4213 4214 4215 4216 4217 4218 4219 4220 4221 4222 4223 4224 4225 4226 4227 4228 4229 4230 4231 4232 4233 4234 4235 4236 4237 4238 4239 4240 4241 4242 4243 4244 4245 4246 4247 4248 4249 4250 4251 4252 4253 4254 4255 4256 4257 4258 4259 4260 4261 4262 4263 4264 4265 4266 4267 4268 4269 4270 4271 4272 4273 4274 4275 4276 4277 4278 4279 4280 4281 4282 4283 4284 4285 4286 4287 4288 4289 4290 4291 4292 4293 4294 4295 4296 4297 4298 4299 4300 4301 4302 4303 4304 4305 4306 4307 4308 4309 4310 4311 4312 4313 4314 4315 4316 4317 4318 4319 4320 4321 4322 4323 4324 4325 4326 4327 4328 4329 4330 4331 4332 4333 4334 4335 4336 4337 4338 4339 4340 4341 4342 4343 4344 4345 4346 4347 4348 4349 4350 4351 4352 4353 4354 4355 4356 4357 4358 4359 4360 4361 4362 4363 4364 4365 4366 4367 4368 4369 4370 4371 4372 4373 4374 4375 4376 4377 4378 4379 4380 4381 4382 4383 4384 4385 4386 4387 4388 4389 4390 4391 4392 4393 4394 4395 4396 4397 4398 4399 4400 4401 4402 4403 4404 4405 4406 4407 4408 4409 4410 4411 4412 4413 4414 4415 4416 4417 4418 4419 4420 4421 4422 4423 4424 4425 4426 4427 4428 4429 4430 4431 4432 4433 4434 4435 4436 4437 4438 4439 4440 4441 4442 4443 4444 4445 4446 4447 4448 4449 4450 4451 4452 4453 4454 4455 4456 4457 4458 4459 4460 4461 4462 4463 4464 4465 4466 4467 4468 4469 4470 4471 4472 4473 4474 4475 4476 4477 4478 4479 4480 4481 4482 4483 4484 4485 4486 4487 4488 4489 4490 4491 4492 4493 4494 4495 4496 4497 4498 4499 4500 4501 4502 4503 4504 4505 4506 4507 4508 4509 4510 4511 4512 4513 4514 4515 4516 4517 4518 4519 4520 4521 4522 4523 4524 4525 4526 4527 4528 4529 4530 4531 4532 4533 4534 4535 4536 4537 4538 4539 4540 4541 4542 4543 4544 4545 4546 4547 4548 4549 4550 4551 4552 4553 4554 4555 4556 4557 4558 4559 4560 4561 4562 4563 4564 4565 4566 4567 4568 4569 4570 4571 4572 4573 4574 4575 4576 4577 4578 4579 4580 4581 4582 4583 4584 4585 4586 4587 4588 4589 4590 4591 4592 4593 4594 4595 4596 4597 4598 4599 4600 4601 4602 4603 4604 4605 4606 4607 4608 4609 4610 4611 4612 4613 4614 4615 4616 4617 4618 4619 4620 4621 4622 4623 4624 4625 4626 4627 4628 4629 4630 4631 4632 4633 4634 4635 4636 4637 4638 4639 4640 4641 4642 4643 4644 4645 4646 4647 4648 4649 4650 4651 4652 4653 4654 4655 4656 4657 4658 4659 4660 4661 4662 4663 4664 4665 4666 4667 4668 4669 4670 4671 4672 4673 4674 4675 4676 4677 4678 4679 4680 4681 4682 4683 4684 4685 4686 4687 4688 4689 4690 4691 4692 4693 4694 4695 4696 4697 4698 4699 4700 4701 4702 4703 4704 4705 4706 4707 4708 4709 4710 4711 4712 4713 4714 4715 4716 4717 4718 4719 4720 4721 4722 4723 4724 4725 4726 4727 4728 4729 4730 4731 4732 4733 4734 4735 4736 4737 4738 4739 4740 4741 4742 4743 4744 4745 4746 4747 4748 4749 4750 4751 4752 4753 4754 4755 4756 4757 4758 4759 4760 4761 4762 4763 4764 4765 4766 4767 4768 4769 4770 4771 4772 4773 4774 4775 4776 4777 4778 4779 4780 4781 4782 4783 4784 4785 4786 4787 4788 4789 4790 4791 4792 4793 4794 4795 4796 4797 4798 4799 4800 4801 4802 4803 4804 4805 4806 4807 4808 4809 4810 4811 4812 4813 4814 4815 4816 4817 4818 4819 4820 4821 4822 4823 4824 4825 4826 4827 4828 4829 4830 4831 4832 4833 4834 4835 4836 4837 4838 4839 4840 4841 4842 4843 4844 4845 4846 4847 4848 4849 4850 4851 4852 4853 4854 4855 4856 4857 4858 4859 4860 4861 4862 4863 4864 4865 4866 4867 4868 4869 4870 4871 4872 4873 4874 4875 4876 4877 4878 4879 4880 4881 4882 4883 4884 4885 4886 4887 4888 4889 4890 4891 4892 4893 4894 4895 4896 4897 4898 4899 4900 4901 4902 4903 4904 4905 4906 4907 4908 4909 4910 4911 4912 4913 4914 4915 4916 4917 4918 4919 4920 4921 4922 4923 4924 4925 4926 4927 4928 4929 4930 4931 4932 4933 4934 4935 4936 4937 4938 4939 4940 4941 4942 4943 4944 4945 4946 4947 4948 4949 4950 4951 4952 4953 4954 4955 4956 4957 4958 4959 4960 4961 4962 4963 4964 4965 4966 4967 4968 4969 4970 4971 4972 4973 4974 4975 4976 4977 4978 4979 4980 4981 4982 4983 4984 4985 4986 4987 4988 4989 4990 4991 4992 4993 4994 4995 4996 4997 4998 4999 5000 5001 5002 5003 5004 5005 5006 5007 5008 5009 5010 5011 5012 5013 5014 5015 5016 5017 5018 5019 5020 5021 5022 5023 5024 5025 5026 5027 5028 5029 5030 5031 5032 5033 5034 5035 5036 5037 5038 5039 5040 5041 5042 5043 5044 5045 5046 5047 5048 5049 5050 5051 5052 5053 5054 5055 5056 5057 5058 5059 5060 5061 5062 5063 5064 5065 5066 5067 5068 5069 5070 5071 5072 5073 5074 5075 5076 5077 5078 5079 5080 5081 5082 5083 5084 5085 5086 5087 5088 5089 5090 5091 5092 5093 5094 5095 5096 5097 5098 5099 5100 5101 5102 5103 5104 5105 5106 5107 5108 5109 5110 5111 5112 5113 5114 5115 5116 5117 5118 5119 5120 5121 5122 5123 5124 5125 5126 5127 5128 5129 5130 5131 5132 5133 5134 5135 5136 5137 5138 5139 5140 5141 5142 5143 5144 5145 5146 5147 5148 5149 5150 5151 5152 5153 5154 5155 5156 5157 5158 5159 5160 5161 5162 5163 5164 5165 5166 5167 5168 5169 5170 5171 5172 5173 5174 5175 5176 5177 5178 5179 5180 5181 5182 5183 5184 5185 5186 5187 5188 5189 5190 5191 5192 5193 5194 5195 5196 5197 5198 5199 5200 5201 5202 5203 5204 5205 5206 5207 5208 5209 5210 5211 5212 5213 5214 5215 5216 5217 5218 5219 5220 5221 5222 5223 5224 5225 5226 5227 5228 5229 5230 5231 5232 5233 5234 5235 5236 5237 5238 5239 5240 5241 5242 5243 5244 5245 5246 5247 5248 5249 5250 5251 5252 5253 5254 5255 5256 5257 5258 5259 5260 5261 5262 5263 5264 5265 5266 5267 5268 5269 5270 5271 5272 5273 5274 5275 5276 5277 5278 5279 5280 5281 5282 5283 5284 5285 5286 5287 5288 5289 5290 5291 5292 5293 5294 5295 5296 5297 5298 5299 5300 5301 5302 5303 5304 5305 5306 5307 5308 5309 5310 5311 5312 5313 5314 5315 5316 5317 5318 5319 5320 5321 5322 5323 5324 5325 5326 5327 5328 5329 5330 5331 5332 5333 5334 5335 5336 5337 5338 5339 5340 5341 5342 5343 5344 5345 5346 5347 5348 5349 5350 5351 5352 5353 5354 5355 5356 5357 5358 5359 5360 5361 5362 5363 5364 5365 5366 5367 5368 5369 5370 5371 5372 5373 5374 5375 5376 5377 5378 5379 5380 5381 5382 5383 5384 5385 5386 5387 5388 5389 5390 5391 5392 5393 5394 5395 5396 5397 5398 5399 5400 5401 5402 5403 5404 5405 5406 5407 5408 5409 5410 5411 5412 5413 5414 5415 5416 5417 5418 5419 5420 5421 5422 5423 5424 5425 5426 5427 5428 5429 5430 5431 5432 5433 5434 5435 5436 5437 5438 5439 5440 5441 5442 5443 5444 5445 5446 5447 5448 5449 5450 5451 5452 5453 5454 5455 5456 5457 5458 5459 5460 5461 5462 5463 5464 5465 5466 5467 5468 5469 5470 5471 5472 5473 5474 5475 5476 5477 5478 5479 5480 5481 5482 5483 5484 5485 5486 5487 5488 5489 5490 5491 5492 5493 5494 5495 5496 5497 5498 5499 5500 5501 5502 5503 5504 5505 5506 5507 5508 5509 5510 5511 5512 5513 5514 5515 5516 5517 5518 5519 5520 5521 5522 5523 5524 5525 5526 5527 5528 5529 5530 5531 5532 5533 5534 5535 5536 5537 5538 5539 5540 5541 5542 5543 5544 5545 5546 5547 5548 5549 5550 5551 5552 5553 5554 5555 5556 5557 5558 5559 5560 5561 5562 5563 5564 5565 5566 5567 5568 5569 5570 5571 5572 5573 5574 5575 5576 5577 5578 5579 5580 5581 5582 5583 5584 5585 5586 5587 5588 5589 5590 5591 5592 5593 5594 5595 5596 5597 5598 5599 5600 5601 5602 5603 5604 5605 5606 5607 5608 5609 5610 5611 5612 5613 5614 5615 5616 5617 5618 5619 5620 5621 5622 5623 5624 5625 5626 5627 5628 5629 5630 5631 5632 5633 5634 5635 5636 5637 5638 5639 5640 5641 5642 5643 5644 5645 5646 5647 5648 5649 5650 5651 5652 5653 5654 5655 5656 5657 5658 5659 5660 5661 5662 5663 5664 5665 5666 5667 5668 5669 5670 5671 5672 5673 5674 5675 5676 5677 5678 5679 5680 5681 5682 5683 5684 5685 5686 5687 5688 5689 5690 5691 5692 5693 5694 5695 5696 5697 5698 5699 5700 5701 5702 5703 5704 5705 5706 5707 5708 5709 5710 5711 5712 5713 5714 5715 5716 5717 5718 5719 5720 5721 5722 5723 5724 5725 5726 5727 5728 5729 5730 5731 5732 5733 5734 5735 5736 5737 5738 5739 5740 5741 5742 5743 5744 5745 5746 5747 5748 5749 5750 5751 5752 5753 5754 5755 5756 5757 5758 5759 5760 5761 5762 5763 5764 5765 5766 5767 5768 5769 5770 5771 5772 5773 5774 5775 5776 5777 5778 5779 5780 5781 5782 5783 5784 5785 5786 5787 5788 5789 5790 5791 5792 5793 5794 5795 5796 5797 5798 5799 5800 5801 5802 5803 5804 5805 5806 5807 5808 5809 5810 5811 5812 5813 5814 5815 5816 5817 5818 5819 5820 5821 5822 5823 5824 5825 5826 5827 5828 5829 5830 5831 5832 5833 5834 5835 5836 5837 5838 5839 5840 5841 5842 5843 5844 5845 5846 5847 5848 5849 5850 5851 5852 5853 5854 5855 5856 5857 5858 5859 5860 5861 5862 5863 5864 5865 5866 5867 5868 5869 5870 5871 5872 5873 5874 5875 5876 5877 5878 5879 5880 5881 5882 5883 5884 5885 5886 5887 5888 5889 5890 5891 5892 5893 5894 5895 5896 5897 5898 5899 5900 5901 5902 5903 5904 5905 5906 5907 5908 5909 5910 5911 5912 5913 5914 5915 5916 5917 5918 5919 5920 5921 5922 5923 5924 5925 5926 5927 5928 5929 5930 5931 5932 5933 5934 5935 5936 5937 5938 5939 5940 5941 5942 5943 5944 5945 5946 5947 5948 5949 5950 5951 5952 5953 5954 5955 5956 5957 5958 5959 5960 5961 5962 5963 5964 5965 5966 5967 5968 5969 5970 5971 5972 5973 5974 5975 5976 5977 5978 5979 5980 5981 5982 5983 5984 5985 5986 5987 5988 5989 5990 5991 5992 5993 5994 5995 5996 5997 5998 5999 6000 6001 6002 6003 6004 6005 6006 6007 6008 6009 6010 6011 6012 6013 6014 6015 6016 6017 6018 6019 6020 6021 6022 6023 6024 6025 6026 6027 6028 6029 6030 6031 6032 6033 6034 6035 6036 6037 6038 6039 6040 6041 6042 6043 6044 6045 6046 6047 6048 6049 6050 6051 6052 6053 6054 6055 6056 6057 6058 6059 6060 6061 6062 6063 6064 6065 6066 6067 6068 6069 6070 6071 6072 6073 6074 6075 6076 6077 6078 6079 6080 6081 6082 6083 6084 6085 6086 6087 6088 6089 6090 6091 6092 6093 6094 6095 6096 6097 6098 6099 6100 6101 6102 6103 6104 6105 6106 6107 6108 6109 6110 6111 6112 6113 6114 6115 6116 6117 6118 6119 6120 6121 6122 6123 6124 6125 6126 6127 6128 6129 6130 6131 6132 6133 6134 6135 6136 6137 6138 6139 6140 6141 6142 6143 6144 6145 6146 6147 6148 6149 6150 6151 6152 6153 6154 6155 6156 6157 6158 6159 6160 6161 6162 6163 6164 6165 6166 6167 6168 6169 6170 6171 6172 6173 6174 6175 6176 6177 6178 6179 6180 6181 6182 6183 6184 6185 6186 6187 6188 6189 6190 6191 6192 6193 6194 6195 6196 6197 6198 6199 6200 6201 6202 6203 6204 6205 6206 6207 6208 6209 6210 6211 6212 6213 6214 6215 6216 6217 6218 6219 6220 6221 6222 6223 6224 6225 6226 6227 6228 6229 6230 6231 6232 6233 6234 6235 6236 6237 6238 6239 6240 6241 6242 6243 6244 6245 6246 6247 6248 6249 6250 6251 6252 6253 6254 6255 6256 6257 6258 6259 6260 6261 6262 6263 6264 6265 6266 6267 6268 6269 6270 6271 6272 6273 6274 6275 6276 6277 6278 6279 6280 6281 6282 6283 6284 6285 6286 6287 6288 6289 6290 6291 6292 6293 6294 6295 6296 6297 6298 6299 6300 6301 6302 6303 6304 6305 6306 6307 6308 6309 6310 6311 6312 6313 6314 6315 6316 6317 6318 6319 6320 6321 6322 6323 6324 6325 6326 6327 6328 6329 6330 6331 6332 6333 6334 6335 6336 6337 6338 6339 6340 6341 6342 6343 6344 6345 6346 6347 6348 6349 6350 6351 6352 6353 6354 6355 6356 6357 6358 6359 6360 6361 6362 6363 6364 6365 6366 6367 6368 6369 6370 6371 6372 6373 6374 6375 6376 6377 6378 6379 6380 6381 6382 6383 6384 6385 6386 6387 6388 6389 6390 6391 6392 6393 6394 6395 6396 6397 6398 6399 6400 6401 6402 6403 6404 6405 6406 6407 6408 6409 6410 6411 6412 6413 6414 6415 6416 6417 6418 6419 6420 6421 6422 6423 6424 6425 6426 6427 6428 6429 6430 6431 6432 6433 6434 6435 6436 6437 6438 6439 6440 6441 6442 6443 6444 6445 6446 6447 6448 6449 6450 6451 6452 6453 6454 6455 6456 6457 6458 6459 6460 6461 6462 6463 6464 6465 6466 6467 6468 6469 6470 6471 6472 6473 6474 6475 6476 6477 6478 6479 6480 6481 6482 6483 6484 6485 6486 6487 6488 6489 6490 6491 6492 6493 6494 6495 6496 6497 6498 6499 6500 6501 6502 6503 6504 6505 6506 6507 6508 6509 6510 6511 6512 6513 6514 6515 6516 6517 6518 6519 6520 6521 6522 6523 6524 6525 6526 6527 6528 6529 6530 6531 6532 6533 6534 6535 6536 6537 6538 6539 6540 6541 6542 6543 6544 6545 6546 6547 6548 6549 6550 6551 6552 6553 6554 6555 6556 6557 6558 6559 6560 6561 6562 6563 6564 6565 6566 6567 6568 6569 6570 6571 6572 6573 6574 6575 6576 6577 6578 6579 6580 6581 6582 6583 6584 6585 6586 6587 6588 6589 6590 6591 6592 6593 6594 6595 6596 6597 6598 6599 6600 6601 6602 6603 6604 6605 6606 6607 6608 6609 6610 6611 6612 6613 6614 6615 6616 6617 6618 6619 6620 6621 6622 6623 6624 6625 6626 6627 6628 6629 6630 6631 6632 6633 6634 6635 6636 6637 6638 6639 6640 6641 6642 6643 6644 6645 6646 6647 6648 6649 6650 6651 6652 6653 6654 6655 6656 6657 6658 6659 6660 6661 6662 6663 6664 6665 6666 6667 6668 6669 6670 6671 6672 6673 6674 6675 6676 6677 6678 6679 6680 6681 6682 6683 6684 6685 6686 6687 6688 6689 6690 6691 6692 6693 6694 6695 6696 6697 6698 6699 6700 6701 6702 6703 6704 6705 6706 6707 6708 6709 6710 6711 6712 6713 6714 6715 6716 6717 6718 6719 6720 6721 6722 6723 6724 6725 6726 6727 6728 6729 6730 6731 6732 6733 6734 6735 6736 6737 6738 6739 6740 6741 6742 6743 6744 6745 6746 6747 6748 6749 6750 6751 6752 6753 6754 6755 6756 6757 6758 6759 6760 6761 6762 6763 6764 6765 6766 6767 6768 6769 6770 6771 6772 6773 6774 6775 6776 6777 6778 6779 6780 6781 6782 6783 6784 6785 6786 6787 6788 6789 6790 6791 6792 6793 6794 6795 6796 6797 6798 6799 6800 6801 6802 6803 6804 6805 6806 6807 6808 6809 6810 6811 6812 6813 6814 6815 6816 6817 6818 6819 6820 6821 6822 6823 6824 6825 6826 6827 6828 6829 6830 6831 6832 6833 6834 6835 6836 6837 6838 6839 6840 6841 6842 6843 6844 6845 6846 6847 6848 6849 6850 6851 6852 6853 6854 6855 6856 6857 6858 6859 6860 6861 6862 6863 6864 6865 6866 6867 6868 6869 6870 6871 6872 6873 6874 6875 6876 6877 6878 6879 6880 6881 6882 6883 6884 6885 6886 6887 6888 6889 6890 6891 6892 6893 6894 6895 6896 6897 6898 6899 6900 6901 6902 6903 6904 6905 6906 6907 6908 6909 6910 6911 6912 6913 6914 6915 6916 6917 6918 6919 6920 6921 6922 6923 6924 6925 6926 6927 6928 6929 6930 6931 6932 6933 6934 6935 6936 6937 6938 6939 6940 6941 6942 6943 6944 6945 6946 6947 6948 6949 6950 6951 6952 6953 6954 6955 6956 6957 6958 6959 6960 6961 6962 6963 6964 6965 6966 6967 6968 6969 6970 6971 6972 6973 6974 6975 6976 6977 6978 6979 6980 6981 6982 6983 6984 6985 6986 6987 6988 6989 6990 6991 6992 6993 6994 6995 6996 6997 6998 6999 7000 7001 7002 7003 7004 7005 7006 7007 7008 7009 7010 7011 7012 7013 7014 7015 7016 7017 7018 7019 7020 7021 7022 7023 7024 7025 7026 7027 7028 7029 7030 7031 7032 7033 7034 7035 7036 7037 7038 7039 7040 7041 7042 7043 7044 7045 7046 7047 7048 7049 7050 7051 7052 7053 7054 7055 7056 7057 7058 7059 7060 7061 7062 7063 7064 7065 7066 7067 7068 7069 7070 7071 7072 7073 7074 7075 7076 7077 7078 7079 7080 7081 7082 7083 7084 7085 7086 7087 7088 7089 7090 7091 7092 7093 7094 7095 7096 7097 7098 7099 7100 7101 7102 7103 7104 7105 7106 7107 7108 7109 7110 7111 7112 7113 7114 7115 7116 7117 7118 7119 7120 7121 7122 7123 7124 7125 7126 7127 7128 7129 7130 7131 7132 7133 7134 7135 7136 7137 7138 7139 7140 7141 7142 7143 7144 7145 7146 7147 7148 7149 7150 7151 7152 7153 7154 7155 7156 7157 7158 7159 7160 7161 7162 7163 7164 7165 7166 7167 7168 7169 7170 7171 7172 7173 7174 7175 7176 7177 7178 7179 7180 7181 7182 7183 7184 7185 7186 7187 7188 7189 7190 7191 7192 7193 7194 7195 7196 7197 7198 7199 7200 7201 7202 7203 7204 7205 7206 7207 7208 7209 7210 7211 7212 7213 7214 7215 7216 7217 7218 7219 7220 7221 7222 7223 7224 7225 7226 7227 7228 7229 7230 7231 7232 7233 7234 7235 7236 7237 7238 7239 7240 7241 7242 7243 7244 7245 7246 7247 7248 7249 7250 7251 7252 7253 7254 7255 7256 7257 7258 7259 7260 7261 7262 7263 7264 7265 7266 7267 7268 7269 7270 7271 7272 7273 7274 7275 7276 7277 7278 7279 7280 7281 7282 7283 7284 7285 7286 7287 7288 7289 7290 7291 7292 7293 7294 7295 7296 7297 7298 7299 7300 7301 7302 7303 7304 7305 7306 7307 7308 7309 7310 7311 7312 7313 7314 7315 7316 7317 7318 7319 7320 7321 7322 7323 7324 7325 7326 7327 7328 7329 7330 7331 7332 7333 7334 7335 7336 7337 7338 7339 7340 7341 7342 7343 7344 7345 7346 7347 7348 7349 7350 7351 7352 7353 7354 7355 7356 7357 7358 7359 7360 7361 7362 7363 7364 7365 7366 7367 7368 7369 7370 7371 7372 7373 7374 7375 7376 7377 7378 7379 7380 7381 7382 7383 7384 7385 7386 7387 7388 7389 7390 7391 7392 7393 7394 7395 7396 7397 7398 7399 7400 7401 7402 7403 7404 7405 7406 7407 7408 7409 7410 7411 7412 7413 7414 7415 7416 7417 7418 7419 7420 7421 7422 7423 7424 7425 7426 7427 7428 7429 7430 7431 7432 7433 7434 7435 7436 7437 7438 7439 7440 7441 7442 7443 7444 7445 7446 7447 7448 7449 7450 7451 7452 7453 7454 7455 7456 7457 7458 7459 7460 7461 7462 7463 7464 7465 7466 7467 7468 7469 7470 7471 7472 7473 7474 7475 7476 7477 7478 7479 7480 7481 7482 7483 7484 7485 7486 7487 7488 7489 7490 7491 7492 7493 7494 7495 7496 7497 7498 7499 7500 7501 7502 7503 7504 7505 7506 7507 7508 7509 7510 7511 7512 7513 7514 7515 7516 7517 7518 7519 7520 7521 7522 7523 7524 7525 7526 7527 7528 7529 7530 7531 7532 7533 7534 7535 7536 7537 7538 7539 7540 7541 7542 7543 7544 7545 7546 7547 7548 7549 7550 7551 7552 7553 7554 7555 7556 7557 7558 7559 7560 7561 7562 7563 7564 7565 7566 7567 7568 7569 7570 7571 7572 7573 7574 7575 7576 7577 7578 7579 7580 7581 7582 7583 7584 7585 7586 7587 7588 7589 7590 7591 7592 7593 7594 7595 7596 7597 7598 7599 7600 7601 7602 7603 7604 7605 7606 7607 7608 7609 7610 7611 7612 7613 7614 7615 7616 7617 7618 7619 7620 7621 7622 7623 7624 7625 7626 7627 7628 7629 7630 7631 7632 7633 7634 7635 7636 7637 7638 7639 7640 7641 7642 7643 7644 7645 7646 7647 7648 7649 7650 7651 7652 7653 7654 7655 7656 7657 7658 7659 7660 7661 7662 7663 7664 7665 7666 7667 7668 7669 7670 7671 7672 7673 7674 7675 7676 7677 7678 7679 7680 7681 7682 7683 7684 7685 7686 7687 7688 7689 7690 7691 7692 7693 7694 7695 7696 7697 7698 7699 7700 7701 7702 7703 7704 7705 7706 7707 7708 7709 7710 7711 7712 7713 7714 7715 7716 7717 7718 7719 7720 7721 7722 7723 7724 7725 7726 7727 7728 7729 7730 7731 7732 7733 7734 7735 7736 7737 7738 7739 7740 7741 7742 7743 7744 7745 7746 7747 7748 7749 7750 7751 7752 7753 7754 7755 7756 7757 7758 7759 7760 7761 7762 7763 7764 7765 7766 7767 7768 7769 7770 7771 7772 7773 7774 7775 7776 7777 7778 7779 7780 7781 7782 7783 7784 7785 7786 7787 7788 7789 7790 7791 7792 7793 7794 7795 7796 7797 7798 7799 7800 7801 7802 7803 7804 7805 7806 7807 7808 7809 7810 7811 7812 7813 7814 7815 7816 7817 7818 7819 7820 7821 7822 7823 7824 7825 7826 7827 7828 7829 7830 7831 7832 7833 7834 7835 7836 7837 7838 7839 7840 7841 7842 7843 7844 7845 7846 7847 7848 7849 7850 7851 7852 7853 7854 7855 7856 7857 7858 7859 7860 7861 7862 7863 7864 7865 7866 7867 7868 7869 7870 7871 7872 7873 7874 7875 7876 7877 7878 7879 7880 7881 7882 7883 7884 7885 7886 7887 7888 7889 7890 7891 7892 7893 7894 7895 7896 7897 7898 7899 7900 7901 7902 7903 7904 7905 7906 7907 7908 7909 7910 7911 7912 7913 7914 7915 7916 7917 7918 7919 7920 7921 7922 7923 7924 7925 7926 7927 7928 7929 7930 7931 7932 7933 7934 7935 7936 7937 7938 7939 7940 7941 7942 7943 7944 7945 7946 7947 7948 7949 7950 7951 7952 7953 7954 7955 7956 7957 7958 7959 7960 7961 7962 7963 7964 7965 7966 7967 7968 7969 7970 7971 7972 7973 7974 7975 7976 7977 7978 7979 7980 7981 7982 7983 7984 7985 7986 7987 7988 7989 7990 7991 7992 7993 7994 7995 7996 7997 7998 7999 8000 8001 8002 8003 8004 8005 8006 8007 8008 8009 8010 8011 8012 8013 8014 8015 8016 8017 8018 8019 8020 8021 8022 8023 8024 8025 8026 8027 8028 8029 8030 8031 8032 8033 8034 8035 8036 8037 8038 8039 8040 8041 8042 8043 8044 8045 8046 8047 8048 8049 8050 8051 8052 8053 8054 8055 8056 8057 8058 8059 8060 8061 8062 8063 8064 8065 8066 8067 8068 8069 8070 8071 8072 8073 8074 8075 8076 8077 8078 8079 8080 8081 8082 8083 8084 8085 8086 8087 8088 8089 8090 8091 8092 8093 8094 8095 8096 8097 8098 8099 8100 8101 8102 8103 8104 8105 8106 8107 8108 8109 8110 8111 8112 8113 8114 8115 8116 8117 8118 8119 8120 8121 8122 8123 8124 8125 8126 8127 8128 8129 8130 8131 8132 8133 8134 8135 8136 8137 8138 8139 8140 8141 8142 8143 8144 8145 8146 8147 8148 8149 8150 8151 8152 8153 8154 8155 8156 8157 8158 8159 8160 8161 8162 8163 8164 8165 8166 8167 8168 8169 8170 8171 8172 8173 8174 8175 8176 8177 8178 8179 8180 8181 8182 8183 8184 8185 8186 8187 8188 8189 8190 8191 8192 8193 8194 8195 8196 8197 8198 8199 8200 8201 8202 8203 8204 8205 8206 8207 8208 8209 8210 8211 8212 8213 8214 8215 8216 8217 8218 8219 8220 8221 8222 8223 8224 8225 8226 8227 8228 8229 8230 8231 8232 8233 8234 8235 8236 8237 8238 8239 8240 8241 8242 8243 8244 8245 8246 8247 8248 8249 8250 8251 8252 8253 8254 8255 8256 8257 8258 8259 8260 8261 8262 8263 8264 8265 8266 8267 8268 8269 8270 8271 8272 8273 8274 8275 8276 8277 8278 8279 8280 8281 8282 8283 8284 8285 8286 8287 8288 8289 8290 8291 8292 8293 8294 8295 8296 8297 8298 8299 8300 8301 8302 8303 8304 8305 8306 8307 8308 8309 8310 8311 8312 8313 8314 8315 8316 8317 8318 8319 8320 8321 8322 8323 8324 8325 8326 8327 8328 8329 8330 8331 8332 8333 8334 8335 8336 8337 8338 8339 8340 8341 8342 8343 8344 8345 8346 8347 8348 8349 8350 8351 8352 8353 8354 8355 8356 8357 8358 8359 8360 8361 8362 8363 8364 8365 8366 8367 8368 8369 8370 8371 8372 8373 8374 8375 8376 8377 8378 8379 8380 8381 8382 8383 8384 8385 8386 8387 8388 8389 8390 8391 8392 8393 8394 8395 8396 8397 8398 8399 8400 8401 8402 8403 8404 8405 8406 8407 8408 8409 8410 8411 8412 8413 8414 8415 8416 8417 8418 8419 8420 8421 8422 8423 8424 8425 8426 8427 8428 8429 8430 8431 8432 8433 8434 8435 8436 8437 8438 8439 8440 8441 8442 8443 8444 8445 8446 8447 8448 8449 8450 8451 8452 8453 8454 8455 8456 8457 8458 8459 8460 8461 8462 8463 8464 8465 8466 8467 8468 8469 8470 8471 8472 8473 8474 8475 8476 8477 8478 8479 8480 8481 8482 8483 8484 8485 8486 8487 8488 8489 8490 8491 8492 8493 8494 8495 8496 8497 8498 8499 8500 8501 8502 8503 8504 8505 8506 8507 8508 8509 8510 8511 8512 8513 8514 8515 8516 8517 8518 8519 8520 8521 8522 8523 8524 8525 8526 8527 8528 8529 8530 8531 8532 8533 8534 8535 8536 8537 8538 8539 8540 8541 8542 8543 8544 8545 8546 8547 8548 8549 8550 8551 8552 8553 8554 8555 8556 8557 8558 8559 8560 8561 8562 8563 8564 8565 8566 8567 8568 8569 8570 8571 8572 8573 8574 8575 8576 8577 8578 8579 8580 8581 8582 8583 8584 8585 8586 8587 8588 8589 8590 8591 8592 8593 8594 8595 8596 8597 8598 8599 8600 8601 8602 8603 8604 8605 8606 8607 8608 8609 8610 8611 8612 8613 8614 8615 8616 8617 8618 8619 8620 8621 8622 8623 8624 8625 8626 8627 8628 8629 8630 8631 8632 8633 8634 8635 8636 8637 8638 8639 8640 8641 8642 8643 8644 8645 8646 8647 8648 8649 8650 8651 8652 8653 8654 8655 8656 8657 8658 8659 8660 8661 8662 8663 8664 8665 8666 8667 8668 8669 8670 8671 8672 8673 8674 8675 8676 8677 8678 8679 8680 8681 8682 8683 8684 8685 8686 8687 8688 8689 8690 8691 8692 8693 8694 8695 8696 8697 8698 8699 8700 8701 8702 8703 8704 8705 8706 8707 8708 8709 8710 8711 8712 8713 8714 8715 8716 8717 8718 8719 8720 8721 8722 8723 8724 8725 8726 8727 8728 8729 8730 8731 8732 8733 8734 8735 8736 8737 8738 8739 8740 8741 8742 8743 8744 8745 8746 8747 8748 8749 8750 8751 8752 8753 8754 8755 8756 8757 8758 8759 8760 8761 8762 8763 8764 8765 8766 8767 8768 8769 8770 8771 8772 8773 8774 8775 8776 8777 8778 8779 8780 8781 8782 8783 8784 8785 8786 8787 8788 8789 8790 8791 8792 8793 8794 8795 8796 8797 8798 8799 8800 8801 8802 8803 8804 8805 8806 8807 8808 8809 8810 8811 8812 8813 8814 8815 8816 8817 8818 8819 8820 8821 8822 8823 8824 8825 8826 8827 8828 8829 8830 8831 8832 8833 8834 8835 8836 8837 8838 8839 8840 8841 8842 8843 8844 8845 8846 8847 8848 8849 8850 8851 8852 8853 8854 8855 8856 8857 8858 8859 8860 8861 8862 8863 8864 8865 8866 8867 8868 8869 8870 8871 8872 8873 8874 8875 8876 8877 8878 8879 8880 8881 8882 8883 8884 8885 8886 8887 8888 8889 8890 8891 8892 8893 8894 8895 8896 8897 8898 8899 8900 8901 8902 8903 8904 8905 8906 8907 8908 8909 8910 8911 8912 8913 8914 8915 8916 8917 8918 8919 8920 8921 8922 8923 8924 8925 8926 8927 8928 8929 8930 8931 8932 8933 8934 8935 8936 8937 8938 8939 8940 8941 8942 8943 8944 8945 8946 8947 8948 8949 8950 8951 8952 8953 8954 8955 8956 8957 8958 8959 8960 8961 8962 8963 8964 8965 8966 8967 8968 8969 8970 8971 8972 8973 8974 8975 8976 8977 8978 8979 8980 8981 8982 8983 8984 8985 8986 8987 8988 8989 8990 8991 8992 8993 8994 8995 8996 8997 8998 8999 9000 9001 9002 9003 9004 9005 9006 9007 9008 9009 9010 9011 9012 9013 9014 9015 9016 9017 9018 9019 9020 9021 9022 9023 9024 9025 9026 9027 9028 9029 9030 9031 9032 9033 9034 9035 9036 9037 9038 9039 9040 9041 9042 9043 9044 9045 9046 9047 9048 9049 9050 9051 9052 9053 9054 9055 9056 9057 9058 9059 9060 9061 9062 9063 9064 9065 9066 9067 9068 9069 9070 9071 9072 9073 9074 9075 9076 9077 9078 9079 9080 9081 9082 9083 9084 9085 9086 9087 9088 9089 9090 9091 9092 9093 9094 9095 9096 9097 9098 9099 9100 9101 9102 9103 9104 9105 9106 9107 9108 9109 9110 9111 9112 9113 9114 9115 9116 9117 9118 9119 9120 9121 9122 9123 9124 9125 9126 9127 9128 9129 9130 9131 9132 9133 9134 9135 9136 9137 9138 9139 9140 9141 9142 9143 9144 9145 9146 9147 9148 9149 9150 9151 9152 9153 9154 9155 9156 9157 9158 9159 9160 9161 9162 9163 9164 9165 9166 9167 9168 9169 9170 9171 9172 9173 9174 9175 9176 9177 9178 9179 9180 9181 9182 9183 9184 9185 9186 9187 9188 9189 9190 9191 9192 9193 9194 9195 9196 9197 9198 9199 9200 9201 9202 9203 9204 9205 9206 9207 9208 9209 9210 9211 9212 9213 9214 9215 9216 9217 9218 9219 9220 9221 9222 9223 9224 9225 9226 9227 9228 9229 9230 9231 9232 9233 9234 9235 9236 9237 9238 9239 9240 9241 9242 9243 9244 9245 9246 9247 9248 9249 9250 9251 9252 9253 9254 9255 9256 9257 9258 9259 9260 9261 9262 9263 9264 9265 9266 9267 9268 9269 9270 9271 9272 9273 9274 9275 9276 9277 9278 9279 9280 9281 9282 9283 9284 9285 9286 9287 9288 9289 9290 9291 9292 9293 9294 9295 9296 9297 9298 9299 9300 9301 9302 9303 9304 9305 9306 9307 9308 9309 9310 9311 9312 9313 9314 9315 9316 9317 9318 9319 9320 9321 9322 9323 9324 9325 9326 9327 9328 9329 9330 9331 9332 9333 9334 9335 9336 9337 9338 9339 9340 9341 9342 9343 9344 9345 9346 9347 9348 9349 9350 9351 9352 9353 9354 9355 9356 9357 9358 9359 9360 9361 9362 9363 9364 9365 9366 9367 9368 9369 9370 9371 9372 9373 9374 9375 9376 9377 9378 9379 9380 9381 9382 9383 9384 9385 9386 9387 9388 9389 9390 9391 9392 9393 9394 9395 9396 9397 9398 9399 9400 9401 9402 9403 9404 9405 9406 9407 9408 9409 9410 9411 9412 9413 9414 9415 9416 9417 9418 9419 9420 9421 9422 9423 9424 9425 9426 9427 9428 9429 9430 9431 9432 9433 9434 9435 9436 9437 9438 9439 9440 9441 9442 9443 9444 9445 9446 9447 9448 9449 9450 9451 9452 9453 9454 9455 9456 9457 9458 9459 9460 9461 9462 9463 9464 9465 9466 9467 9468 9469 9470 9471 9472 9473 9474 9475 9476 9477 9478 9479 9480 9481 9482 9483 9484 9485 9486 9487 9488 9489 9490 9491 9492 9493 9494 9495 9496 9497 9498 9499 9500 9501 9502 9503 9504 9505 9506 9507 9508 9509 9510 9511 9512 9513 9514 9515 9516 9517 9518 9519 9520 9521 9522 9523 9524 9525 9526 9527 9528 9529 9530 9531 9532 9533 9534 9535 9536 9537 9538 9539 9540 9541 9542 9543 9544 9545 9546 9547 9548 9549 9550 9551 9552 9553 9554 9555 9556 9557 9558 9559 9560 9561 9562 9563 9564 9565 9566 9567 9568 9569 9570 9571 9572 9573 9574 9575 9576 9577 9578 9579 9580 9581 9582 9583 9584 9585 9586 9587 9588 9589 9590 9591 9592 9593 9594 9595 9596 9597 9598 9599 9600 9601 9602 9603 9604 9605 9606 9607 9608 9609 9610 9611 9612 9613 9614 9615 9616 9617 9618 9619 9620 9621 9622 9623 9624 9625 9626 9627 9628 9629 9630 9631 9632 9633 9634 9635 9636 9637 9638 9639 9640 9641 9642 9643 9644 9645 9646 9647 9648 9649 9650 9651 9652 9653 9654 9655 9656 9657 9658 9659 9660 9661 9662 9663 9664 9665 9666 9667 9668 9669 9670 9671 9672 9673 9674 9675 9676 9677 9678 9679 9680 9681 9682 9683 9684 9685 9686 9687 9688 9689 9690 9691 9692 9693 9694 9695 9696 9697 9698 9699 9700 9701 9702 9703 9704 9705 9706 9707 9708 9709 9710 9711 9712 9713 9714 9715 9716 9717 9718 9719 9720 9721 9722 9723 9724 9725 9726 9727 9728 9729 9730 9731 9732 9733 9734 9735 9736 9737 9738 9739 9740 9741 9742 9743 9744 9745 9746 9747 9748 9749 9750 9751 9752 9753 9754 9755 9756 9757 9758 9759 9760 9761 9762 9763 9764 9765 9766 9767 9768 9769 9770 9771 9772 9773 9774 9775 9776 9777 9778 9779 9780 9781 9782 9783 9784 9785 9786 9787 9788 9789 9790 9791 9792 9793 9794 9795 9796 9797 9798 9799 9800 9801 9802 9803 9804 9805 9806 9807 9808 9809 9810 9811 9812 9813 9814 9815 9816 9817 9818 9819 9820 9821 9822 9823 9824 9825 9826 9827 9828 9829 9830 9831 9832 9833 9834 9835 9836 9837 9838 9839 9840 9841 9842 9843 9844 9845 9846 9847 9848 9849 9850 9851 9852 9853 9854 9855 9856 9857 9858 9859 9860 9861 9862 9863 9864 9865 9866 9867 9868 9869 9870 9871 9872 9873 9874 9875 9876 9877 9878 9879 9880 9881 9882 9883 9884 9885 9886 9887 9888 9889 9890 9891 9892 9893 9894 9895 9896 9897 9898 9899 9900 9901 9902 9903 9904 9905 9906 9907 9908 9909 9910 9911 9912 9913 9914 9915 9916 9917 9918 9919 9920 9921 9922 9923 9924 9925 9926 9927 9928 9929 9930 9931 9932 9933 9934 9935 9936 9937 9938 9939 9940 9941 9942 9943 9944 9945 9946 9947 9948 9949 9950 9951 9952 9953 9954 9955 9956 9957 9958 9959 9960 9961 9962 9963 9964 9965 9966 9967 9968 9969 9970 9971 9972 9973 9974 9975 9976 9977 9978 9979 9980 9981 9982 9983 9984 9985 9986 9987 9988 9989 9990 9991 9992 9993 9994 9995 9996 9997 9998 9999 10000 10001 10002 10003 10004 10005 10006 10007 10008 10009 10010 10011 10012 10013 10014 10015 10016 10017 10018 10019 10020 10021 10022 10023 10024 10025 10026 10027 10028 10029 10030 10031 10032 10033 10034 10035 10036 10037 10038 10039 10040 10041 10042 10043 10044 10045 10046 10047 10048 10049 10050 10051 10052 10053 10054 10055 10056 10057 10058 10059 10060 10061 10062 10063 10064 10065 10066 10067 10068 10069 10070 10071 10072 10073 10074 10075 10076 10077 10078 10079 10080 10081 10082 10083 10084 10085 10086 10087 10088 10089 10090 10091 10092 10093 10094 10095 10096 10097 10098 10099 10100 10101 10102 10103 10104 10105 10106 10107 10108 10109 10110 10111 10112 10113 10114 10115 10116 10117 10118 10119 10120 10121 10122 10123 10124 10125 10126 10127 10128 10129 10130 10131 10132 10133 10134 10135 10136 10137 10138 10139 10140 10141 10142 10143 10144 10145 10146 10147 10148 10149 10150 10151 10152 10153 10154 10155 10156 10157 10158 10159 10160 10161 10162 10163 10164 10165 10166 10167 10168 10169 10170 10171 10172 10173 10174 10175 10176 10177 10178 10179 10180 10181 10182 10183 10184 10185 10186 10187 10188 10189 10190 10191 10192 10193 10194 10195 10196 10197 10198 10199 10200 10201 10202 10203 10204 10205 10206 10207 10208 10209 10210 10211 10212 10213 10214 10215 10216 10217 10218 10219 10220 10221 10222 10223 10224 10225 10226 10227 10228 10229 10230 10231 10232 10233 10234 10235 10236 10237 10238 10239 10240 10241 10242 10243 10244 10245 10246 10247 10248 10249 10250 10251 10252 10253 10254 10255 10256 10257 10258 10259 10260 10261 10262 10263 10264 10265 10266 10267 10268 10269 10270 10271 10272 10273 10274 10275 10276 10277 10278 10279 10280 10281 10282 10283 10284 10285 10286 10287 10288 10289 10290 10291 10292 10293 10294 10295 10296 10297 10298 10299 10300 10301 10302 10303 10304 10305 10306 10307 10308 10309 10310 10311 10312 10313 10314 10315 10316 10317 10318 10319 10320 10321 10322 10323 10324 10325 10326 10327 10328 10329 10330 10331 10332 10333 10334 10335 10336 10337 10338 10339 10340 10341 10342 10343 10344 10345 10346 10347 10348 10349 10350 10351 10352 10353 10354 10355 10356 10357 10358 10359 10360 10361 10362 10363 10364 10365 10366 10367 10368 10369 10370 10371 10372 10373 10374 10375 10376 10377 10378 10379 10380 10381 10382 10383 10384 10385 10386 10387 10388 10389 10390 10391 10392 10393 10394 10395 10396 10397 10398 10399 10400 10401 10402 10403 10404 10405 10406 10407 10408 10409 10410 10411 10412 10413 10414 10415 10416 10417 10418 10419 10420 10421 10422 10423 10424 10425 10426 10427 10428 10429 10430 10431 10432 10433 10434 10435 10436 10437 10438 10439 10440 10441 10442 10443 10444 10445 10446 10447 10448 10449 10450 10451 10452 10453 10454 10455 10456 10457 10458 10459 10460 10461 10462 10463 10464 10465 10466 10467 10468 10469 10470 10471 10472 10473 10474 10475 10476 10477 10478 10479 10480 10481 10482 10483 10484 10485 10486 10487 10488 10489 10490 10491 10492 10493 10494 10495 10496 10497 10498 10499 10500 10501 10502 10503 10504 10505 10506 10507 10508 10509 10510 10511 10512 10513 10514 10515 10516 10517 10518 10519 10520 10521 10522 10523 10524 10525 10526 10527 10528 10529 10530 10531 10532 10533 10534 10535 10536 10537 10538 10539 10540 10541 10542 10543 10544 10545 10546 10547 10548 10549 10550 10551 10552 10553 10554 10555 10556 10557 10558 10559 10560 10561 10562 10563 10564 10565 10566 10567 10568 10569 10570 10571 10572 10573 10574 10575 10576 10577 10578 10579 10580 10581 10582 10583 10584 10585 10586 10587 10588 10589 10590 10591 10592 10593 10594 10595 10596 10597 10598 10599 10600 10601 10602 10603 10604 10605 10606 10607 10608 10609 10610 10611 10612 10613 10614 10615 10616 10617 10618 10619 10620 10621 10622 10623 10624 10625 10626 10627 10628 10629 10630 10631 10632 10633 10634 10635 10636 10637 10638 10639 10640 10641 10642 10643 10644 10645 10646 10647 10648 10649 10650 10651 10652 10653 10654 10655 10656 10657 10658 10659 10660 10661 10662 10663 10664 10665 10666 10667 10668 10669 10670 10671 10672 10673 10674 10675 10676 10677 10678 10679 10680 10681 10682 10683 10684 10685 10686 10687 10688 10689 10690 10691 10692 10693 10694 10695 10696 10697 10698 10699 10700 10701 10702 10703 10704 10705 10706 10707 10708 10709 10710 10711 10712 10713 10714 10715 10716 10717 10718 10719 10720 10721 10722 10723 10724 10725 10726 10727 10728 10729 10730 10731 10732 10733 10734 10735 10736 10737 10738 10739 10740 10741 10742 10743 10744 10745 10746 10747 10748 10749 10750 10751 10752 10753 10754 10755 10756 10757 10758 10759 10760 10761 10762 10763 10764 10765 10766 10767 10768 10769 10770 10771 10772 10773 10774 10775 10776 10777 10778 10779 10780 10781 10782 10783 10784 10785 10786 10787 10788 10789 10790 10791 10792 10793 10794 10795 10796 10797 10798 10799 10800 10801 10802 10803 10804 10805 10806 10807 10808 10809 10810 10811 10812 10813 10814 10815 10816 10817 10818 10819 10820 10821 10822 10823 10824 10825 10826 10827 10828 10829 10830 10831 10832 10833 10834 10835 10836 10837 10838 10839 10840 10841 10842 10843 10844 10845 10846 10847 10848 10849 10850 10851 10852 10853 10854 10855 10856 10857 10858 10859 10860 10861 10862 10863 10864 10865 10866 10867 10868 10869 10870 10871 10872 10873 10874 10875 10876 10877 10878 10879 10880 10881 10882 10883 10884 10885 10886 10887 10888 10889 10890 10891 10892 10893 10894 10895 10896 10897 10898 10899 10900 10901 10902 10903 10904 10905 10906 10907 10908 10909 10910 10911 10912 10913 10914 10915 10916 10917 10918 10919 10920 10921 10922 10923 10924 10925 10926 10927 10928 10929 10930 10931 10932 10933 10934 10935 10936 10937 10938 10939 10940 10941 10942 10943 10944 10945 10946 10947 10948 10949 10950 10951 10952 10953 10954 10955 10956 10957 10958 10959 10960 10961 10962 10963 10964 10965 10966 10967 10968 10969 10970 10971 10972 10973 10974 10975 10976 10977 10978 10979 10980 10981 10982 10983 10984 10985 10986 10987 10988 10989 10990 10991 10992 10993 10994 10995 10996 10997 10998 10999 11000 11001 11002 11003 11004 11005 11006 11007 11008 11009 11010 11011 11012 11013 11014 11015 11016 11017 11018 11019 11020 11021 11022 11023 11024 11025 11026 11027 11028 11029 11030 11031 11032 11033 11034 11035 11036 11037 11038 11039 11040 11041 11042 11043 11044 11045 11046 11047 11048 11049 11050 11051 11052 11053 11054 11055 11056 11057 11058 11059 11060 11061 11062 11063 11064 11065 11066 11067 11068 11069 11070 11071 11072 11073 11074 11075 11076 11077 11078 11079 11080 11081 11082 11083 11084 11085 11086 11087 11088 11089 11090 11091 11092 11093 11094 11095 11096 11097 11098 11099 11100 11101 11102 11103 11104 11105 11106 11107 11108 11109 11110 11111 11112 11113 11114 11115 11116 11117 11118 11119 11120 11121 11122 11123 11124 11125 11126 11127 11128 11129 11130 11131 11132 11133 11134 11135 11136 11137 11138 11139 11140 11141 11142 11143 11144 11145 11146 11147 11148 11149 11150 11151 11152 11153 11154 11155 11156 11157 11158 11159 11160 11161 11162 11163 11164 11165 11166 11167 11168 11169 11170 11171 11172 11173 11174 11175 11176 11177 11178 11179 11180 11181 11182 11183 11184 11185 11186 11187 11188 11189 11190 11191 11192 11193 11194 11195 11196 11197 11198 11199 11200 11201 11202 11203 11204 11205 11206 11207 11208 11209 11210 11211 11212 11213 11214 11215 11216 11217 11218 11219 11220 11221 11222 11223 11224 11225 11226 11227 11228 11229 11230 11231 11232 11233 11234 11235 11236 11237 11238 11239 11240 11241 11242 11243 11244 11245 11246 11247 11248 11249 11250 11251 11252 11253 11254 11255 11256 11257 11258 11259 11260 11261 11262 11263 11264 11265 11266 11267 11268 11269 11270 11271 11272 11273 11274 11275 11276 11277 11278 11279 11280 11281 11282 11283 11284 11285 11286 11287 11288 11289 11290 11291 11292 11293 11294 11295 11296 11297 11298 11299 11300 11301 11302 11303 11304 11305 11306 11307 11308 11309 11310 11311 11312 11313 11314 11315 11316 11317 11318 11319 11320 11321 11322 11323 11324 11325 11326 11327 11328 11329 11330 11331 11332 11333 11334 11335 11336 11337 11338 11339 11340 11341 11342 11343 11344 11345 11346 11347 11348 11349 11350 11351 11352 11353 11354 11355 11356 11357 11358 11359 11360 11361 11362 11363 11364 11365 11366 11367 11368 11369 11370 11371 11372 11373 11374 11375 11376 11377 11378 11379 11380 11381 11382 11383 11384 11385 11386 11387 11388 11389 11390 11391 11392 11393 11394 11395 11396 11397 11398 11399 11400 11401 11402 11403 11404 11405 11406 11407 11408 11409 11410 11411 11412 11413 11414 11415 11416 11417 11418 11419 11420 11421 11422 11423 11424 11425 11426 11427 11428 11429 11430 11431 11432 11433 11434 11435 11436 11437 11438 11439 11440 11441 11442 11443 11444 11445 11446 11447 11448 11449 11450 11451 11452 11453 11454 11455 11456 11457 11458 11459 11460 11461 11462 11463 11464 11465 11466 11467 11468 11469 11470 11471 11472 11473 11474 11475 11476 11477 11478 11479 11480 11481 11482 11483 11484 11485 11486 11487 11488 11489 11490 11491 11492 11493 11494 11495 11496 11497 11498 11499 11500 11501 11502 11503 11504 11505 11506 11507 11508 11509 11510 11511 11512 11513 11514 11515 11516 11517 11518 11519 11520 11521 11522 11523 11524 11525 11526 11527 11528 11529 11530 11531 11532 11533 11534 11535 11536 11537 11538 11539 11540 11541 11542 11543 11544 11545 11546 11547 11548 11549 11550 11551 11552 11553 11554 11555 11556 11557 11558 11559 11560 11561 11562 11563 11564 11565 11566 11567 11568 11569 11570 11571 11572 11573 11574 11575 11576 11577 11578 11579 11580 11581 11582 11583 11584 11585 11586 11587 11588 11589 11590 11591 11592 11593 11594 11595 11596 11597 11598 11599 11600 11601 11602 11603 11604 11605 11606 11607 11608 11609 11610 11611 11612 11613 11614 11615 11616 11617 11618 11619 11620 11621 11622 11623 11624 11625 11626 11627 11628 11629 11630 11631 11632 11633 11634 11635 11636 11637 11638 11639 11640 11641 11642 11643 11644 11645 11646 11647 11648 11649 11650 11651 11652 11653 11654 11655 11656 11657 11658 11659 11660 11661 11662 11663 11664 11665 11666 11667 11668 11669 11670 11671 11672 11673 11674 11675 11676 11677 11678 11679 11680 11681 11682 11683 11684 11685 11686 11687 11688 11689 11690 11691 11692 11693 11694 11695 11696 11697 11698 11699 11700 11701 11702 11703 11704 11705 11706 11707 11708 11709 11710 11711 11712 11713 11714 11715 11716 11717 11718 11719 11720 11721 11722 11723 11724 11725 11726 11727 11728 11729 11730 11731 11732 11733 11734 11735 11736 11737 11738 11739 11740 11741 11742 11743 11744 11745 11746 11747 11748 11749 11750 11751 11752 11753 11754 11755 11756 11757 11758 11759 11760 11761 11762 11763 11764 11765 11766 11767 11768 11769 11770 11771 11772 11773 11774 11775 11776 11777 11778 11779 11780 11781 11782 11783 11784 11785 11786 11787 11788 11789 11790 11791 11792 11793 11794 11795 11796 11797 11798 11799 11800 11801 11802 11803 11804 11805 11806 11807 11808 11809 11810 11811 11812 11813 11814 11815 11816 11817 11818 11819 11820 11821 11822 11823 11824 11825 11826 11827 11828 11829 11830 11831 11832 11833 11834 11835 11836 11837 11838 11839 11840 11841 11842 11843 11844 11845 11846 11847 11848 11849 11850 11851 11852 11853 11854 11855 11856 11857 11858 11859 11860 11861 11862 11863 11864 11865 11866 11867 11868 11869 11870 11871 11872 11873 11874 11875 11876 11877 11878 11879 11880 11881 11882 11883 11884 11885 11886 11887 11888 11889 11890 11891 11892 11893 11894 11895 11896 11897 11898 11899 11900 11901 11902 11903 11904 11905 11906 11907 11908 11909 11910 11911 11912 11913 11914 11915 11916 11917 11918 11919 11920 11921 11922 11923 11924 11925 11926 11927 11928 11929 11930 11931 11932 11933 11934 11935 11936 11937 11938 11939 11940 11941 11942 11943 11944 11945 11946 11947 11948 11949 11950 11951 11952 11953 11954 11955 11956 11957 11958 11959 11960 11961 11962 11963 11964 11965 11966 11967 11968 11969 11970 11971 11972 11973 11974 11975 11976 11977 11978 11979 11980 11981 11982 11983 11984 11985 11986 11987 11988 11989 11990 11991 11992 11993 11994 11995 11996 11997 11998 11999 12000 12001 12002 12003 12004 12005 12006 12007 12008 12009 12010 12011 12012 12013 12014 12015 12016 12017 12018 12019 12020 12021 12022 12023 12024 12025 12026 12027 12028 12029 12030 12031 12032 12033 12034 12035 12036 12037 12038 12039 12040 12041 12042 12043 12044 12045 12046 12047 12048 12049 12050 12051 12052 12053 12054 12055 12056 12057 12058 12059 12060 12061 12062 12063 12064 12065 12066 12067 12068 12069 12070 12071 12072 12073 12074 12075 12076 12077 12078 12079 12080 12081 12082 12083 12084 12085 12086 12087 12088 12089 12090 12091 12092 12093 12094 12095 12096 12097 12098 12099 12100 12101 12102 12103 12104 12105 12106 12107 12108 12109 12110 12111 12112 12113 12114 12115 12116 12117 12118 12119 12120 12121 12122 12123 12124 12125 12126 12127 12128 12129 12130 12131 12132 12133 12134 12135 12136 12137 12138 12139 12140 12141 12142 12143 12144 12145 12146 12147 12148 12149 12150 12151 12152 12153 12154 12155 12156 12157 12158 12159 12160 12161 12162 12163 12164 12165 12166 12167 12168 12169 12170 12171 12172 12173 12174 12175 12176 12177 12178 12179 12180 12181 12182 12183 12184 12185 12186 12187 12188 12189 12190 12191 12192 12193 12194 12195 12196 12197 12198 12199 12200 12201 12202 12203 12204 12205 12206 12207 12208 12209 12210 12211 12212 12213 12214 12215 12216 12217 12218 12219 12220 12221 12222 12223 12224 12225 12226 12227 12228 12229 12230 12231 12232 12233 12234 12235 12236 12237 12238 12239 12240 12241 12242 12243 12244 12245 12246 12247 12248 12249 12250 12251 12252 12253 12254 12255 12256 12257 12258 12259 12260 12261 12262 12263 12264 12265 12266 12267 12268 12269 12270 12271 12272 12273 12274 12275 12276 12277 12278 12279 12280 12281 12282 12283 12284 12285 12286 12287 12288 12289 12290 12291 12292 12293 12294 12295 12296 12297 12298 12299 12300 12301 12302 12303 12304 12305 12306 12307 12308 12309 12310 12311 12312 12313 12314 12315 12316 12317 12318 12319 12320 12321 12322 12323 12324 12325 12326 12327 12328 12329 12330 12331 12332 12333 12334 12335 12336 12337 12338 12339 12340 12341 12342 12343 12344 12345 12346 12347 12348 12349 12350 12351 12352 12353 12354 12355 12356 12357 12358 12359 12360 12361 12362 12363 12364 12365 12366 12367 12368 12369 12370 12371 12372 12373 12374 12375 12376 12377 12378 12379 12380 12381 12382 12383 12384 12385 12386 12387 12388 12389 12390 12391 12392 12393 12394 12395 12396 12397 12398 12399 12400 12401 12402 12403 12404 12405 12406 12407 12408 12409 12410 12411 12412 12413 12414 12415 12416 12417 12418 12419 12420 12421 12422 12423 12424 12425 12426 12427 12428 12429 12430 12431 12432 12433 12434 12435 12436 12437 12438 12439 12440 12441 12442 12443 12444 12445 12446 12447 12448 12449 12450 12451 12452 12453 12454 12455 12456 12457 12458 12459 12460 12461 12462 12463 12464 12465 12466 12467 12468 12469 12470 12471 12472 12473 12474 12475 12476 12477 12478 12479 12480 12481 12482 12483 12484 12485 12486 12487 12488 12489 12490 12491 12492 12493 12494 12495 12496 12497 12498 12499 12500 12501 12502 12503 12504 12505 12506 12507 12508 12509 12510 12511 12512 12513 12514 12515 12516 12517 12518 12519 12520 12521 12522 12523 12524 12525 12526 12527 12528 12529 12530 12531 12532 12533 12534 12535 12536 12537 12538 12539 12540 12541 12542 12543 12544 12545 12546 12547 12548 12549 12550 12551 12552 12553 12554 12555 12556 12557 12558 12559 12560 12561 12562 12563 12564 12565 12566 12567 12568 12569 12570 12571 12572 12573 12574 12575 12576 12577 12578 12579 12580 12581 12582 12583 12584 12585 12586 12587 12588 12589 12590 12591 12592 12593 12594 12595 12596 12597 12598 12599 12600 12601 12602 12603 12604 12605 12606 12607 12608 12609 12610 12611 12612 12613 12614 12615 12616 12617 12618 12619 12620 12621 12622 12623 12624 12625 12626 12627 12628 12629 12630 12631 12632 12633 12634 12635 12636 12637 12638 12639 12640 12641 12642 12643 12644 12645 12646 12647 12648 12649 12650 12651 12652 12653 12654 12655 12656 12657 12658 12659 12660 12661 12662 12663 12664 12665 12666 12667 12668 12669 12670 12671 12672 12673 12674 12675 12676 12677 12678 12679 12680 12681 12682 12683 12684 12685 12686 12687 12688 12689 12690 12691 12692 12693 12694 12695 12696 12697 12698 12699 12700 12701 12702 12703 12704 12705 12706 12707 12708 12709 12710 12711 12712 12713 12714 12715 12716 12717 12718 12719 12720 12721 12722 12723 12724 12725 12726 12727 12728 12729 12730 12731 12732 12733 12734 12735 12736 12737 12738 12739 12740 12741 12742 12743 12744 12745 12746 12747 12748 12749 12750 12751 12752 12753 12754 12755 12756 12757 12758 12759 12760 12761 12762 12763 12764 12765 12766 12767 12768 12769 12770 12771 12772 12773 12774 12775 12776 12777 12778 12779 12780 12781 12782 12783 12784 12785 12786 12787 12788 12789 12790 12791 12792 12793 12794 12795 12796 12797 12798 12799 12800 12801 12802 12803 12804 12805 12806 12807 12808 12809 12810 12811 12812 12813 12814 12815 12816 12817 12818 12819 12820 12821 12822 12823 12824 12825 12826 12827 12828 12829 12830 12831 12832 12833 12834 12835 12836 12837 12838 12839 12840 12841 12842 12843 12844 12845 12846 12847 12848 12849 12850 12851 12852 12853 12854 12855 12856 12857 12858 12859 12860 12861 12862 12863 12864 12865 12866 12867 12868 12869 12870 12871 12872 12873 12874 12875 12876 12877 12878 12879 12880 12881 12882 12883 12884 12885 12886 12887 12888 12889 12890 12891 12892 12893 12894 12895 12896 12897 12898 12899 12900 12901 12902 12903 12904 12905 12906 12907 12908 12909 12910 12911 12912 12913 12914 12915 12916 12917 12918 12919 12920 12921 12922 12923 12924 12925 12926 12927 12928 12929 12930 12931 12932 12933 12934 12935 12936 12937 12938 12939 12940 12941 12942 12943 12944 12945 12946 12947 12948 12949 12950 12951 12952 12953 12954 12955 12956 12957 12958 12959 12960 12961 12962 12963 12964 12965 12966 12967 12968 12969 12970 12971 12972 12973 12974 12975 12976 12977 12978 12979 12980 12981 12982 12983 12984 12985 12986 12987 12988 12989 12990 12991 12992 12993 12994 12995 12996 12997 12998 12999 13000 13001 13002 13003 13004 13005 13006 13007 13008 13009 13010 13011 13012 13013 13014 13015 13016 13017 13018 13019 13020 13021 13022 13023 13024 13025 13026 13027 13028 13029 13030 13031 13032 13033 13034 13035 13036 13037 13038 13039 13040 13041 13042 13043 13044 13045 13046 13047 13048 13049 13050 13051 13052 13053 13054 13055 13056 13057 13058 13059 13060 13061 13062 13063 13064 13065 13066 13067 13068 13069 13070 13071 13072 13073 13074 13075 13076 13077 13078 13079 13080 13081 13082 13083 13084 13085 13086 13087 13088 13089 13090 13091 13092 13093 13094 13095 13096 13097 13098 13099 13100 13101 13102 13103 13104 13105 13106 13107 13108 13109 13110 13111 13112 13113 13114 13115 13116 13117 13118 13119 13120 13121 13122 13123 13124 13125 13126 13127 13128 13129 13130 13131 13132 13133 13134 13135 13136 13137 13138 13139 13140 13141 13142 13143 13144 13145 13146 13147 13148 13149 13150 13151 13152 13153 13154 13155 13156 13157 13158 13159 13160 13161 13162 13163 13164 13165 13166 13167 13168 13169 13170 13171 13172 13173 13174 13175 13176 13177 13178 13179 13180 13181 13182 13183 13184 13185 13186 13187 13188 13189 13190 13191 13192 13193 13194 13195 13196 13197 13198 13199 13200 13201 13202 13203 13204 13205 13206 13207 13208 13209 13210 13211 13212 13213 13214 13215 13216 13217 13218 13219 13220 13221 13222 13223 13224 13225 13226 13227 13228 13229 13230 13231 13232 13233 13234 13235 13236 13237 13238 13239 13240 13241 13242 13243 13244 13245 13246 13247 13248 13249 13250 13251 13252 13253 13254 13255 13256 13257 13258 13259 13260 13261 13262 13263 13264 13265 13266 13267 13268 13269 13270 13271 13272 13273 13274 13275 13276 13277 13278 13279 13280 13281 13282 13283 13284 13285 13286 13287 13288 13289 13290 13291 13292 13293 13294 13295 13296 13297 13298 13299 13300 13301 13302 13303 13304 13305 13306 13307 13308 13309 13310 13311 13312 13313 13314 13315 13316 13317 13318 13319 13320 13321 13322 13323 13324 13325 13326 13327 13328 13329 13330 13331 13332 13333 13334 13335 13336 13337 13338 13339 13340 13341 13342 13343 13344 13345 13346 13347 13348 13349 13350 13351 13352 13353 13354 13355 13356 13357 13358 13359 13360 13361 13362 13363 13364 13365 13366 13367 13368 13369 13370 13371 13372 13373 13374 13375 13376 13377 13378 13379 13380 13381 13382 13383 13384 13385 13386 13387 13388 13389 13390 13391 13392 13393 13394 13395 13396 13397 13398 13399 13400 13401 13402 13403 13404 13405 13406 13407 13408 13409 13410 13411 13412 13413 13414 13415 13416 13417 13418 13419 13420 13421 13422 13423 13424 13425 13426 13427 13428 13429 13430 13431 13432 13433 13434 13435 13436 13437 13438 13439 13440 13441 13442 13443 13444 13445 13446 13447 13448 13449 13450 13451 13452 13453 13454 13455 13456 13457 13458 13459 13460 13461 13462 13463 13464 13465 13466 13467 13468 13469 13470 13471 13472 13473 13474 13475 13476 13477 13478 13479 13480 13481 13482 13483 13484 13485 13486 13487 13488 13489 13490 13491 13492 13493 13494 13495 13496 13497 13498 13499 13500 13501 13502 13503 13504 13505 13506 13507 13508 13509 13510 13511 13512 13513 13514 13515 13516 13517 13518 13519 13520 13521 13522 13523 13524 13525 13526 13527 13528 13529 13530 13531 13532 13533 13534 13535 13536 13537 13538 13539 13540 13541 13542 13543 13544 13545 13546 13547 13548 13549 13550 13551 13552 13553 13554 13555 13556 13557 13558 13559 13560 13561 13562 13563 13564 13565 13566 13567 13568 13569 13570 13571 13572 13573 13574 13575 13576 13577 13578 13579 13580 13581 13582 13583 13584 13585 13586 13587 13588 13589 13590 13591 13592 13593 13594 13595 13596 13597 13598 13599 13600 13601 13602 13603 13604 13605 13606 13607 13608 13609 13610 13611 13612 13613 13614 13615 13616 13617 13618 13619 13620 13621 13622 13623 13624 13625 13626 13627 13628 13629 13630 13631 13632 13633 13634 13635 13636 13637 13638 13639 13640 13641 13642 13643 13644 13645 13646 13647 13648 13649 13650 13651 13652 13653 13654 13655 13656 13657 13658 13659 13660 13661 13662 13663 13664 13665 13666 13667 13668 13669 13670 13671 13672 13673 13674 13675 13676 13677 13678 13679 13680 13681 13682 13683 13684 13685 13686 13687 13688 13689 13690 13691 13692 13693 13694 13695 13696 13697 13698 13699 13700 13701 13702 13703 13704 13705 13706 13707 13708 13709 13710 13711 13712 13713 13714 13715 13716 13717 13718 13719 13720 13721 13722 13723 13724 13725 13726 13727 13728 13729 13730 13731 13732 13733 13734 13735 13736 13737 13738 13739 13740 13741 13742 13743 13744 13745 13746 13747 13748 13749 13750 13751 13752 13753 13754 13755 13756 13757 13758 13759 13760 13761 13762 13763 13764 13765 13766 13767 13768 13769 13770 13771 13772 13773 13774 13775 13776 13777 13778 13779 13780 13781 13782 13783 13784 13785 13786 13787 13788 13789 13790 13791 13792 13793 13794 13795 13796 13797 13798 13799 13800 13801 13802 13803 13804 13805 13806 13807 13808 13809 13810 13811 13812 13813 13814 13815 13816 13817 13818 13819 13820 13821 13822 13823 13824 13825 13826 13827 13828 13829 13830 13831 13832 13833 13834 13835 13836 13837 13838 13839 13840 13841 13842 13843 13844 13845 13846 13847 13848 13849 13850 13851 13852 13853 13854 13855 13856 13857 13858 13859 13860 13861 13862 13863 13864 13865 13866 13867 13868 13869 13870 13871 13872 13873 13874 13875 13876 13877 13878 13879 13880 13881 13882 13883 13884 13885 13886 13887 13888 13889 13890 13891 13892 13893 13894 13895 13896 13897 13898 13899 13900 13901 13902 13903 13904 13905 13906 13907 13908 13909 13910 13911 13912 13913 13914 13915 13916 13917 13918 13919 13920 13921 13922 13923 13924 13925 13926 13927 13928 13929 13930 13931 13932 13933 13934 13935 13936 13937 13938 13939 13940 13941 13942 13943 13944 13945 13946 13947 13948 13949 13950 13951 13952 13953 13954 13955 13956 13957 13958 13959 13960 13961 13962 13963 13964 13965 13966 13967 13968 13969 13970 13971 13972 13973 13974 13975 13976 13977 13978 13979 13980 13981 13982 13983 13984 13985 13986 13987 13988 13989 13990 13991 13992 13993 13994 13995 13996 13997 13998 13999 14000 14001 14002 14003 14004 14005 14006 14007 14008 14009 14010 14011 14012 14013 14014 14015 14016 14017 14018 14019 14020 14021 14022 14023 14024 14025 14026 14027 14028 14029 14030 14031 14032 14033 14034 14035 14036 14037 14038 14039 14040 14041 14042 14043 14044 14045 14046 14047 14048 14049 14050 14051 14052 14053 14054 14055 14056 14057 14058 14059 14060 14061 14062 14063 14064 14065 14066 14067 14068 14069 14070 14071 14072 14073 14074 14075 14076 14077 14078 14079 14080 14081 14082 14083 14084 14085 14086 14087 14088 14089 14090 14091 14092 14093 14094 14095 14096 14097 14098 14099 14100 14101 14102 14103 14104 14105 14106 14107 14108 14109 14110 14111 14112 14113 14114 14115 14116 14117 14118 14119 14120 14121 14122 14123 14124 14125 14126 14127 14128 14129 14130 14131 14132 14133 14134 14135 14136 14137 14138 14139 14140 14141 14142 14143 14144 14145 14146 14147 14148 14149 14150 14151 14152 14153 14154 14155 14156 14157 14158 14159 14160 14161 14162 14163 14164 14165 14166 14167 14168 14169 14170 14171 14172 14173 14174 14175 14176 14177 14178 14179 14180 14181 14182 14183 14184 14185 14186 14187 14188 14189 14190 14191 14192 14193 14194 14195 14196 14197 14198 14199 14200 14201 14202 14203 14204 14205 14206 14207 14208 14209 14210 14211 14212 14213 14214 14215 14216 14217 14218 14219 14220 14221 14222 14223 14224 14225 14226 14227 14228 14229 14230 14231 14232 14233 14234 14235 14236 14237 14238 14239 14240 14241 14242 14243 14244 14245 14246 14247 14248 14249 14250 14251 14252 14253 14254 14255 14256 14257 14258 14259 14260 14261 14262 14263 14264 14265 14266 14267 14268 14269 14270 14271 14272 14273 14274 14275 14276 14277 14278 14279 14280 14281 14282 14283 14284 14285 14286 14287 14288 14289 14290 14291 14292 14293 14294 14295 14296 14297 14298 14299 14300 14301 14302 14303 14304 14305 14306 14307 14308 14309 14310 14311 14312 14313 14314 14315 14316 14317 14318 14319 14320 14321 14322 14323 14324 14325 14326 14327 14328 14329 14330 14331 14332 14333 14334 14335 14336 14337 14338 14339 14340 14341 14342 14343 14344 14345 14346 14347 14348 14349 14350 14351 14352 14353 14354 14355 14356 14357 14358 14359 14360 14361 14362 14363 14364 14365 14366 14367 14368 14369 14370 14371 14372 14373 14374 14375 14376 14377 14378 14379 14380 14381 14382 14383 14384 14385 14386 14387 14388 14389 14390 14391 14392 14393 14394 14395 14396 14397 14398 14399 14400 14401 14402 14403 14404 14405 14406 14407 14408 14409 14410 14411 14412 14413 14414 14415 14416 14417 14418 14419 14420 14421 14422 14423 14424 14425 14426 14427 14428 14429 14430 14431 14432 14433 14434 14435 14436 14437 14438 14439 14440 14441 14442 14443 14444 14445 14446 14447 14448 14449 14450 14451 14452 14453 14454 14455 14456 14457 14458 14459 14460 14461 14462 14463 14464 14465 14466 14467 14468 14469 14470 14471 14472 14473 14474 14475 14476 14477 14478 14479 14480 14481 14482 14483 14484 14485 14486 14487 14488 14489 14490 14491 14492 14493 14494 14495 14496 14497 14498 14499 14500 14501 14502 14503 14504 14505 14506 14507 14508 14509 14510 14511 14512 14513 14514 14515 14516 14517 14518 14519 14520 14521 14522 14523 14524 14525 14526 14527 14528 14529 14530 14531 14532 14533 14534 14535 14536 14537 14538 14539 14540 14541 14542 14543 14544 14545 14546 14547 14548 14549 14550 14551 14552 14553 14554 14555 14556 14557 14558 14559 14560 14561 14562 14563 14564 14565 14566 14567 14568 14569 14570 14571 14572 14573 14574 14575 14576 14577 14578 14579 14580 14581 14582 14583 14584 14585 14586 14587 14588 14589 14590 14591 14592 14593 14594 14595 14596 14597 14598 14599 14600 14601 14602 14603 14604 14605 14606 14607 14608 14609 14610 14611 14612 14613 14614 14615 14616 14617 14618 14619 14620 14621 14622 14623 14624 14625 14626 14627 14628 14629 14630 14631 14632 14633 14634 14635 14636 14637 14638 14639 14640 14641 14642 14643 14644 14645 14646 14647 14648 14649 14650 14651 14652 14653 14654 14655 14656 14657 14658 14659 14660 14661 14662 14663 14664 14665 14666 14667 14668 14669 14670 14671 14672 14673 14674 14675 14676 14677 14678 14679 14680 14681 14682 14683 14684 14685 14686 14687 14688 14689 14690 14691 14692 14693 14694 14695 14696 14697 14698 14699 14700 14701 14702 14703 14704 14705 14706 14707 14708 14709 14710 14711 14712 14713 14714 14715 14716 14717 14718 14719 14720 14721 14722 14723 14724 14725 14726 14727 14728 14729 14730 14731 14732 14733 14734 14735 14736 14737 14738 14739 14740 14741 14742 14743 14744 14745 14746 14747 14748 14749 14750 14751 14752 14753 14754 14755 14756 14757 14758 14759 14760 14761 14762 14763 14764 14765 14766 14767 14768 14769 14770 14771 14772 14773 14774 14775 14776 14777 14778 14779 14780 14781 14782 14783 14784 14785 14786 14787 14788 14789 14790 14791 14792 14793 14794 14795 14796 14797 14798 14799 14800 14801 14802 14803 14804 14805 14806 14807 14808 14809 14810 14811 14812 14813 14814 14815 14816 14817 14818 14819 14820 14821 14822 14823 14824 14825 14826 14827 14828 14829 14830 14831 14832 14833 14834 14835 14836 14837 14838 14839 14840 14841 14842 14843 14844 14845 14846 14847 14848 14849 14850 14851 14852 14853 14854 14855 14856 14857 14858 14859 14860 14861 14862 14863 14864 14865 14866 14867 14868 14869 14870 14871 14872 14873 14874 14875 14876 14877 14878 14879 14880 14881 14882 14883 14884 14885 14886 14887 14888 14889 14890 14891 14892 14893 14894 14895 14896 14897 14898 14899 14900 14901 14902 14903 14904 14905 14906 14907 14908 14909 14910 14911 14912 14913 14914 14915 14916 14917 14918 14919 14920 14921 14922 14923 14924 14925 14926 14927 14928 14929 14930 14931 14932 14933 14934 14935 14936 14937 14938 14939 14940 14941 14942 14943 14944 14945 14946 14947 14948 14949 14950 14951 14952 14953 14954 14955 14956 14957 14958 14959 14960 14961 14962 14963 14964 14965 14966 14967 14968 14969 14970 14971 14972 14973 14974 14975 14976 14977 14978 14979 14980 14981 14982 14983 14984 14985 14986 14987 14988 14989 14990 14991 14992 14993 14994 14995 14996 14997 14998 14999 15000 15001 15002 15003 15004 15005 15006 15007 15008 15009 15010 15011 15012 15013 15014 15015 15016 15017 15018 15019 15020 15021 15022 15023 15024 15025 15026 15027 15028 15029 15030 15031 15032 15033 15034 15035 15036 15037 15038 15039 15040 15041 15042 15043 15044 15045 15046 15047 15048 15049 15050 15051 15052 15053 15054 15055 15056 15057 15058 15059 15060 15061 15062 15063 15064 15065 15066 15067 15068 15069 15070 15071 15072 15073 15074 15075 15076 15077 15078 15079 15080 15081 15082 15083 15084 15085 15086 15087 15088 15089 15090 15091 15092 15093 15094 15095 15096 15097 15098 15099 15100 15101 15102 15103 15104 15105 15106 15107 15108 15109 15110 15111 15112 15113 15114 15115 15116 15117 15118 15119 15120 15121 15122 15123 15124 15125 15126 15127 15128 15129 15130 15131 15132 15133 15134 15135 15136 15137 15138 15139 15140 15141 15142 15143 15144 15145 15146 15147 15148 15149 15150 15151 15152 15153 15154 15155 15156 15157 15158 15159 15160 15161 15162 15163 15164 15165 15166 15167 15168 15169 15170 15171 15172 15173 15174 15175 15176 15177 15178 15179 15180 15181 15182 15183 15184 15185 15186 15187 15188 15189 15190 15191 15192 15193 15194 15195 15196 15197 15198 15199 15200 15201 15202 15203 15204 15205 15206 15207 15208 15209 15210 15211 15212 15213 15214 15215 15216 15217 15218 15219 15220 15221 15222 15223 15224 15225 15226 15227 15228 15229 15230 15231 15232 15233 15234 15235 15236 15237 15238 15239 15240 15241 15242 15243 15244 15245 15246 15247 15248 15249 15250 15251 15252 15253 15254 15255 15256 15257 15258 15259 15260 15261 15262 15263 15264 15265 15266 15267 15268 15269 15270 15271 15272 15273 15274 15275 15276 15277 15278 15279 15280 15281 15282 15283 15284 15285 15286 15287 15288 15289 15290 15291 15292 15293 15294 15295 15296 15297 15298 15299 15300 15301 15302 15303 15304 15305 15306 15307 15308 15309 15310 15311 15312 15313 15314 15315 15316 15317 15318 15319 15320 15321 15322 15323 15324 15325 15326 15327 15328 15329 15330 15331 15332 15333 15334 15335 15336 15337 15338 15339 15340 15341 15342 15343 15344 15345 15346 15347 15348 15349 15350 15351 15352 15353 15354 15355 15356 15357 15358 15359 15360 15361 15362 15363 15364 15365 15366 15367 15368 15369 15370 15371 15372 15373 15374 15375 15376 15377 15378 15379 15380 15381 15382 15383 15384 15385 15386 15387 15388 15389 15390 15391 15392 15393 15394 15395 15396 15397 15398 15399 15400 15401 15402 15403 15404 15405 15406 15407 15408 15409 15410 15411 15412 15413 15414 15415 15416 15417 15418 15419 15420 15421 15422 15423 15424 15425 15426 15427 15428 15429 15430 15431 15432 15433 15434 15435 15436 15437 15438 15439 15440 15441 15442 15443 15444 15445 15446 15447 15448 15449 15450 15451 15452 15453 15454 15455 15456 15457 15458 15459 15460 15461 15462 15463 15464 15465 15466 15467 15468 15469 15470 15471 15472 15473 15474 15475 15476 15477 15478 15479 15480 15481 15482 15483 15484 15485 15486 15487 15488 15489 15490 15491 15492 15493 15494 15495 15496 15497 15498 15499 15500 15501 15502 15503 15504 15505 15506 15507 15508 15509 15510 15511 15512 15513 15514 15515 15516 15517 15518 15519 15520 15521 15522 15523 15524 15525 15526 15527 15528 15529 15530 15531 15532 15533 15534 15535 15536 15537 15538 15539 15540 15541 15542 15543 15544 15545 15546 15547 15548 15549 15550 15551 15552 15553 15554 15555 15556 15557 15558 15559 15560 15561 15562 15563 15564 15565 15566 15567 15568 15569 15570 15571 15572 15573 15574 15575 15576 15577 15578 15579 15580 15581 15582 15583 15584 15585 15586 15587 15588 15589 15590 15591 15592 15593 15594 15595 15596 15597 15598 15599 15600 15601 15602 15603 15604 15605 15606 15607 15608 15609 15610 15611 15612 15613 15614 15615 15616 15617 15618 15619 15620 15621 15622 15623 15624 15625 15626 15627 15628 15629 15630 15631 15632 15633 15634 15635 15636 15637 15638 15639 15640 15641 15642 15643 15644 15645 15646 15647 15648 15649 15650 15651 15652 15653 15654 15655 15656 15657 15658 15659 15660 15661 15662 15663 15664 15665 15666 15667 15668 15669 15670 15671 15672 15673 15674 15675 15676 15677 15678 15679 15680 15681 15682 15683 15684 15685 15686 15687 15688 15689 15690 15691 15692 15693 15694 15695 15696 15697 15698 15699 15700 15701 15702 15703 15704 15705 15706 15707 15708 15709 15710 15711 15712 15713 15714 15715 15716 15717 15718 15719 15720 15721 15722 15723 15724 15725 15726 15727 15728 15729 15730 15731 15732 15733 15734 15735 15736 15737 15738 15739 15740 15741 15742 15743 15744 15745 15746 15747 15748 15749 15750 15751 15752 15753 15754 15755 15756 15757 15758 15759 15760 15761 15762 15763 15764 15765 15766 15767 15768 15769 15770 15771 15772 15773 15774 15775 15776 15777 15778 15779 15780 15781 15782 15783 15784 15785 15786 15787 15788 15789 15790 15791 15792 15793 15794 15795 15796 15797 15798 15799 15800 15801 15802 15803 15804 15805 15806 15807 15808 15809 15810 15811 15812 15813 15814 15815 15816 15817 15818 15819 15820 15821 15822 15823 15824 15825 15826 15827 15828 15829 15830 15831 15832 15833 15834 15835 15836 15837 15838 15839 15840 15841 15842 15843 15844 15845 15846 15847 15848 15849 15850 15851 15852 15853 15854 15855 15856 15857 15858 15859 15860 15861 15862 15863 15864 15865 15866 15867 15868 15869 15870 15871 15872 15873 15874 15875 15876 15877 15878 15879 15880 15881 15882 15883 15884 15885 15886 15887 15888 15889 15890 15891 15892 15893 15894 15895 15896 15897 15898 15899 15900 15901 15902 15903 15904 15905 15906 15907 15908 15909 15910 15911 15912 15913 15914 15915 15916 15917 15918 15919 15920 15921 15922 15923 15924 15925 15926 15927 15928 15929 15930 15931 15932 15933 15934 15935 15936 15937 15938 15939 15940 15941 15942 15943 15944 15945 15946 15947 15948 15949 15950 15951 15952 15953 15954 15955 15956 15957 15958 15959 15960 15961 15962 15963 15964 15965 15966 15967 15968 15969 15970 15971 15972 15973 15974 15975 15976 15977 15978 15979 15980 15981 15982 15983 15984 15985 15986 15987 15988 15989 15990 15991 15992 15993 15994 15995 15996 15997 15998 15999 16000 16001 16002 16003 16004 16005 16006 16007 16008 16009 16010 16011 16012 16013 16014 16015 16016 16017 16018 16019 16020 16021 16022 16023 16024 16025 16026 16027 16028 16029 16030 16031 16032 16033 16034 16035 16036 16037 16038 16039 16040 16041 16042 16043 16044 16045 16046 16047 16048 16049 16050 16051 16052 16053 16054 16055 16056 16057 16058 16059 16060 16061 16062 16063 16064 16065 16066 16067 16068 16069 16070 16071 16072 16073 16074 16075 16076 16077 16078 16079 16080 16081 16082 16083 16084 16085 16086 16087 16088 16089 16090 16091 16092 16093 16094 16095 16096 16097 16098 16099 16100 16101 16102 16103 16104 16105 16106 16107 16108 16109 16110 16111 16112 16113 16114 16115 16116 16117 16118 16119 16120 16121 16122 16123 16124 16125 16126 16127 16128 16129 16130 16131 16132 16133 16134 16135 16136 16137 16138 16139 16140 16141 16142 16143 16144 16145 16146 16147 16148 16149 16150 16151 16152 16153 16154 16155 16156 16157 16158 16159 16160 16161 16162 16163 16164 16165 16166 16167 16168 16169 16170 16171 16172 16173 16174 16175 16176 16177 16178 16179 16180 16181 16182 16183 16184 16185 16186 16187 16188 16189 16190 16191 16192 16193 16194 16195 16196 16197 16198 16199 16200 16201 16202 16203 16204 16205 16206 16207 16208 16209 16210 16211 16212 16213 16214 16215 16216 16217 16218 16219 16220 16221 16222 16223 16224 16225 16226 16227 16228 16229 16230 16231 16232 16233 16234 16235 16236 16237 16238 16239 16240 16241 16242 16243 16244 16245 16246 16247 16248 16249 16250 16251 16252 16253 16254 16255 16256 16257 16258 16259 16260 16261 16262 16263 16264 16265 16266 16267 16268 16269 16270 16271 16272 16273 16274 16275 16276 16277 16278 16279 16280 16281 16282 16283 16284 16285 16286 16287 16288 16289 16290 16291 16292 16293 16294 16295 16296 16297 16298 16299 16300 16301 16302 16303 16304 16305 16306 16307 16308 16309 16310 16311 16312 16313 16314 16315 16316 16317 16318 16319 16320 16321 16322 16323 16324 16325 16326 16327 16328 16329 16330 16331 16332 16333 16334 16335 16336 16337 16338 16339 16340 16341 16342 16343 16344 16345 16346 16347 16348 16349 16350 16351 16352 16353 16354 16355 16356 16357 16358 16359 16360 16361 16362 16363 16364 16365 16366 16367 16368 16369 16370 16371 16372 16373 16374 16375 16376 16377 16378 16379 16380 16381 16382 16383 16384 16385 16386 16387 16388 16389 16390 16391 16392 16393 16394 16395 16396 16397 16398 16399 16400 16401 16402 16403 16404 16405 16406 16407 16408 16409 16410 16411 16412 16413 16414 16415 16416 16417 16418 16419 16420 16421 16422 16423 16424 16425 16426 16427 16428 16429 16430 16431 16432 16433 16434 16435 16436 16437 16438 16439 16440 16441 16442 16443 16444 16445 16446 16447 16448 16449 16450 16451 16452 16453 16454 16455 16456 16457 16458 16459 16460 16461 16462 16463 16464 16465 16466 16467 16468 16469 16470 16471 16472 16473 16474 16475 16476 16477 16478 16479 16480 16481 16482 16483 16484 16485 16486 16487 16488 16489 16490 16491 16492 16493 16494 16495 16496 16497 16498 16499 16500 16501 16502 16503 16504 16505 16506 16507 16508 16509 16510 16511 16512 16513 16514 16515 16516 16517 16518 16519 16520 16521 16522 16523 16524 16525 16526 16527 16528 16529 16530 16531 16532 16533 16534 16535 16536 16537 16538 16539 16540 16541 16542 16543 16544 16545 16546 16547 16548 16549 16550 16551 16552 16553 16554 16555 16556 16557 16558 16559 16560 16561 16562 16563 16564 16565 16566 16567 16568 16569 16570 16571 16572 16573 16574 16575 16576 16577 16578 16579 16580 16581 16582 16583 16584 16585 16586 16587 16588 16589 16590 16591 16592 16593 16594 16595 16596 16597 16598 16599 16600 16601 16602 16603 16604 16605 16606 16607 16608 16609 16610 16611 16612 16613 16614 16615 16616 16617 16618 16619 16620 16621 16622 16623 16624 16625 16626 16627 16628 16629 16630 16631 16632 16633 16634 16635 16636 16637 16638 16639 16640 16641 16642 16643 16644 16645 16646 16647 16648 16649 16650 16651 16652 16653 16654 16655 16656 16657 16658 16659 16660 16661 16662 16663 16664 16665 16666 16667 16668 16669 16670 16671 16672 16673 16674 16675 16676 16677 16678 16679 16680 16681 16682 16683 16684 16685 16686 16687 16688 16689 16690 16691 16692 16693 16694 16695 16696 16697 16698 16699 16700 16701 16702 16703 16704 16705 16706 16707 16708 16709 16710 16711 16712 16713 16714 16715 16716 16717 16718 16719 16720 16721 16722 16723 16724 16725 16726 16727 16728 16729 16730 16731 16732 16733 16734 16735 16736 16737 16738 16739 16740 16741 16742 16743 16744 16745 16746 16747 16748 16749 16750 16751 16752 16753 16754 16755 16756 16757 16758 16759 16760 16761 16762 16763 16764 16765 16766 16767 16768 16769 16770 16771 16772 16773 16774 16775 16776 16777 16778 16779 16780 16781 16782 16783 16784 16785 16786 16787 16788 16789 16790 16791 16792 16793 16794 16795 16796 16797 16798 16799 16800 16801 16802 16803 16804 16805 16806 16807 16808 16809 16810 16811 16812 16813 16814 16815 16816 16817 16818 16819 16820 16821 16822 16823 16824 16825 16826 16827 16828 16829 16830 16831 16832 16833 16834 16835 16836 16837 16838 16839 16840 16841 16842 16843 16844 16845 16846 16847 16848 16849 16850 16851 16852 16853 16854 16855 16856 16857 16858 16859 16860 16861 16862 16863 16864 16865 16866 16867 16868 16869 16870 16871 16872 16873 16874 16875 16876 16877 16878 16879 16880 16881 16882 16883 16884 16885 16886 16887 16888 16889 16890 16891 16892 16893 16894 16895 16896 16897 16898 16899 16900 16901 16902 16903 16904 16905 16906 16907 16908 16909 16910 16911 16912 16913 16914 16915 16916 16917 16918 16919 16920 16921 16922 16923 16924 16925 16926 16927 16928 16929 16930 16931 16932 16933 16934 16935 16936 16937 16938 16939 16940 16941 16942 16943 16944 16945 16946 16947 16948 16949 16950 16951 16952 16953 16954 16955 16956 16957 16958 16959 16960 16961 16962 16963 16964 16965 16966 16967 16968 16969 16970 16971 16972 16973 16974 16975 16976 16977 16978 16979 16980 16981 16982 16983 16984 16985 16986 16987 16988 16989 16990 16991 16992 16993 16994 16995 16996 16997 16998 16999 17000 17001 17002 17003 17004 17005 17006 17007 17008 17009 17010 17011 17012 17013 17014 17015 17016 17017 17018 17019 17020 17021 17022 17023 17024 17025 17026 17027 17028 17029 17030 17031 17032 17033 17034 17035 17036 17037 17038 17039 17040 17041 17042 17043 17044 17045 17046 17047 17048 17049 17050 17051 17052 17053 17054 17055 17056 17057 17058 17059 17060 17061 17062 17063 17064 17065 17066 17067 17068 17069 17070 17071 17072 17073 17074 17075 17076 17077 17078 17079 17080 17081 17082 17083 17084 17085 17086 17087 17088 17089 17090 17091 17092 17093 17094 17095 17096 17097 17098 17099 17100 17101 17102 17103 17104 17105 17106 17107 17108 17109 17110 17111 17112 17113 17114 17115 17116 17117 17118 17119 17120 17121 17122 17123 17124 17125 17126 17127 17128 17129 17130 17131 17132 17133 17134 17135 17136 17137 17138 17139 17140 17141 17142 17143 17144 17145 17146 17147 17148 17149 17150 17151 17152 17153 17154 17155 17156 17157 17158 17159 17160 17161 17162 17163 17164 17165 17166 17167 17168 17169 17170 17171 17172 17173 17174 17175 17176 17177 17178 17179 17180 17181 17182 17183 17184 17185 17186 17187 17188 17189 17190 17191 17192 17193 17194 17195 17196 17197 17198 17199 17200 17201 17202 17203 17204 17205 17206 17207 17208 17209 17210 17211 17212 17213 17214 17215 17216 17217 17218 17219 17220 17221 17222 17223 17224 17225 17226 17227 17228 17229 17230 17231 17232 17233 17234 17235 17236 17237 17238 17239 17240 17241 17242 17243 17244 17245 17246 17247 17248 17249 17250 17251 17252 17253 17254 17255 17256 17257 17258 17259 17260 17261 17262 17263 17264 17265 17266 17267 17268 17269 17270 17271 17272 17273 17274 17275 17276 17277 17278 17279 17280 17281 17282 17283 17284 17285 17286 17287 17288 17289 17290 17291 17292 17293 17294 17295 17296 17297 17298 17299 17300 17301 17302 17303 17304 17305 17306 17307 17308 17309 17310 17311 17312 17313 17314 17315 17316 17317 17318 17319 17320 17321 17322 17323 17324 17325 17326 17327 17328 17329 17330 17331 17332 17333 17334 17335 17336 17337 17338 17339 17340 17341 17342 17343 17344 17345 17346 17347 17348 17349 17350 17351 17352 17353 17354 17355 17356 17357 17358 17359 17360 17361 17362 17363 17364 17365 17366 17367 17368 17369 17370 17371 17372 17373 17374 17375 17376 17377 17378 17379 17380 17381 17382 17383 17384 17385 17386 17387 17388 17389 17390 17391 17392 17393 17394 17395 17396 17397 17398 17399 17400 17401 17402 17403 17404 17405 17406 17407 17408 17409 17410 17411 17412 17413 17414 17415 17416 17417 17418 17419 17420 17421 17422 17423 17424 17425 17426 17427 17428 17429 17430 17431 17432 17433 17434 17435 17436 17437 17438 17439 17440 17441 17442 17443 17444 17445 17446 17447 17448 17449 17450 17451 17452 17453 17454 17455 17456 17457 17458 17459 17460 17461 17462 17463 17464 17465 17466 17467 17468 17469 17470 17471 17472 17473 17474 17475 17476 17477 17478 17479 17480 17481 17482 17483 17484 17485 17486 17487 17488 17489 17490 17491 17492 17493 17494 17495 17496 17497 17498 17499 17500 17501 17502 17503 17504 17505 17506 17507 17508 17509 17510 17511 17512 17513 17514 17515 17516 17517 17518 17519 17520 17521 17522 17523 17524 17525 17526 17527 17528 17529 17530 17531 17532 17533 17534 17535 17536 17537 17538 17539 17540 17541 17542 17543 17544 17545 17546 17547 17548 17549 17550 17551 17552 17553 17554 17555 17556 17557 17558 17559 17560 17561 17562 17563 17564 17565 17566 17567 17568 17569 17570 17571 17572 17573 17574 17575 17576 17577 17578 17579 17580 17581 17582 17583 17584 17585 17586 17587 17588 17589 17590 17591 17592 17593 17594 17595 17596 17597 17598 17599 17600 17601 17602 17603 17604 17605 17606 17607 17608 17609 17610 17611 17612 17613 17614 17615 17616 17617 17618 17619 17620 17621 17622 17623 17624 17625 17626 17627 17628 17629 17630 17631 17632 17633 17634 17635 17636 17637 17638 17639 17640 17641 17642 17643 17644 17645 17646 17647 17648 17649 17650 17651 17652 17653 17654 17655 17656 17657 17658 17659 17660 17661 17662 17663 17664 17665 17666 17667 17668 17669 17670 17671 17672 17673 17674 17675 17676 17677 17678 17679 17680 17681 17682 17683 17684 17685 17686 17687 17688 17689 17690 17691 17692 17693 17694 17695 17696 17697 17698 17699 17700 17701 17702 17703 17704 17705 17706 17707 17708 17709 17710 17711 17712 17713 17714 17715 17716 17717 17718 17719 17720 17721 17722 17723 17724 17725 17726 17727 17728 17729 17730 17731 17732 17733 17734 17735 17736 17737 17738 17739 17740 17741 17742 17743 17744 17745 17746 17747 17748 17749 17750 17751 17752 17753 17754 17755 17756 17757 17758 17759 17760 17761 17762 17763 17764 17765 17766 17767 17768 17769 17770 17771 17772 17773 17774 17775 17776 17777 17778 17779 17780 17781 17782 17783 17784 17785 17786 17787 17788 17789 17790 17791 17792 17793 17794 17795 17796 17797 17798 17799 17800 17801 17802 17803 17804 17805 17806 17807 17808 17809 17810 17811 17812 17813 17814 17815 17816 17817 17818 17819 17820 17821 17822 17823 17824 17825 17826 17827 17828 17829 17830 17831 17832 17833 17834 17835 17836 17837 17838 17839 17840 17841 17842 17843 17844 17845 17846 17847 17848 17849 17850 17851 17852 17853 17854 17855 17856 17857 17858 17859 17860 17861 17862 17863 17864 17865 17866 17867 17868 17869 17870 17871 17872 17873 17874 17875 17876 17877 17878 17879 17880 17881 17882 17883 17884 17885 17886 17887 17888 17889 17890 17891 17892 17893 17894 17895 17896 17897 17898 17899 17900 17901 17902 17903 17904 17905 17906 17907 17908 17909 17910 17911 17912 17913 17914 17915 17916 17917 17918 17919 17920 17921 17922 17923 17924 17925 17926 17927 17928 17929 17930 17931 17932 17933 17934 17935 17936 17937 17938 17939 17940 17941 17942 17943 17944 17945 17946 17947 17948 17949 17950 17951 17952 17953 17954 17955 17956 17957 17958 17959 17960 17961 17962 17963 17964 17965 17966 17967 17968 17969 17970 17971 17972 17973 17974 17975 17976 17977 17978 17979 17980 17981 17982 17983 17984 17985 17986 17987 17988 17989 17990 17991 17992 17993 17994 17995 17996 17997 17998 17999 18000 18001 18002 18003 18004 18005 18006 18007 18008 18009 18010 18011 18012 18013 18014 18015 18016 18017 18018 18019 18020 18021 18022 18023 18024 18025 18026 18027 18028 18029 18030 18031 18032 18033 18034 18035 18036 18037 18038 18039 18040 18041 18042 18043 18044 18045 18046 18047 18048 18049 18050 18051 18052 18053 18054 18055 18056 18057 18058 18059 18060 18061 18062 18063 18064 18065 18066 18067 18068 18069 18070 18071 18072 18073 18074 18075 18076 18077 18078 18079 18080 18081 18082 18083 18084 18085 18086 18087 18088 18089 18090 18091 18092 18093 18094 18095 18096 18097 18098 18099 18100 18101 18102 18103 18104 18105 18106 18107 18108 18109 18110 18111 18112 18113 18114 18115 18116 18117 18118 18119 18120 18121 18122 18123 18124 18125 18126 18127 18128 18129 18130 18131 18132 18133 18134 18135 18136 18137 18138 18139 18140 18141 18142 18143 18144 18145 18146 18147 18148 18149 18150 18151 18152 18153 18154 18155 18156 18157 18158 18159 18160 18161 18162 18163 18164 18165 18166 18167 18168 18169 18170 18171 18172 18173 18174 18175 18176 18177 18178 18179 18180 18181 18182 18183 18184 18185 18186 18187 18188 18189 18190 18191 18192 18193 18194 18195 18196 18197 18198 18199 18200 18201 18202 18203 18204 18205 18206 18207 18208 18209 18210 18211 18212 18213 18214 18215 18216 18217 18218 18219 18220 18221 18222 18223 18224 18225 18226 18227 18228 18229 18230 18231 18232 18233 18234 18235 18236 18237 18238 18239 18240 18241 18242 18243 18244 18245 18246 18247 18248 18249 18250 18251 18252 18253 18254 18255 18256 18257 18258 18259 18260 18261 18262 18263 18264 18265 18266 18267 18268 18269 18270 18271 18272 18273 18274 18275 18276 18277 18278 18279 18280 18281 18282 18283 18284 18285 18286 18287 18288 18289 18290 18291 18292 18293 18294 18295 18296 18297 18298 18299 18300 18301 18302 18303 18304 18305 18306 18307 18308 18309 18310 18311 18312 18313 18314 18315 18316 18317 18318 18319 18320 18321 18322 18323 18324 18325 18326 18327 18328 18329 18330 18331 18332 18333 18334 18335 18336 18337 18338 18339 18340 18341 18342 18343 18344 18345 18346 18347 18348 18349 18350 18351 18352 18353 18354 18355 18356 18357 18358 18359 18360 18361 18362 18363 18364 18365 18366 18367 18368 18369 18370 18371 18372 18373 18374 18375 18376 18377 18378 18379 18380 18381 18382 18383 18384 18385 18386 18387 18388 18389 18390 18391 18392 18393 18394 18395 18396 18397 18398 18399 18400 18401 18402 18403 18404 18405 18406 18407 18408 18409 18410 18411 18412 18413 18414 18415 18416 18417 18418 18419 18420 18421 18422 18423 18424 18425 18426 18427 18428 18429 18430 18431 18432 18433 18434 18435 18436 18437 18438 18439 18440 18441 18442 18443 18444 18445 18446 18447 18448 18449 18450 18451 18452 18453 18454 18455 18456 18457 18458 18459 18460 18461 18462 18463 18464 18465 18466 18467 18468 18469 18470 18471 18472 18473 18474 18475 18476 18477 18478 18479 18480 18481 18482 18483 18484 18485 18486 18487 18488 18489 18490 18491 18492 18493 18494 18495 18496 18497 18498 18499 18500 18501 18502 18503 18504 18505 18506 18507 18508 18509 18510 18511 18512 18513 18514 18515 18516 18517 18518 18519 18520 18521 18522 18523 18524 18525 18526 18527 18528 18529 18530 18531 18532 18533 18534 18535 18536 18537 18538 18539 18540 18541 18542 18543 18544 18545 18546 18547 18548 18549 18550 18551 18552 18553 18554 18555 18556 18557 18558 18559 18560 18561 18562 18563 18564 18565 18566 18567 18568 18569 18570 18571 18572 18573 18574 18575 18576 18577 18578 18579 18580 18581 18582 18583 18584 18585 18586 18587 18588 18589 18590 18591 18592 18593 18594 18595 18596 18597 18598 18599 18600 18601 18602 18603 18604 18605 18606 18607 18608 18609 18610 18611 18612 18613 18614 18615 18616 18617 18618 18619 18620 18621 18622 18623 18624 18625 18626 18627 18628 18629 18630 18631 18632 18633 18634 18635 18636 18637 18638 18639 18640 18641 18642 18643 18644 18645 18646 18647 18648 18649 18650 18651 18652 18653 18654 18655 18656 18657 18658 18659 18660 18661 18662 18663 18664 18665 18666 18667 18668 18669 18670 18671 18672 18673 18674 18675 18676 18677 18678 18679 18680 18681 18682 18683 18684 18685 18686 18687 18688 18689 18690 18691 18692 18693 18694 18695 18696 18697 18698 18699 18700 18701 18702 18703 18704 18705 18706 18707 18708 18709 18710 18711 18712 18713 18714 18715 18716 18717 18718 18719 18720 18721 18722 18723 18724 18725 18726 18727 18728 18729 18730 18731 18732 18733 18734 18735 18736 18737 18738 18739 18740 18741 18742 18743 18744 18745 18746 18747 18748 18749 18750 18751 18752 18753 18754 18755 18756 18757 18758 18759 18760 18761 18762 18763 18764 18765 18766 18767 18768 18769 18770 18771 18772 18773 18774 18775 18776 18777 18778 18779 18780 18781 18782 18783 18784 18785 18786 18787 18788 18789 18790 18791 18792 18793 18794 18795 18796 18797 18798 18799 18800 18801 18802 18803 18804 18805 18806 18807 18808 18809 18810 18811 18812 18813 18814 18815 18816 18817 18818 18819 18820 18821 18822 18823 18824 18825 18826 18827 18828 18829 18830 18831 18832 18833 18834 18835 18836 18837 18838 18839 18840 18841 18842 18843 18844 18845 18846 18847 18848 18849 18850 18851 18852 18853 18854 18855 18856 18857 18858 18859 18860 18861 18862 18863 18864 18865 18866 18867 18868 18869 18870 18871 18872 18873 18874 18875 18876 18877 18878 18879 18880 18881 18882 18883 18884 18885 18886 18887 18888 18889 18890 18891 18892 18893 18894 18895 18896 18897 18898 18899 18900 18901 18902 18903 18904 18905 18906 18907 18908 18909 18910 18911 18912 18913 18914 18915 18916 18917 18918 18919 18920 18921 18922 18923 18924 18925 18926 18927 18928 18929 18930 18931 18932 18933 18934 18935 18936 18937 18938 18939 18940 18941 18942 18943 18944 18945 18946 18947 18948 18949 18950 18951 18952 18953 18954 18955 18956 18957 18958 18959 18960 18961 18962 18963 18964 18965 18966 18967 18968 18969 18970 18971 18972 18973 18974 18975 18976 18977 18978 18979 18980 18981 18982 18983 18984 18985 18986 18987 18988 18989 18990 18991 18992 18993 18994 18995 18996 18997 18998 18999 19000 19001 19002 19003 19004 19005 19006 19007 19008 19009 19010 19011 19012 19013 19014 19015 19016 19017 19018 19019 19020 19021 19022 19023 19024 19025 19026 19027 19028 19029 19030 19031 19032 19033 19034 19035 19036 19037 19038 19039 19040 19041 19042 19043 19044 19045 19046 19047 19048 19049 19050 19051 19052 19053 19054 19055 19056 19057 19058 19059 19060 19061 19062 19063 19064 19065 19066 19067 19068 19069 19070 19071 19072 19073 19074 19075 19076 19077 19078 19079 19080 19081 19082 19083 19084 19085 19086 19087 19088 19089 19090 19091 19092 19093 19094 19095 19096 19097 19098 19099 19100 19101 19102 19103 19104 19105 19106 19107 19108 19109 19110 19111 19112 19113 19114 19115 19116 19117 19118 19119 19120 19121 19122 19123 19124 19125 19126 19127 19128 19129 19130 19131 19132 19133 19134 19135 19136 19137 19138 19139 19140 19141 19142 19143 19144 19145 19146 19147 19148 19149 19150 19151 19152 19153 19154 19155 19156 19157 19158 19159 19160 19161 19162 19163 19164 19165 19166 19167 19168 19169 19170 19171 19172 19173 19174 19175 19176 19177 19178 19179 19180 19181 19182 19183 19184 19185 19186 19187 19188 19189 19190 19191 19192 19193 19194 19195 19196 19197 19198 19199 19200 19201 19202 19203 19204 19205 19206 19207 19208 19209 19210 19211 19212 19213 19214 19215 19216 19217 19218 19219 19220 19221 19222 19223 19224 19225 19226 19227 19228 19229 19230 19231 19232 19233 19234 19235 19236 19237 19238 19239 19240 19241 19242 19243 19244 19245 19246 19247 19248 19249 19250 19251 19252 19253 19254 19255 19256 19257 19258 19259 19260 19261 19262 19263 19264 19265 19266 19267 19268 19269 19270 19271 19272 19273 19274 19275 19276 19277 19278 19279 19280 19281 19282 19283 19284 19285 19286 19287 19288 19289 19290 19291 19292 19293 19294 19295 19296 19297 19298 19299 19300 19301 19302 19303 19304 19305 19306 19307 19308 19309 19310 19311 19312 19313 19314 19315 19316 19317 19318 19319 19320 19321 19322 19323 19324 19325 19326 19327 19328 19329 19330 19331 19332 19333 19334 19335 19336 19337 19338 19339 19340 19341 19342 19343 19344 19345 19346 19347 19348 19349 19350 19351 19352 19353 19354 19355 19356 19357 19358 19359 19360 19361 19362 19363 19364 19365 19366 19367 19368 19369 19370 19371 19372 19373 19374 19375 19376 19377 19378 19379 19380 19381 19382 19383 19384 19385 19386 19387 19388 19389 19390 19391 19392 19393 19394 19395 19396 19397 19398 19399 19400 19401 19402 19403 19404 19405 19406 19407 19408 19409 19410 19411 19412 19413 19414 19415 19416 19417 19418 19419 19420 19421 19422 19423 19424 19425 19426 19427 19428 19429 19430 19431 19432 19433 19434 19435 19436 19437 19438 19439 19440 19441 19442 19443 19444 19445 19446 19447 19448 19449 19450 19451 19452 19453 19454 19455 19456 19457 19458 19459 19460 19461 19462 19463 19464 19465 19466 19467 19468 19469 19470 19471 19472 19473 19474 19475 19476 19477 19478 19479 19480 19481 19482 19483 19484 19485 19486 19487 19488 19489 19490 19491 19492 19493 19494 19495 19496 19497 19498 19499 19500 19501 19502 19503 19504 19505 19506 19507 19508 19509 19510 19511 19512 19513 19514 19515 19516 19517 19518 19519 19520 19521 19522 19523 19524 19525 19526 19527 19528 19529 19530 19531 19532 19533 19534 19535 19536 19537 19538 19539 19540 19541 19542 19543 19544 19545 19546 19547 19548 19549 19550 19551 19552 19553 19554 19555 19556 19557 19558 19559 19560 19561 19562 19563 19564 19565 19566 19567 19568 19569 19570 19571 19572 19573 19574 19575 19576 19577 19578 19579 19580 19581 19582 19583 19584 19585 19586 19587 19588 19589 19590 19591 19592 19593 19594 19595 19596 19597 19598 19599 19600 19601 19602 19603 19604 19605 19606 19607 19608 19609 19610 19611 19612 19613 19614 19615 19616 19617 19618 19619 19620 19621 19622 19623 19624 19625 19626 19627 19628 19629 19630 19631 19632 19633 19634 19635 19636 19637 19638 19639 19640 19641 19642 19643 19644 19645 19646 19647 19648 19649 19650 19651 19652 19653 19654 19655 19656 19657 19658 19659 19660 19661 19662 19663 19664 19665 19666 19667 19668 19669 19670 19671 19672 19673 19674 19675 19676 19677 19678 19679 19680 19681 19682 19683 19684 19685 19686 19687 19688 19689 19690 19691 19692 19693 19694 19695 19696 19697 19698 19699 19700 19701 19702 19703 19704 19705 19706 19707 19708 19709 19710 19711 19712 19713 19714 19715 19716 19717 19718 19719 19720 19721 19722 19723 19724 19725 19726 19727 19728 19729 19730 19731 19732 19733 19734 19735 19736 19737 19738 19739 19740 19741 19742 19743 19744 19745 19746 19747 19748 19749 19750 19751 19752 19753 19754 19755 19756 19757 19758 19759 19760 19761 19762 19763 19764 19765 19766 19767 19768 19769 19770 19771 19772 19773 19774 19775 19776 19777 19778 19779 19780 19781 19782 19783 19784 19785 19786 19787 19788 19789 19790 19791 19792 19793 19794 19795 19796 19797 19798 19799 19800 19801 19802 19803 19804 19805 19806 19807 19808 19809 19810 19811 19812 19813 19814 19815 19816 19817 19818 19819 19820 19821 19822 19823 19824 19825 19826 19827 19828 19829 19830 19831 19832 19833 19834 19835 19836 19837 19838 19839 19840 19841 19842 19843 19844 19845 19846 19847 19848 19849 19850 19851 19852 19853 19854 19855 19856 19857 19858 19859 19860 19861 19862 19863 19864 19865 19866 19867 19868 19869 19870 19871 19872 19873 19874 19875 19876 19877 19878 19879 19880 19881 19882 19883 19884 19885 19886 19887 19888 19889 19890 19891 19892 19893 19894 19895 19896 19897 19898 19899 19900 19901 19902 19903 19904 19905 19906 19907 19908 19909 19910 19911 19912 19913 19914 19915 19916 19917 19918 19919 19920 19921 19922 19923 19924 19925 19926 19927 19928 19929 19930 19931 19932 19933 19934 19935 19936 19937 19938 19939 19940 19941 19942 19943 19944 19945 19946 19947 19948 19949 19950 19951 19952 19953 19954 19955 19956 19957 19958 19959 19960 19961 19962 19963 19964 19965 19966 19967 19968 19969 19970 19971 19972 19973 19974 19975 19976 19977 19978 19979 19980 19981 19982 19983 19984 19985 19986 19987 19988 19989 19990 19991 19992 19993 19994 19995 19996 19997 19998 19999 20000 20001 20002 20003 20004 20005 20006 20007 20008 20009 20010 20011 20012 20013 20014 20015 20016 20017 20018 20019 20020 20021 20022 20023 20024 20025 20026 20027 20028 20029 20030 20031 20032 20033 20034 20035 20036 20037 20038 20039 20040 20041 20042 20043 20044 20045 20046 20047 20048 20049 20050 20051 20052 20053 20054 20055 20056 20057 20058 20059 20060 20061 20062 20063 20064 20065 20066 20067 20068 20069 20070 20071 20072 20073 20074 20075 20076 20077 20078 20079 20080 20081 20082 20083 20084 20085 20086 20087 20088 20089 20090 20091 20092 20093 20094 20095 20096 20097 20098 20099 20100 20101 20102 20103 20104 20105 20106 20107 20108 20109 20110 20111 20112 20113 20114 20115 20116 20117 20118 20119 20120 20121 20122 20123 20124 20125 20126 20127 20128 20129 20130 20131 20132 20133 20134 20135 20136 20137 20138 20139 20140 20141 20142 20143 20144 20145 20146 20147 20148 20149 20150 20151 20152 20153 20154 20155 20156 20157 20158 20159 20160 20161 20162 20163 20164 20165 20166 20167 20168 20169 20170 20171 20172 20173 20174 20175 20176 20177 20178 20179 20180 20181 20182 20183 20184 20185 20186 20187 20188 20189 20190 20191 20192 20193 20194 20195 20196 20197 20198 20199 20200 20201 20202 20203 20204 20205 20206 20207 20208 20209 20210 20211 20212 20213 20214 20215 20216 20217 20218 20219 20220 20221 20222 20223 20224 20225 20226 20227 20228 20229 20230 20231 20232 20233 20234 20235 20236 20237 20238 20239 20240 20241 20242 20243 20244 20245 20246 20247 20248 20249 20250 20251 20252 20253 20254 20255 20256 20257 20258 20259 20260 20261 20262 20263 20264 20265 20266 20267 20268 20269 20270 20271 20272 20273 20274 20275 20276 20277 20278 20279 20280 20281 20282 20283 20284 20285 20286 20287 20288 20289 20290 20291 20292 20293 20294 20295 20296 20297 20298 20299 20300 20301 20302 20303 20304 20305 20306 20307 20308 20309 20310 20311 20312 20313 20314 20315 20316 20317 20318 20319 20320 20321 20322 20323 20324 20325 20326 20327 20328 20329 20330 20331 20332 20333 20334 20335 20336 20337 20338 20339 20340 20341 20342 20343 20344 20345 20346 20347 20348 20349 20350 20351 20352 20353 20354 20355 20356 20357 20358 20359 20360 20361 20362 20363 20364 20365 20366 20367 20368 20369 20370 20371 20372 20373 20374 20375 20376 20377 20378 20379 20380 20381 20382 20383 20384 20385 20386 20387 20388 20389 20390 20391 20392 20393 20394 20395 20396 20397 20398 20399 20400 20401 20402 20403 20404 20405 20406 20407 20408 20409 20410 20411 20412 20413 20414 20415 20416 20417 20418 20419 20420 20421 20422 20423 20424 20425 20426 20427 20428 20429 20430 20431 20432 20433 20434 20435 20436 20437 20438 20439 20440 20441 20442 20443 20444 20445 20446 20447 20448 20449 20450 20451 20452 20453 20454 20455 20456 20457 20458 20459 20460 20461 20462 20463 20464 20465 20466 20467 20468 20469 20470 20471 20472 20473 20474 20475 20476 20477 20478 20479 20480 20481 20482 20483 20484 20485 20486 20487 20488 20489 20490 20491 20492 20493 20494 20495 20496 20497 20498 20499 20500 20501 20502 20503 20504 20505 20506 20507 20508 20509 20510 20511 20512 20513 20514 20515 20516 20517 20518 20519 20520 20521 20522 20523 20524 20525 20526 20527 20528 20529 20530 20531 20532 20533 20534 20535 20536 20537 20538 20539 20540 20541 20542 20543 20544 20545 20546 20547 20548 20549 20550 20551 20552 20553 20554 20555 20556 20557 20558 20559 20560 20561 20562 20563 20564 20565 20566 20567 20568 20569 20570 20571 20572 20573 20574 20575 20576 20577 20578 20579 20580 20581 20582 20583 20584 20585 20586 20587 20588 20589 20590 20591 20592 20593 20594 20595 20596 20597 20598 20599 20600 20601 20602 20603 20604 20605 20606 20607 20608 20609 20610 20611 20612 20613 20614 20615 20616 20617 20618 20619 20620 20621 20622 20623 20624 20625 20626 20627 20628 20629 20630 20631 20632 20633 20634 20635 20636 20637 20638 20639 20640 20641 20642 20643 20644 20645 20646 20647 20648 20649 20650 20651 20652 20653 20654 20655 20656 20657 20658 20659 20660 20661 20662 20663 20664 20665 20666 20667 20668 20669 20670 20671 20672 20673 20674 20675 20676 20677 20678 20679 20680 20681 20682 20683 20684 20685 20686 20687 20688 20689 20690 20691 20692 20693 20694 20695 20696 20697 20698 20699 20700 20701 20702 20703 20704 20705 20706 20707 20708 20709 20710 20711 20712 20713 20714 20715 20716 20717 20718 20719 20720 20721 20722 20723 20724 20725 20726 20727 20728 20729 20730 20731 20732 20733 20734 20735 20736 20737 20738 20739 20740 20741 20742 20743 20744 20745 20746 20747 20748 20749 20750 20751 20752 20753 20754 20755 20756 20757 20758 20759 20760 20761 20762 20763 20764 20765 20766 20767 20768 20769 20770 20771 20772 20773 20774 20775 20776 20777 20778 20779 20780 20781 20782 20783 20784 20785 20786 20787 20788 20789 20790 20791 20792 20793 20794 20795 20796 20797 20798 20799 20800 20801 20802 20803 20804 20805 20806 20807 20808 20809 20810 20811 20812 20813 20814 20815 20816 20817 20818 20819 20820 20821 20822 20823 20824 20825 20826 20827 20828 20829 20830 20831 20832 20833 20834 20835 20836 20837 20838 20839 20840 20841 20842 20843 20844 20845 20846 20847 20848 20849 20850 20851 20852 20853 20854 20855 20856 20857 20858 20859 20860 20861 20862 20863 20864 20865 20866 20867 20868 20869 20870 20871 20872 20873 20874 20875 20876 20877 20878 20879 20880 20881 20882 20883 20884 20885 20886 20887 20888 20889 20890 20891 20892 20893 20894 20895 20896 20897 20898 20899 20900 20901 20902 20903 20904 20905 20906 20907 20908 20909 20910 20911 20912 20913 20914 20915 20916 20917 20918 20919 20920 20921 20922 20923 20924 20925 20926 20927 20928 20929 20930 20931 20932 20933 20934 20935 20936 20937 20938 20939 20940 20941 20942 20943 20944 20945 20946 20947 20948 20949 20950 20951 20952 20953 20954 20955 20956 20957 20958 20959 20960 20961 20962 20963 20964 20965 20966 20967 20968 20969 20970 20971 20972 20973 20974 20975 20976 20977 20978 20979 20980 20981 20982 20983 20984 20985 20986 20987 20988 20989 20990 20991 20992 20993 20994 20995 20996 20997 20998 20999 21000 21001 21002 21003 21004 21005 21006 21007 21008 21009 21010 21011 21012 21013 21014 21015 21016 21017 21018 21019 21020 21021 21022 21023 21024 21025 21026 21027 21028 21029 21030 21031 21032 21033 21034 21035 21036 21037 21038 21039 21040 21041 21042 21043 21044 21045 21046 21047 21048 21049 21050 21051 21052 21053 21054 21055 21056 21057 21058 21059 21060 21061 21062 21063 21064 21065 21066 21067 21068 21069 21070 21071 21072 21073 21074 21075 21076 21077 21078 21079 21080 21081 21082 21083 21084 21085 21086 21087 21088 21089 21090 21091 21092 21093 21094 21095 21096 21097 21098 21099 21100 21101 21102 21103 21104 21105 21106 21107 21108 21109 21110 21111 21112 21113 21114 21115 21116 21117 21118 21119 21120 21121 21122 21123 21124 21125 21126 21127 21128 21129 21130 21131 21132 21133 21134 21135 21136 21137 21138 21139 21140 21141 21142 21143 21144 21145 21146 21147 21148 21149 21150 21151 21152 21153 21154 21155 21156 21157 21158 21159 21160 21161 21162 21163 21164 21165 21166 21167 21168 21169 21170 21171 21172 21173 21174 21175 21176 21177 21178 21179 21180 21181 21182 21183 21184 21185 21186 21187 21188 21189 21190 21191 21192 21193 21194 21195 21196 21197 21198 21199 21200 21201 21202 21203 21204 21205 21206 21207 21208 21209 21210 21211 21212 21213 21214 21215 21216 21217 21218 21219 21220 21221 21222 21223 21224 21225 21226 21227 21228 21229 21230 21231 21232 21233 21234 21235 21236 21237 21238 21239 21240 21241 21242 21243 21244 21245 21246 21247 21248 21249 21250 21251 21252 21253 21254 21255 21256 21257 21258 21259 21260 21261 21262 21263 21264 21265 21266 21267 21268 21269 21270 21271 21272 21273 21274 21275 21276 21277 21278 21279 21280 21281 21282 21283 21284 21285 21286 21287 21288 21289 21290 21291 21292 21293 21294 21295 21296 21297 21298 21299 21300 21301 21302 21303 21304 21305 21306 21307 21308 21309 21310 21311 21312 21313 21314 21315 21316 21317 21318 21319 21320 21321 21322 21323 21324 21325 21326 21327 21328 21329 21330 21331 21332 21333 21334 21335 21336 21337 21338 21339 21340 21341 21342 21343 21344 21345 21346 21347 21348 21349 21350 21351 21352 21353 21354 21355 21356 21357 21358 21359 21360 21361 21362 21363 21364 21365 21366 21367 21368 21369 21370 21371 21372 21373 21374 21375 21376 21377 21378 21379 21380 21381 21382 21383 21384 21385 21386 21387 21388 21389 21390 21391 21392 21393 21394 21395 21396 21397 21398 21399 21400 21401 21402 21403 21404 21405 21406 21407 21408 21409 21410 21411 21412 21413 21414 21415 21416 21417 21418 21419 21420 21421 21422 21423 21424 21425 21426 21427 21428 21429 21430 21431 21432 21433 21434 21435 21436 21437 21438 21439 21440 21441 21442 21443 21444 21445 21446 21447 21448 21449 21450 21451 21452 21453 21454 21455 21456 21457 21458 21459 21460 21461 21462 21463 21464 21465 21466 21467 21468 21469 21470 21471 21472 21473 21474 21475 21476 21477 21478 21479 21480 21481 21482 21483 21484 21485 21486 21487 21488 21489 21490 21491 21492 21493 21494 21495 21496 21497 21498 21499 21500 21501 21502 21503 21504 21505 21506 21507 21508 21509 21510 21511 21512 21513 21514 21515 21516 21517 21518 21519 21520 21521 21522 21523 21524 21525 21526 21527 21528 21529 21530 21531 21532 21533 21534 21535 21536 21537 21538 21539 21540 21541 21542 21543 21544 21545 21546 21547 21548 21549 21550 21551 21552 21553 21554 21555 21556 21557 21558 21559 21560 21561 21562 21563 21564 21565 21566 21567 21568 21569 21570 21571 21572 21573 21574 21575 21576 21577 21578 21579 21580 21581 21582 21583 21584 21585 21586 21587 21588 21589 21590 21591 21592 21593 21594 21595 21596 21597 21598 21599 21600 21601 21602 21603 21604 21605 21606 21607 21608 21609 21610 21611 21612 21613 21614 21615 21616 21617 21618 21619 21620 21621 21622 21623 21624 21625 21626 21627 21628 21629 21630 21631 21632 21633 21634 21635 21636 21637 21638 21639 21640 21641 21642 21643 21644 21645 21646 21647 21648 21649 21650 21651 21652 21653 21654 21655 21656 21657 21658 21659 21660 21661 21662 21663 21664 21665 21666 21667 21668 21669 21670 21671 21672 21673 21674 21675 21676 21677 21678 21679 21680 21681 21682 21683 21684 21685 21686 21687 21688 21689 21690 21691 21692 21693 21694 21695 21696 21697 21698 21699 21700 21701 21702 21703 21704 21705 21706 21707 21708 21709 21710 21711 21712 21713 21714 21715 21716 21717 21718 21719 21720 21721 21722 21723 21724 21725 21726 21727 21728 21729 21730 21731 21732 21733 21734 21735 21736 21737 21738 21739 21740 21741 21742 21743 21744 21745 21746 21747 21748 21749 21750 21751 21752 21753 21754 21755 21756 21757 21758 21759 21760 21761 21762 21763 21764 21765 21766 21767 21768 21769 21770 21771 21772 21773 21774 21775 21776 21777 21778 21779 21780 21781 21782 21783 21784 21785 21786 21787 21788 21789 21790 21791 21792 21793 21794 21795 21796 21797 21798 21799 21800 21801 21802 21803 21804 21805 21806 21807 21808 21809 21810 21811 21812 21813 21814 21815 21816 21817 21818 21819 21820 21821 21822 21823 21824 21825 21826 21827 21828 21829 21830 21831 21832 21833 21834 21835 21836 21837 21838 21839 21840 21841 21842 21843 21844 21845 21846 21847 21848 21849 21850 21851 21852 21853 21854 21855 21856 21857 21858 21859 21860 21861 21862 21863 21864 21865 21866 21867 21868 21869 21870 21871 21872 21873 21874 21875 21876 21877 21878 21879 21880 21881 21882 21883 21884 21885 21886 21887 21888 21889 21890 21891 21892 21893 21894 21895 21896 21897 21898 21899 21900 21901 21902 21903 21904 21905 21906 21907 21908 21909 21910 21911 21912 21913 21914 21915 21916 21917 21918 21919 21920 21921 21922 21923 21924 21925 21926 21927 21928 21929 21930 21931 21932 21933 21934 21935 21936 21937 21938 21939 21940 21941 21942 21943 21944 21945 21946 21947 21948 21949 21950 21951 21952 21953 21954 21955 21956 21957 21958 21959 21960 21961 21962 21963 21964 21965 21966 21967 21968 21969 21970 21971 21972 21973 21974 21975 21976 21977 21978 21979 21980 21981 21982 21983 21984 21985 21986 21987 21988 21989 21990 21991 21992 21993 21994 21995 21996 21997 21998 21999 22000 22001 22002 22003 22004 22005 22006 22007 22008 22009 22010 22011 22012 22013 22014 22015 22016 22017 22018 22019 22020 22021 22022 22023 22024 22025 22026 22027 22028 22029 22030 22031 22032 22033 22034 22035 22036 22037 22038 22039 22040 22041 22042 22043 22044 22045 22046 22047 22048 22049 22050 22051 22052 22053 22054 22055 22056 22057 22058 22059 22060 22061 22062 22063 22064 22065 22066 22067 22068 22069 22070 22071 22072 22073 22074 22075 22076 22077 22078 22079 22080 22081 22082 22083 22084 22085 22086 22087 22088 22089 22090 22091 22092 22093 22094 22095 22096 22097 22098 22099 22100 22101 22102 22103 22104 22105 22106 22107 22108 22109 22110 22111 22112 22113 22114 22115 22116 22117 22118 22119 22120 22121 22122 22123 22124 22125 22126 22127 22128 22129 22130 22131 22132 22133 22134 22135 22136 22137 22138 22139 22140 22141 22142 22143 22144 22145 22146 22147 22148 22149 22150 22151 22152 22153 22154 22155 22156 22157 22158 22159 22160 22161 22162 22163 22164 22165 22166 22167 22168 22169 22170 22171 22172 22173 22174 22175 22176 22177 22178 22179 22180 22181 22182 22183 22184 22185 22186 22187 22188 22189 22190 22191 22192 22193 22194 22195 22196 22197 22198 22199 22200 22201 22202 22203 22204 22205 22206 22207 22208 22209 22210 22211 22212 22213 22214 22215 22216 22217 22218 22219 22220 22221 22222 22223 22224 22225 22226 22227 22228 22229 22230 22231 22232 22233 22234 22235 22236 22237 22238 22239 22240 22241 22242 22243 22244 22245 22246 22247 22248 22249 22250 22251 22252 22253 22254 22255 22256 22257 22258 22259 22260 22261 22262 22263 22264 22265 22266 22267 22268 22269 22270 22271 22272 22273 22274 22275 22276 22277 22278 22279 22280 22281 22282 22283 22284 22285 22286 22287 22288 22289 22290 22291 22292 22293 22294 22295 22296 22297 22298 22299 22300 22301 22302 22303 22304 22305 22306 22307 22308 22309 22310 22311 22312 22313 22314 22315 22316 22317 22318 22319 22320 22321 22322 22323 22324 22325 22326 22327 22328 22329 22330 22331 22332 22333 22334 22335 22336 22337 22338 22339 22340 22341 22342 22343 22344 22345 22346 22347 22348 22349 22350 22351 22352 22353 22354 22355 22356 22357 22358 22359 22360 22361 22362 22363 22364 22365 22366 22367 22368 22369 22370 22371 22372 22373 22374 22375 22376 22377 22378 22379 22380 22381 22382 22383 22384 22385 22386 22387 22388 22389 22390 22391 22392 22393 22394 22395 22396 22397 22398 22399 22400 22401 22402 22403 22404 22405 22406 22407 22408 22409 22410 22411 22412 22413 22414 22415 22416 22417 22418 22419 22420 22421 22422 22423 22424 22425 22426 22427 22428 22429 22430 22431 22432 22433 22434 22435 22436 22437 22438 22439 22440 22441 22442 22443 22444 22445 22446 22447 22448 22449 22450 22451 22452 22453 22454 22455 22456 22457 22458 22459 22460 22461 22462 22463 22464 22465 22466 22467 22468 22469 22470 22471 22472 22473 22474 22475 22476 22477 22478 22479 22480 22481 22482 22483 22484 22485 22486 22487 22488 22489 22490 22491 22492 22493 22494 22495 22496 22497 22498 22499 22500 22501 22502 22503 22504 22505 22506 22507 22508 22509 22510 22511 22512 22513 22514 22515 22516 22517 22518 22519 22520 22521 22522 22523 22524 22525 22526 22527 22528 22529 22530 22531 22532 22533 22534 22535 22536 22537 22538 22539 22540 22541 22542 22543 22544 22545 22546 22547 22548 22549 22550 22551 22552 22553 22554 22555 22556 22557 22558 22559 22560 22561 22562 22563 22564 22565 22566 22567 22568 22569 22570 22571 22572 22573 22574 22575 22576 22577 22578 22579 22580 22581 22582 22583 22584 22585 22586 22587 22588 22589 22590 22591 22592 22593 22594 22595 22596 22597 22598 22599 22600 22601 22602 22603 22604 22605 22606 22607 22608 22609 22610 22611 22612 22613 22614 22615 22616 22617 22618 22619 22620 22621 22622 22623 22624 22625 22626 22627 22628 22629 22630 22631 22632 22633 22634 22635 22636 22637 22638 22639 22640 22641 22642 22643 22644 22645 22646 22647 22648 22649 22650 22651 22652 22653 22654 22655 22656 22657 22658 22659 22660 22661 22662 22663 22664 22665 22666 22667 22668 22669 22670 22671 22672 22673 22674 22675 22676 22677 22678 22679 22680 22681 22682 22683 22684 22685 22686 22687 22688 22689 22690 22691 22692 22693 22694 22695 22696 22697 22698 22699 22700 22701 22702 22703 22704 22705 22706 22707 22708 22709 22710 22711 22712 22713 22714 22715 22716 22717 22718 22719 22720 22721 22722 22723 22724 22725 22726 22727 22728 22729 22730 22731 22732 22733 22734 22735 22736 22737 22738 22739 22740 22741 22742 22743 22744 22745 22746 22747 22748 22749 22750 22751 22752 22753 22754 22755 22756 22757 22758 22759 22760 22761 22762 22763 22764 22765 22766 22767 22768 22769 22770 22771 22772 22773 22774 22775 22776 22777 22778 22779 22780 22781 22782 22783 22784 22785 22786 22787 22788 22789 22790 22791 22792 22793 22794 22795 22796 22797 22798 22799 22800 22801 22802 22803 22804 22805 22806 22807 22808 22809 22810 22811 22812 22813 22814 22815 22816 22817 22818 22819 22820 22821 22822 22823 22824 22825 22826 22827 22828 22829 22830 22831 22832 22833 22834 22835 22836 22837 22838 22839 22840 22841 22842 22843 22844 22845 22846 22847 22848 22849 22850 22851 22852 22853 22854 22855 22856 22857 22858 22859 22860 22861 22862 22863 22864 22865 22866 22867 22868 22869 22870 22871 22872 22873 22874 22875 22876 22877 22878 22879 22880 22881 22882 22883 22884 22885 22886 22887 22888 22889 22890 22891 22892 22893 22894 22895 22896 22897 22898 22899 22900 22901 22902 22903 22904 22905 22906 22907 22908 22909 22910 22911 22912 22913 22914 22915 22916 22917 22918 22919 22920 22921 22922 22923 22924 22925 22926 22927 22928 22929 22930 22931 22932 22933 22934 22935 22936 22937 22938 22939 22940 22941 22942 22943 22944 22945 22946 22947 22948 22949 22950 22951 22952 22953 22954 22955 22956 22957 22958 22959 22960 22961 22962 22963 22964 22965 22966 22967 22968 22969 22970 22971 22972 22973 22974 22975 22976 22977 22978 22979 22980 22981 22982 22983 22984 22985 22986 22987 22988 22989 22990 22991 22992 22993 22994 22995 22996 22997 22998 22999 23000 23001 23002 23003 23004 23005 23006 23007 23008 23009 23010 23011 23012 23013 23014 23015 23016 23017 23018 23019 23020 23021 23022 23023 23024 23025 23026 23027 23028 23029 23030 23031 23032 23033 23034 23035 23036 23037 23038 23039 23040 23041 23042 23043 23044 23045 23046 23047 23048 23049 23050 23051 23052 23053 23054 23055 23056 23057 23058 23059 23060 23061 23062 23063 23064 23065 23066 23067 23068 23069 23070 23071 23072 23073 23074 23075 23076 23077 23078 23079 23080 23081 23082 23083 23084 23085 23086 23087 23088 23089 23090 23091 23092 23093 23094 23095 23096 23097 23098 23099 23100 23101 23102 23103 23104 23105 23106 23107 23108 23109 23110 23111 23112 23113 23114 23115 23116 23117 23118 23119 23120 23121 23122 23123 23124 23125 23126 23127 23128 23129 23130 23131 23132 23133 23134 23135 23136 23137 23138 23139 23140 23141 23142 23143 23144 23145 23146 23147 23148 23149 23150 23151 23152 23153 23154 23155 23156 23157 23158 23159 23160 23161 23162 23163 23164 23165 23166 23167 23168 23169 23170 23171 23172 23173 23174 23175 23176 23177 23178 23179 23180 23181 23182 23183 23184 23185 23186 23187 23188 23189 23190 23191 23192 23193 23194 23195 23196 23197 23198 23199 23200 23201 23202 23203 23204 23205 23206 23207 23208 23209 23210 23211 23212 23213 23214 23215 23216 23217 23218 23219 23220 23221 23222 23223 23224 23225 23226 23227 23228 23229 23230 23231 23232 23233 23234 23235 23236 23237 23238 23239 23240 23241 23242 23243 23244 23245 23246 23247 23248 23249 23250 23251 23252 23253 23254 23255 23256 23257 23258 23259 23260 23261 23262 23263 23264 23265 23266 23267 23268 23269 23270 23271 23272 23273 23274 23275 23276 23277 23278 23279 23280 23281 23282 23283 23284 23285 23286 23287 23288 23289 23290 23291 23292 23293 23294 23295 23296 23297 23298 23299 23300 23301 23302 23303 23304 23305 23306 23307 23308 23309 23310 23311 23312 23313 23314 23315 23316 23317 23318 23319 23320 23321 23322 23323 23324 23325 23326 23327 23328 23329 23330 23331 23332 23333 23334 23335 23336 23337 23338 23339 23340 23341 23342 23343 23344 23345 23346 23347 23348 23349 23350 23351 23352 23353 23354 23355 23356 23357 23358 23359 23360 23361 23362 23363 23364 23365 23366 23367 23368 23369 23370 23371 23372 23373 23374 23375 23376 23377 23378 23379 23380 23381 23382 23383 23384 23385 23386 23387 23388 23389 23390 23391 23392 23393 23394 23395 23396 23397 23398 23399 23400 23401 23402 23403 23404 23405 23406 23407 23408 23409 23410 23411 23412 23413 23414 23415 23416 23417 23418 23419 23420 23421 23422 23423 23424 23425 23426 23427 23428 23429 23430 23431 23432 23433 23434 23435 23436 23437 23438 23439 23440 23441 23442 23443 23444 23445 23446 23447 23448 23449 23450 23451 23452 23453 23454 23455 23456 23457 23458 23459 23460 23461 23462 23463 23464 23465 23466 23467 23468 23469 23470 23471 23472 23473 23474 23475 23476 23477 23478 23479 23480 23481 23482 23483 23484 23485 23486 23487 23488 23489 23490 23491 23492 23493 23494 23495 23496 23497 23498 23499 23500 23501 23502 23503 23504 23505 23506 23507 23508 23509 23510 23511 23512 23513 23514 23515 23516 23517 23518 23519 23520 23521 23522 23523 23524 23525 23526 23527 23528 23529 23530 23531 23532 23533 23534 23535 23536 23537 23538 23539 23540 23541 23542 23543 23544 23545 23546 23547 23548 23549 23550 23551 23552 23553 23554 23555 23556 23557 23558 23559 23560 23561 23562 23563 23564 23565 23566 23567 23568 23569 23570 23571 23572 23573 23574 23575 23576 23577 23578 23579 23580 23581 23582 23583 23584 23585 23586 23587 23588 23589 23590 23591 23592 23593 23594 23595 23596 23597 23598 23599 23600 23601 23602 23603 23604 23605 23606 23607 23608 23609 23610 23611 23612 23613 23614 23615 23616 23617 23618 23619 23620 23621 23622 23623 23624 23625 23626 23627 23628 23629 23630 23631 23632 23633 23634 23635 23636 23637 23638 23639 23640 23641 23642 23643 23644 23645 23646 23647 23648 23649 23650 23651 23652 23653 23654 23655 23656 23657 23658 23659 23660 23661 23662 23663 23664 23665 23666 23667 23668 23669 23670 23671 23672 23673 23674 23675 23676 23677 23678 23679 23680 23681 23682 23683 23684 23685 23686 23687 23688 23689 23690 23691 23692 23693 23694 23695 23696 23697 23698 23699 23700 23701 23702 23703 23704 23705 23706 23707 23708 23709 23710 23711 23712 23713 23714 23715 23716 23717 23718 23719 23720 23721 23722 23723 23724 23725 23726 23727 23728 23729 23730 23731 23732 23733 23734 23735 23736 23737 23738 23739 23740 23741 23742 23743 23744 23745 23746 23747 23748 23749 23750 23751 23752 23753 23754 23755 23756 23757 23758 23759 23760 23761 23762 23763 23764 23765 23766 23767 23768 23769 23770 23771 23772 23773 23774 23775 23776 23777 23778 23779 23780 23781 23782 23783 23784 23785 23786 23787 23788 23789 23790 23791 23792 23793 23794 23795 23796 23797 23798 23799 23800 23801 23802 23803 23804 23805 23806 23807 23808 23809 23810 23811 23812 23813 23814 23815 23816 23817 23818 23819 23820 23821 23822 23823 23824 23825 23826 23827 23828 23829 23830 23831 23832 23833 23834 23835 23836 23837 23838 23839 23840 23841 23842 23843 23844 23845 23846 23847 23848 23849 23850 23851 23852 23853 23854 23855 23856 23857 23858 23859 23860 23861 23862 23863 23864 23865 23866 23867 23868 23869 23870 23871 23872 23873 23874 23875 23876 23877 23878 23879 23880 23881 23882 23883 23884 23885 23886 23887 23888 23889 23890 23891 23892 23893 23894 23895 23896 23897 23898 23899 23900 23901 23902 23903 23904 23905 23906 23907 23908 23909 23910 23911 23912 23913 23914 23915 23916 23917 23918 23919 23920 23921 23922 23923 23924 23925 23926 23927 23928 23929 23930 23931 23932 23933 23934 23935 23936 23937 23938 23939 23940 23941 23942 23943 23944 23945 23946 23947 23948 23949 23950 23951 23952 23953 23954 23955 23956 23957 23958 23959 23960 23961 23962 23963 23964 23965 23966 23967 23968 23969 23970 23971 23972 23973 23974 23975 23976 23977 23978 23979 23980 23981 23982 23983 23984 23985 23986 23987 23988 23989 23990 23991 23992 23993 23994 23995 23996 23997 23998 23999 24000 24001 24002 24003 24004 24005 24006 24007 24008 24009 24010 24011 24012 24013 24014 24015 24016 24017 24018 24019 24020 24021 24022 24023 24024 24025 24026 24027 24028 24029 24030 24031 24032 24033 24034 24035 24036 24037 24038 24039 24040 24041 24042 24043 24044 24045 24046 24047 24048 24049 24050 24051 24052 24053 24054 24055 24056 24057 24058 24059 24060 24061 24062 24063 24064 24065 24066 24067 24068 24069 24070 24071 24072 24073 24074 24075 24076 24077 24078 24079 24080 24081 24082 24083 24084 24085 24086 24087 24088 24089 24090 24091 24092 24093 24094 24095 24096 24097 24098 24099 24100 24101 24102 24103 24104 24105 24106 24107 24108 24109 24110 24111 24112 24113 24114 24115 24116 24117 24118 24119 24120 24121 24122 24123 24124 24125 24126 24127 24128 24129 24130 24131 24132 24133 24134 24135 24136 24137 24138 24139 24140 24141 24142 24143 24144 24145 24146 24147 24148 24149 24150 24151 24152 24153 24154 24155 24156 24157 24158 24159 24160 24161 24162 24163 24164 24165 24166 24167 24168 24169 24170 24171 24172 24173 24174 24175 24176 24177 24178 24179 24180 24181 24182 24183 24184 24185 24186 24187 24188 24189 24190 24191 24192 24193 24194 24195 24196 24197 24198 24199 24200 24201 24202 24203 24204 24205 24206 24207 24208 24209 24210 24211 24212 24213 24214 24215 24216 24217 24218 24219 24220 24221 24222 24223 24224 24225 24226 24227 24228 24229 24230 24231 24232 24233 24234 24235 24236 24237 24238 24239 24240 24241 24242 24243 24244 24245 24246 24247 24248 24249 24250 24251 24252 24253 24254 24255 24256 24257 24258 24259 24260 24261 24262 24263 24264 24265 24266 24267 24268 24269 24270 24271 24272 24273 24274 24275 24276 24277 24278 24279 24280 24281 24282 24283 24284 24285 24286 24287 24288 24289 24290 24291 24292 24293 24294 24295 24296 24297 24298 24299 24300 24301 24302 24303 24304 24305 24306 24307 24308 24309 24310 24311 24312 24313 24314 24315 24316 24317 24318 24319 24320 24321 24322 24323 24324 24325 24326 24327 24328 24329 24330 24331 24332 24333 24334 24335 24336 24337 24338 24339 24340 24341 24342 24343 24344 24345 24346 24347 24348 24349 24350 24351 24352 24353 24354 24355 24356 24357 24358 24359 24360 24361 24362 24363 24364 24365 24366 24367 24368 24369 24370 24371 24372 24373 24374 24375 24376 24377 24378 24379 24380 24381 24382 24383 24384 24385 24386 24387 24388 24389 24390 24391 24392 24393 24394 24395 24396 24397 24398 24399 24400 24401 24402 24403 24404 24405 24406 24407 24408 24409 24410 24411 24412 24413 24414 24415 24416 24417 24418 24419 24420 24421 24422 24423 24424 24425 24426 24427 24428 24429 24430 24431 24432 24433 24434 24435 24436 24437 24438 24439 24440 24441 24442 24443 24444 24445 24446 24447 24448 24449 24450 24451 24452 24453 24454 24455 24456 24457 24458 24459 24460 24461 24462 24463 24464 24465 24466 24467 24468 24469 24470 24471 24472 24473 24474 24475 24476 24477 24478 24479 24480 24481 24482 24483 24484 24485 24486 24487 24488 24489 24490 24491 24492 24493 24494 24495 24496 24497 24498 24499 24500 24501 24502 24503 24504 24505 24506 24507 24508 24509 24510 24511 24512 24513 24514 24515 24516 24517 24518 24519 24520 24521 24522 24523 24524 24525 24526 24527 24528 24529 24530 24531 24532 24533 24534 24535 24536 24537 24538 24539 24540 24541 24542 24543 24544 24545 24546 24547 24548 24549 24550 24551 24552 24553 24554 24555 24556 24557 24558 24559 24560 24561 24562 24563 24564 24565 24566 24567 24568 24569 24570 24571 24572 24573 24574 24575 24576 24577 24578 24579 24580 24581 24582 24583 24584 24585 24586 24587 24588 24589 24590 24591 24592 24593 24594 24595 24596 24597 24598 24599 24600 24601 24602 24603 24604 24605 24606 24607 24608 24609 24610 24611 24612 24613 24614 24615 24616 24617 24618 24619 24620 24621 24622 24623 24624 24625 24626 24627 24628 24629 24630 24631 24632 24633 24634 24635 24636 24637 24638 24639 24640 24641 24642 24643 24644 24645 24646 24647 24648 24649 24650 24651 24652 24653 24654 24655 24656 24657 24658 24659 24660 24661 24662 24663 24664 24665 24666 24667 24668 24669 24670 24671 24672 24673 24674 24675 24676 24677 24678 24679 24680 24681 24682 24683 24684 24685 24686 24687 24688 24689 24690 24691 24692 24693 24694 24695 24696 24697 24698 24699 24700 24701 24702 24703 24704 24705 24706 24707 24708 24709 24710 24711 24712 24713 24714 24715 24716 24717 24718 24719 24720 24721 24722 24723 24724 24725 24726 24727 24728 24729 24730 24731 24732 24733 24734 24735 24736 24737 24738 24739 24740 24741 24742 24743 24744 24745 24746 24747 24748 24749 24750 24751 24752 24753 24754 24755 24756 24757 24758 24759 24760 24761 24762 24763 24764 24765 24766 24767 24768 24769 24770 24771 24772 24773 24774 24775 24776 24777 24778 24779 24780 24781 24782 24783 24784 24785 24786 24787 24788 24789 24790 24791 24792 24793 24794 24795 24796 24797 24798 24799 24800 24801 24802 24803 24804 24805 24806 24807 24808 24809 24810 24811 24812 24813 24814 24815 24816 24817 24818 24819 24820 24821 24822 24823 24824 24825 24826 24827 24828 24829 24830 24831 24832 24833 24834 24835 24836 24837 24838 24839 24840 24841 24842 24843 24844 24845 24846 24847 24848 24849 24850 24851 24852 24853 24854 24855 24856 24857 24858 24859 24860 24861 24862 24863 24864 24865 24866 24867 24868 24869 24870 24871 24872 24873 24874 24875 24876 24877 24878 24879 24880 24881 24882 24883 24884 24885 24886 24887 24888 24889 24890 24891 24892 24893 24894 24895 24896 24897 24898 24899 24900 24901 24902 24903 24904 24905 24906 24907 24908 24909 24910 24911 24912 24913 24914 24915 24916 24917 24918 24919 24920 24921 24922 24923 24924 24925 24926 24927 24928 24929 24930 24931 24932 24933 24934 24935 24936 24937 24938 24939 24940 24941 24942 24943 24944 24945 24946 24947 24948 24949 24950 24951 24952 24953 24954 24955 24956 24957 24958 24959 24960 24961 24962 24963 24964 24965 24966 24967 24968 24969 24970 24971 24972 24973 24974 24975 24976 24977 24978 24979 24980 24981 24982 24983 24984 24985 24986 24987 24988 24989 24990 24991 24992 24993 24994 24995 24996 24997 24998 24999 25000 25001 25002 25003 25004 25005 25006 25007 25008 25009 25010 25011 25012 25013 25014 25015 25016 25017 25018 25019 25020 25021 25022 25023 25024 25025 25026 25027 25028 25029 25030 25031 25032 25033 25034 25035 25036 25037 25038 25039 25040 25041 25042 25043 25044 25045 25046 25047 25048 25049 25050 25051 25052 25053 25054 25055 25056 25057 25058 25059 25060 25061 25062 25063 25064 25065 25066 25067 25068 25069 25070 25071 25072 25073 25074 25075 25076 25077 25078 25079 25080 25081 25082 25083 25084 25085 25086 25087 25088 25089 25090 25091 25092 25093 25094 25095 25096 25097 25098 25099 25100 25101 25102 25103 25104 25105 25106 25107 25108 25109 25110 25111 25112 25113 25114 25115 25116 25117 25118 25119 25120 25121 25122 25123 25124 25125 25126 25127 25128 25129 25130 25131 25132 25133 25134 25135 25136 25137 25138 25139 25140 25141 25142 25143 25144 25145 25146 25147 25148 25149 25150 25151 25152 25153 25154 25155 25156 25157 25158 25159 25160 25161 25162 25163 25164 25165 25166 25167 25168 25169 25170 25171 25172 25173 25174 25175 25176 25177 25178 25179 25180 25181 25182 25183 25184 25185 25186 25187 25188 25189 25190 25191 25192 25193 25194 25195 25196 25197 25198 25199 25200 25201 25202 25203 25204 25205 25206 25207 25208 25209 25210 25211 25212 25213 25214 25215 25216 25217 25218 25219 25220 25221 25222 25223 25224 25225 25226 25227 25228 25229 25230 25231 25232 25233 25234 25235 25236 25237 25238 25239 25240 25241 25242 25243 25244 25245 25246 25247 25248 25249 25250 25251 25252 25253 25254 25255 25256 25257 25258 25259 25260 25261 25262 25263 25264 25265 25266 25267 25268 25269 25270 25271 25272 25273 25274 25275 25276 25277 25278 25279 25280 25281 25282 25283 25284 25285 25286 25287 25288 25289 25290 25291 25292 25293 25294 25295 25296 25297 25298 25299 25300 25301 25302 25303 25304 25305 25306 25307 25308 25309 25310 25311 25312 25313 25314 25315 25316 25317 25318 25319 25320 25321 25322 25323 25324 25325 25326 25327 25328 25329 25330 25331 25332 25333 25334 25335 25336 25337 25338 25339 25340 25341 25342 25343 25344 25345 25346 25347 25348 25349 25350 25351 25352 25353 25354 25355 25356 25357 25358 25359 25360 25361 25362 25363 25364 25365 25366 25367 25368 25369 25370 25371 25372 25373 25374 25375 25376 25377 25378 25379 25380 25381 25382 25383 25384 25385 25386 25387 25388 25389 25390 25391 25392 25393 25394 25395 25396 25397 25398 25399 25400 25401 25402 25403 25404 25405 25406 25407 25408 25409 25410 25411 25412 25413 25414 25415 25416 25417 25418 25419 25420 25421 25422 25423 25424 25425 25426 25427 25428 25429 25430 25431 25432 25433 25434 25435 25436 25437 25438 25439 25440 25441 25442 25443 25444 25445 25446 25447 25448 25449 25450 25451 25452 25453 25454 25455 25456 25457 25458 25459 25460 25461 25462 25463 25464 25465 25466 25467 25468 25469 25470 25471 25472 25473 25474 25475 25476 25477 25478 25479 25480 25481 25482 25483 25484 25485 25486 25487 25488 25489 25490 25491 25492 25493 25494 25495 25496 25497 25498 25499 25500 25501 25502 25503 25504 25505 25506 25507 25508 25509 25510 25511 25512 25513 25514 25515 25516 25517 25518 25519 25520 25521 25522 25523 25524 25525 25526 25527 25528 25529 25530 25531 25532 25533 25534 25535 25536 25537 25538 25539 25540 25541 25542 25543 25544 25545 25546 25547 25548 25549 25550 25551 25552 25553 25554 25555 25556 25557 25558 25559 25560 25561 25562 25563 25564 25565 25566 25567 25568 25569 25570 25571 25572 25573 25574 25575 25576 25577 25578 25579 25580 25581 25582 25583 25584 25585 25586 25587 25588 25589 25590 25591 25592 25593 25594 25595 25596 25597 25598 25599 25600 25601 25602 25603 25604 25605 25606 25607 25608 25609 25610 25611 25612 25613 25614 25615 25616 25617 25618 25619 25620 25621 25622 25623 25624 25625 25626 25627 25628 25629 25630 25631 25632 25633 25634 25635 25636 25637 25638 25639 25640 25641 25642 25643 25644 25645 25646 25647 25648 25649 25650 25651 25652 25653 25654 25655 25656 25657 25658 25659 25660 25661 25662 25663 25664 25665 25666 25667 25668 25669 25670 25671 25672 25673 25674 25675 25676 25677 25678 25679 25680 25681 25682 25683 25684 25685 25686 25687 25688 25689 25690 25691 25692 25693 25694 25695 25696 25697 25698 25699 25700 25701 25702 25703 25704 25705 25706 25707 25708 25709 25710 25711 25712 25713 25714 25715 25716 25717 25718 25719 25720 25721 25722 25723 25724 25725 25726 25727 25728 25729 25730 25731 25732 25733 25734 25735 25736 25737 25738 25739 25740 25741 25742 25743 25744 25745 25746 25747 25748 25749 25750 25751 25752 25753 25754 25755 25756 25757 25758 25759 25760 25761 25762 25763 25764 25765 25766 25767 25768 25769 25770 25771 25772 25773 25774 25775 25776 25777 25778 25779 25780 25781 25782 25783 25784 25785 25786 25787 25788 25789 25790 25791 25792 25793 25794 25795 25796 25797 25798 25799 25800 25801 25802 25803 25804 25805 25806 25807 25808 25809 25810 25811 25812 25813 25814 25815 25816 25817 25818 25819 25820 25821 25822 25823 25824 25825 25826 25827 25828 25829 25830 25831 25832 25833 25834 25835 25836 25837 25838 25839 25840 25841 25842 25843 25844 25845 25846 25847 25848 25849 25850 25851 25852 25853 25854 25855 25856 25857 25858 25859 25860 25861 25862 25863 25864 25865 25866 25867 25868 25869 25870 25871 25872 25873 25874 25875 25876 25877 25878 25879 25880 25881 25882 25883 25884 25885 25886 25887 25888 25889 25890 25891 25892 25893 25894 25895 25896 25897 25898 25899 25900 25901 25902 25903 25904 25905 25906 25907 25908 25909 25910 25911 25912 25913 25914 25915 25916 25917 25918 25919 25920 25921 25922 25923 25924 25925 25926 25927 25928 25929 25930 25931 25932 25933 25934 25935 25936 25937 25938 25939 25940 25941 25942 25943 25944 25945 25946 25947 25948 25949 25950 25951 25952 25953 25954 25955 25956 25957 25958 25959 25960 25961 25962 25963 25964 25965 25966 25967 25968 25969 25970 25971 25972 25973 25974 25975 25976 25977 25978 25979 25980 25981 25982 25983 25984 25985 25986 25987 25988 25989 25990 25991 25992 25993 25994 25995 25996 25997 25998 25999 26000 26001 26002 26003 26004 26005 26006 26007 26008 26009 26010 26011 26012 26013 26014 26015 26016 26017 26018 26019 26020 26021 26022 26023 26024 26025 26026 26027 26028 26029 26030 26031 26032 26033 26034 26035 26036 26037 26038 26039 26040 26041 26042 26043 26044 26045 26046 26047 26048 26049 26050 26051 26052 26053 26054 26055 26056 26057 26058 26059 26060 26061 26062 26063 26064 26065 26066 26067 26068 26069 26070 26071 26072 26073 26074 26075 26076 26077 26078 26079 26080 26081 26082 26083 26084 26085 26086 26087 26088 26089 26090 26091 26092 26093 26094 26095 26096 26097 26098 26099 26100 26101 26102 26103 26104 26105 26106 26107 26108 26109 26110 26111 26112 26113 26114 26115 26116 26117 26118 26119 26120 26121 26122 26123 26124 26125 26126 26127 26128 26129 26130 26131 26132 26133 26134 26135 26136 26137 26138 26139 26140 26141 26142 26143 26144 26145 26146 26147 26148 26149 26150 26151 26152 26153 26154 26155 26156 26157 26158 26159 26160 26161 26162 26163 26164 26165 26166 26167 26168 26169 26170 26171 26172 26173 26174 26175 26176 26177 26178 26179 26180 26181 26182 26183 26184 26185 26186 26187 26188 26189 26190 26191 26192 26193 26194 26195 26196 26197 26198 26199 26200 26201 26202 26203 26204 26205 26206 26207 26208 26209 26210 26211 26212 26213 26214 26215 26216 26217 26218 26219 26220 26221 26222 26223 26224 26225 26226 26227 26228 26229 26230 26231 26232 26233 26234 26235 26236 26237 26238 26239 26240 26241 26242 26243 26244 26245 26246 26247 26248 26249 26250 26251 26252 26253 26254 26255 26256 26257 26258 26259 26260 26261 26262 26263 26264 26265 26266 26267 26268 26269 26270 26271 26272 26273 26274 26275 26276 26277 26278 26279 26280 26281 26282 26283 26284 26285 26286 26287 26288 26289 26290 26291 26292 26293 26294 26295 26296 26297 26298 26299 26300 26301 26302 26303 26304 26305 26306 26307 26308 26309 26310 26311 26312 26313 26314 26315 26316 26317 26318 26319 26320 26321 26322 26323 26324 26325 26326 26327 26328 26329 26330 26331 26332 26333 26334 26335 26336 26337 26338 26339 26340 26341 26342 26343 26344 26345 26346 26347 26348 26349 26350 26351 26352 26353 26354 26355 26356 26357 26358 26359 26360 26361 26362 26363 26364 26365 26366 26367 26368 26369 26370 26371 26372 26373 26374 26375 26376 26377 26378 26379 26380 26381 26382 26383 26384 26385 26386 26387 26388 26389 26390 26391 26392 26393 26394 26395 26396 26397 26398 26399 26400 26401 26402 26403 26404 26405 26406 26407 26408 26409 26410 26411 26412 26413 26414 26415 26416 26417 26418 26419 26420 26421 26422 26423 26424 26425 26426 26427 26428 26429 26430 26431 26432 26433 26434 26435 26436 26437 26438 26439 26440 26441 26442 26443 26444 26445 26446 26447 26448 26449 26450 26451 26452 26453 26454 26455 26456 26457 26458 26459 26460 26461 26462 26463 26464 26465 26466 26467 26468 26469 26470 26471 26472 26473 26474 26475 26476 26477 26478 26479 26480 26481 26482 26483 26484 26485 26486 26487 26488 26489 26490 26491 26492 26493 26494 26495 26496 26497 26498 26499 26500 26501 26502 26503 26504 26505 26506 26507 26508 26509 26510 26511 26512 26513 26514 26515 26516 26517 26518 26519 26520 26521 26522 26523 26524 26525 26526 26527 26528 26529 26530 26531 26532 26533 26534 26535 26536 26537 26538 26539 26540 26541 26542 26543 26544 26545 26546 26547 26548 26549 26550 26551 26552 26553 26554 26555 26556 26557 26558 26559 26560 26561 26562 26563 26564 26565 26566 26567 26568 26569 26570 26571 26572 26573 26574 26575 26576 26577 26578 26579 26580 26581 26582 26583 26584 26585 26586 26587 26588 26589 26590 26591 26592 26593 26594 26595 26596 26597 26598 26599 26600 26601 26602 26603 26604 26605 26606 26607 26608 26609 26610 26611 26612 26613 26614 26615 26616 26617 26618 26619 26620 26621 26622 26623 26624 26625 26626 26627 26628 26629 26630 26631 26632 26633 26634 26635 26636 26637 26638 26639 26640 26641 26642 26643 26644 26645 26646 26647 26648 26649 26650 26651 26652 26653 26654 26655 26656 26657 26658 26659 26660 26661 26662 26663 26664 26665 26666 26667 26668 26669 26670 26671 26672 26673 26674 26675 26676 26677 26678 26679 26680 26681 26682 26683 26684 26685 26686 26687 26688 26689 26690 26691 26692 26693 26694 26695 26696 26697 26698 26699 26700 26701 26702 26703 26704 26705 26706 26707 26708 26709 26710 26711 26712 26713 26714 26715 26716 26717 26718 26719 26720 26721 26722 26723 26724 26725 26726 26727 26728 26729 26730 26731 26732 26733 26734 26735 26736 26737 26738 26739 26740 26741 26742 26743 26744 26745 26746 26747 26748 26749 26750 26751 26752 26753 26754 26755 26756 26757 26758 26759 26760 26761 26762 26763 26764 26765 26766 26767 26768 26769 26770 26771 26772 26773 26774 26775 26776 26777 26778 26779 26780 26781 26782 26783 26784 26785 26786 26787 26788 26789 26790 26791 26792 26793 26794 26795 26796 26797 26798 26799 26800 26801 26802 26803 26804 26805 26806 26807 26808 26809 26810 26811 26812 26813 26814 26815 26816 26817 26818 26819 26820 26821 26822 26823 26824 26825 26826 26827 26828 26829 26830 26831 26832 26833 26834 26835 26836 26837 26838 26839 26840 26841 26842 26843 26844 26845 26846 26847 26848 26849 26850 26851 26852 26853 26854 26855 26856 26857 26858 26859 26860 26861 26862 26863 26864 26865 26866 26867 26868 26869 26870 26871 26872 26873 26874 26875 26876 26877 26878 26879 26880 26881 26882 26883 26884 26885 26886 26887 26888 26889 26890 26891 26892 26893 26894 26895 26896 26897 26898 26899 26900 26901 26902 26903 26904 26905 26906 26907 26908 26909 26910 26911 26912 26913 26914 26915 26916 26917 26918 26919 26920 26921 26922 26923 26924 26925 26926 26927 26928 26929 26930 26931 26932 26933 26934 26935 26936 26937 26938 26939 26940 26941 26942 26943 26944 26945 26946 26947 26948 26949 26950 26951 26952 26953 26954 26955 26956 26957 26958 26959 26960 26961 26962 26963 26964 26965 26966 26967 26968 26969 26970 26971 26972 26973 26974 26975 26976 26977 26978 26979 26980 26981 26982 26983 26984 26985 26986 26987 26988 26989 26990 26991 26992 26993 26994 26995 26996 26997 26998 26999 27000 27001 27002 27003 27004 27005 27006 27007 27008 27009 27010 27011 27012 27013 27014 27015 27016 27017 27018 27019 27020 27021 27022 27023 27024 27025 27026 27027 27028 27029 27030 27031 27032 27033 27034 27035 27036 27037 27038 27039 27040 27041 27042 27043 27044 27045 27046 27047 27048 27049 27050 27051 27052 27053 27054 27055 27056 27057 27058 27059 27060 27061 27062 27063 27064 27065 27066 27067 27068 27069 27070 27071 27072 27073 27074 27075 27076 27077 27078 27079 27080 27081 27082 27083 27084 27085 27086 27087 27088 27089 27090 27091 27092 27093 27094 27095 27096 27097 27098 27099 27100 27101 27102 27103 27104 27105 27106 27107 27108 27109 27110 27111 27112 27113 27114 27115 27116 27117 27118 27119 27120 27121 27122 27123 27124 27125 27126 27127 27128 27129 27130 27131 27132 27133 27134 27135 27136 27137 27138 27139 27140 27141 27142 27143 27144 27145 27146 27147 27148 27149 27150 27151 27152 27153 27154 27155 27156 27157 27158 27159 27160 27161 27162 27163 27164 27165 27166 27167 27168 27169 27170 27171 27172 27173 27174 27175 27176 27177 27178 27179 27180 27181 27182 27183 27184 27185 27186 27187 27188 27189 27190 27191 27192 27193 27194 27195 27196 27197 27198 27199 27200 27201 27202 27203 27204 27205 27206 27207 27208 27209 27210 27211 27212 27213 27214 27215 27216 27217 27218 27219 27220 27221 27222 27223 27224 27225 27226 27227 27228 27229 27230 27231 27232 27233 27234 27235 27236 27237 27238 27239 27240 27241 27242 27243 27244 27245 27246 27247 27248 27249 27250 27251 27252 27253 27254 27255 27256 27257 27258 27259 27260 27261 27262 27263 27264 27265 27266 27267 27268 27269 27270 27271 27272 27273 27274 27275 27276 27277 27278 27279 27280 27281 27282 27283 27284 27285 27286 27287 27288 27289 27290 27291 27292 27293 27294 27295 27296 27297 27298 27299 27300 27301 27302 27303 27304 27305 27306 27307 27308 27309 27310 27311 27312 27313 27314 27315 27316 27317 27318 27319 27320 27321 27322 27323 27324 27325 27326 27327 27328 27329 27330 27331 27332 27333 27334 27335 27336 27337 27338 27339 27340 27341 27342 27343 27344 27345 27346 27347 27348 27349 27350 27351 27352 27353 27354 27355 27356 27357 27358 27359 27360 27361 27362 27363 27364 27365 27366 27367 27368 27369 27370 27371 27372 27373 27374 27375 27376 27377 27378 27379 27380 27381 27382 27383 27384 27385 27386 27387 27388 27389 27390 27391 27392 27393 27394 27395 27396 27397 27398 27399 27400 27401 27402 27403 27404 27405 27406 27407 27408 27409 27410 27411 27412 27413 27414 27415 27416 27417 27418 27419 27420 27421 27422 27423 27424 27425 27426 27427 27428 27429 27430 27431 27432 27433 27434 27435 27436 27437 27438 27439 27440 27441 27442 27443 27444 27445 27446 27447 27448 27449 27450 27451 27452 27453 27454 27455 27456 27457 27458 27459 27460 27461 27462 27463 27464 27465 27466 27467 27468 27469 27470 27471 27472 27473 27474 27475 27476 27477 27478 27479 27480 27481 27482 27483 27484 27485 27486 27487 27488 27489 27490 27491 27492 27493 27494 27495 27496 27497 27498 27499 27500 27501 27502 27503 27504 27505 27506 27507 27508 27509 27510 27511 27512 27513 27514 27515 27516 27517 27518 27519 27520 27521 27522 27523 27524 27525 27526 27527 27528 27529 27530 27531 27532 27533 27534 27535 27536 27537 27538 27539 27540 27541 27542 27543 27544 27545 27546 27547 27548 27549 27550 27551 27552 27553 27554 27555 27556 27557 27558 27559 27560 27561 27562 27563 27564 27565 27566 27567 27568 27569 27570 27571 27572 27573 27574 27575 27576 27577 27578 27579 27580 27581 27582 27583 27584 27585 27586 27587 27588 27589 27590 27591 27592 27593 27594 27595 27596 27597 27598 27599 27600 27601 27602 27603 27604 27605 27606 27607 27608 27609 27610 27611 27612 27613 27614 27615 27616 27617 27618 27619 27620 27621 27622 27623 27624 27625 27626 27627 27628 27629 27630 27631 27632 27633 27634 27635 27636 27637 27638 27639 27640 27641 27642 27643 27644 27645 27646 27647 27648 27649 27650 27651 27652 27653 27654 27655 27656 27657 27658 27659 27660 27661 27662 27663 27664 27665 27666 27667 27668 27669 27670 27671 27672 27673 27674 27675 27676 27677 27678 27679 27680 27681 27682 27683 27684 27685 27686 27687 27688 27689 27690 27691 27692 27693 27694 27695 27696 27697 27698 27699 27700 27701 27702 27703 27704 27705 27706 27707 27708 27709 27710 27711 27712 27713 27714 27715 27716 27717 27718 27719 27720 27721 27722 27723 27724 27725 27726 27727 27728 27729 27730 27731 27732 27733 27734 27735 27736 27737 27738 27739 27740 27741 27742 27743 27744 27745 27746 27747 27748 27749 27750 27751 27752 27753 27754 27755 27756 27757 27758 27759 27760 27761 27762 27763 27764 27765 27766 27767 27768 27769 27770 27771 27772 27773 27774 27775 27776 27777 27778 27779 27780 27781 27782 27783 27784 27785 27786 27787 27788 27789 27790 27791 27792 27793 27794 27795 27796 27797 27798 27799 27800 27801 27802 27803 27804 27805 27806 27807 27808 27809 27810 27811 27812 27813 27814 27815 27816 27817 27818 27819 27820 27821 27822 27823 27824 27825 27826 27827 27828 27829 27830 27831 27832 27833 27834 27835 27836 27837 27838 27839 27840 27841 27842 27843 27844 27845 27846 27847 27848 27849 27850 27851 27852 27853 27854 27855 27856 27857 27858 27859 27860 27861 27862 27863 27864 27865 27866 27867 27868 27869 27870 27871 27872 27873 27874 27875 27876 27877 27878 27879 27880 27881 27882 27883 27884 27885 27886 27887 27888 27889 27890 27891 27892 27893 27894 27895 27896 27897 27898 27899 27900 27901 27902 27903 27904 27905 27906 27907 27908 27909 27910 27911 27912 27913 27914 27915 27916 27917 27918 27919 27920 27921 27922 27923 27924 27925 27926 27927 27928 27929 27930 27931 27932 27933 27934 27935 27936 27937 27938 27939 27940 27941 27942 27943 27944 27945 27946 27947 27948 27949 27950 27951 27952 27953 27954 27955 27956 27957 27958 27959 27960 27961 27962 27963 27964 27965 27966 27967 27968 27969 27970 27971 27972 27973 27974 27975 27976 27977 27978 27979 27980 27981 27982 27983 27984 27985 27986 27987 27988 27989 27990 27991 27992 27993 27994 27995 27996 27997 27998 27999 28000 28001 28002 28003 28004 28005 28006 28007 28008 28009 28010 28011 28012 28013 28014 28015 28016 28017 28018 28019 28020 28021 28022 28023 28024 28025 28026 28027 28028 28029 28030 28031 28032 28033 28034 28035 28036 28037 28038 28039 28040 28041 28042 28043 28044 28045 28046 28047 28048 28049 28050 28051 28052 28053 28054 28055 28056 28057 28058 28059 28060 28061 28062 28063 28064 28065 28066 28067 28068 28069 28070 28071 28072 28073 28074 28075 28076 28077 28078 28079 28080 28081 28082 28083 28084 28085 28086 28087 28088 28089 28090 28091 28092 28093 28094 28095 28096 28097 28098 28099 28100 28101 28102 28103 28104 28105 28106 28107 28108 28109 28110 28111 28112 28113 28114 28115 28116 28117 28118 28119 28120 28121 28122 28123 28124 28125 28126 28127 28128 28129 28130 28131 28132 28133 28134 28135 28136 28137 28138 28139 28140 28141 28142 28143 28144 28145 28146 28147 28148 28149 28150 28151 28152 28153 28154 28155 28156 28157 28158 28159 28160 28161 28162 28163 28164 28165 28166 28167 28168 28169 28170 28171 28172 28173 28174 28175 28176 28177 28178 28179 28180 28181 28182 28183 28184 28185 28186 28187 28188 28189 28190 28191 28192 28193 28194 28195 28196 28197 28198 28199 28200 28201 28202 28203 28204 28205 28206 28207 28208 28209 28210 28211 28212 28213 28214 28215 28216 28217 28218 28219 28220 28221 28222 28223 28224 28225 28226 28227 28228 28229 28230 28231 28232 28233 28234 28235 28236 28237 28238 28239 28240 28241 28242 28243 28244 28245 28246 28247 28248 28249 28250 28251 28252 28253 28254 28255 28256 28257 28258 28259 28260 28261 28262 28263 28264 28265 28266 28267 28268 28269 28270 28271 28272 28273 28274 28275 28276 28277 28278 28279 28280 28281 28282 28283 28284 28285 28286 28287 28288 28289 28290 28291 28292 28293 28294 28295 28296 28297 28298 28299 28300 28301 28302 28303 28304 28305 28306 28307 28308 28309 28310 28311 28312 28313 28314 28315 28316 28317 28318 28319 28320 28321 28322 28323 28324 28325 28326 28327 28328 28329 28330 28331 28332 28333 28334 28335 28336 28337 28338 28339 28340 28341 28342 28343 28344 28345 28346 28347 28348 28349 28350 28351 28352 28353 28354 28355 28356 28357 28358 28359 28360 28361 28362 28363 28364 28365 28366 28367 28368 28369 28370 28371 28372 28373 28374 28375 28376 28377 28378 28379 28380 28381 28382 28383 28384 28385 28386 28387 28388 28389 28390 28391 28392 28393 28394 28395 28396 28397 28398 28399 28400 28401 28402 28403 28404 28405 28406 28407 28408 28409 28410 28411 28412 28413 28414 28415 28416 28417 28418 28419 28420 28421 28422 28423 28424 28425 28426 28427 28428 28429 28430 28431 28432 28433 28434 28435 28436 28437 28438 28439 28440 28441 28442 28443 28444 28445 28446 28447 28448 28449 28450 28451 28452 28453 28454 28455 28456 28457 28458 28459 28460 28461 28462 28463 28464 28465 28466 28467 28468 28469 28470 28471 28472 28473 28474 28475 28476 28477 28478 28479 28480 28481 28482 28483 28484 28485 28486 28487 28488 28489 28490 28491 28492 28493 28494 28495 28496 28497 28498 28499 28500 28501 28502 28503 28504 28505 28506 28507 28508 28509 28510 28511 28512 28513 28514 28515 28516 28517 28518 28519 28520 28521 28522 28523 28524 28525 28526 28527 28528 28529 28530 28531 28532 28533 28534 28535 28536 28537 28538 28539 28540 28541 28542 28543 28544 28545 28546 28547 28548 28549 28550 28551 28552 28553 28554 28555 28556 28557 28558 28559 28560 28561 28562 28563 28564 28565 28566 28567 28568 28569 28570 28571 28572 28573 28574 28575 28576 28577 28578 28579 28580 28581 28582 28583 28584 28585 28586 28587 28588 28589 28590 28591 28592 28593 28594 28595 28596 28597 28598 28599 28600 28601 28602 28603 28604 28605 28606 28607 28608 28609 28610 28611 28612 28613 28614 28615 28616 28617 28618 28619 28620 28621 28622 28623 28624 28625 28626 28627 28628 28629 28630 28631 28632 28633 28634 28635 28636 28637 28638 28639 28640 28641 28642 28643 28644 28645 28646 28647 28648 28649 28650 28651 28652 28653 28654 28655 28656 28657 28658 28659 28660 28661 28662 28663 28664 28665 28666 28667 28668 28669 28670 28671 28672 28673 28674 28675 28676 28677 28678 28679 28680 28681 28682 28683 28684 28685 28686 28687 28688 28689 28690 28691 28692 28693 28694 28695 28696 28697 28698 28699 28700 28701 28702 28703 28704 28705 28706 28707 28708 28709 28710 28711 28712 28713 28714 28715 28716 28717 28718 28719 28720 28721 28722 28723 28724 28725 28726 28727 28728 28729 28730 28731 28732 28733 28734 28735 28736 28737 28738 28739 28740 28741 28742 28743 28744 28745 28746 28747 28748 28749 28750 28751 28752 28753 28754 28755 28756 28757 28758 28759 28760 28761 28762 28763 28764 28765 28766 28767 28768 28769 28770 28771 28772 28773 28774 28775 28776 28777 28778 28779 28780 28781 28782 28783 28784 28785 28786 28787 28788 28789 28790 28791 28792 28793 28794 28795 28796 28797 28798 28799 28800 28801 28802 28803 28804 28805 28806 28807 28808 28809 28810 28811 28812 28813 28814 28815 28816 28817 28818 28819 28820 28821 28822 28823 28824 28825 28826 28827 28828 28829 28830 28831 28832 28833 28834 28835 28836 28837 28838 28839 28840 28841 28842 28843 28844 28845 28846 28847 28848 28849 28850 28851 28852 28853 28854 28855 28856 28857 28858 28859 28860 28861 28862 28863 28864 28865 28866 28867 28868 28869 28870 28871 28872 28873 28874 28875 28876 28877 28878 28879 28880 28881 28882 28883 28884 28885 28886 28887 28888 28889 28890 28891 28892 28893 28894 28895 28896 28897 28898 28899 28900 28901 28902 28903 28904 28905 28906 28907 28908 28909 28910 28911 28912 28913 28914 28915 28916 28917 28918 28919 28920 28921 28922 28923 28924 28925 28926 28927 28928 28929 28930 28931 28932 28933 28934 28935 28936 28937 28938 28939 28940 28941 28942 28943 28944 28945 28946 28947 28948 28949 28950 28951 28952 28953 28954 28955 28956 28957 28958 28959 28960 28961 28962 28963 28964 28965 28966 28967 28968 28969 28970 28971 28972 28973 28974 28975 28976 28977 28978 28979 28980 28981 28982 28983 28984 28985 28986 28987 28988 28989 28990 28991 28992 28993 28994 28995 28996 28997 28998 28999 29000 29001 29002 29003 29004 29005 29006 29007 29008 29009 29010 29011 29012 29013 29014 29015 29016 29017 29018 29019 29020 29021 29022 29023 29024 29025 29026 29027 29028 29029 29030 29031 29032 29033 29034 29035 29036 29037 29038 29039 29040 29041 29042 29043 29044 29045 29046 29047 29048 29049 29050 29051 29052 29053 29054 29055 29056 29057 29058 29059 29060 29061 29062 29063 29064 29065 29066 29067 29068 29069 29070 29071 29072 29073 29074 29075 29076 29077 29078 29079 29080 29081 29082 29083 29084 29085 29086 29087 29088 29089 29090 29091 29092 29093 29094 29095 29096 29097 29098 29099 29100 29101 29102 29103 29104 29105 29106 29107 29108 29109 29110 29111 29112 29113 29114 29115 29116 29117 29118 29119 29120 29121 29122 29123 29124 29125 29126 29127 29128 29129 29130 29131 29132 29133 29134 29135 29136 29137 29138 29139 29140 29141 29142 29143 29144 29145 29146 29147 29148 29149 29150 29151 29152 29153 29154 29155 29156 29157 29158 29159 29160 29161 29162 29163 29164 29165 29166 29167 29168 29169 29170 29171 29172 29173 29174 29175 29176 29177 29178 29179 29180 29181 29182 29183 29184 29185 29186 29187 29188 29189 29190 29191 29192 29193 29194 29195 29196 29197 29198 29199 29200 29201 29202 29203 29204 29205 29206 29207 29208 29209 29210 29211 29212 29213 29214 29215 29216 29217 29218 29219 29220 29221 29222 29223 29224 29225 29226 29227 29228 29229 29230 29231 29232 29233 29234 29235 29236 29237 29238 29239 29240 29241 29242 29243 29244 29245 29246 29247 29248 29249 29250 29251 29252 29253 29254 29255 29256 29257 29258 29259 29260 29261 29262 29263 29264 29265 29266 29267 29268 29269 29270 29271 29272 29273 29274 29275 29276 29277 29278 29279 29280 29281 29282 29283 29284 29285 29286 29287 29288 29289 29290 29291 29292 29293 29294 29295 29296 29297 29298 29299 29300 29301 29302 29303 29304 29305 29306 29307 29308 29309 29310 29311 29312 29313 29314 29315 29316 29317 29318 29319 29320 29321 29322 29323 29324 29325 29326 29327 29328 29329 29330 29331 29332 29333 29334 29335 29336 29337 29338 29339 29340 29341 29342 29343 29344 29345 29346 29347 29348 29349 29350 29351 29352 29353 29354 29355 29356 29357 29358 29359 29360 29361 29362 29363 29364 29365 29366 29367 29368 29369 29370 29371 29372 29373 29374 29375 29376 29377 29378 29379 29380 29381 29382 29383 29384 29385 29386 29387 29388 29389 29390 29391 29392 29393 29394 29395 29396 29397 29398 29399 29400 29401 29402 29403 29404 29405 29406 29407 29408 29409 29410 29411 29412 29413 29414 29415 29416 29417 29418 29419 29420 29421 29422 29423 29424 29425 29426 29427 29428 29429 29430 29431 29432 29433 29434 29435 29436 29437 29438 29439 29440 29441 29442 29443 29444 29445 29446 29447 29448 29449 29450 29451 29452 29453 29454 29455 29456 29457 29458 29459 29460 29461 29462 29463 29464 29465 29466 29467 29468 29469 29470 29471 29472 29473 29474 29475 29476 29477 29478 29479 29480 29481 29482 29483 29484 29485 29486 29487 29488 29489 29490 29491 29492 29493 29494 29495 29496 29497 29498 29499 29500 29501 29502 29503 29504 29505 29506 29507 29508 29509 29510 29511 29512 29513 29514 29515 29516 29517 29518 29519 29520 29521 29522 29523 29524 29525 29526 29527 29528 29529 29530 29531 29532 29533 29534 29535 29536 29537 29538 29539 29540 29541 29542 29543 29544 29545 29546 29547 29548 29549 29550 29551 29552 29553 29554 29555 29556 29557 29558 29559 29560 29561 29562 29563 29564 29565 29566 29567 29568 29569 29570 29571 29572 29573 29574 29575 29576 29577 29578 29579 29580 29581 29582 29583 29584 29585 29586 29587 29588 29589 29590 29591 29592 29593 29594 29595 29596 29597 29598 29599 29600 29601 29602 29603 29604 29605 29606 29607 29608 29609 29610 29611 29612 29613 29614 29615 29616 29617 29618 29619 29620 29621 29622 29623 29624 29625 29626 29627 29628 29629 29630 29631 29632 29633 29634 29635 29636 29637 29638 29639 29640 29641 29642 29643 29644 29645 29646 29647 29648 29649 29650 29651 29652 29653 29654 29655 29656 29657 29658 29659 29660 29661 29662 29663 29664 29665 29666 29667 29668 29669 29670 29671 29672 29673 29674 29675 29676 29677 29678 29679 29680 29681 29682 29683 29684 29685 29686 29687 29688 29689 29690 29691 29692 29693 29694 29695 29696 29697 29698 29699 29700 29701 29702 29703 29704 29705 29706 29707 29708 29709 29710 29711 29712 29713 29714 29715 29716 29717 29718 29719 29720 29721 29722 29723 29724 29725 29726 29727 29728 29729 29730 29731 29732 29733 29734 29735 29736 29737 29738 29739 29740 29741 29742 29743 29744 29745 29746 29747 29748 29749 29750 29751 29752 29753 29754 29755 29756 29757 29758 29759 29760 29761 29762 29763 29764 29765 29766 29767 29768 29769 29770 29771 29772 29773 29774 29775 29776 29777 29778 29779 29780 29781 29782 29783 29784 29785 29786 29787 29788 29789 29790 29791 29792 29793 29794 29795 29796 29797 29798 29799 29800 29801 29802 29803 29804 29805 29806 29807 29808 29809 29810 29811 29812 29813 29814 29815 29816 29817 29818 29819 29820 29821 29822 29823 29824 29825 29826 29827 29828 29829 29830 29831 29832 29833 29834 29835 29836 29837 29838 29839 29840 29841 29842 29843 29844 29845 29846 29847 29848 29849 29850 29851 29852 29853 29854 29855 29856 29857 29858 29859 29860 29861 29862 29863 29864 29865 29866 29867 29868 29869 29870 29871 29872 29873 29874 29875 29876 29877 29878 29879 29880 29881 29882 29883 29884 29885 29886 29887 29888 29889 29890 29891 29892 29893 29894 29895 29896 29897 29898 29899 29900 29901 29902 29903 29904 29905 29906 29907 29908 29909 29910 29911 29912 29913 29914 29915 29916 29917 29918 29919 29920 29921 29922 29923 29924 29925 29926 29927 29928 29929 29930 29931 29932 29933 29934 29935 29936 29937 29938 29939 29940 29941 29942 29943 29944 29945 29946 29947 29948 29949 29950 29951 29952 29953 29954 29955 29956 29957 29958 29959 29960 29961 29962 29963 29964 29965 29966 29967 29968 29969 29970 29971 29972 29973 29974 29975 29976 29977 29978 29979 29980 29981 29982 29983 29984 29985 29986 29987 29988 29989 29990 29991 29992 29993 29994 29995 29996 29997 29998 29999 30000 30001 30002 30003 30004 30005 30006 30007 30008 30009 30010 30011 30012 30013 30014 30015 30016 30017 30018 30019 30020 30021 30022 30023 30024 30025 30026 30027 30028 30029 30030 30031 30032 30033 30034 30035 30036 30037 30038 30039 30040 30041 30042 30043 30044 30045 30046 30047 30048 30049 30050 30051 30052 30053 30054 30055 30056 30057 30058 30059 30060 30061 30062 30063 30064 30065 30066 30067 30068 30069 30070 30071 30072 30073 30074 30075 30076 30077 30078 30079 30080 30081 30082 30083 30084 30085 30086 30087 30088 30089 30090 30091 30092 30093 30094 30095 30096 30097 30098 30099 30100 30101 30102 30103 30104 30105 30106 30107 30108 30109 30110 30111 30112 30113 30114 30115 30116 30117 30118 30119 30120 30121 30122 30123 30124 30125 30126 30127 30128 30129 30130 30131 30132 30133 30134 30135 30136 30137 30138 30139 30140 30141 30142 30143 30144 30145 30146 30147 30148 30149 30150 30151 30152 30153 30154 30155 30156 30157 30158 30159 30160 30161 30162 30163 30164 30165 30166 30167 30168 30169 30170 30171 30172 30173 30174 30175 30176 30177 30178 30179 30180 30181 30182 30183 30184 30185 30186 30187 30188 30189 30190 30191 30192 30193 30194 30195 30196 30197 30198 30199 30200 30201 30202 30203 30204 30205 30206 30207 30208 30209 30210 30211 30212 30213 30214 30215 30216 30217 30218 30219 30220 30221 30222 30223 30224 30225 30226 30227 30228 30229 30230 30231 30232 30233 30234 30235 30236 30237 30238 30239 30240 30241 30242 30243 30244 30245 30246 30247 30248 30249 30250 30251 30252 30253 30254 30255 30256 30257 30258 30259 30260 30261 30262 30263 30264 30265 30266 30267 30268 30269 30270 30271 30272 30273 30274 30275 30276 30277 30278 30279 30280 30281 30282 30283 30284 30285 30286 30287 30288 30289 30290 30291 30292 30293 30294 30295 30296 30297 30298 30299 30300 30301 30302 30303 30304 30305 30306 30307 30308 30309 30310 30311 30312 30313 30314 30315 30316 30317 30318 30319 30320 30321 30322 30323 30324 30325 30326 30327 30328 30329 30330 30331 30332 30333 30334 30335 30336 30337 30338 30339 30340 30341 30342 30343 30344 30345 30346 30347 30348 30349 30350 30351 30352 30353 30354 30355 30356 30357 30358 30359 30360 30361 30362 30363 30364 30365 30366 30367 30368 30369 30370 30371 30372 30373 30374 30375 30376 30377 30378 30379 30380 30381 30382 30383 30384 30385 30386 30387 30388 30389 30390 30391 30392 30393 30394 30395 30396 30397 30398 30399 30400 30401 30402 30403 30404 30405 30406 30407 30408 30409 30410 30411 30412 30413 30414 30415 30416 30417 30418 30419 30420 30421 30422 30423 30424 30425 30426 30427 30428 30429 30430 30431 30432 30433 30434 30435 30436 30437 30438 30439 30440 30441 30442 30443 30444 30445 30446 30447 30448 30449 30450 30451 30452 30453 30454 30455 30456 30457 30458 30459 30460 30461 30462 30463 30464 30465 30466 30467 30468 30469 30470 30471 30472 30473 30474 30475 30476 30477 30478 30479 30480 30481 30482 30483 30484 30485 30486 30487 30488 30489 30490 30491 30492 30493 30494 30495 30496 30497 30498 30499 30500 30501 30502 30503 30504 30505 30506 30507 30508 30509 30510 30511 30512 30513 30514 30515 30516 30517 30518 30519 30520 30521 30522 30523 30524 30525 30526 30527 30528 30529 30530 30531 30532 30533 30534 30535 30536 30537 30538 30539 30540 30541 30542 30543 30544 30545 30546 30547 30548 30549 30550 30551 30552 30553 30554 30555 30556 30557 30558 30559 30560 30561 30562 30563 30564 30565 30566 30567 30568 30569 30570 30571 30572 30573 30574 30575 30576 30577 30578 30579 30580 30581 30582 30583 30584 30585 30586 30587 30588 30589 30590 30591 30592 30593 30594 30595 30596 30597 30598 30599 30600 30601 30602 30603 30604 30605 30606 30607 30608 30609 30610 30611 30612 30613 30614 30615 30616 30617 30618 30619 30620 30621 30622 30623 30624 30625 30626 30627 30628 30629 30630 30631 30632 30633 30634 30635 30636 30637 30638 30639 30640 30641 30642 30643 30644 30645 30646 30647 30648 30649 30650 30651 30652 30653 30654 30655 30656 30657 30658 30659 30660 30661 30662 30663 30664 30665 30666 30667 30668 30669 30670 30671 30672 30673 30674 30675 30676 30677 30678 30679 30680 30681 30682 30683 30684 30685 30686 30687 30688 30689 30690 30691 30692 30693 30694 30695 30696 30697 30698 30699 30700 30701 30702 30703 30704 30705 30706 30707 30708 30709 30710 30711 30712 30713 30714 30715 30716 30717 30718 30719 30720 30721 30722 30723 30724 30725 30726 30727 30728 30729 30730 30731 30732 30733 30734 30735 30736 30737 30738 30739 30740 30741 30742 30743 30744 30745 30746 30747 30748 30749 30750 30751 30752 30753 30754 30755 30756 30757 30758 30759 30760 30761 30762 30763 30764 30765 30766 30767 30768 30769 30770 30771 30772 30773 30774 30775 30776 30777 30778 30779 30780 30781 30782 30783 30784 30785 30786 30787 30788 30789 30790 30791 30792 30793 30794 30795 30796 30797 30798 30799 30800 30801 30802 30803 30804 30805 30806 30807 30808 30809 30810 30811 30812 30813 30814 30815 30816 30817 30818 30819 30820 30821 30822 30823 30824 30825 30826 30827 30828 30829 30830 30831 30832 30833 30834 30835 30836 30837 30838 30839 30840 30841 30842 30843 30844 30845 30846 30847 30848 30849 30850 30851 30852 30853 30854 30855 30856 30857 30858 30859 30860 30861 30862 30863 30864 30865 30866 30867 30868 30869 30870 30871 30872 30873 30874 30875 30876 30877 30878 30879 30880 
</DataArray>
<DataArray type="UInt32" Name="offsets" format="ascii">
3 6 8 11 14 17 20 22 25 28 31 34 37 40 43 46 49 52 55 58 60 63 66 69 72 74 77 80 83 86 89 92 95 97 100 103 106 109 112 115 118 121 123 126 129 132 135 138 141 144 147 150 153 156 158 160 163 166 169 172 175 178 181 184 186 189 192 195 198 201 204 207 210 213 216 219 222 225 228 231 234 237 240 243 246 249 252 254 257 260 263 266 269 272 275 278 281 284 287 289 292 295 298 300 303 306 309 312 315 318 321 324 327 330 333 336 339 342 345 348 351 354 357 360 363 366 369 372 375 378 381 384 387 390 393 396 399 402 405 408 411 414 417 420 423 426 429 432 435 437 440 442 445 448 451 454 457 460 463 466 469 472 475 478 481 484 487 490 493 496 499 502 505 508 511 514 517 520 522 525 528 530 533 535 538 541 544 547 550 553 556 559 562 565 568 571 574 577 579 582 584 587 590 593 596 599 602 605 607 610 612 615 618 621 624 627 630 632 635 638 640 643 646 649 652 655 658 660 662 665 668 670 673 675 678 680 682 685 688 691 693 696 699 702 705 708 711 714 717 720 723 726 729 732 734 737 740 743 746 749 752 755 757 760 763 766 769 772 775 778 780 783 786 789 792 794 797 800 803 806 809 812 814 817 820 823 825 828 831 834 837 840 843 846 848 851 854 857 860 863 866 868 871 874 877 880 883 886 888 891 894 897 900 903 906 909 911 914 917 920 923 926 929 932 935 938 941 944 947 950 953 956 959 962 965 968 971 974 976 978 981 984 987 990 993 995 998 1001 1004 1007 1010 1013 1016 1018 1021 1023 1026 1029 1032 1034 1037 1040 1043 1045 1048 1050 1053 1056 1059 1062 1065 1068 1071 1073 1076 1079 1082 1085 1088 1091 1094 1096 1099 1102 1105 1107 1110 1113 1116 1119 1122 1125 1128 1131 1134 1137 1140 1143 1146 1149 1152 1155 1158 1161 1164 1167 1170 1173 1176 1179 1182 1185 1188 1191 1194 1197 1200 1203 1205 1208 1211 1214 1217 1220 1223 1226 1229 1232 1235 1238 1241 1244 1247 1250 1253 1256 1259 1262 1265 1268 1271 1274 1277 1280 1283 1286 1289 1292 1295 1298 1301 1303 1306 1309 1312 1315 1318 1321 1324 1327 1330 1333 1336 1339 1342 1345 1348 1351 1354 1357 1360 1363 1365 1368 1371 1374 1377 1380 1383 1386 1388 1391 1394 1397 1400 1403 1405 1408 1411 1413 1416 1418 1421 1424 1427 1430 1432 1435 1438 1440 1443 1446 1449 1452 1455 1458 1460 1463 1466 1469 1472 1475 1478 1481 1484 1487 1490 1493 1496 1499 1502 1505 1508 1511 1514 1517 1519 1522 1525 1528 1531 1534 1537 1540 1543 1546 1549 1552 1554 1556 1559 1562 1565 1568 1571 1574 1577 1580 1583 1586 1589 1592 1595 1598 1601 1604 1607 1610 1613 1616 1619 1621 1624 1626 1628 1631 1634 1636 1639 1642 1645 1648 1651 1654 1657 1660 1663 1666 1669 1672 1675 1677 1680 1683 1686 1689 1692 1695 1698 1700 1702 1705 1708 1711 1714 1717 1720 1723 1726 1728 1730 1733 1736 1739 1741 1744 1747 1750 1753 1756 1759 1762 1765 1768 1771 1774 1777 1780 1783 1786 1789 1792 1795 1798 1801 1804 1807 1810 1813 1816 1819 1822 1825 1828 1831 1834 1837 1840 1843 1846 1848 1851 1854 1856 1859 1862 1865 1868 1870 1873 1876 1879 1881 1884 1887 1890 1892 1895 1898 1900 1903 1906 1909 1912 1915 1918 1921 1924 1927 1930 1933 1936 1939 1942 1945 1948 1951 1954 1957 1960 1963 1965 1968 1971 1974 1976 1979 1982 1985 1988 1991 1993 1996 1999 2002 2005 2008 2011 2013 2016 2019 2022 2025 2028 2031 2034 2037 2040 2043 2046 2049 2052 2055 2058 2061 2064 2067 2069 2072 2075 2078 2081 2084 2087 2090 2093 2096 2099 2102 2105 2108 2111 2114 2117 2120 2123 2126 2129 2132 2134 2137 2140 2143 2146 2149 2152 2155 2158 2161 2164 2167 2170 2173 2176 2179 2181 2184 2187 2190 2193 2196 2199 2202 2205 2208 2211 2214 2217 2220 2223 2226 2229 2232 2235 2237 2240 2243 2246 2249 2252 2255 2258 2260 2263 2266 2269 2272 2275 2278 2281 2284 2287 2290 2293 2296 2299 2302 2305 2308 2311 2314 2317 2320 2323 2325 2328 2331 2334 2337 2340 2343 2346 2349 2352 2354 2357 2360 2363 2366 2369 2372 2375 2378 2380 2383 2386 2389 2392 2395 2398 2401 2404 2407 2410 2413 2416 2419 2422 2425 2428 2431 2434 2437 2439 2442 2445 2448 2451 2454 2456 2459 2462 2465 2467 2470 2473 2476 2479 2482 2485 2487 2490 2493 2496 2499 2502 2505 2508 2511 2514 2517 2519 2522 2525 2528 2531 2534 2537 2540 2543 2546 2549 2552 2555 2557 2560 2562 2565 2568 2571 2574 2577 2580 2583 2585 2588 2590 2593 2596 2599 2602 2605 2608 2611 2614 2617 2620 2623 2626 2629 2632 2635 2638 2641 2644 2647 2650 2653 2656 2659 2662 2665 2668 2671 2674 2677 2680 2683 2686 2689 2692 2695 2698 2701 2704 2707 2710 2713 2716 2719 2722 2725 2727 2729 2732 2735 2737 2740 2743 2746 2749 2752 2755 2758 2761 2764 2767 2770 2773 2776 2779 2782 2785 2787 2790 2793 2796 2799 2801 2804 2807 2809 2812 2815 2818 2821 2824 2827 2829 2832 2834 2837 2840 2842 2845 2848 2851 2854 2857 2860 2863 2866 2869 2872 2874 2877 2880 2883 2886 2889 2891 2893 2896 2899 2902 2905 2907 2910 2913 2915 2918 2920 2923 2926 2929 2932 2935 2937 2940 2943 2945 2948 2951 2954 2957 2960 2963 2966 2969 2972 2975 2978 2981 2983 2986 2989 2992 2995 2998 3001 3004 3007 3010 3013 3016 3019 3022 3025 3028 3030 3033 3035 3038 3040 3042 3045 3047 3050 3053 3055 3058 3061 3064 3067 3070 3073 3075 3078 3080 3083 3086 3088 3091 3094 3097 3099 3102 3105 3107 3110 3113 3116 3119 3122 3124 3127 3130 3132 3135 3138 3141 3144 3147 3149 3152 3154 3157 3160 3162 3165 3168 3170 3173 3176 3179 3182 3185 3188 3191 3194 3196 3199 3202 3205 3208 3211 3214 3217 3220 3223 3226 3228 3231 3234 3237 3240 3242 3245 3248 3250 3253 3256 3259 3262 3265 3267 3270 3273 3276 3279 3282 3284 3287 3289 3292 3295 3298 3301 3304 3307 3309 3312 3315 3318 3321 3324 3327 3330 3333 3335 3337 3339 3342 3345 3348 3351 3353 3356 3358 3361 3364 3367 3369 3371 3374 3377 3380 3382 3385 3388 3391 3393 3396 3398 3401 3403 3405 3408 3410 3413 3416 3419 3422 3424 3427 3430 3433 3435 3438 3440 3443 3445 3448 3451 3454 3457 3460 3463 3466 3468 3471 3474 3477 3480 3482 3485 3488 3491 3494 3497 3500 3503 3506 3508 3511 3513 3515 3518 3521 3524 3526 3529 3532 3535 3538 3540 3542 3545 3548 3550 3552 3555 3558 3561 3564 3567 3569 3572 3575 3578 3581 3584 3587 3590 3593 3595 3598 3600 3603 3606 3609 3612 3615 3618 3621 3624 3627 3630 3633 3636 3639 3642 3645 3648 3651 3653 3656 3659 3662 3665 3668 3671 3674 3677 3680 3683 3686 3689 3692 3695 3698 3701 3704 3707 3710 3713 3716 3719 3722 3725 3728 3730 3733 3735 3738 3741 3744 3747 3750 3752 3754 3757 3760 3763 3766 3768 3770 3773 3775 3778 3781 3783 3786 3789 3791 3794 3797 3800 3803 3805 3807 3810 3813 3816 3819 3822 3825 3828 3831 3833 3836 3839 3841 3844 3847 3850 3852 3855 3858 3860 3863 3866 3869 3872 3875 3878 3880 3883 3886 3889 3892 3895 3898 3900 3903 3906 3909 3912 3915 3917 3920 3923 3925 3927 3930 3933 3935 3938 3941 3943 3946 3949 3952 3955 3958 3961 3964 3967 3970 3973 3976 3979 3981 3984 3986 3989 3992 3994 3997 4000 4003 4006 4009 4012 4014 4017 4020 4023 4025 4027 4029 4032 4035 4038 4040 4042 4045 4047 4049 4052 4055 4057 4060 4063 4065 4068 4070 4073 4075 4078 4081 4084 4086 4088 4091 4094 4096 4098 4100 4102 4105 4108 4111 4113 4115 4118 4121 4123 4125 4127 4130 4132 4134 4137 4140 4142 4145 4147 4149 4152 4154 4157 4160 4162 4165 4167 4169 4172 4175 4178 4181 4183 4185 4188 4191 4193 4196 4199 4202 4204 4207 4210 4213 4216 4219 4222 4225 4228 4231 4234 4237 4240 4243 4246 4249 4252 4255 4258 4261 4264 4267 4270 4273 4276 4279 4282 4285 4288 4291 4294 4297 4300 4303 4306 4309 4312 4315 4318 4321 4324 4327 4330 4333 4336 4339 4342 4345 4348 4351 4354 4357 4360 4363 4366 4369 4372 4375 4378 4380 4383 4385 4388 4391 4394 4397 4400 4403 4406 4409 4412 4415 4418 4421 4424 4427 4429 4432 4435 4438 4441 4444 4447 4450 4453 4456 4459 4461 4464 4467 4470 4473 4476 4479 4482 4485 4488 4491 4494 4497 4500 4503 4506 4509 4512 4515 4518 4521 4524 4527 4530 4533 4536 4539 4542 4545 4548 4551 4554 4557 4560 4563 4566 4569 4572 4575 4578 4581 4584 4587 4590 4593 4596 4599 4601 4604 4607 4610 4612 4615 4617 4620 4623 4626 4629 4632 4634 4637 4639 4642 4645 4648 4651 4654 4657 4660 4663 4666 4669 4672 4675 4678 4681 4684 4687 4690 4693 4696 4699 4702 4705 4708 4711 4714 4716 4719 4722 4725 4728 4731 4734 4736 4739 4741 4744 4747 4750 4752 4755 4758 4760 4763 4766 4769 4772 4775 4778 4781 4784 4787 4790 4793 4796 4799 4802 4805 4808 4811 4814 4817 4820 4823 4826 4829 4832 4835 4838 4841 4844 4847 4850 4853 4856 4859 4862 4865 4868 4871 4873 4876 4878 4881 4884 4887 4890 4893 4896 4899 4902 4905 4908 4910 4913 4916 4919 4922 4925 4928 4931 4934 4937 4940 4943 4946 4949 4952 4955 4958 4961 4963 4966 4969 4972 4974 4976 4979 4981 4984 4987 4990 4993 4996 4999 5002 5005 5007 5010 5013 5016 5019 5021 5024 5027 5030 5033 5036 5039 5042 5044 5047 5050 5052 5055 5057 5060 5063 5065 5068 5071 5073 5075 5078 5081 5084 5087 5090 5093 5096 5099 5102 5105 5108 5111 5114 5117 5120 5122 5125 5127 5130 5133 5136 5138 5141 5143 5146 5149 5152 5155 5158 5161 5164 5167 5170 5173 5176 5179 5181 5184 5186 5189 5192 5195 5198 5201 5204 5207 5210 5212 5215 5218 5220 5223 5226 5229 5231 5233 5236 5239 5242 5245 5248 5251 5254 5257 5260 5263 5266 5269 5272 5275 5278 5281 5284 5287 5290 5293 5296 5298 5301 5304 5307 5310 5313 5315 5318 5320 5323 5326 5329 5332 5334 5337 5340 5342 5345 5348 5351 5354 5357 5359 5362 5365 5368 5371 5373 5376 5379 5382 5385 5388 5391 5394 5396 5399 5402 5405 5407 5410 5413 5416 5419 5422 5425 5428 5431 5434 5437 5440 5442 5445 5448 5451 5454 5457 5460 5463 5466 5468 5471 5474 5477 5480 5483 5486 5488 5491 5494 5497 5500 5503 5506 5508 5511 5514 5517 5520 5523 5526 5529 5532 5535 5538 5541 5543 5546 5549 5552 5554 5557 5560 5563 5565 5568 5570 5573 5576 5579 5582 5585 5588 5590 5593 5596 5599 5602 5605 5608 5611 5614 5617 5620 5623 5626 5629 5632 5635 5637 5640 5643 5646 5649 5652 5654 5657 5660 5663 5666 5669 5672 5675 5678 5680 5683 5686 5689 5692 5695 5698 5701 5704 5707 5710 5713 5716 5719 5722 5725 5728 5730 5733 5736 5739 5742 5744 5747 5750 5753 5756 5759 5762 5765 5768 5771 5774 5777 5780 5783 5786 5789 5792 5795 5798 5801 5804 5807 5810 5813 5816 5819 5822 5824 5827 5830 5833 5835 5838 5840 5843 5846 5849 5852 5854 5857 5859 5862 5865 5868 5871 5874 5876 5879 5882 5885 5888 5891 5894 5897 5900 5903 5905 5908 5911 5914 5917 5920 5923 5926 5929 5932 5935 5938 5941 5944 5947 5950 5953 5956 5959 5962 5965 5968 5971 5974 5977 5979 5981 5984 5987 5990 5993 5996 5998 6001 6004 6007 6009 6012 6015 6018 6020 6023 6026 6028 6031 6033 6036 6039 6042 6045 6047 6050 6053 6056 6059 6061 6063 6066 6069 6072 6075 6078 6081 6084 6087 6090 6093 6096 6099 6101 6104 6107 6110 6113 6115 6118 6121 6124 6127 6130 6132 6135 6138 6140 6143 6146 6149 6152 6155 6158 6161 6164 6167 6170 6173 6176 6179 6182 6185 6188 6190 6193 6196 6198 6201 6204 6207 6209 6212 6215 6218 6221 6224 6227 6230 6233 6236 6239 6242 6244 6247 6250 6253 6256 6259 6262 6265 6268 6271 6274 6277 6280 6283 6286 6289 6292 6294 6297 6300 6302 6305 6307 6310 6313 6315 6318 6320 6323 6325 6328 6331 6334 6337 6340 6343 6346 6349 6352 6355 6358 6361 6364 6366 6369 6371 6373 6376 6379 6381 6383 6386 6389 6391 6393 6396 6399 6402 6404 6407 6409 6412 6415 6417 6420 6423 6426 6429 6431 6433 6436 6438 6441 6444 6446 6448 6451 6454 6456 6459 6462 6465 6467 6470 6473 6476 6478 6480 6482 6485 6488 6490 6493 6495 6497 6500 6503 6506 6509 6512 6515 6518 6521 6524 6527 6530 6532 6534 6537 6539 6542 6544 6547 6549 6552 6555 6558 6560 6563 6566 6569 6572 6575 6577 6580 6583 6586 6589 6592 6595 6598 6601 6604 6607 6610 6613 6616 6619 6622 6625 6628 6631 6634 6637 6640 6643 6646 6649 6651 6654 6657 6660 6663 6666 6669 6672 6675 6678 6681 6684 6687 6690 6693 6696 6699 6702 6705 6707 6710 6713 6716 6719 6722 6725 6728 6731 6734 6737 6740 6742 6745 6748 6751 6754 6757 6759 6762 6765 6768 6771 6774 6777 6780 6783 6786 6789 6792 6795 6798 6801 6803 6806 6809 6812 6815 6818 6821 6824 6827 6830 6833 6836 6839 6842 6845 6847 6850 6852 6855 6858 6861 6864 6866 6869 6872 6875 6878 6881 6884 6887 6890 6893 6896 6899 6902 6904 6907 6909 6912 6915 6918 6921 6923 6926 6929 6932 6935 6938 6941 6944 6946 6949 6952 6955 6958 6961 6964 6967 6969 6972 6975 6978 6980 6983 6985 6988 6991 6994 6997 7000 7003 7006 7009 7012 7014 7017 7020 7023 7026 7029 7032 7035 7038 7041 7044 7047 7050 7053 7056 7059 7062 7065 7068 7071 7074 7077 7080 7083 7086 7089 7092 7095 7098 7101 7104 7107 7110 7113 7116 7119 7122 7125 7128 7131 7134 7137 7140 7143 7145 7148 7151 7153 7156 7159 7162 7165 7168 7171 7174 7177 7180 7183 7185 7188 7191 7194 7197 7200 7202 7205 7208 7210 7213 7216 7219 7222 7225 7228 7230 7233 7236 7239 7242 7244 7247 7250 7252 7255 7257 7260 7263 7266 7269 7272 7275 7278 7281 7284 7287 7290 7292 7295 7297 7300 7303 7306 7309 7311 7314 7317 7320 7323 7326 7329 7332 7335 7338 7341 7344 7347 7350 7353 7356 7359 7362 7365 7368 7371 7374 7376 7379 7382 7385 7388 7390 7393 7396 7399 7402 7405 7408 7411 7413 7416 7419 7422 7425 7428 7430 7433 7436 7439 7441 7444 7447 7450 7452 7455 7458 7460 7463 7466 7469 7471 7474 7477 7479 7482 7485 7488 7491 7494 7497 7500 7503 7506 7509 7512 7515 7518 7521 7524 7527 7530 7533 7536 7539 7542 7545 7548 7551 7554 7557 7560 7563 7566 7569 7572 7574 7577 7580 7583 7586 7589 7592 7595 7598 7601 7604 7607 7609 7612 7615 7618 7621 7624 7627 7630 7633 7636 7639 7642 7645 7648 7651 7654 7656 7658 7661 7664 7667 7669 7672 7675 7678 7681 7683 7686 7689 7691 7694 7697 7700 7703 7706 7709 7712 7715 7718 7721 7724 7727 7730 7732 7734 7737 7740 7743 7746 7749 7752 7755 7758 7761 7764 7767 7769 7772 7775 7777 7780 7783 7786 7789 7792 7795 7798 7801 7804 7807 7810 7813 7816 7819 7822 7825 7828 7831 7834 7836 7839 7842 7845 7847 7850 7853 7856 7859 7862 7864 7867 7870 7873 7876 7879 7882 7885 7888 7891 7894 7897 7900 7903 7906 7909 7912 7915 7918 7921 7924 7926 7929 7932 7934 7937 7940 7943 7946 7949 7952 7955 7958 7961 7964 7967 7970 7973 7976 7979 7982 7985 7988 7991 7993 7996 7999 8002 8005 8008 8011 8014 8017 8020 8023 8026 8029 8032 8035 8038 8041 8044 8047 8050 8053 8056 8059 8062 8065 8068 8071 8074 8077 8080 8083 8086 8089 8091 8094 8097 8100 8103 8106 8109 8111 8114 8117 8120 8123 8126 8128 8131 8134 8137 8140 8142 8145 8148 8151 8154 8157 8160 8163 8166 8169 8172 8175 8178 8181 8184 8187 8190 8193 8196 8199 8202 8205 8208 8210 8213 8216 8219 8222 8225 8228 8231 8233 8236 8239 8241 8244 8247 8249 8252 8255 8258 8261 8264 8267 8269 8272 8275 8278 8281 8284 8287 8290 8293 8296 8299 8301 8304 8306 8309 8312 8315 8318 8321 8324 8327 8330 8332 8335 8338 8340 8343 8346 8349 8351 8354 8357 8360 8362 8365 8368 8371 8373 8375 8378 8381 8383 8386 8389 8391 8394 8397 8399 8402 8405 8408 8411 8414 8417 8420 8423 8426 8428 8431 8434 8437 8439 8442 8445 8448 8450 8453 8456 8459 8461 8464 8466 8469 8472 8474 8477 8480 8483 8486 8489 8492 8495 8498 8500 8503 8506 8508 8511 8514 8517 8520 8523 8526 8529 8532 8535 8538 8541 8544 8547 8549 8552 8554 8557 8560 8563 8565 8567 8570 8572 8575 8578 8581 8584 8586 8589 8591 8594 8597 8600 8603 8606 8609 8612 8615 8618 8620 8623 8626 8629 8632 8635 8638 8641 8644 8647 8650 8653 8656 8659 8662 8665 8668 8671 8674 8677 8680 8683 8686 8689 8692 8695 8698 8701 8704 8706 8709 8712 8715 8718 8721 8724 8726 8729 8732 8735 8738 8741 8744 8746 8749 8752 8755 8758 8761 8764 8766 8769 8772 8775 8777 8780 8783 8786 8788 8791 8794 8796 8799 8802 8805 8808 8811 8814 8816 8819 8822 8825 8827 8829 8832 8835 8838 8841 8844 8847 8850 8853 8856 8859 8862 8865 8868 8871 8874 8877 8880 8882 8885 8888 8891 8894 8897 8900 8903 8905 8908 8911 8914 8917 8920 8922 8925 8928 8931 8934 8937 8939 8942 8945 8947 8950 8953 8956 8959 8961 8964 8967 8970 8973 8976 8979 8981 8984 8986 8989 8991 8993 8996 8998 9001 9004 9007 9009 9012 9015 9018 9021 9024 9026 9029 9032 9035 9037 9040 9043 9046 9049 9051 9053 9055 9058 9061 9064 9067 9069 9071 9074 9076 9079 9082 9085 9088 9091 9094 9096 9099 9101 9104 9107 9109 9112 9115 9118 9120 9123 9126 9128 9131 9134 9137 9140 9143 9146 9149 9152 9155 9158 9161 9164 9166 9169 9172 9175 9178 9180 9183 9186 9189 9192 9194 9197 9200 9203 9206 9209 9212 9215 9218 9221 9223 9225 9227 9230 9233 9236 9238 9240 9243 9246 9248 9251 9253 9256 9259 9262 9265 9268 9271 9274 9276 9279 9282 9285 9288 9291 9294 9297 9300 9303 9306 9309 9312 9315 9318 9321 9324 9326 9329 9332 9335 9338 9341 9344 9347 9350 9353 9355 9358 9361 9363 9366 9368 9371 9373 9376 9379 9381 9384 9387 9390 9392 9394 9397 9400 9402 9405 9408 9411 9413 9416 9419 9422 9425 9427 9430 9433 9436 9439 9442 9445 9448 9451 9454 9457 9460 9462 9464 9467 9470 9473 9476 9479 9482 9485 9488 9491 9494 9497 9500 9503 9506 9509 9512 9515 9518 9521 9524 9527 9530 9533 9536 9539 9542 9545 9548 9551 9554 9557 9560 9562 9565 9568 9571 9574 9577 9580 9583 9586 9589 9592 9595 9598 9601 9604 9607 9610 9613 9616 9619 9621 9624 9627 9630 9633 9636 9639 9641 9643 9646 9649 9651 9653 9656 9659 9662 9664 9667 9670 9673 9676 9679 9682 9685 9688 9691 9694 9697 9700 9703 9706 9709 9712 9715 9718 9721 9724 9727 9730 9733 9735 9738 9740 9743 9745 9748 9751 9754 9757 9760 9763 9765 9768 9770 9772 9775 9778 9780 9783 9786 9789 9792 9795 9798 9800 9802 9805 9808 9810 9812 9815 9818 9820 9822 9825 9828 9831 9834 9837 9840 9843 9846 9848 9851 9854 9857 9860 9863 9865 9868 9871 9873 9876 9879 9882 9884 9887 9890 9893 9896 9899 9902 9905 9908 9911 9914 9917 9920 9923 9926 9929 9932 9935 9938 9941 9944 9947 9950 9953 9956 9959 9962 9965 9968 9971 9974 9977 9980 9983 9986 9988 9991 9994 9996 9999 10001 10003 10006 10009 10012 10015 10018 10021 10024 10027 10030 10032 10035 10038 10041 10044 10047 10049 10052 10055 10058 10061 10064 10067 10070 10072 10075 10078 10081 10084 10087 10090 10093 10096 10098 10101 10104 10107 10110 10113 10115 10118 10121 10124 10127 10130 10133 10136 10139 10142 10145 10148 10151 10154 10157 10160 10163 10166 10169 10172 10175 10178 10181 10184 10187 10190 10193 10196 10199 10202 10205 10207 10209 10212 10215 10218 10221 10224 10227 10230 10232 10235 10238 10241 10243 10246 10248 10251 10254 10257 10260 10263 10266 10269 10272 10275 10278 10281 10284 10287 10290 10293 10296 10299 10302 10305 10308 10311 10313 10316 10319 10322 10325 10328 10331 10333 10336 10339 10342 10345 10348 10351 10354 10356 10359 10362 10364 10367 10370 10373 10376 10379 10382 10384 10387 10390 10393 10395 10398 10401 10403 10405 10408 10411 10414 10417 10420 10423 10426 10429 10432 10435 10438 10441 10444 10447 10450 10453 10456 10459 10462 10465 10468 10471 10474 10477 10480 10483 10486 10489 10491 10494 10497 10500 10503 10506 10509 10512 10515 10518 10521 10524 10527 10530 10533 10536 10539 10542 10545 10548 10550 10553 10556 10559 10561 10563 10566 10569 10572 10575 10578 10580 10583 10586 10589 10591 10594 10597 10600 10603 10606 10608 10611 10614 10617 10620 10623 10626 10629 10632 10635 10638 10641 10644 10647 10650 10653 10656 10659 10662 10665 10668 10671 10673 10676 10679 10682 10685 10688 10691 10693 10696 10699 10702 10705 10708 10711 10714 10717 10720 10723 10726 10729 10731 10734 10737 10740 10743 10745 10748 10750 10753 10756 10759 10762 10765 10768 10771 10774 10777 10780 10783 10786 10789 10791 10794 10797 10800 10803 10806 10808 10811 10814 10817 10820 10823 10826 10828 10831 10834 10837 10840 10843 10846 10849 10852 10855 10858 10861 10864 10866 10869 10872 10874 10877 10880 10882 10885 10888 10890 10893 10896 10899 10902 10905 10908 10911 10914 10917 10920 10922 10925 10928 10931 10934 10937 10940 10943 10946 10948 10951 10954 10957 10959 10962 10965 10968 10970 10973 10976 10978 10981 10984 10987 10989 10992 10995 10998 11001 11004 11006 11009 11011 11014 11017 11020 11023 11025 11027 11030 11033 11036 11038 11041 11044 11047 11050 11052 11055 11058 11061 11064 11067 11070 11073 11076 11079 11082 11085 11088 11091 11094 11097 11099 11102 11105 11107 11109 11112 11115 11118 11121 11123 11126 11129 11132 11135 11138 11141 11143 11146 11149 11152 11155 11158 11161 11163 11166 11169 11172 11175 11178 11181 11184 11187 11189 11192 11195 11198 11201 11204 11207 11210 11213 11216 11219 11221 11224 11227 11229 11232 11235 11237 11240 11243 11246 11249 11252 11254 11256 11259 11262 11264 11266 11269 11271 11274 11276 11279 11281 11283 11286 11289 11291 11294 11296 11299 11301 11304 11306 11309 11311 11314 11317 11319 11322 11324 11327 11329 11332 11335 11338 11341 11344 11347 11349 11352 11355 11358 11360 11363 11366 11369 11372 11375 11378 11381 11384 11387 11389 11392 11395 11397 11400 11402 11405 11407 11410 11413 11416 11418 11420 11423 11426 11429 11432 11435 11438 11441 11444 11447 11450 11453 11455 11458 11461 11464 11467 11470 11472 11475 11478 11481 11484 11487 11490 11493 11496 11499 11502 11505 11508 11511 11514 11517 11520 11523 11525 11528 11531 11534 11537 11540 11543 11545 11548 11551 11554 11556 11559 11562 11564 11567 11570 11573 11575 11578 11580 11582 11585 11588 11591 11594 11597 11600 11603 11606 11609 11611 11614 11617 11620 11623 11626 11629 11632 11634 11637 11639 11642 11644 11647 11650 11653 11656 11659 11662 11665 11668 11671 11674 11677 11680 11683 11686 11689 11692 11695 11698 11701 11704 11707 11710 11713 11716 11719 11722 11725 11728 11731 11734 11737 11740 11743 11746 11749 11752 11755 11757 11760 11763 11765 11767 11770 11773 11776 11779 11781 11784 11787 11790 11793 11796 11798 11801 11804 11806 11808 11811 11814 11817 11820 11823 11826 11828 11831 11833 11836 11839 11841 11843 11846 11848 11851 11854 11857 11859 11862 11865 11868 11871 11873 11876 11879 11882 11884 11887 11890 11892 11894 11897 11900 11903 11905 11908 11911 11914 11917 11919 11922 11925 11927 11930 11933 11936 11938 11941 11944 11946 11949 11952 11955 11957 11960 11962 11965 11968 11970 11973 11976 11978 11980 11983 11986 11988 11991 11993 11995 11998 12001 12004 12007 12009 12012 12015 12018 12021 12023 12026 12029 12032 12035 12038 12041 12044 12047 12050 12053 12056 12059 12061 12064 12067 12070 12073 12075 12078 12080 12083 12086 12089 12092 12095 12097 12099 12101 12104 12107 12110 12113 12116 12119 12122 12125 12127 12130 12133 12136 12139 12142 12145 12147 12150 12153 12156 12159 12161 12164 12167 12170 12173 12176 12179 12182 12185 12188 12191 12194 12197 12200 12203 12206 12209 12212 12215 12217 12220 12222 12225 12228 12230 12232 12235 12237 12240 12243 12245 12248 12250 12253 12255 12258 12260 12263 12266 12269 12272 12274 12277 12280 12283 12285 12288 12291 12294 12297 12300 12303 12306 12309 12312 12315 12318 12321 12324 12327 12330 12333 12336 12339 12342 12345 12348 12351 12354 12357 12360 12362 12365 12368 12371 12374 12377 12379 12382 12385 12388 12391 12394 12397 12400 12403 12406 12409 12412 12414 12417 12420 12423 12426 12429 12431 12434 12437 12439 12441 12444 12447 12450 12452 12455 12458 12460 12462 12465 12467 12470 12473 12476 12479 12482 12485 12488 12491 12494 12497 12500 12503 12506 12509 12512 12515 12517 12520 12523 12526 12529 12531 12534 12537 12540 12543 12546 12549 12552 12555 12557 12559 12562 12565 12567 12570 12573 12576 12579 12582 12585 12588 12591 12594 12596 12598 12601 12604 12606 12609 12612 12615 12617 12620 12623 12626 12629 12632 12635 12638 12641 12644 12647 12650 12653 12656 12659 12662 12665 12668 12671 12674 12677 12680 12683 12686 12689 12692 12695 12697 12700 12703 12706 12709 12712 12715 12718 12721 12724 12727 12730 12733 12736 12739 12742 12745 12748 12751 12754 12757 12759 12762 12765 12768 12770 12772 12775 12778 12781 12783 12786 12789 12791 12794 12797 12800 12803 12806 12808 12811 12813 12816 12819 12822 12825 12828 12831 12834 12837 12839 12842 12845 12848 12850 12853 12856 12858 12861 12863 12866 12869 12872 12874 12877 12880 12883 12885 12888 12891 12894 12897 12900 12903 12906 12909 12912 12915 12918 12921 12924 12927 12930 12933 12936 12938 12941 12944 12947 12950 12953 12956 12959 12962 12965 12967 12970 12973 12976 12979 12982 12985 12988 12991 12993 12996 12999 13002 13005 13008 13011 13014 13017 13020 13023 13026 13029 13032 13034 13037 13040 13043 13045 13048 13051 13054 13057 13060 13063 13066 13069 13072 13075 13078 13081 13084 13087 13090 13093 13096 13099 13102 13104 13107 13110 13113 13115 13118 13120 13123 13126 13129 13131 13134 13137 13140 13142 13144 13147 13150 13153 13156 13159 13162 13165 13168 13171 13174 13177 13180 13183 13186 13189 13192 13195 13198 13201 13204 13207 13210 13212 13215 13218 13221 13224 13226 13229 13232 13235 13238 13240 13243 13246 13249 13252 13255 13258 13261 13263 13266 13269 13272 13275 13277 13280 13283 13286 13289 13292 13295 13297 13300 13303 13306 13309 13312 13315 13317 13320 13323 13326 13328 13331 13334 13337 13340 13343 13346 13349 13352 13355 13357 13360 13363 13366 13369 13372 13375 13377 13380 13383 13386 13389 13392 13395 13398 13401 13404 13407 13410 13412 13415 13418 13420 13423 13426 13429 13432 13435 13437 13440 13443 13445 13448 13451 13454 13457 13460 13463 13466 13468 13470 13473 13476 13479 13482 13484 13487 13490 13493 13496 13499 13502 13504 13507 13510 13513 13516 13519 13522 13525 13528 13531 13534 13536 13539 13542 13545 13548 13551 13554 13557 13560 13563 13566 13569 13572 13574 13577 13579 13582 13585 13588 13590 13593 13596 13598 13601 13604 13607 13610 13612 13615 13618 13621 13624 13627 13629 13632 13635 13638 13641 13644 13647 13650 13653 13655 13658 13661 13664 13667 13669 13672 13675 13678 13681 13684 13687 13690 13692 13695 13698 13701 13704 13707 13710 13713 13716 13719 13722 13724 13727 13730 13733 13735 13738 13740 13743 13746 13749 13752 13755 13758 13760 13763 13765 13768 13770 13773 13776 13779 13782 13784 13787 13790 13793 13796 13799 13802 13805 13808 13811 13814 13817 13820 13823 13826 13828 13831 13833 13836 13839 13842 13845 13848 13851 13854 13856 13859 13862 13865 13868 13871 13874 13877 13880 13883 13886 13889 13892 13895 13897 13900 13903 13906 13909 13911 13914 13917 13920 13923 13926 13929 13932 13935 13938 13941 13944 13947 13950 13953 13956 13959 13962 13965 13968 13971 13974 13977 13980 13983 13985 13988 13991 13994 13997 13999 14002 14005 14008 14010 14013 14016 14018 14021 14024 14026 14029 14032 14035 14038 14041 14044 14047 14050 14053 14056 14059 14062 14065 14068 14071 14073 14076 14079 14081 14084 14087 14090 14093 14096 14099 14102 14104 14107 14110 14113 14116 14119 14121 14124 14127 14130 14132 14135 14138 14141 14143 14146 14149 14152 14155 14158 14161 14164 14166 14169 14172 14175 14177 14180 14182 14184 14187 14190 14193 14196 14199 14201 14204 14207 14210 14213 14216 14219 14222 14225 14228 14231 14233 14236 14239 14242 14245 14248 14251 14254 14257 14260 14263 14266 14269 14272 14275 14278 14281 14284 14287 14290 14293 14296 14299 14302 14305 14308 14311 14314 14317 14320 14323 14326 14329 14332 14335 14338 14341 14344 14346 14349 14352 14355 14358 14361 14364 14367 14370 14373 14376 14379 14382 14385 14388 14391 14394 14396 14399 14402 14405 14408 14411 14414 14417 14420 14423 14425 14428 14431 14434 14437 14440 14443 14446 14448 14451 14454 14457 14460 14463 14466 14469 14472 14475 14478 14481 14484 14487 14490 14493 14496 14499 14502 14505 14508 14511 14513 14516 14519 14522 14525 14528 14531 14534 14537 14540 14543 14546 14549 14552 14555 14558 14561 14564 14566 14569 14572 14575 14578 14581 14584 14587 14590 14593 14596 14599 14602 14605 14608 14611 14614 14617 14620 14623 14626 14629 14632 14635 14638 14641 14644 14647 14650 14653 14656 14659 14662 14665 14668 14671 14674 14677 14680 14683 14686 14689 14692 14695 14698 14701 14704 14706 14709 14712 14715 14718 14721 14724 14727 14730 14733 14736 14739 14742 14745 14747 14750 14752 14755 14758 14761 14764 14767 14769 14772 14775 14778 14781 14784 14786 14788 14791 14794 14797 14800 14803 14806 14809 14812 14815 14818 14821 14824 14827 14830 14833 14836 14839 14841 14843 14846 14849 14852 14855 14858 14861 14863 14866 14868 14871 14874 14877 14880 14883 14886 14889 14892 14895 14897 14900 14903 14906 14909 14912 14915 14918 14921 14924 14927 14930 14933 14936 14939 14942 14945 14948 14951 14954 14956 14959 14962 14965 14968 14971 14973 14976 14978 14981 14984 14987 14990 14993 14996 14999 15001 15004 15007 15010 15012 15015 15018 15021 15023 15026 15029 15031 15034 15037 15040 15042 15045 15048 15050 15053 15055 15058 15060 15063 15066 15068 15071 15074 15077 15080 15083 15086 15089 15092 15095 15098 15101 15104 15107 15110 15113 15116 15119 15122 15125 15128 15131 15133 15136 15138 15141 15144 15147 15150 15153 15156 15159 15161 15164 15167 15170 15173 15176 15179 15182 15185 15188 15191 15194 15197 15200 15203 15206 15209 15212 15215 15218 15220 15223 15226 15229 15231 15234 15237 15240 15243 15246 15249 15252 15255 15258 15261 15263 15266 15269 15272 15275 15277 15280 15283 15285 15288 15291 15294 15297 15300 15302 15305 15308 15311 15314 15316 15319 15321 15324 15327 15329 15332 15335 15338 15341 15344 15347 15350 15352 15355 15358 15360 15363 15365 15368 15371 15374 15377 15380 15383 15386 15389 15392 15395 15398 15401 15404 15407 15410 15413 15416 15419 15421 15424 15427 15430 15433 15436 15439 15442 15444 15447 15450 15453 15456 15458 15461 15464 15467 15470 15473 15476 15479 15482 15485 15487 15490 15493 15496 15499 15501 15504 15507 15510 15513 15516 15519 15522 15525 15528 15531 15534 15537 15539 15542 15545 15548 15551 15554 15557 15560 15563 15566 15568 15571 15574 15577 15580 15583 15586 15589 15592 15595 15598 15601 15604 15606 15609 15612 15614 15617 15620 15623 15626 15629 15632 15635 15638 15641 15643 15645 15647 15650 15653 15656 15658 15661 15664 15667 15670 15673 15676 15678 15681 15684 15687 15689 15691 15694 15697 15700 15703 15706 15709 15712 15715 15718 15721 15724 15727 15729 15732 15735 15738 15740 15742 15745 15748 15751 15754 15757 15759 15762 15765 15768 15771 15773 15776 15779 15782 15785 15787 15790 15793 15796 15799 15802 15804 15806 15808 15811 15814 15817 15819 15821 15824 15827 15830 15833 15836 15839 15842 15845 15848 15850 15852 15855 15858 15861 15863 15865 15868 15871 15874 15877 15880 15883 15886 15889 15892 15895 15898 15901 15904 15907 15910 15913 15916 15918 15921 15923 15926 15929 15932 15935 15937 15940 15943 15946 15949 15952 15955 15958 15960 15963 15966 15969 15972 15975 15978 15981 15983 15986 15989 15991 15994 15996 15998 16001 16004 16007 16009 16011 16014 16017 16020 16022 16024 16027 16030 16033 16036 16039 16042 16045 16048 16051 16054 16056 16059 16062 16065 16068 16071 16074 16077 16079 16082 16085 16088 16091 16093 16096 16099 16102 16105 16108 16111 16113 16116 16119 16122 16125 16127 16130 16132 16135 16138 16141 16144 16147 16150 16153 16156 16159 16162 16165 16168 16171 16174 16176 16179 16182 16185 16188 16191 16194 16197 16199 16202 16205 16208 16211 16213 16216 16219 16222 16224 16227 16230 16233 16236 16239 16242 16245 16248 16251 16254 16257 16260 16263 16266 16269 16272 16275 16278 16281 16284 16287 16290 16292 16295 16297 16300 16303 16305 16308 16311 16314 16316 16319 16322 16324 16327 16330 16333 16336 16339 16342 16345 16348 16351 16354 16357 16360 16363 16366 16369 16372 16375 16378 16381 16384 16386 16388 16390 16393 16396 16399 16402 16405 16408 16411 16414 16417 16420 16423 16426 16429 16431 16434 16437 16440 16442 16445 16448 16450 16453 16456 16459 16462 16464 16467 16470 16472 16474 16477 16480 16483 16486 16488 16491 16494 16496 16499 16501 16504 16507 16510 16513 16516 16519 16522 16525 16528 16531 16534 16537 16539 16542 16545 16548 16551 16554 16557 16560 16562 16565 16567 16570 16573 16576 16579 16581 16584 16587 16590 16593 16596 16599 16602 16605 16608 16611 16614 16617 16620 16623 16626 16629 16632 16635 16638 16641 16644 16647 16650 16652 16655 16658 16661 16663 16666 16668 16671 16674 16677 16679 16682 16685 16688 16691 16694 16696 16699 16702 16704 16707 16710 16713 16716 16719 16722 16725 16728 16730 16733 16736 16739 16742 16745 16747 16750 16753 16756 16759 16762 16765 16768 16771 16774 16777 16780 16783 16786 16789 16791 16794 16797 16800 16803 16805 16808 16811 16814 16817 16820 16823 16826 16829 16832 16835 16838 16841 16843 16846 16849 16852 16855 16857 16860 16863 16866 16869 16872 16875 16878 16881 16884 16887 16890 16893 16896 16898 16901 16904 16906 16909 16912 16915 16917 16920 16923 16926 16929 16932 16935 16938 16941 16944 16947 16950 16953 16956 16958 16960 16963 16965 16967 16970 16973 16976 16978 16980 16983 16985 16988 16990 16993 16995 16998 17001 17004 17006 17009 17011 17014 17017 17020 17023 17025 17028 17031 17034 17037 17040 17043 17045 17048 17051 17054 17057 17060 17062 17065 17068 17070 17073 17076 17078 17081 17084 17086 17089 17092 17095 17098 17101 17103 17106 17108 17111 17114 17117 17120 17123 17126 17129 17132 17135 17138 17141 17144 17147 17149 17152 17155 17157 17160 17163 17166 17169 17172 17175 17178 17181 17184 17186 17189 17192 17195 17198 17201 17204 17207 17210 17213 17215 17218 17221 17223 17226 17228 17231 17234 17237 17240 17243 17246 17249 17251 17254 17257 17260 17263 17266 17269 17272 17274 17277 17279 17282 17285 17287 17290 17293 17296 17298 17301 17304 17307 17310 17312 17315 17318 17321 17324 17327 17329 17332 17335 17338 17341 17344 17347 17350 17353 17356 17359 17362 17365 17368 17371 17374 17377 17380 17383 17386 17389 17392 17394 17397 17400 17402 17405 17408 17411 17413 17416 17419 17422 17425 17427 17430 17433 17436 17439 17442 17445 17448 17451 17454 17457 17460 17463 17466 17469 17472 17475 17478 17481 17484 17487 17490 17493 17496 17498 17501 17504 17507 17510 17513 17516 17518 17521 17524 17527 17530 17533 17536 17539 17542 17545 17548 17551 17554 17557 17559 17562 17564 17567 17570 17572 17575 17578 17581 17584 17586 17588 17591 17593 17596 17598 17601 17604 17607 17610 17613 17615 17618 17621 17623 17625 17628 17631 17634 17637 17640 17642 17645 17648 17650 17653 17656 17659 17662 17665 17668 17671 17674 17676 17678 17681 17684 17687 17689 17692 17694 17697 17700 17703 17706 17709 17711 17714 17716 17719 17722 17725 17728 17731 17733 17735 17738 17741 17744 17747 17749 17752 17755 17758 17761 17763 17766 17769 17772 17775 17778 17781 17784 17787 17790 17793 17796 17799 17802 17805 17808 17811 17814 17816 17819 17822 17824 17827 17830 17833 17835 17838 17841 17844 17847 17850 17853 17856 17859 17862 17865 17868 17871 17874 17877 17880 17883 17886 17889 17892 17894 17897 17900 17903 17906 17909 17912 17915 17918 17921 17924 17927 17930 17933 17936 17938 17940 17943 17946 17949 17951 17954 17957 17960 17963 17966 17968 17971 17974 17977 17980 17983 17986 17989 17992 17995 17998 18001 18003 18006 18009 18011 18014 18017 18020 18023 18026 18029 18032 18035 18038 18041 18043 18046 18049 18052 18054 18057 18059 18062 18064 18067 18070 18073 18075 18077 18080 18082 18085 18088 18090 18093 18096 18098 18100 18103 18106 18109 18111 18114 18117 18119 18122 18124 18127 18130 18133 18135 18138 18141 18143 18145 18148 18150 18153 18156 18158 18161 18163 18166 18169 18172 18175 18178 18181 18184 18187 18190 18192 18195 18198 18201 18204 18207 18209 18212 18215 18218 18221 18224 18227 18230 18233 18236 18239 18241 18244 18247 18250 18253 18255 18257 18260 18263 18265 18268 18270 18273 18276 18279 18282 18285 18287 18290 18293 18295 18298 18300 18303 18306 18309 18312 18315 18318 18321 18323 18326 18329 18332 18335 18338 18341 18344 18347 18350 18352 18355 18357 18360 18362 18365 18367 18370 18373 18376 18379 18381 18384 18387 18390 18393 18396 18398 18400 18403 18406 18409 18412 18415 18418 18420 18423 18426 18429 18432 18435 18437 18440 18443 18446 18449 18451 18454 18457 18459 18462 18464 18467 18470 18473 18475 18478 18480 18483 18486 18488 18490 18492 18495 18498 18501 18504 18507 18510 18512 18514 18516 18519 18522 18525 18528 18530 18533 18535 18538 18540 18543 18546 18549 18552 18555 18558 18560 18563 18566 18569 18572 18575 18578 18581 18584 18587 18590 18593 18596 18599 18602 18605 18608 18611 18614 18617 18620 18623 18626 18629 18632 18635 18638 18641 18644 18647 18650 18653 18656 18659 18662 18665 18668 18671 18674 18677 18680 18683 18686 18689 18692 18695 18698 18701 18704 18707 18709 18712 18715 18718 18720 18722 18725 18728 18731 18734 18737 18740 18743 18746 18749 18752 18755 18758 18761 18764 18767 18770 18773 18776 18779 18781 18784 18787 18790 18793 18796 18799 18802 18804 18807 18810 18812 18815 18818 18820 18823 18826 18828 18831 18833 18836 18839 18841 18844 18847 18850 18852 18855 18857 18860 18862 18864 18867 18870 18873 18875 18877 18880 18883 18885 18888 18891 18893 18896 18899 18902 18905 18908 18911 18914 18917 18920 18923 18926 18929 18931 18934 18937 18940 18943 18945 18948 18951 18954 18957 18959 18962 18965 18968 18971 18974 18977 18980 18983 18986 18988 18991 18993 18996 18999 19002 19005 19007 19010 19013 19016 19018 19021 19024 19027 19030 19033 19036 19038 19041 19044 19046 19049 19052 19055 19057 19060 19063 19066 19069 19072 19075 19078 19080 19083 19086 19089 19092 19095 19097 19100 19103 19106 19109 19112 19115 19118 19121 19124 19127 19130 19133 19136 19139 19142 19144 19147 19150 19153 19156 19159 19161 19164 19167 19169 19172 19174 19177 19180 19183 19186 19188 19190 19193 19196 19198 19201 19204 19207 19210 19213 19216 19219 19222 19225 19228 19231 19233 19236 19238 19241 19244 19247 19250 19253 19255 19258 19261 19264 19266 19269 19272 19275 19277 19280 19283 19286 19289 19292 19295 19298 19301 19304 19307 19310 19313 19316 19318 19321 19324 19327 19330 19333 19336 19339 19341 19344 19346 19349 19352 19355 19358 19361 19364 19367 19369 19371 19374 19377 19380 19383 19386 19389 19392 19395 19398 19400 19403 19406 19409 19412 19415 19418 19420 19422 19424 19427 19429 19432 19435 19438 19441 19444 19447 19449 19452 19454 19457 19459 19462 19464 19467 19470 19473 19476 19479 19482 19484 19487 19490 19492 19495 19498 19501 19504 19506 19509 19512 19515 19518 19521 19524 19527 19530 19533 19536 19539 19542 19545 19548 19551 19554 19557 19560 19563 19566 19569 19571 19574 19576 19579 19582 19585 19588 19591 19594 19597 19600 19603 19606 19609 19612 19615 19618 19621 19624 19627 19630 19633 19636 19639 19642 19645 19648 19651 19654 19657 19660 19663 19666 19669 19672 19675 19678 19681 19684 19687 19690 19693 19696 19699 19702 19705 19708 19711 19714 19717 19720 19723 19726 19729 19732 19735 19738 19741 19744 19747 19750 19752 19755 19758 19761 19764 19767 19770 19773 19776 19779 19782 19785 19788 19791 19794 19797 19800 19803 19806 19809 19812 19815 19818 19821 19823 19826 19829 19832 19834 19837 19839 19842 19845 19848 19851 19854 19857 19860 19863 19866 19869 19872 19875 19878 19881 19884 19887 19890 19893 19896 19899 19902 19905 19908 19911 19914 19917 19920 19923 19926 19929 19932 19935 19938 19941 19944 19947 19950 19953 19956 19958 19961 19963 19966 19969 19972 19975 19978 19981 19984 19987 19990 19993 19996 19999 20002 20005 20008 20011 20014 20017 20020 20023 20026 20029 20032 20035 20038 20040 20043 20046 20049 20052 20055 20058 20061 20064 20067 20070 20073 20076 20079 20082 20085 20088 20091 20094 20097 20100 20103 20106 20109 20112 20115 20118 20121 20124 20127 20130 20133 20136 20139 20142 20145 20148 20151 20154 20157 20160 20163 20166 20169 20172 20175 20178 20181 20184 20187 20190 20193 20196 20199 20202 20205 20208 20211 20214 20217 20220 20223 20226 20229 20232 20235 20238 20241 20244 20247 20249 20252 20255 20258 20261 20264 20267 20270 20272 20275 20278 20280 20283 20286 20289 20292 20295 20298 20301 20304 20307 20310 20313 20316 20319 20322 20325 20328 20331 20334 20337 20340 20342 20345 20348 20351 20354 20357 20360 20363 20366 20369 20372 20375 20378 20381 20384 20387 20390 20393 20396 20399 20402 20405 20408 20411 20414 20417 20420 20423 20426 20429 20432 20435 20438 20440 20443 20446 20449 20452 20454 20457 20459 20462 20465 20468 20471 20474 20477 20479 20482 20485 20487 20490 20493 20495 20497 20500 20502 20505 20508 20511 20513 20516 20519 20522 20525 20528 20531 20534 20537 20540 20543 20546 20549 20552 20555 20558 20560 20563 20566 20569 20572 20575 20578 20581 20584 20586 20589 20592 20595 20598 20601 20604 20607 20610 20613 20616 20619 20622 20625 20628 20631 20634 20637 20640 20643 20646 20649 20652 20655 20658 20661 20664 20667 20670 20673 20676 20679 20682 20685 20688 20691 20694 20696 20699 20702 20705 20708 20711 20714 20717 20719 20722 20725 20727 20730 20732 20735 20738 20741 20744 20747 20750 20753 20756 20759 20762 20765 20767 20769 20772 20775 20777 20780 20783 20785 20787 20790 20793 20796 20799 20801 20804 20806 20809 20812 20814 20817 20819 20821 20824 20826 20829 20831 20834 20837 20840 20843 20846 20849 20852 20854 20857 20859 20862 20865 20868 20871 20874 20876 20879 20882 20885 20887 20890 20893 20895 20898 20900 20903 20905 20907 20910 20913 20915 20918 20921 20924 20927 20930 20933 20935 20938 20941 20944 20947 20950 20953 20956 20959 20961 20963 20966 20969 20972 20974 20977 20980 20983 20986 20988 20990 20993 20995 20998 21001 21004 21006 21009 21012 21015 21018 21021 21024 21027 21030 21033 21036 21039 21042 21045 21048 21051 21054 21056 21059 21062 21065 21068 21071 21074 21076 21079 21081 21084 21087 21090 21092 21094 21097 21100 21102 21105 21107 21110 21113 21116 21119 21122 21125 21128 21131 21134 21137 21140 21143 21145 21147 21150 21153 21156 21159 21162 21164 21167 21170 21173 21176 21179 21182 21185 21187 21190 21193 21196 21198 21201 21203 21206 21209 21211 21214 21217 21220 21223 21226 21229 21232 21235 21238 21240 21243 21246 21248 21251 21254 21257 21260 21263 21266 21269 21272 21275 21278 21281 21283 21286 21289 21292 21295 21298 21301 21304 21307 21310 21313 21316 21319 21322 21325 21328 21331 21334 21337 21340 21343 21346 21349 21351 21354 21357 21360 21363 21366 21369 21372 21375 21378 21381 21384 21386 21389 21392 21395 21398 21400 21403 21406 21409 21412 21415 21418 21421 21424 21427 21430 21433 21435 21438 21441 21444 21447 21450 21452 21455 21457 21460 21463 21466 21469 21472 21475 21478 21481 21484 21486 21489 21492 21494 21497 21500 21502 21505 21508 21511 21514 21516 21519 21522 21525 21528 21531 21534 21537 21540 21543 21546 21549 21552 21555 21558 21561 21564 21567 21570 21573 21576 21579 21581 21584 21587 21589 21592 21594 21597 21600 21603 21606 21609 21612 21615 21618 21621 21623 21626 21629 21631 21633 21635 21638 21641 21644 21646 21649 21652 21655 21658 21661 21664 21666 21668 21671 21673 21676 21679 21681 21684 21687 21689 21692 21695 21698 21701 21703 21706 21709 21712 21715 21717 21720 21723 21726 21729 21732 21735 21738 21741 21744 21747 21750 21752 21755 21758 21760 21763 21765 21767 21770 21773 21775 21777 21779 21782 21785 21788 21791 21794 21797 21800 21803 21806 21809 21811 21814 21817 21820 21823 21826 21829 21832 21835 21838 21840 21843 21846 21849 21852 21855 21857 21860 21863 21866 21869 21872 21875 21878 21881 21884 21887 21889 21892 21895 21898 21901 21904 21907 21910 21913 21916 21919 21922 21925 21928 21931 21934 21937 21940 21943 21946 21949 21952 21955 21958 21961 21963 21965 21968 21971 21974 21977 21980 21983 21986 21989 21991 21994 21997 22000 22003 22006 22009 22012 22015 22018 22021 22024 22027 22030 22033 22036 22039 22041 22044 22047 22050 22053 22055 22058 22061 22064 22066 22068 22071 22074 22077 22080 22083 22086 22088 22091 22093 22096 22099 22102 22104 22107 22110 22113 22116 22119 22122 22125 22128 22130 22133 22135 22137 22140 22143 22146 22149 22152 22155 22158 22161 22164 22167 22170 22173 22175 22178 22181 22183 22186 22188 22191 22194 22197 22200 22203 22206 22209 22212 22215 22218 22221 22224 22227 22230 22233 22236 22239 22242 22245 22248 22251 22254 22257 22259 22262 22265 22268 22271 22274 22276 22279 22282 22285 22288 22291 22294 22297 22300 22303 22306 22308 22311 22314 22317 22319 22322 22325 22328 22331 22334 22337 22340 22343 22346 22349 22352 22354 22356 22359 22362 22365 22368 22371 22373 22376 22379 22382 22384 22387 22390 22393 22396 22399 22402 22405 22408 22411 22414 22416 22419 22422 22425 22428 22431 22434 22437 22439 22441 22444 22446 22449 22452 22455 22458 22460 22463 22466 22469 22472 22475 22477 22480 22483 22486 22489 22492 22495 22498 22501 22504 22507 22509 22512 22515 22518 22521 22524 22527 22530 22533 22536 22539 22541 22544 22547 22550 22553 22556 22559 22562 22564 22567 22570 22573 22576 22579 22582 22585 22588 22591 22594 22597 22600 22603 22606 22609 22612 22615 22618 22621 22624 22626 22629 22632 22635 22637 22640 22643 22646 22649 22652 22655 22658 22661 22664 22667 22670 22673 22676 22678 22681 22683 22685 22688 22690 22692 22695 22698 22701 22704 22707 22709 22712 22715 22718 22721 22724 22727 22730 22732 22735 22738 22740 22743 22746 22748 22751 22754 22756 22759 22762 22764 22766 22768 22770 22773 22776 22778 22780 22783 22786 22788 22791 22794 22796 22799 22802 22805 22808 22810 22812 22814 22816 22819 22822 22825 22827 22830 22832 22835 22837 22840 22842 22844 22847 22850 22853 22856 22859 22862 22865 22867 22870 22873 22875 22878 22880 22883 22886 22888 22890 22893 22896 22899 22902 22905 22908 22911 22914 22917 22920 22923 22926 22929 22932 22935 22938 22941 22943 22946 22949 22952 22955 22958 22961 22964 22967 22970 22973 22976 22979 22982 22985 22988 22991 22994 22996 22999 23002 23005 23008 23011 23014 23017 23020 23023 23026 23029 23032 23035 23038 23040 23042 23045 23048 23051 23054 23056 23059 23061 23064 23067 23070 23072 23074 23077 23079 23082 23085 23088 23091 23094 23097 23100 23103 23106 23109 23112 23115 23118 23121 23124 23127 23130 23133 23136 23138 23141 23143 23146 23149 23152 23155 23157 23160 23163 23166 23169 23172 23175 23178 23181 23184 23187 23190 23193 23196 23199 23202 23205 23208 23211 23214 23217 23219 23222 23225 23228 23231 23234 23237 23240 23243 23246 23249 23252 23255 23258 23261 23263 23266 23269 23272 23275 23278 23281 23284 23287 23290 23293 23296 23299 23302 23305 23308 23311 23314 23317 23320 23323 23326 23329 23332 23335 23338 23341 23344 23347 23350 23353 23356 23359 23362 23365 23368 23371 23374 23377 23380 23383 23386 23389 23392 23395 23398 23401 23404 23407 23410 23413 23416 23419 23422 23425 23428 23431 23434 23437 23440 23443 23446 23449 23451 23454 23457 23460 23462 23465 23468 23470 23473 23476 23479 23482 23485 23488 23491 23494 23497 23500 23503 23505 23508 23511 23514 23517 23519 23522 23525 23528 23531 23534 23537 23540 23543 23546 23549 23552 23555 23558 23561 23564 23567 23570 23573 23576 23579 23582 23585 23588 23591 23594 23597 23600 23603 23606 23608 23611 23614 23617 23620 23622 23625 23628 23631 23634 23637 23640 23643 23646 23649 23652 23654 23657 23660 23662 23665 23668 23671 23674 23677 23680 23683 23686 23689 23692 23695 23698 23700 23703 23706 23709 23712 23715 23718 23721 23724 23726 23729 23732 23735 23738 23741 23744 23747 23750 23753 23756 23758 23761 23763 23766 23769 23772 23774 23777 23780 23783 23785 23788 23790 23793 23795 23797 23800 23803 23806 23809 23812 23814 23817 23820 23823 23826 23829 23832 23835 23838 23841 23844 23847 23850 23853 23856 23859 23862 23865 23868 23871 23874 23877 23880 23883 23885 23888 23891 23893 23896 23899 23902 23904 23907 23909 23912 23915 23918 23921 23924 23927 23930 23933 23936 23939 23942 23945 23947 23950 23953 23956 23959 23962 23965 23968 23971 23974 23977 23980 23983 23986 23989 23992 23995 23998 24001 24004 24006 24009 24012 24015 24018 24021 24024 24027 24030 24033 24036 24039 24042 24045 24048 24051 24054 24057 24060 24063 24066 24069 24072 24075 24078 24081 24084 24087 24089 24092 24095 24098 24101 24104 24107 24110 24113 24116 24119 24122 24125 24128 24131 24134 24137 24140 24143 24145 24148 24151 24154 24156 24159 24162 24165 24167 24169 24172 24175 24178 24181 24184 24186 24189 24192 24195 24198 24201 24204 24207 24209 24211 24214 24217 24220 24222 24225 24227 24230 24233 24236 24239 24242 24245 24247 24249 24252 24255 24257 24259 24262 24265 24268 24271 24274 24277 24280 24283 24286 24289 24291 24294 24297 24300 24303 24306 24309 24311 24314 24317 24320 24323 24326 24329 24332 24335 24338 24341 24344 24347 24350 24353 24356 24359 24362 24364 24367 24370 24373 24376 24378 24381 24384 24386 24389 24392 24395 24398 24401 24404 24407 24410 24413 24416 24419 24421 24424 24426 24429 24431 24434 24437 24440 24443 24446 24449 24452 24455 24458 24461 24464 24467 24470 24473 24476 24479 24482 24485 24488 24490 24493 24496 24498 24501 24504 24507 24509 24512 24515 24517 24520 24523 24526 24529 24531 24534 24537 24540 24543 24546 24549 24552 24554 24557 24560 24563 24566 24569 24572 24575 24578 24581 24584 24587 24590 24593 24596 24599 24602 24605 24608 24611 24614 24617 24620 24623 24626 24629 24632 24635 24638 24641 24643 24646 24649 24652 24655 24658 24661 24664 24667 24670 24673 24676 24679 24682 24685 24688 24691 24694 24697 24700 24703 24706 24709 24712 24715 24718 24721 24724 24727 24730 24733 24736 24739 24742 24745 24748 24751 24754 24756 24758 24760 24763 24766 24768 24771 24774 24777 24779 24782 24784 24787 24790 24793 24796 24799 24801 24804 24807 24810 24813 24816 24819 24822 24824 24827 24830 24833 24836 24839 24842 24845 24848 24851 24854 24857 24860 24863 24866 24868 24871 24874 24877 24879 24882 24884 24887 24890 24893 24896 24899 24902 24905 24908 24910 24913 24916 24919 24922 24925 24928 24931 24933 24936 24938 24941 24943 24946 24949 24952 24955 24958 24961 24964 24967 24969 24972 24975 24977 24979 24981 24984 24986 24989 24991 24994 24997 25000 25003 25006 25009 25012 25015 25018 25021 25024 25027 25030 25033 25036 25039 25042 25045 25048 25051 25054 25056 25059 25062 25064 25066 25069 25072 25075 25077 25080 25083 25086 25089 25092 25095 25098 25100 25103 25105 25108 25111 25114 25117 25119 25122 25125 25127 25130 25133 25136 25139 25142 25145 25148 25150 25153 25156 25158 25161 25164 25167 25169 25172 25175 25178 25181 25184 25187 25190 25193 25196 25198 25201 25204 25207 25210 25213 25216 25218 25221 25224 25226 25229 25232 25235 25238 25240 25243 25246 25249 25252 25255 25258 25260 25262 25264 25267 25270 25273 25275 25278 25280 25283 25285 25288 25291 25294 25297 25300 25303 25305 25308 25311 25314 25316 25319 25322 25325 25327 25330 25333 25336 25339 25342 25345 25348 25351 25354 25357 25360 25363 25365 25368 25371 25374 25376 25379 25382 25385 25388 25391 25393 25395 25398 25401 25403 25406 25408 25410 25412 25415 25418 25421 25423 25426 25429 25432 25435 25438 25440 25443 25446 25449 25452 25455 25458 25461 25464 25467 25470 25473 25476 25478 25481 25484 25487 25490 25493 25496 25498 25501 25504 25506 25509 25512 25514 25517 25520 25523 25526 25529 25531 25534 25537 25539 25542 25544 25547 25549 25552 25555 25558 25561 25564 25567 25569 25572 25575 25578 25581 25583 25586 25589 25592 25595 25598 25601 25604 25607 25610 25613 25615 25618 25621 25624 25627 25630 25632 25635 25638 25641 25644 25647 25650 25653 25656 25659 25662 25665 25668 25671 25674 25677 25679 25682 25685 25688 25691 25694 25696 25699 25701 25704 25707 25710 25713 25716 25718 25721 25724 25727 25730 25733 25735 25738 25741 25744 25747 25750 25752 25755 25758 25761 25764 25767 25770 25773 25776 25779 25782 25784 25787 25789 25792 25794 25797 25800 25802 25805 25808 25811 25814 25817 25820 25823 25826 25828 25831 25833 25836 25839 25842 25845 25848 25851 25854 25857 25860 25863 25865 25868 25871 25874 25877 25880 25883 25886 25889 25892 25895 25897 25900 25903 25906 25908 25911 25913 25915 25918 25921 25924 25926 25929 25932 25935 25937 25939 25942 25945 25948 25951 25954 25957 25960 25963 25966 25969 25971 25973 25976 25979 25982 25985 25988 25990 25993 25996 25999 26002 26005 26008 26011 26014 26017 26020 26022 26025 26027 26029 26031 26034 26037 26040 26043 26046 26049 26052 26055 26057 26060 26063 26066 26069 26072 26075 26078 26081 26084 26087 26090 26093 26096 26099 26102 26105 26108 26111 26114 26117 26120 26123 26126 26129 26132 26135 26138 26141 26144 26146 26149 26152 26155 26158 26160 26163 26166 26169 26172 26175 26178 26181 26184 26186 26189 26192 26195 26198 26201 26204 26207 26210 26212 26215 26218 26221 26224 26227 26230 26233 26236 26239 26242 26245 26248 26251 26254 26257 26260 26263 26266 26269 26272 26275 26278 26281 26284 26287 26290 26292 26295 26298 26301 26304 26307 26310 26312 26315 26317 26320 26323 26325 26328 26331 26334 26336 26339 26341 26344 26347 26350 26352 26355 26358 26361 26363 26366 26369 26372 26375 26378 26381 26383 26386 26389 26392 26395 26398 26401 26404 26407 26410 26413 26416 26419 26422 26425 26428 26431 26434 26437 26440 26443 26446 26449 26452 26455 26458 26461 26464 26466 26469 26471 26474 26477 26480 26483 26485 26488 26491 26494 26497 26500 26503 26506 26509 26512 26515 26518 26521 26524 26526 26529 26532 26534 26537 26540 26542 26545 26548 26551 26554 26557 26559 26562 26565 26568 26571 26574 26577 26580 26583 26585 26588 26590 26593 26596 26599 26602 26605 26607 26609 26612 26615 26617 26620 26623 26626 26628 26631 26634 26637 26640 26643 26646 26649 26651 26654 26657 26660 26663 26666 26669 26672 26675 26678 26681 26684 26687 26690 26693 26696 26699 26701 26704 26707 26710 26713 26716 26718 26721 26723 26726 26729 26732 26735 26738 26741 26744 26747 26750 26753 26756 26759 26761 26764 26766 26769 26772 26775 26778 26781 26784 26786 26788 26791 26794 26797 26800 26803 26806 26809 26812 26815 26818 26821 26824 26827 26830 26833 26836 26839 26842 26845 26848 26851 26853 26856 26859 26861 26864 26867 26870 26873 26876 26878 26881 26884 26887 26890 26893 26896 26898 26901 26904 26907 26910 26913 26916 26919 26922 26925 26928 26931 26934 26937 26940 26943 26946 26948 26951 26954 26956 26959 26962 26965 26968 26970 26973 26976 26979 26982 26985 26988 26991 26994 26997 27000 27003 27005 27008 27011 27014 27017 27020 27023 27026 27029 27032 27035 27038 27041 27044 27047 27050 27053 27056 27059 27062 27064 27067 27070 27073 27076 27079 27082 27085 27088 27091 27094 27097 27100 27102 27105 27108 27111 27114 27117 27120 27123 27126 27129 27132 27135 27138 27141 27143 27145 27148 27151 27154 27157 27160 27163 27165 27168 27171 27174 27177 27180 27183 27186 27189 27192 27195 27198 27201 27204 27207 27210 27213 27216 27219 27222 27225 27228 27231 27234 27237 27240 27243 27246 27249 27252 27255 27258 27261 27264 27267 27270 27272 27275 27278 27281 27284 27287 27290 27293 27296 27298 27301 27304 27307 27310 27313 27316 27319 27322 27325 27328 27331 27334 27336 27339 27342 27345 27348 27350 27353 27355 27358 27361 27364 27367 27370 27373 27376 27379 27381 27384 27387 27390 27393 27396 27399 27402 27405 27408 27411 27413 27416 27419 27422 27424 27427 27430 27432 27435 27438 27441 27444 27446 27449 27452 27454 27457 27460 27463 27466 27469 27472 27475 27478 27480 27483 27486 27489 27491 27494 27497 27500 27503 27506 27509 27512 27514 27517 27519 27522 27524 27527 27529 27531 27534 27537 27540 27542 27544 27546 27549 27552 27554 27557 27560 27563 27565 27568 27571 27574 27577 27579 27582 27585 27588 27591 27594 27597 27600 27603 27606 27609 27612 27615 27618 27621 27624 27627 27630 27633 27636 27639 27642 27645 27648 27651 27654 27657 27660 27663 27666 27669 27672 27675 27678 27681 27684 27687 27690 27693 27695 27698 27701 27704 27707 27710 27713 27716 27719 27721 27724 27727 27730 27733 27735 27738 27741 27743 27746 27749 27751 27754 27757 27760 27763 27765 27768 27771 27774 27777 27780 27782 27785 27788 27791 27794 27797 27800 27803 27806 27809 27812 27815 27818 27821 27823 27825 27828 27831 27834 27836 27839 27842 27845 27848 27851 27854 27857 27860 27863 27866 27869 27872 27875 27878 27880 27883 27886 27889 27892 27895 27898 27900 27903 27906 27908 27911 27914 27917 27920 27923 27926 27929 27932 27935 27938 27940 27943 27946 27949 27952 27955 27957 27960 27963 27966 27969 27972 27975 27978 27981 27984 27987 27989 27992 27995 27998 28001 28004 28007 28010 28013 28016 28019 28022 28025 28028 28031 28034 28036 28039 28042 28045 28048 28051 28054 28057 28060 28063 28066 28069 28072 28075 28078 28081 28084 28087 28090 28093 28096 28099 28102 28105 28107 28110 28112 28115 28118 28121 28123 28126 28129 28132 28135 28138 28141 28144 28147 28150 28152 28155 28158 28161 28163 28166 28169 28172 28175 28178 28181 28184 28187 28190 28193 28196 28199 28202 28205 28208 28211 28213 28216 28219 28222 28225 28228 28230 28233 28236 28239 28241 28244 28246 28249 28252 28255 28258 28261 28264 28266 28269 28272 28275 28278 28281 28284 28287 28290 28293 28296 28299 28302 28305 28308 28311 28314 28317 28320 28323 28326 28329 28332 28335 28338 28341 28344 28347 28349 28352 28355 28357 28360 28363 28366 28369 28372 28375 28378 28380 28383 28386 28389 28392 28394 28397 28400 28402 28405 28408 28411 28414 28417 28420 28422 28425 28428 28431 28433 28436 28439 28442 28444 28447 28450 28453 28456 28459 28461 28464 28467 28470 28473 28476 28478 28481 28484 28487 28490 28493 28496 28499 28502 28504 28507 28510 28512 28515 28518 28521 28524 28526 28529 28532 28535 28538 28540 28543 28546 28549 28552 28554 28557 28560 28563 28565 28568 28570 28573 28576 28579 28582 28585 28588 28591 28594 28597 28600 28602 28605 28608 28611 28614 28617 28620 28623 28625 28627 28630 28633 28636 28639 28642 28644 28647 28650 28653 28656 28659 28661 28664 28667 28670 28672 28675 28678 28680 28683 28686 28688 28691 28694 28697 28699 28702 28705 28708 28711 28714 28717 28719 28722 28725 28728 28731 28734 28736 28739 28742 28745 28748 28751 28753 28756 28759 28762 28765 28768 28771 28773 28776 28779 28782 28785 28787 28790 28793 28796 28799 28802 28804 28807 28810 28813 28816 28819 28822 28825 28828 28831 28834 28836 28839 28842 28845 28848 28851 28854 28857 28859 28862 28865 28868 28871 28873 28875 28878 28881 28883 28886 28889 28892 28895 28898 28901 28904 28906 28909 28912 28915 28918 28921 28924 28927 28929 28932 28934 28937 28940 28942 28945 28948 28951 28954 28956 28959 28961 28964 28967 28970 28973 28976 28979 28982 28985 28988 28991 28993 28996 28999 29002 29005 29008 29010 29013 29016 29019 29021 29024 29027 29030 29033 29035 29038 29041 29043 29046 29049 29052 29055 29058 29060 29063 29065 29068 29070 29072 29075 29078 29081 29084 29086 29088 29091 29094 29097 29100 29103 29106 29109 29112 29115 29118 29121 29124 29127 29129 29132 29135 29138 29141 29144 29147 29149 29151 29154 29157 29160 29163 29166 29169 29172 29175 29178 29181 29184 29187 29190 29192 29195 29198 29201 29204 29207 29210 29213 29216 29219 29222 29225 29228 29231 29234 29237 29240 29243 29246 29249 29252 29255 29258 29261 29264 29267 29270 29273 29276 29279 29282 29285 29288 29291 29293 29296 29299 29301 29304 29307 29310 29313 29316 29319 29322 29324 29327 29330 29333 29335 29338 29341 29343 29346 29349 29352 29354 29356 29359 29362 29365 29368 29370 29372 29375 29378 29381 29384 29387 29390 29393 29396 29399 29402 29405 29408 29411 29414 29416 29419 29422 29424 29427 29430 29433 29435 29438 29441 29444 29447 29449 29452 29455 29457 29460 29463 29466 29469 29472 29475 29478 29481 29484 29487 29490 29492 29495 29498 29501 29504 29507 29510 29513 29515 29518 29521 29524 29527 29530 29533 29536 29539 29542 29545 29548 29551 29554 29557 29560 29563 29566 29569 29571 29574 29577 29580 29583 29586 29589 29591 29594 29596 29599 29602 29605 29608 29611 29613 29616 29619 29621 29624 29627 29630 29632 29635 29638 29641 29643 29646 29649 29652 29655 29658 29661 29664 29667 29670 29673 29676 29679 29682 29685 29687 29690 29693 29696 29699 29701 29703 29706 29709 29712 29715 29718 29721 29724 29727 29730 29733 29736 29739 29742 29745 29748 29751 29754 29757 29760 29762 29765 29768 29771 29774 29777 29780 29783 29786 29788 29791 29793 29796 29799 29802 29805 29808 29811 29814 29816 29819 29821 29824 29827 29830 29833 29836 29838 29841 29844 29847 29850 29853 29856 29858 29861 29864 29867 29870 29873 29875 29877 29880 29883 29886 29888 29890 29892 29895 29898 29901 29904 29907 29909 29912 29915 29918 29921 29924 29926 29929 29932 29935 29938 29940 29943 29945 29947 29950 29952 29954 29957 29960 29963 29965 29968 29971 29974 29976 29979 29982 29985 29987 29990 29993 29996 29998 30001 30004 30007 30010 30013 30016 30019 30022 30024 30027 30030 30033 30035 30038 30041 30044 30047 30050 30053 30055 30058 30061 30064 30067 30070 30073 30075 30078 30081 30084 30087 30090 30093 30096 30099 30102 30105 30108 30111 30114 30117 30119 30122 30124 30127 30130 30133 30135 30138 30141 30143 30146 30148 30151 30153 30156 30159 30161 30164 30167 30170 30173 30176 30179 30181 30184 30187 30190 30193 30195 30198 30201 30204 30207 30210 30213 30215 30218 30221 30224 30227 30230 30233 30236 30239 30242 30245 30247 30250 30253 30256 30259 30262 30265 30268 30271 30274 30277 30280 30283 30286 30289 30292 30295 30298 30301 30304 30306 30308 30311 30314 30317 30319 30322 30325 30327 30330 30333 30335 30338 30341 30343 30346 30349 30351 30353 30356 30359 30362 30365 30367 30370 30373 30376 30379 30382 30385 30388 30391 30394 30397 30400 30402 30404 30407 30410 30413 30415 30418 30420 30423 30425 30428 30431 30434 30437 30440 30442 30445 30448 30450 30453 30455 30458 30461 30463 30465 30467 30470 30473 30476 30479 30481 30484 30487 30489 30492 30494 30497 30500 30502 30505 30508 30511 30514 30517 30520 30523 30526 30528 30531 30533 30535 30538 30541 30544 30547 30550 30552 30554 30557 30560 30563 30565 30567 30570 30573 30576 30579 30582 30585 30588 30591 30593 30596 30598 30601 30604 30607 30610 30613 30616 30619 30622 30625 30628 30631 30634 30637 30640 30643 30646 30649 30652 30655 30658 30661 30664 30667 30670 30673 30676 30679 30682 30685 30687 30690 30693 30696 30699 30702 30705 30708 30711 30714 30717 30720 30723 30726 30729 30732 30734 30737 30740 30742 30745 30748 30751 30754 30757 30759 30762 30765 30768 30771 30774 30777 30780 30783 30786 30789 30792 30795 30798 30800 30803 30806 30809 30812 30815 30818 30821 30824 30827 30829 30832 30835 30837 30840 30843 30846 30849 30851 30853 30855 30858 30861 30864 30867 30870 30872 30875 30878 30881 
</DataArray>
<DataArray type="UInt32" Name="types" format="ascii">
5 5 3 5 5 5 5 3 5 5 5 5 5 5 5 5 5 5 5 5 3 5 5 5 5 3 5 5 5 5 5 5 5 3 5 5 5 5 5 5 5 5 3 5 5 5 5 5 5 5 5 5 5 5 3 3 5 5 5 5 5 5 5 5 3 5 5 5 5 5 5 5 5 5 5 5 5 5 5 5 5 5 5 5 5 5 5 3 5 5 5 5 5 5 5 5 5 5 5 3 5 5 5 3 5 5 5 5 5 5 5 5 5 5 5 5 5 5 5 5 5 5 5 5 5 5 5 5 5 5 5 5 5 5 5 5 5 5 5 5 5 5 5 5 5 5 5 5 5 3 5 3 5 5 5 5 5 5 5 5 5 5 5 5 5 5 5 5 5 5 5 5 5 5 5 5 5 5 3 5 5 3 5 3 5 5 5 5 5 5 5 5 5 5 5 5 5 5 3 5 3 5 5 5 5 5 5 5 3 5 3 5 5 5 5 5 5 3 5 5 3 5 5 5 5 5 5 3 3 5 5 3 5 3 5 3 3 5 5 5 3 5 5 5 5 5 5 5 5 5 5 5 5 5 3 5 5 5 5 5 5 5 3 5 5 5 5 5 5 5 3 5 5 5 5 3 5 5 5 5 5 5 3 5 5 5 3 5 5 5 5 5 5 5 3 5 5 5 5 5 5 3 5 5 5 5 5 5 3 5 5 5 5 5 5 5 3 5 5 5 5 5 5 5 5 5 5 5 5 5 5 5 5 5 5 5 5 5 3 3 5 5 5 5 5 3 5 5 5 5 5 5 5 3 5 3 5 5 5 3 5 5 5 3 5 3 5 5 5 5 5 5 5 3 5 5 5 5 5 5 5 3 5 5 5 3 5 5 5 5 5 5 5 5 5 5 5 5 5 5 5 5 5 5 5 5 5 5 5 5 5 5 5 5 5 5 5 5 3 5 5 5 5 5 5 5 5 5 5 5 5 5 5 5 5 5 5 5 5 5 5 5 5 5 5 5 5 5 5 5 5 3 5 5 5 5 5 5 5 5 5 5 5 5 5 5 5 5 5 5 5 5 3 5 5 5 5 5 5 5 3 5 5 5 5 5 3 5 5 3 5 3 5 5 5 5 3 5 5 3 5 5 5 5 5 5 3 5 5 5 5 5 5 5 5 5 5 5 5 5 5 5 5 5 5 5 3 5 5 5 5 5 5 5 5 5 5 5 3 3 5 5 5 5 5 5 5 5 5 5 5 5 5 5 5 5 5 5 5 5 5 3 5 3 3 5 5 3 5 5 5 5 5 5 5 5 5 5 5 5 5 3 5 5 5 5 5 5 5 3 3 5 5 5 5 5 5 5 5 3 3 5 5 5 3 5 5 5 5 5 5 5 5 5 5 5 5 5 5 5 5 5 5 5 5 5 5 5 5 5 5 5 5 5 5 5 5 5 5 5 3 5 5 3 5 5 5 5 3 5 5 5 3 5 5 5 3 5 5 3 5 5 5 5 5 5 5 5 5 5 5 5 5 5 5 5 5 5 5 5 5 3 5 5 5 3 5 5 5 5 5 3 5 5 5 5 5 5 3 5 5 5 5 5 5 5 5 5 5 5 5 5 5 5 5 5 5 3 5 5 5 5 5 5 5 5 5 5 5 5 5 5 5 5 5 5 5 5 5 3 5 5 5 5 5 5 5 5 5 5 5 5 5 5 5 3 5 5 5 5 5 5 5 5 5 5 5 5 5 5 5 5 5 5 3 5 5 5 5 5 5 5 3 5 5 5 5 5 5 5 5 5 5 5 5 5 5 5 5 5 5 5 5 5 3 5 5 5 5 5 5 5 5 5 3 5 5 5 5 5 5 5 5 3 5 5 5 5 5 5 5 5 5 5 5 5 5 5 5 5 5 5 5 3 5 5 5 5 5 3 5 5 5 3 5 5 5 5 5 5 3 5 5 5 5 5 5 5 5 5 5 3 5 5 5 5 5 5 5 5 5 5 5 5 3 5 3 5 5 5 5 5 5 5 3 5 3 5 5 5 5 5 5 5 5 5 5 5 5 5 5 5 5 5 5 5 5 5 5 5 5 5 5 5 5 5 5 5 5 5 5 5 5 5 5 5 5 5 5 5 5 5 3 3 5 5 3 5 5 5 5 5 5 5 5 5 5 5 5 5 5 5 5 3 5 5 5 5 3 5 5 3 5 5 5 5 5 5 3 5 3 5 5 3 5 5 5 5 5 5 5 5 5 5 3 5 5 5 5 5 3 3 5 5 5 5 3 5 5 3 5 3 5 5 5 5 5 3 5 5 3 5 5 5 5 5 5 5 5 5 5 5 5 3 5 5 5 5 5 5 5 5 5 5 5 5 5 5 5 3 5 3 5 3 3 5 3 5 5 3 5 5 5 5 5 5 3 5 3 5 5 3 5 5 5 3 5 5 3 5 5 5 5 5 3 5 5 3 5 5 5 5 5 3 5 3 5 5 3 5 5 3 5 5 5 5 5 5 5 5 3 5 5 5 5 5 5 5 5 5 5 3 5 5 5 5 3 5 5 3 5 5 5 5 5 3 5 5 5 5 5 3 5 3 5 5 5 5 5 5 3 5 5 5 5 5 5 5 5 3 3 3 5 5 5 5 3 5 3 5 5 5 3 3 5 5 5 3 5 5 5 3 5 3 5 3 3 5 3 5 5 5 5 3 5 5 5 3 5 3 5 3 5 5 5 5 5 5 5 3 5 5 5 5 3 5 5 5 5 5 5 5 5 3 5 3 3 5 5 5 3 5 5 5 5 3 3 5 5 3 3 5 5 5 5 5 3 5 5 5 5 5 5 5 5 3 5 3 5 5 5 5 5 5 5 5 5 5 5 5 5 5 5 5 5 3 5 5 5 5 5 5 5 5 5 5 5 5 5 5 5 5 5 5 5 5 5 5 5 5 5 3 5 3 5 5 5 5 5 3 3 5 5 5 5 3 3 5 3 5 5 3 5 5 3 5 5 5 5 3 3 5 5 5 5 5 5 5 5 3 5 5 3 5 5 5 3 5 5 3 5 5 5 5 5 5 3 5 5 5 5 5 5 3 5 5 5 5 5 3 5 5 3 3 5 5 3 5 5 3 5 5 5 5 5 5 5 5 5 5 5 5 3 5 3 5 5 3 5 5 5 5 5 5 3 5 5 5 3 3 3 5 5 5 3 3 5 3 3 5 5 3 5 5 3 5 3 5 3 5 5 5 3 3 5 5 3 3 3 3 5 5 5 3 3 5 5 3 3 3 5 3 3 5 5 3 5 3 3 5 3 5 5 3 5 3 3 5 5 5 5 3 3 5 5 3 5 5 5 3 5 5 5 5 5 5 5 5 5 5 5 5 5 5 5 5 5 5 5 5 5 5 5 5 5 5 5 5 5 5 5 5 5 5 5 5 5 5 5 5 5 5 5 5 5 5 5 5 5 5 5 5 5 5 5 5 5 5 3 5 3 5 5 5 5 5 5 5 5 5 5 5 5 5 5 3 5 5 5 5 5 5 5 5 5 5 3 5 5 5 5 5 5 5 5 5 5 5 5 5 5 5 5 5 5 5 5 5 5 5 5 5 5 5 5 5 5 5 5 5 5 5 5 5 5 5 5 5 5 5 5 5 5 3 5 5 5 3 5 3 5 5 5 5 5 3 5 3 5 5 5 5 5 5 5 5 5 5 5 5 5 5 5 5 5 5 5 5 5 5 5 5 5 3 5 5 5 5 5 5 3 5 3 5 5 5 3 5 5 3 5 5 5 5 5 5 5 5 5 5 5 5 5 5 5 5 5 5 5 5 5 5 5 5 5 5 5 5 5 5 5 5 5 5 5 5 5 3 5 3 5 5 5 5 5 5 5 5 5 5 3 5 5 5 5 5 5 5 5 5 5 5 5 5 5 5 5 5 3 5 5 5 3 3 5 3 5 5 5 5 5 5 5 5 3 5 5 5 5 3 5 5 5 5 5 5 5 3 5 5 3 5 3 5 5 3 5 5 3 3 5 5 5 5 5 5 5 5 5 5 5 5 5 5 5 3 5 3 5 5 5 3 5 3 5 5 5 5 5 5 5 5 5 5 5 5 3 5 3 5 5 5 5 5 5 5 5 3 5 5 3 5 5 5 3 3 5 5 5 5 5 5 5 5 5 5 5 5 5 5 5 5 5 5 5 5 5 3 5 5 5 5 5 3 5 3 5 5 5 5 3 5 5 3 5 5 5 5 5 3 5 5 5 5 3 5 5 5 5 5 5 5 3 5 5 5 3 5 5 5 5 5 5 5 5 5 5 5 3 5 5 5 5 5 5 5 5 3 5 5 5 5 5 5 3 5 5 5 5 5 5 3 5 5 5 5 5 5 5 5 5 5 5 3 5 5 5 3 5 5 5 3 5 3 5 5 5 5 5 5 3 5 5 5 5 5 5 5 5 5 5 5 5 5 5 5 3 5 5 5 5 5 3 5 5 5 5 5 5 5 5 3 5 5 5 5 5 5 5 5 5 5 5 5 5 5 5 5 3 5 5 5 5 3 5 5 5 5 5 5 5 5 5 5 5 5 5 5 5 5 5 5 5 5 5 5 5 5 5 5 3 5 5 5 3 5 3 5 5 5 5 3 5 3 5 5 5 5 5 3 5 5 5 5 5 5 5 5 5 3 5 5 5 5 5 5 5 5 5 5 5 5 5 5 5 5 5 5 5 5 5 5 5 5 3 3 5 5 5 5 5 3 5 5 5 3 5 5 5 3 5 5 3 5 3 5 5 5 5 3 5 5 5 5 3 3 5 5 5 5 5 5 5 5 5 5 5 5 3 5 5 5 5 3 5 5 5 5 5 3 5 5 3 5 5 5 5 5 5 5 5 5 5 5 5 5 5 5 5 3 5 5 3 5 5 5 3 5 5 5 5 5 5 5 5 5 5 5 3 5 5 5 5 5 5 5 5 5 5 5 5 5 5 5 5 3 5 5 3 5 3 5 5 3 5 3 5 3 5 5 5 5 5 5 5 5 5 5 5 5 5 3 5 3 3 5 5 3 3 5 5 3 3 5 5 5 3 5 3 5 5 3 5 5 5 5 3 3 5 3 5 5 3 3 5 5 3 5 5 5 3 5 5 5 3 3 3 5 5 3 5 3 3 5 5 5 5 5 5 5 5 5 5 5 3 3 5 3 5 3 5 3 5 5 5 3 5 5 5 5 5 3 5 5 5 5 5 5 5 5 5 5 5 5 5 5 5 5 5 5 5 5 5 5 5 5 3 5 5 5 5 5 5 5 5 5 5 5 5 5 5 5 5 5 5 3 5 5 5 5 5 5 5 5 5 5 5 3 5 5 5 5 5 3 5 5 5 5 5 5 5 5 5 5 5 5 5 5 3 5 5 5 5 5 5 5 5 5 5 5 5 5 5 3 5 3 5 5 5 5 3 5 5 5 5 5 5 5 5 5 5 5 5 3 5 3 5 5 5 5 3 5 5 5 5 5 5 5 3 5 5 5 5 5 5 5 3 5 5 5 3 5 3 5 5 5 5 5 5 5 5 5 3 5 5 5 5 5 5 5 5 5 5 5 5 5 5 5 5 5 5 5 5 5 5 5 5 5 5 5 5 5 5 5 5 5 5 5 5 5 5 5 5 5 5 5 3 5 5 3 5 5 5 5 5 5 5 5 5 5 3 5 5 5 5 5 3 5 5 3 5 5 5 5 5 5 3 5 5 5 5 3 5 5 3 5 3 5 5 5 5 5 5 5 5 5 5 5 3 5 3 5 5 5 5 3 5 5 5 5 5 5 5 5 5 5 5 5 5 5 5 5 5 5 5 5 5 3 5 5 5 5 3 5 5 5 5 5 5 5 3 5 5 5 5 5 3 5 5 5 3 5 5 5 3 5 5 3 5 5 5 3 5 5 3 5 5 5 5 5 5 5 5 5 5 5 5 5 5 5 5 5 5 5 5 5 5 5 5 5 5 5 5 5 5 5 3 5 5 5 5 5 5 5 5 5 5 5 3 5 5 5 5 5 5 5 5 5 5 5 5 5 5 5 3 3 5 5 5 3 5 5 5 5 3 5 5 3 5 5 5 5 5 5 5 5 5 5 5 5 5 3 3 5 5 5 5 5 5 5 5 5 5 5 3 5 5 3 5 5 5 5 5 5 5 5 5 5 5 5 5 5 5 5 5 5 5 3 5 5 5 3 5 5 5 5 5 3 5 5 5 5 5 5 5 5 5 5 5 5 5 5 5 5 5 5 5 5 3 5 5 3 5 5 5 5 5 5 5 5 5 5 5 5 5 5 5 5 5 5 5 3 5 5 5 5 5 5 5 5 5 5 5 5 5 5 5 5 5 5 5 5 5 5 5 5 5 5 5 5 5 5 5 5 3 5 5 5 5 5 5 3 5 5 5 5 5 3 5 5 5 5 3 5 5 5 5 5 5 5 5 5 5 5 5 5 5 5 5 5 5 5 5 5 5 3 5 5 5 5 5 5 5 3 5 5 3 5 5 3 5 5 5 5 5 5 3 5 5 5 5 5 5 5 5 5 5 3 5 3 5 5 5 5 5 5 5 5 3 5 5 3 5 5 5 3 5 5 5 3 5 5 5 3 3 5 5 3 5 5 3 5 5 3 5 5 5 5 5 5 5 5 5 3 5 5 5 3 5 5 5 3 5 5 5 3 5 3 5 5 3 5 5 5 5 5 5 5 5 3 5 5 3 5 5 5 5 5 5 5 5 5 5 5 5 5 3 5 3 5 5 5 3 3 5 3 5 5 5 5 3 5 3 5 5 5 5 5 5 5 5 5 3 5 5 5 5 5 5 5 5 5 5 5 5 5 5 5 5 5 5 5 5 5 5 5 5 5 5 5 5 3 5 5 5 5 5 5 3 5 5 5 5 5 5 3 5 5 5 5 5 5 3 5 5 5 3 5 5 5 3 5 5 3 5 5 5 5 5 5 3 5 5 5 3 3 5 5 5 5 5 5 5 5 5 5 5 5 5 5 5 5 5 3 5 5 5 5 5 5 5 3 5 5 5 5 5 3 5 5 5 5 5 3 5 5 3 5 5 5 5 3 5 5 5 5 5 5 3 5 3 5 3 3 5 3 5 5 5 3 5 5 5 5 5 3 5 5 5 3 5 5 5 5 3 3 3 5 5 5 5 3 3 5 3 5 5 5 5 5 5 3 5 3 5 5 3 5 5 5 3 5 5 3 5 5 5 5 5 5 5 5 5 5 5 5 3 5 5 5 5 3 5 5 5 5 3 5 5 5 5 5 5 5 5 5 3 3 3 5 5 5 3 3 5 5 3 5 3 5 5 5 5 5 5 5 3 5 5 5 5 5 5 5 5 5 5 5 5 5 5 5 5 3 5 5 5 5 5 5 5 5 5 3 5 5 3 5 3 5 3 5 5 3 5 5 5 3 3 5 5 3 5 5 5 3 5 5 5 5 3 5 5 5 5 5 5 5 5 5 5 5 3 3 5 5 5 5 5 5 5 5 5 5 5 5 5 5 5 5 5 5 5 5 5 5 5 5 5 5 5 5 5 5 5 5 3 5 5 5 5 5 5 5 5 5 5 5 5 5 5 5 5 5 5 5 3 5 5 5 5 5 5 3 3 5 5 3 3 5 5 5 3 5 5 5 5 5 5 5 5 5 5 5 5 5 5 5 5 5 5 5 5 5 5 5 3 5 3 5 3 5 5 5 5 5 5 3 5 3 3 5 5 3 5 5 5 5 5 5 3 3 5 5 3 3 5 5 3 3 5 5 5 5 5 5 5 5 3 5 5 5 5 5 3 5 5 3 5 5 5 3 5 5 5 5 5 5 5 5 5 5 5 5 5 5 5 5 5 5 5 5 5 5 5 5 5 5 5 5 5 5 5 5 5 5 3 5 5 3 5 3 3 5 5 5 5 5 5 5 5 5 3 5 5 5 5 5 3 5 5 5 5 5 5 5 3 5 5 5 5 5 5 5 5 3 5 5 5 5 5 3 5 5 5 5 5 5 5 5 5 5 5 5 5 5 5 5 5 5 5 5 5 5 5 5 5 5 5 5 5 5 3 3 5 5 5 5 5 5 5 3 5 5 5 3 5 3 5 5 5 5 5 5 5 5 5 5 5 5 5 5 5 5 5 5 5 5 5 3 5 5 5 5 5 5 3 5 5 5 5 5 5 5 3 5 5 3 5 5 5 5 5 5 3 5 5 5 3 5 5 3 3 5 5 5 5 5 5 5 5 5 5 5 5 5 5 5 5 5 5 5 5 5 5 5 5 5 5 5 5 3 5 5 5 5 5 5 5 5 5 5 5 5 5 5 5 5 5 5 5 3 5 5 5 3 3 5 5 5 5 5 3 5 5 5 3 5 5 5 5 5 3 5 5 5 5 5 5 5 5 5 5 5 5 5 5 5 5 5 5 5 5 5 3 5 5 5 5 5 5 3 5 5 5 5 5 5 5 5 5 5 5 5 3 5 5 5 5 3 5 3 5 5 5 5 5 5 5 5 5 5 5 5 5 3 5 5 5 5 5 3 5 5 5 5 5 5 3 5 5 5 5 5 5 5 5 5 5 5 5 3 5 5 3 5 5 3 5 5 3 5 5 5 5 5 5 5 5 5 5 3 5 5 5 5 5 5 5 5 3 5 5 5 3 5 5 5 3 5 5 3 5 5 5 3 5 5 5 5 5 3 5 3 5 5 5 5 3 3 5 5 5 3 5 5 5 5 3 5 5 5 5 5 5 5 5 5 5 5 5 5 5 5 3 5 5 3 3 5 5 5 5 3 5 5 5 5 5 5 3 5 5 5 5 5 5 3 5 5 5 5 5 5 5 5 3 5 5 5 5 5 5 5 5 5 5 3 5 5 3 5 5 3 5 5 5 5 5 3 3 5 5 3 3 5 3 5 3 5 3 3 5 5 3 5 3 5 3 5 3 5 3 5 5 3 5 3 5 3 5 5 5 5 5 5 3 5 5 5 3 5 5 5 5 5 5 5 5 5 3 5 5 3 5 3 5 3 5 5 5 3 3 5 5 5 5 5 5 5 5 5 5 5 3 5 5 5 5 5 3 5 5 5 5 5 5 5 5 5 5 5 5 5 5 5 5 5 3 5 5 5 5 5 5 3 5 5 5 3 5 5 3 5 5 5 3 5 3 3 5 5 5 5 5 5 5 5 5 3 5 5 5 5 5 5 5 3 5 3 5 3 5 5 5 5 5 5 5 5 5 5 5 5 5 5 5 5 5 5 5 5 5 5 5 5 5 5 5 5 5 5 5 5 5 5 5 5 5 3 5 5 3 3 5 5 5 5 3 5 5 5 5 5 3 5 5 3 3 5 5 5 5 5 5 3 5 3 5 5 3 3 5 3 5 5 5 3 5 5 5 5 3 5 5 5 3 5 5 3 3 5 5 5 3 5 5 5 5 3 5 5 3 5 5 5 3 5 5 3 5 5 5 3 5 3 5 5 3 5 5 3 3 5 5 3 5 3 3 5 5 5 5 3 5 5 5 5 3 5 5 5 5 5 5 5 5 5 5 5 5 3 5 5 5 5 3 5 3 5 5 5 5 5 3 3 3 5 5 5 5 5 5 5 5 3 5 5 5 5 5 5 3 5 5 5 5 3 5 5 5 5 5 5 5 5 5 5 5 5 5 5 5 5 5 5 3 5 3 5 5 3 3 5 3 5 5 3 5 3 5 3 5 3 5 5 5 5 3 5 5 5 3 5 5 5 5 5 5 5 5 5 5 5 5 5 5 5 5 5 5 5 5 5 5 5 5 5 3 5 5 5 5 5 3 5 5 5 5 5 5 5 5 5 5 5 3 5 5 5 5 5 3 5 5 3 3 5 5 5 3 5 5 3 3 5 3 5 5 5 5 5 5 5 5 5 5 5 5 5 5 5 5 3 5 5 5 5 3 5 5 5 5 5 5 5 5 3 3 5 5 3 5 5 5 5 5 5 5 5 5 3 3 5 5 3 5 5 5 3 5 5 5 5 5 5 5 5 5 5 5 5 5 5 5 5 5 5 5 5 5 5 5 5 5 5 3 5 5 5 5 5 5 5 5 5 5 5 5 5 5 5 5 5 5 5 5 3 5 5 5 3 3 5 5 5 3 5 5 3 5 5 5 5 5 3 5 3 5 5 5 5 5 5 5 5 3 5 5 5 3 5 5 3 5 3 5 5 5 3 5 5 5 3 5 5 5 5 5 5 5 5 5 5 5 5 5 5 5 5 5 3 5 5 5 5 5 5 5 5 5 3 5 5 5 5 5 5 5 5 3 5 5 5 5 5 5 5 5 5 5 5 5 5 3 5 5 5 3 5 5 5 5 5 5 5 5 5 5 5 5 5 5 5 5 5 5 5 3 5 5 5 3 5 3 5 5 5 3 5 5 5 3 3 5 5 5 5 5 5 5 5 5 5 5 5 5 5 5 5 5 5 5 5 5 5 3 5 5 5 5 3 5 5 5 5 3 5 5 5 5 5 5 5 3 5 5 5 5 3 5 5 5 5 5 5 3 5 5 5 5 5 5 3 5 5 5 3 5 5 5 5 5 5 5 5 5 3 5 5 5 5 5 5 3 5 5 5 5 5 5 5 5 5 5 5 3 5 5 3 5 5 5 5 5 3 5 5 3 5 5 5 5 5 5 5 3 3 5 5 5 5 3 5 5 5 5 5 5 3 5 5 5 5 5 5 5 5 5 5 3 5 5 5 5 5 5 5 5 5 5 5 5 3 5 3 5 5 5 3 5 5 3 5 5 5 5 3 5 5 5 5 5 3 5 5 5 5 5 5 5 5 3 5 5 5 5 3 5 5 5 5 5 5 5 3 5 5 5 5 5 5 5 5 5 5 3 5 5 5 3 5 3 5 5 5 5 5 5 3 5 3 5 3 5 5 5 5 3 5 5 5 5 5 5 5 5 5 5 5 5 5 5 3 5 3 5 5 5 5 5 5 5 3 5 5 5 5 5 5 5 5 5 5 5 5 5 3 5 5 5 5 3 5 5 5 5 5 5 5 5 5 5 5 5 5 5 5 5 5 5 5 5 5 5 5 5 3 5 5 5 5 3 5 5 5 3 5 5 3 5 5 3 5 5 5 5 5 5 5 5 5 5 5 5 5 5 5 3 5 5 3 5 5 5 5 5 5 5 3 5 5 5 5 5 3 5 5 5 3 5 5 5 3 5 5 5 5 5 5 5 3 5 5 5 3 5 3 3 5 5 5 5 5 3 5 5 5 5 5 5 5 5 5 5 3 5 5 5 5 5 5 5 5 5 5 5 5 5 5 5 5 5 5 5 5 5 5 5 5 5 5 5 5 5 5 5 5 5 5 5 5 5 3 5 5 5 5 5 5 5 5 5 5 5 5 5 5 5 5 3 5 5 5 5 5 5 5 5 5 3 5 5 5 5 5 5 5 3 5 5 5 5 5 5 5 5 5 5 5 5 5 5 5 5 5 5 5 5 5 3 5 5 5 5 5 5 5 5 5 5 5 5 5 5 5 5 5 3 5 5 5 5 5 5 5 5 5 5 5 5 5 5 5 5 5 5 5 5 5 5 5 5 5 5 5 5 5 5 5 5 5 5 5 5 5 5 5 5 5 5 5 5 5 5 3 5 5 5 5 5 5 5 5 5 5 5 5 5 3 5 3 5 5 5 5 5 3 5 5 5 5 5 3 3 5 5 5 5 5 5 5 5 5 5 5 5 5 5 5 5 5 3 3 5 5 5 5 5 5 3 5 3 5 5 5 5 5 5 5 5 5 3 5 5 5 5 5 5 5 5 5 5 5 5 5 5 5 5 5 5 5 3 5 5 5 5 5 3 5 3 5 5 5 5 5 5 5 3 5 5 5 3 5 5 5 3 5 5 3 5 5 5 3 5 5 3 5 3 5 3 5 5 3 5 5 5 5 5 5 5 5 5 5 5 5 5 5 5 5 5 5 5 5 5 3 5 3 5 5 5 5 5 5 5 3 5 5 5 5 5 5 5 5 5 5 5 5 5 5 5 5 5 5 5 3 5 5 5 3 5 5 5 5 5 5 5 5 5 5 3 5 5 5 5 3 5 5 3 5 5 5 5 5 3 5 5 5 5 3 5 3 5 5 3 5 5 5 5 5 5 5 3 5 5 3 5 3 5 5 5 5 5 5 5 5 5 5 5 5 5 5 5 5 5 5 3 5 5 5 5 5 5 5 3 5 5 5 5 3 5 5 5 5 5 5 5 5 5 3 5 5 5 5 3 5 5 5 5 5 5 5 5 5 5 5 5 3 5 5 5 5 5 5 5 5 5 3 5 5 5 5 5 5 5 5 5 5 5 5 3 5 5 3 5 5 5 5 5 5 5 5 5 3 3 3 5 5 5 3 5 5 5 5 5 5 3 5 5 5 3 3 5 5 5 5 5 5 5 5 5 5 5 5 3 5 5 5 3 3 5 5 5 5 5 3 5 5 5 5 3 5 5 5 5 3 5 5 5 5 5 3 3 3 5 5 5 3 3 5 5 5 5 5 5 5 5 5 3 3 5 5 5 3 3 5 5 5 5 5 5 5 5 5 5 5 5 5 5 5 5 5 3 5 3 5 5 5 5 3 5 5 5 5 5 5 5 3 5 5 5 5 5 5 5 3 5 5 3 5 3 3 5 5 5 3 3 5 5 5 3 3 5 5 5 5 5 5 5 5 5 5 3 5 5 5 5 5 5 5 3 5 5 5 5 3 5 5 5 5 5 5 3 5 5 5 5 3 5 3 5 5 5 5 5 5 5 5 5 5 5 5 5 5 3 5 5 5 5 5 5 5 3 5 5 5 5 3 5 5 5 3 5 5 5 5 5 5 5 5 5 5 5 5 5 5 5 5 5 5 5 5 5 5 3 5 3 5 5 3 5 5 5 3 5 5 3 5 5 5 5 5 5 5 5 5 5 5 5 5 5 5 5 5 5 5 5 3 3 3 5 5 5 5 5 5 5 5 5 5 5 5 5 3 5 5 5 3 5 5 3 5 5 5 5 3 5 5 3 3 5 5 5 5 3 5 5 3 5 3 5 5 5 5 5 5 5 5 5 5 5 5 3 5 5 5 5 5 5 5 3 5 3 5 5 5 5 3 5 5 5 5 5 5 5 5 5 5 5 5 5 5 5 5 5 5 5 5 5 5 5 3 5 5 5 3 5 3 5 5 5 3 5 5 5 5 5 3 5 5 3 5 5 5 5 5 5 5 5 3 5 5 5 5 5 3 5 5 5 5 5 5 5 5 5 5 5 5 5 5 3 5 5 5 5 3 5 5 5 5 5 5 5 5 5 5 5 5 3 5 5 5 5 3 5 5 5 5 5 5 5 5 5 5 5 5 5 3 5 5 3 5 5 5 3 5 5 5 5 5 5 5 5 5 5 5 5 5 3 3 5 3 3 5 5 5 3 3 5 3 5 3 5 3 5 5 5 3 5 3 5 5 5 5 3 5 5 5 5 5 5 3 5 5 5 5 5 3 5 5 3 5 5 3 5 5 3 5 5 5 5 5 3 5 3 5 5 5 5 5 5 5 5 5 5 5 5 5 3 5 5 3 5 5 5 5 5 5 5 5 5 3 5 5 5 5 5 5 5 5 5 3 5 5 3 5 3 5 5 5 5 5 5 5 3 5 5 5 5 5 5 5 3 5 3 5 5 3 5 5 5 3 5 5 5 5 3 5 5 5 5 5 3 5 5 5 5 5 5 5 5 5 5 5 5 5 5 5 5 5 5 5 5 5 3 5 5 3 5 5 5 3 5 5 5 5 3 5 5 5 5 5 5 5 5 5 5 5 5 5 5 5 5 5 5 5 5 5 5 5 3 5 5 5 5 5 5 3 5 5 5 5 5 5 5 5 5 5 5 5 5 3 5 3 5 5 3 5 5 5 5 3 3 5 3 5 3 5 5 5 5 5 3 5 5 3 3 5 5 5 5 5 3 5 5 3 5 5 5 5 5 5 5 5 3 3 5 5 5 3 5 3 5 5 5 5 5 3 5 3 5 5 5 5 5 3 3 5 5 5 5 3 5 5 5 5 3 5 5 5 5 5 5 5 5 5 5 5 5 5 5 5 5 5 3 5 5 3 5 5 5 3 5 5 5 5 5 5 5 5 5 5 5 5 5 5 5 5 5 5 5 3 5 5 5 5 5 5 5 5 5 5 5 5 5 5 3 3 5 5 5 3 5 5 5 5 5 3 5 5 5 5 5 5 5 5 5 5 5 3 5 5 3 5 5 5 5 5 5 5 5 5 5 3 5 5 5 3 5 3 5 3 5 5 5 3 3 5 3 5 5 3 5 5 3 3 5 5 5 3 5 5 3 5 3 5 5 5 3 5 5 3 3 5 3 5 5 3 5 3 5 5 5 5 5 5 5 5 5 3 5 5 5 5 5 3 5 5 5 5 5 5 5 5 5 5 3 5 5 5 5 3 3 5 5 3 5 3 5 5 5 5 5 3 5 5 3 5 3 5 5 5 5 5 5 5 3 5 5 5 5 5 5 5 5 5 3 5 3 5 3 5 3 5 5 5 5 3 5 5 5 5 5 3 3 5 5 5 5 5 5 3 5 5 5 5 5 3 5 5 5 5 3 5 5 3 5 3 5 5 5 3 5 3 5 5 3 3 3 5 5 5 5 5 5 3 3 3 5 5 5 5 3 5 3 5 3 5 5 5 5 5 5 3 5 5 5 5 5 5 5 5 5 5 5 5 5 5 5 5 5 5 5 5 5 5 5 5 5 5 5 5 5 5 5 5 5 5 5 5 5 5 5 5 5 5 5 5 5 5 5 5 5 3 5 5 5 3 3 5 5 5 5 5 5 5 5 5 5 5 5 5 5 5 5 5 5 5 3 5 5 5 5 5 5 5 3 5 5 3 5 5 3 5 5 3 5 3 5 5 3 5 5 5 3 5 3 5 3 3 5 5 5 3 3 5 5 3 5 5 3 5 5 5 5 5 5 5 5 5 5 5 5 3 5 5 5 5 3 5 5 5 5 3 5 5 5 5 5 5 5 5 5 3 5 3 5 5 5 5 3 5 5 5 3 5 5 5 5 5 5 3 5 5 3 5 5 5 3 5 5 5 5 5 5 5 3 5 5 5 5 5 3 5 5 5 5 5 5 5 5 5 5 5 5 5 5 5 3 5 5 5 5 5 3 5 5 3 5 3 5 5 5 5 3 3 5 5 3 5 5 5 5 5 5 5 5 5 5 5 3 5 3 5 5 5 5 5 3 5 5 5 3 5 5 5 3 5 5 5 5 5 5 5 5 5 5 5 5 5 3 5 5 5 5 5 5 5 3 5 3 5 5 5 5 5 5 5 3 3 5 5 5 5 5 5 5 5 5 3 5 5 5 5 5 5 3 3 3 5 3 5 5 5 5 5 5 3 5 3 5 3 5 3 5 5 5 5 5 5 3 5 5 3 5 5 5 5 3 5 5 5 5 5 5 5 5 5 5 5 5 5 5 5 5 5 5 5 5 5 3 5 3 5 5 5 5 5 5 5 5 5 5 5 5 5 5 5 5 5 5 5 5 5 5 5 5 5 5 5 5 5 5 5 5 5 5 5 5 5 5 5 5 5 5 5 5 5 5 5 5 5 5 5 5 5 5 5 5 5 5 3 5 5 5 5 5 5 5 5 5 5 5 5 5 5 5 5 5 5 5 5 5 5 5 3 5 5 5 3 5 3 5 5 5 5 5 5 5 5 5 5 5 5 5 5 5 5 5 5 5 5 5 5 5 5 5 5 5 5 5 5 5 5 5 5 5 5 5 5 5 3 5 3 5 5 5 5 5 5 5 5 5 5 5 5 5 5 5 5 5 5 5 5 5 5 5 5 5 3 5 5 5 5 5 5 5 5 5 5 5 5 5 5 5 5 5 5 5 5 5 5 5 5 5 5 5 5 5 5 5 5 5 5 5 5 5 5 5 5 5 5 5 5 5 5 5 5 5 5 5 5 5 5 5 5 5 5 5 5 5 5 5 5 5 5 5 5 5 3 5 5 5 5 5 5 5 3 5 5 3 5 5 5 5 5 5 5 5 5 5 5 5 5 5 5 5 5 5 5 5 3 5 5 5 5 5 5 5 5 5 5 5 5 5 5 5 5 5 5 5 5 5 5 5 5 5 5 5 5 5 5 5 5 3 5 5 5 5 3 5 3 5 5 5 5 5 5 3 5 5 3 5 5 3 3 5 3 5 5 5 3 5 5 5 5 5 5 5 5 5 5 5 5 5 5 5 3 5 5 5 5 5 5 5 5 3 5 5 5 5 5 5 5 5 5 5 5 5 5 5 5 5 5 5 5 5 5 5 5 5 5 5 5 5 5 5 5 5 5 5 5 5 3 5 5 5 5 5 5 5 3 5 5 3 5 3 5 5 5 5 5 5 5 5 5 5 5 3 3 5 5 3 5 5 3 3 5 5 5 5 3 5 3 5 5 3 5 3 3 5 3 5 3 5 5 5 5 5 5 5 3 5 3 5 5 5 5 5 3 5 5 5 3 5 5 3 5 3 5 3 3 5 5 3 5 5 5 5 5 5 3 5 5 5 5 5 5 5 5 3 3 5 5 5 3 5 5 5 5 3 3 5 3 5 5 5 3 5 5 5 5 5 5 5 5 5 5 5 5 5 5 5 5 3 5 5 5 5 5 5 3 5 3 5 5 5 3 3 5 5 3 5 3 5 5 5 5 5 5 5 5 5 5 5 5 3 3 5 5 5 5 5 3 5 5 5 5 5 5 5 3 5 5 5 3 5 3 5 5 3 5 5 5 5 5 5 5 5 5 3 5 5 3 5 5 5 5 5 5 5 5 5 5 5 3 5 5 5 5 5 5 5 5 5 5 5 5 5 5 5 5 5 5 5 5 5 5 3 5 5 5 5 5 5 5 5 5 5 5 3 5 5 5 5 3 5 5 5 5 5 5 5 5 5 5 5 3 5 5 5 5 5 3 5 3 5 5 5 5 5 5 5 5 5 3 5 5 3 5 5 3 5 5 5 5 3 5 5 5 5 5 5 5 5 5 5 5 5 5 5 5 5 5 5 5 5 5 3 5 5 3 5 3 5 5 5 5 5 5 5 5 5 3 5 5 3 3 3 5 5 5 3 5 5 5 5 5 5 3 3 5 3 5 5 3 5 5 3 5 5 5 5 3 5 5 5 5 3 5 5 5 5 5 5 5 5 5 5 5 3 5 5 3 5 3 3 5 5 3 3 3 5 5 5 5 5 5 5 5 5 5 3 5 5 5 5 5 5 5 5 5 3 5 5 5 5 5 3 5 5 5 5 5 5 5 5 5 5 3 5 5 5 5 5 5 5 5 5 5 5 5 5 5 5 5 5 5 5 5 5 5 5 5 3 3 5 5 5 5 5 5 5 5 3 5 5 5 5 5 5 5 5 5 5 5 5 5 5 5 5 3 5 5 5 5 3 5 5 5 3 3 5 5 5 5 5 5 3 5 3 5 5 5 3 5 5 5 5 5 5 5 5 3 5 3 3 5 5 5 5 5 5 5 5 5 5 5 5 3 5 5 3 5 3 5 5 5 5 5 5 5 5 5 5 5 5 5 5 5 5 5 5 5 5 5 5 5 3 5 5 5 5 5 3 5 5 5 5 5 5 5 5 5 5 3 5 5 5 3 5 5 5 5 5 5 5 5 5 5 5 3 3 5 5 5 5 5 3 5 5 5 3 5 5 5 5 5 5 5 5 5 5 3 5 5 5 5 5 5 5 3 3 5 3 5 5 5 5 3 5 5 5 5 5 3 5 5 5 5 5 5 5 5 5 5 3 5 5 5 5 5 5 5 5 5 5 3 5 5 5 5 5 5 5 3 5 5 5 5 5 5 5 5 5 5 5 5 5 5 5 5 5 5 5 5 3 5 5 5 3 5 5 5 5 5 5 5 5 5 5 5 5 5 3 5 3 3 5 3 3 5 5 5 5 5 3 5 5 5 5 5 5 5 3 5 5 3 5 5 3 5 5 3 5 5 3 3 3 3 5 5 3 3 5 5 3 5 5 3 5 5 5 5 3 3 3 3 5 5 5 3 5 3 5 3 5 3 3 5 5 5 5 5 5 5 3 5 5 3 5 3 5 5 3 3 5 5 5 5 5 5 5 5 5 5 5 5 5 5 5 5 5 3 5 5 5 5 5 5 5 5 5 5 5 5 5 5 5 5 5 3 5 5 5 5 5 5 5 5 5 5 5 5 5 5 3 3 5 5 5 5 3 5 3 5 5 5 3 3 5 3 5 5 5 5 5 5 5 5 5 5 5 5 5 5 5 5 5 5 5 3 5 3 5 5 5 5 3 5 5 5 5 5 5 5 5 5 5 5 5 5 5 5 5 5 5 5 5 3 5 5 5 5 5 5 5 5 5 5 5 5 5 5 3 5 5 5 5 5 5 5 5 5 5 5 5 5 5 5 5 5 5 5 5 5 5 5 5 5 5 5 5 5 5 5 5 5 5 5 5 5 5 5 5 5 5 5 5 5 5 5 5 5 5 5 5 5 5 5 5 5 5 5 5 5 5 3 5 5 5 3 5 5 3 5 5 5 5 5 5 5 5 5 5 5 3 5 5 5 5 3 5 5 5 5 5 5 5 5 5 5 5 5 5 5 5 5 5 5 5 5 5 5 5 5 5 5 5 5 5 3 5 5 5 5 3 5 5 5 5 5 5 5 5 5 5 3 5 5 3 5 5 5 5 5 5 5 5 5 5 5 5 3 5 5 5 5 5 5 5 5 3 5 5 5 5 5 5 5 5 5 5 3 5 3 5 5 5 3 5 5 5 3 5 3 5 3 3 5 5 5 5 5 3 5 5 5 5 5 5 5 5 5 5 5 5 5 5 5 5 5 5 5 5 5 5 5 3 5 5 3 5 5 5 3 5 3 5 5 5 5 5 5 5 5 5 5 5 5 3 5 5 5 5 5 5 5 5 5 5 5 5 5 5 5 5 5 5 5 3 5 5 5 5 5 5 5 5 5 5 5 5 5 5 5 5 5 5 5 5 5 5 5 5 5 5 5 3 5 5 5 5 5 5 5 5 5 5 5 5 5 5 5 5 5 5 3 5 5 5 3 5 5 5 3 3 5 5 5 5 5 3 5 5 5 5 5 5 5 3 3 5 5 5 3 5 3 5 5 5 5 5 5 3 3 5 5 3 3 5 5 5 5 5 5 5 5 5 5 3 5 5 5 5 5 5 3 5 5 5 5 5 5 5 5 5 5 5 5 5 5 5 5 5 3 5 5 5 5 3 5 5 3 5 5 5 5 5 5 5 5 5 5 5 3 5 3 5 3 5 5 5 5 5 5 5 5 5 5 5 5 5 5 5 5 5 5 5 3 5 5 3 5 5 5 3 5 5 3 5 5 5 5 3 5 5 5 5 5 5 5 3 5 5 5 5 5 5 5 5 5 5 5 5 5 5 5 5 5 5 5 5 5 5 5 5 5 5 5 5 5 3 5 5 5 5 5 5 5 5 5 5 5 5 5 5 5 5 5 5 5 5 5 5 5 5 5 5 5 5 5 5 5 5 5 5 5 5 5 3 3 3 5 5 3 5 5 5 3 5 3 5 5 5 5 5 3 5 5 5 5 5 5 5 3 5 5 5 5 5 5 5 5 5 5 5 5 5 5 3 5 5 5 3 5 3 5 5 5 5 5 5 5 5 3 5 5 5 5 5 5 5 3 5 3 5 3 5 5 5 5 5 5 5 5 3 5 5 3 3 3 5 3 5 3 5 5 5 5 5 5 5 5 5 5 5 5 5 5 5 5 5 5 5 5 5 3 5 5 3 3 5 5 5 3 5 5 5 5 5 5 5 3 5 3 5 5 5 5 3 5 5 3 5 5 5 5 5 5 5 3 5 5 3 5 5 5 3 5 5 5 5 5 5 5 5 5 3 5 5 5 5 5 5 3 5 5 3 5 5 5 5 3 5 5 5 5 5 5 3 3 3 5 5 5 3 5 3 5 3 5 5 5 5 5 5 3 5 5 5 3 5 5 5 3 5 5 5 5 5 5 5 5 5 5 5 5 3 5 5 5 3 5 5 5 5 5 3 3 5 5 3 5 3 3 3 5 5 5 3 5 5 5 5 5 3 5 5 5 5 5 5 5 5 5 5 5 5 3 5 5 5 5 5 5 3 5 5 3 5 5 3 5 5 5 5 5 3 5 5 3 5 3 5 3 5 5 5 5 5 5 3 5 5 5 5 3 5 5 5 5 5 5 5 5 5 5 3 5 5 5 5 5 3 5 5 5 5 5 5 5 5 5 5 5 5 5 5 5 3 5 5 5 5 5 3 5 3 5 5 5 5 5 3 5 5 5 5 5 3 5 5 5 5 5 3 5 5 5 5 5 5 5 5 5 5 3 5 3 5 3 5 5 3 5 5 5 5 5 5 5 5 3 5 3 5 5 5 5 5 5 5 5 5 5 3 5 5 5 5 5 5 5 5 5 5 3 5 5 5 3 5 3 3 5 5 5 3 5 5 5 3 3 5 5 5 5 5 5 5 5 5 5 3 3 5 5 5 5 5 3 5 5 5 5 5 5 5 5 5 5 3 5 3 3 3 5 5 5 5 5 5 5 5 3 5 5 5 5 5 5 5 5 5 5 5 5 5 5 5 5 5 5 5 5 5 5 5 5 5 5 5 5 5 3 5 5 5 5 3 5 5 5 5 5 5 5 5 3 5 5 5 5 5 5 5 5 3 5 5 5 5 5 5 5 5 5 5 5 5 5 5 5 5 5 5 5 5 5 5 5 5 5 5 3 5 5 5 5 5 5 3 5 3 5 5 3 5 5 5 3 5 3 5 5 5 3 5 5 5 3 5 5 5 5 5 5 3 5 5 5 5 5 5 5 5 5 5 5 5 5 5 5 5 5 5 5 5 5 5 5 5 5 5 5 3 5 3 5 5 5 5 3 5 5 5 5 5 5 5 5 5 5 5 5 5 3 5 5 3 5 5 3 5 5 5 5 5 3 5 5 5 5 5 5 5 5 3 5 3 5 5 5 5 5 3 3 5 5 3 5 5 5 3 5 5 5 5 5 5 5 3 5 5 5 5 5 5 5 5 5 5 5 5 5 5 5 5 3 5 5 5 5 5 3 5 3 5 5 5 5 5 5 5 5 5 5 5 5 3 5 3 5 5 5 5 5 5 3 3 5 5 5 5 5 5 5 5 5 5 5 5 5 5 5 5 5 5 5 5 5 3 5 5 3 5 5 5 5 5 3 5 5 5 5 5 5 3 5 5 5 5 5 5 5 5 5 5 5 5 5 5 5 5 3 5 5 3 5 5 5 5 3 5 5 5 5 5 5 5 5 5 5 5 3 5 5 5 5 5 5 5 5 5 5 5 5 5 5 5 5 5 5 5 3 5 5 5 5 5 5 5 5 5 5 5 5 3 5 5 5 5 5 5 5 5 5 5 5 5 5 3 3 5 5 5 5 5 5 3 5 5 5 5 5 5 5 5 5 5 5 5 5 5 5 5 5 5 5 5 5 5 5 5 5 5 5 5 5 5 5 5 5 5 5 3 5 5 5 5 5 5 5 5 3 5 5 5 5 5 5 5 5 5 5 5 5 3 5 5 5 5 3 5 3 5 5 5 5 5 5 5 5 3 5 5 5 5 5 5 5 5 5 5 3 5 5 5 3 5 5 3 5 5 5 5 3 5 5 3 5 5 5 5 5 5 5 5 3 5 5 5 3 5 5 5 5 5 5 5 3 5 3 5 3 5 3 3 5 5 5 3 3 3 5 5 3 5 5 5 3 5 5 5 5 3 5 5 5 5 5 5 5 5 5 5 5 5 5 5 5 5 5 5 5 5 5 5 5 5 5 5 5 5 5 5 5 5 5 5 5 5 5 5 3 5 5 5 5 5 5 5 5 3 5 5 5 5 3 5 5 3 5 5 3 5 5 5 5 3 5 5 5 5 5 3 5 5 5 5 5 5 5 5 5 5 5 5 5 3 3 5 5 5 3 5 5 5 5 5 5 5 5 5 5 5 5 5 5 3 5 5 5 5 5 5 3 5 5 3 5 5 5 5 5 5 5 5 5 5 3 5 5 5 5 5 3 5 5 5 5 5 5 5 5 5 5 3 5 5 5 5 5 5 5 5 5 5 5 5 5 5 5 3 5 5 5 5 5 5 5 5 5 5 5 5 5 5 5 5 5 5 5 5 5 5 5 3 5 3 5 5 5 3 5 5 5 5 5 5 5 5 5 3 5 5 5 3 5 5 5 5 5 5 5 5 5 5 5 5 5 5 5 5 3 5 5 5 5 5 3 5 5 5 3 5 3 5 5 5 5 5 5 3 5 5 5 5 5 5 5 5 5 5 5 5 5 5 5 5 5 5 5 5 5 5 5 5 5 5 5 3 5 5 3 5 5 5 5 5 5 5 3 5 5 5 5 3 5 5 3 5 5 5 5 5 5 3 5 5 5 3 5 5 5 3 5 5 5 5 5 3 5 5 5 5 5 3 5 5 5 5 5 5 5 5 3 5 5 3 5 5 5 5 3 5 5 5 5 3 5 5 5 5 3 5 5 5 3 5 3 5 5 5 5 5 5 5 5 5 5 3 5 5 5 5 5 5 5 3 3 5 5 5 5 5 3 5 5 5 5 5 3 5 5 5 3 5 5 3 5 5 3 5 5 5 3 5 5 5 5 5 5 3 5 5 5 5 5 3 5 5 5 5 5 3 5 5 5 5 5 5 3 5 5 5 5 3 5 5 5 5 5 3 5 5 5 5 5 5 5 5 5 5 3 5 5 5 5 5 5 5 3 5 5 5 5 3 3 5 5 3 5 5 5 5 5 5 5 3 5 5 5 5 5 5 5 3 5 3 5 5 3 5 5 5 5 3 5 3 5 5 5 5 5 5 5 5 5 5 3 5 5 5 5 5 3 5 5 5 3 5 5 5 5 3 5 5 3 5 5 5 5 5 3 5 3 5 3 3 5 5 5 5 3 3 5 5 5 5 5 5 5 5 5 5 5 5 5 3 5 5 5 5 5 5 3 3 5 5 5 5 5 5 5 5 5 5 5 5 5 3 5 5 5 5 5 5 5 5 5 5 5 5 5 5 5 5 5 5 5 5 5 5 5 5 5 5 5 5 5 5 5 5 5 3 5 5 3 5 5 5 5 5 5 5 3 5 5 5 3 5 5 3 5 5 5 3 3 5 5 5 5 3 3 5 5 5 5 5 5 5 5 5 5 5 5 5 5 3 5 5 3 5 5 5 3 5 5 5 5 3 5 5 3 5 5 5 5 5 5 5 5 5 5 5 3 5 5 5 5 5 5 5 3 5 5 5 5 5 5 5 5 5 5 5 5 5 5 5 5 5 5 3 5 5 5 5 5 5 3 5 3 5 5 5 5 5 3 5 5 3 5 5 5 3 5 5 5 3 5 5 5 5 5 5 5 5 5 5 5 5 5 5 3 5 5 5 5 3 3 5 5 5 5 5 5 5 5 5 5 5 5 5 5 5 5 5 5 5 3 5 5 5 5 5 5 5 5 3 5 3 5 5 5 5 5 5 5 3 5 3 5 5 5 5 5 3 5 5 5 5 5 5 3 5 5 5 5 5 3 3 5 5 5 3 3 3 5 5 5 5 5 3 5 5 5 5 5 3 5 5 5 5 3 5 3 3 5 3 3 5 5 5 3 5 5 5 3 5 5 5 3 5 5 5 3 5 5 5 5 5 5 5 5 3 5 5 5 3 5 5 5 5 5 5 3 5 5 5 5 5 5 3 5 5 5 5 5 5 5 5 5 5 5 5 5 5 3 5 3 5 5 5 3 5 5 3 5 3 5 3 5 5 3 5 5 5 5 5 5 3 5 5 5 5 3 5 5 5 5 5 5 3 5 5 5 5 5 5 5 5 5 5 3 5 5 5 5 5 5 5 5 5 5 5 5 5 5 5 5 5 5 5 3 3 5 5 5 3 5 5 3 5 5 3 5 5 3 5 5 3 3 5 5 5 5 3 5 5 5 5 5 5 5 5 5 5 5 3 3 5 5 5 3 5 3 5 3 5 5 5 5 5 3 5 5 3 5 3 5 5 3 3 3 5 5 5 5 3 5 5 3 5 3 5 5 3 5 5 5 5 5 5 5 5 3 5 3 3 5 5 5 5 5 3 3 5 5 5 3 3 5 5 5 5 5 5 5 5 3 5 3 5 5 5 5 5 5 5 5 5 5 5 5 5 5 5 5 5 5 5 5 5 5 5 5 5 5 5 5 5 3 5 5 5 5 5 5 5 5 5 5 5 5 5 5 5 3 5 5 3 5 5 5 5 5 3 5 5 5 5 5 5 5 5 5 5 5 5 5 3 5 5 5 5 5 5 5 5 5 3 5 5 3 5 5 5 5 3 3 3 5 5 5 5 5 3 5 5 5 
</DataArray>
</Cells>
<PointData Scalars="" Vectors="displacement," Tensors="">
<DataArray type="Float64" Name="displacement" NumberOfComponents="3" format="ascii">
0.063286872163821825 0.064998922753236724 0 0.064996578875400848 0.064999739481098606 0 0.065513337239983788 0.062853824078360071 0 0.064996578875400848 0.064999739481098606 0 0.065513337239983788 0.062853824078360071 0 0.065000974686695592 0.060137731136793965 0 0.063283680414827001 0.064995527319265986 0 0.064104197217308895 0.062520841395495422 0 0.063275786420134136 0.064997243264668755 0 0.061956053925813791 0.06290979904760971 0 0.06227576937778196 0.062051174100360242 0 0.063275786420134136 0.064997243264668755 0 0.061956053925813791 0.06290979904760971 0 0.060579985802203709 0.064997785233360972 0 0.061956053925813791 0.06290979904760971 0 0.062721004080266707 0.060871168812671517 0 0.061730012755148778 0.060808602941149849 0 0.061956053925813791 0.06290979904760971 0 0.06227576937778196 0.062051174100360242 0 0.062721004080266707 0.060871168812671517 0 0.064104197217308895 0.062520841395495422 0 0.064997130775525783 0.060140448094173189 0 0.06227576937778196 0.062051174100360242 0 0.064991154483242622 0.060134541794910942 0 0.062721004080266707 0.060871168812671517 0 0.064991154483242622 0.060134541794910942 0 0.062721004080266707 0.060871168812671517 0 0.06339523705214814 0.05928890783347137 0 0.062721004080266707 0.060871168812671517 0 0.06339523705214814 0.05928890783347137 0 0.061730012755148778 0.060808602941149849 0 0.062330447554927983 0.059200566527127338 0 0.06339523705214814 0.05928890783347137 0 0.061730012755148778 0.060808602941149849 0 0.062330447554927983 0.059200566527127338 0 0.06339523705214814 0.05928890783347137 0 0.063443729783571393 0.057654991968739716 0 0.06339523705214814 0.05928890783347137 0 0.064998749617477272 0.056261157700090055 0 0.063443729783571393 0.057654991968739716 0 0.064991154483242622 0.060134541794910942 0 0.06339523705214814 0.05928890783347137 0 0.064998749617477272 0.056261157700090055 0 0.061190550297236336 0.059865742002883186 0 0.058960827805093666 0.060791415411447787 0 0.060262286955138016 0.059503069716728807 0 0.062330447554927983 0.059200566527127338 0 0.061190550297236336 0.059865742002883186 0 0.061730012755148778 0.060808602941149849 0 0.062330447554927983 0.059200566527127338 0 0.061190550297236336 0.059865742002883186 0 0.061593223958749804 0.058528501774641355 0 0.061190550297236336 0.059865742002883186 0 0.061730012755148778 0.060808602941149849 0 0.061368760061925876 0.061455708418798521 0 0.061190550297236336 0.059865742002883186 0 0.061368760061925876 0.061455708418798521 0 0.058960827805093666 0.060791415411447787 0 0.058373085324914677 0.063405834582421536 0 0.058528914967882956 0.062833138616927992 0 0.061730012755148778 0.060808602941149849 0 0.061368760061925876 0.061455708418798521 0 0.060645273035719004 0.06327300200731939 0 0.061956053925813791 0.06290979904760971 0 0.061730012755148778 0.060808602941149849 0 0.060645273035719004 0.06327300200731939 0 0.061956053925813791 0.06290979904760971 0 0.060645273035719004 0.06327300200731939 0 0.060579985802203709 0.064997785233360972 0 0.060645273035719004 0.06327300200731939 0 0.060579985802203709 0.064997785233360972 0 0.057886154164720136 0.064997847966741518 0 0.058373085324914677 0.063405834582421536 0 0.057878658731788789 0.06499752626292632 0 0.056069416614942864 0.065346279178218197 0 0.0578739927729464 0.064999559365629414 0 0.055900080965113265 0.065450049304396185 0 0.061368760061925876 0.061455708418798521 0 0.060645273035719004 0.06327300200731939 0 0.057886154164720136 0.064997847966741518 0 0.0578739927729464 0.064999559365629414 0 0.055900080965113265 0.065450049304396185 0 0.054072132293731236 0.064998721967071543 0 0.055900080965113265 0.065450049304396185 0 0.054072132293731236 0.064998721967071543 0 0.055646480823266849 0.06545068861765399 0 0.054072132293731236 0.064998721967071543 0 0.055646480823266849 0.06545068861765399 0 0.053232057785151436 0.065444647345635182 0 0.056069416614942864 0.065346279178218197 0 0.055900080965113265 0.065450049304396185 0 0.055646480823266849 0.06545068861765399 0 0.050263645825411769 0.064999012885159774 0 0.052683451399209193 0.066226031452967224 0 0.048850720678339912 0.065535040104980027 0 0.052544526687224924 0.065085631384999579 0 0.051469903552743633 0.064751384484007135 0 0.050263645825411769 0.064999012885159774 0 0.053232057785151436 0.065444647345635182 0 0.052683451399209193 0.066226031452967224 0 0.054072132293731236 0.064998721967071543 0 0.050263645825411769 0.064999012885159774 0 0.053232057785151436 0.065444647345635182 0 0.055646480823266849 0.06545068861765399 0 0.053232057785151436 0.065444647345635182 0 0.052683451399209193 0.066226031452967224 0 0.055646480823266849 0.06545068861765399 0 0.052683451399209193 0.066226031452967224 0 0.056508758864843064 0.064727971845089577 0 0.051309742381998966 0.067707187295948851 0 0.049210302607477226 0.067094054003523196 0 0.05008976526799265 0.068290007213354195 0 0.051309742381998966 0.067707187295948851 0 0.048850720678339912 0.065535040104980027 0 0.049210302607477226 0.067094054003523196 0 0.051332749305223017 0.069057929022147468 0 0.05008976526799265 0.068290007213354195 0 0.050489029684220102 0.069041754946042297 0 0.051309742381998966 0.067707187295948851 0 0.051332749305223017 0.069057929022147468 0 0.05008976526799265 0.068290007213354195 0 0.052544526687224924 0.065085631384999579 0 0.054394561307077045 0.064893480315492455 0 0.051309742381998966 0.067707187295948851 0 0.051332749305223017 0.069057929022147468 0 0.05181485320706479 0.069042320031514698 0 0.051680284559137403 0.069239268463703194 0 0.051404390748906438 0.069339039842243488 0 0.051644737787476531 0.068931980327261305 0 0.051332749305223017 0.069057929022147468 0 0.051680284559137403 0.069239268463703194 0 0.051944927866447527 0.069202629199481933 0 0.051332749305223017 0.069057929022147468 0 0.051680284559137403 0.069239268463703194 0 0.05181485320706479 0.069042320031514698 0 0.051332749305223017 0.069057929022147468 0 0.05201428477086676 0.069383748684660282 0 0.051944927866447527 0.069202629199481933 0 0.051332749305223017 0.069057929022147468 0 0.05201428477086676 0.069383748684660282 0 0.050489029684220102 0.069041754946042297 0 0.056069416614942864 0.065346279178218197 0 0.057565919947162453 0.063594251861308196 0 0.058960827805093666 0.060791415411447787 0 0.056069416614942864 0.065346279178218197 0 0.055646480823266849 0.06545068861765399 0 0.057565919947162453 0.063594251861308196 0 0.057565919947162453 0.063594251861308196 0 0.056508758864843064 0.064727971845089577 0 0.058081512728449636 0.0628217254025705 0 0.055646480823266849 0.06545068861765399 0 0.057565919947162453 0.063594251861308196 0 0.056508758864843064 0.064727971845089577 0 0.051680284559137403 0.069239268463703194 0 0.05181485320706479 0.069042320031514698 0 0.051404390748906438 0.069339039842243488 0 0.054394561307077045 0.064893480315492455 0 0.055619851621278096 0.064564020519137927 0 0.055619851621278096 0.064564020519137927 0 0.055639011386867221 0.064189556293100677 0 0.057565919947162453 0.063594251861308196 0 0.059083443650000261 0.060800773238057625 0 0.058960827805093666 0.060791415411447787 0 0.057565919947162453 0.063594251861308196 0 0.058081512728449636 0.0628217254025705 0 0.059083443650000261 0.060800773238057625 0 0.059083443650000261 0.060800773238057625 0 0.058960827805093666 0.060791415411447787 0 0.059305965703366138 0.059874631640639546 0 0.059305965703366138 0.059874631640639546 0 0.059315035025399643 0.059598552464491347 0 0.059617712028223406 0.058997790702125852 0 0.059083443650000261 0.060800773238057625 0 0.059305965703366138 0.059874631640639546 0 0.059315035025399643 0.059598552464491347 0 0.051404390748906438 0.069339039842243488 0 0.050566404228791835 0.068108520066855541 0 0.051644737787476531 0.068931980327261305 0 0.059878205738324267 0.061505539569839125 0 0.059083443650000261 0.060800773238057625 0 0.059315035025399643 0.059598552464491347 0 0.059878205738324267 0.061505539569839125 0 0.059315035025399643 0.059598552464491347 0 0.059700394018785068 0.058870563512608207 0 0.055619851621278096 0.064564020519137927 0 0.055173085557340254 0.063328641315610695 0 0.059315035025399643 0.059598552464491347 0 0.059700394018785068 0.058870563512608207 0 0.059283257959367314 0.058859874441670207 0 0.059700394018785068 0.058870563512608207 0 0.059283257959367314 0.058859874441670207 0 0.058941723637926831 0.058371643302957237 0 0.059283257959367314 0.058859874441670207 0 0.058941723637926831 0.058371643302957237 0 0.059617712028223406 0.058997790702125852 0 0.059315035025399643 0.059598552464491347 0 0.059283257959367314 0.058859874441670207 0 0.059617712028223406 0.058997790702125852 0 0.05201428477086676 0.069383748684660282 0 0.052502559820093664 0.068868068081434627 0 0.053465808301038489 0.068696091533698406 0 0.05201428477086676 0.069383748684660282 0 0.052502559820093664 0.068868068081434627 0 0.051944927866447527 0.069202629199481933 0 0.052502559820093664 0.068868068081434627 0 0.051944927866447527 0.069202629199481933 0 0.051644737787476531 0.068931980327261305 0 0.051680284559137403 0.069239268463703194 0 0.051944927866447527 0.069202629199481933 0 0.051644737787476531 0.068931980327261305 0 0.050566404228791835 0.068108520066855541 0 0.052883809143113698 0.067378293327973043 0 0.052708419521365554 0.064717955112790437 0 0.052502559820093664 0.068868068081434627 0 0.051644737787476531 0.068931980327261305 0 0.052883809143113698 0.067378293327973043 0 0.050566404228791835 0.068108520066855541 0 0.051644737787476531 0.068931980327261305 0 0.052883809143113698 0.067378293327973043 0 0.052502559820093664 0.068868068081434627 0 0.052883809143113698 0.067378293327973043 0 0.053465808301038489 0.068696091533698406 0 0.052883809143113698 0.067378293327973043 0 0.053465808301038489 0.068696091533698406 0 0.054550890715930868 0.066965513378915612 0 0.054742394999918571 0.064827745065819078 0 0.054550890715930868 0.066965513378915612 0 0.056462226377017914 0.065514446787738254 0 0.052883809143113698 0.067378293327973043 0 0.054742394999918571 0.064827745065819078 0 0.054550890715930868 0.066965513378915612 0 0.052883809143113698 0.067378293327973043 0 0.054742394999918571 0.064827745065819078 0 0.052708419521365554 0.064717955112790437 0 0.052708419521365554 0.064717955112790437 0 0.050803018439232815 0.063112130309658995 0 0.053643670553390303 0.060645821084235607 0 0.052708419521365554 0.064717955112790437 0 0.055691888384049835 0.060655028236974474 0 0.053643670553390303 0.060645821084235607 0 0.054742394999918571 0.064827745065819078 0 0.052708419521365554 0.064717955112790437 0 0.055691888384049835 0.060655028236974474 0 0.054742394999918571 0.064827745065819078 0 0.055691888384049835 0.060655028236974474 0 0.057113542994552076 0.062922859449456595 0 0.059700394018785068 0.058870563512608207 0 0.058941723637926831 0.058371643302957237 0 0.05809590946619058 0.058071452234691567 0 0.050566404228791835 0.068108520066855541 0 0.052708419521365554 0.064717955112790437 0 0.050803018439232815 0.063112130309658995 0 0.055173085557340254 0.063328641315610695 0 0.054856457333022426 0.061701113879386975 0 0.05809590946619058 0.058071452234691567 0 0.058258711463125855 0.058300340525846595 0 0.056755602261764411 0.058386353649288091 0 0.058258711463125855 0.058300340525846595 0 0.05935854996307454 0.058532586330204174 0 0.05811492176731415 0.058627256171600126 0 0.058941723637926831 0.058371643302957237 0 0.058258711463125855 0.058300340525846595 0 0.05935854996307454 0.058532586330204174 0 0.058941723637926831 0.058371643302957237 0 0.05809590946619058 0.058071452234691567 0 0.058258711463125855 0.058300340525846595 0 0.05935854996307454 0.058532586330204174 0 0.060136683191372706 0.058366849736970629 0 0.060905482162172044 0.058549934156242801 0 0.058941723637926831 0.058371643302957237 0 0.05935854996307454 0.058532586330204174 0 0.060136683191372706 0.058366849736970629 0 0.060136683191372706 0.058366849736970629 0 0.060905482162172044 0.058549934156242801 0 0.061728237668190987 0.057907731047937033 0 0.05935854996307454 0.058532586330204174 0 0.060905482162172044 0.058549934156242801 0 0.060484710607485614 0.059174027722426525 0 0.060905482162172044 0.058549934156242801 0 0.062035928736479937 0.059113034574084053 0 0.060484710607485614 0.059174027722426525 0 0.062035928736479937 0.059113034574084053 0 0.06373287956627742 0.058532836054612611 0 0.062195964744984192 0.058295900688197032 0 0.060905482162172044 0.058549934156242801 0 0.062035928736479937 0.059113034574084053 0 0.062195964744984192 0.058295900688197032 0 0.064411540652652824 0.052916665240671158 0 0.064069460061320957 0.049721284409427857 0 0.065996042814038244 0.05088084349687625 0 0.064997991116390721 0.052383044468262904 0 0.065001168759333039 0.048498716776316488 0 0.065996042814038244 0.05088084349687625 0 0.065731320897300147 0.048176875148191411 0 0.065001168759333039 0.048498716776316488 0 0.062035928736479937 0.059113034574084053 0 0.06373287956627742 0.058532836054612611 0 0.063345947477607981 0.059826901245177144 0 0.064411540652652824 0.052916665240671158 0 0.064499057244055608 0.053548536459046302 0 0.06373287956627742 0.058532836054612611 0 0.062195964744984192 0.058295900688197032 0 0.06290664102191032 0.057263393670987629 0 0.065996042814038244 0.05088084349687625 0 0.064997991116390721 0.052383044468262904 0 0.064841684663728 0.055084937914859966 0 0.06373287956627742 0.058532836054612611 0 0.06290664102191032 0.057263393670987629 0 0.064841684663728 0.055084937914859966 0 0.060905482162172044 0.058549934156242801 0 0.062195964744984192 0.058295900688197032 0 0.061728237668190987 0.057907731047937033 0 0.062195964744984192 0.058295900688197032 0 0.06290664102191032 0.057263393670987629 0 0.061728237668190987 0.057907731047937033 0 0.061728237668190987 0.057907731047937033 0 0.062656987052226956 0.05709257946849413 0 0.061214134121433922 0.058045473562685648 0 0.06290664102191032 0.057263393670987629 0 0.062656987052226956 0.05709257946849413 0 0.064841684663728 0.055084937914859966 0 0.06290664102191032 0.057263393670987629 0 0.061728237668190987 0.057907731047937033 0 0.062656987052226956 0.05709257946849413 0 0.062656987052226956 0.05709257946849413 0 0.064841684663728 0.055084937914859966 0 0.064095968729526331 0.05647618022100323 0 0.064997991116390721 0.052383044468262904 0 0.064841684663728 0.055084937914859966 0 0.064998749617477272 0.056261157700090055 0 0.064841684663728 0.055084937914859966 0 0.064095968729526331 0.05647618022100323 0 0.064998749617477272 0.056261157700090055 0 0.064095968729526331 0.05647618022100323 0 0.064998749617477272 0.056261157700090055 0 0.063443729783571393 0.057654991968739716 0 0.062330447554927983 0.059200566527127338 0 0.063443729783571393 0.057654991968739716 0 0.061593223958749804 0.058528501774641355 0 0.062656987052226956 0.05709257946849413 0 0.063443729783571393 0.057654991968739716 0 0.061593223958749804 0.058528501774641355 0 0.062656987052226956 0.05709257946849413 0 0.064095968729526331 0.05647618022100323 0 0.063443729783571393 0.057654991968739716 0 0.061190550297236336 0.059865742002883186 0 0.061593223958749804 0.058528501774641355 0 0.060262286955138016 0.059503069716728807 0 0.061593223958749804 0.058528501774641355 0 0.060474408409165431 0.058662157083369533 0 0.061214134121433922 0.058045473562685648 0 0.061593223958749804 0.058528501774641355 0 0.060262286955138016 0.059503069716728807 0 0.060474408409165431 0.058662157083369533 0 0.058960827805093666 0.060791415411447787 0 0.059305965703366138 0.059874631640639546 0 0.060262286955138016 0.059503069716728807 0 0.059305965703366138 0.059874631640639546 0 0.060262286955138016 0.059503069716728807 0 0.059617712028223406 0.058997790702125852 0 0.060262286955138016 0.059503069716728807 0 0.060474408409165431 0.058662157083369533 0 0.059617712028223406 0.058997790702125852 0 0.058941723637926831 0.058371643302957237 0 0.060136683191372706 0.058366849736970629 0 0.059617712028223406 0.058997790702125852 0 0.060136683191372706 0.058366849736970629 0 0.060474408409165431 0.058662157083369533 0 0.059617712028223406 0.058997790702125852 0 0.060136683191372706 0.058366849736970629 0 0.060474408409165431 0.058662157083369533 0 0.061214134121433922 0.058045473562685648 0 0.060136683191372706 0.058366849736970629 0 0.061728237668190987 0.057907731047937033 0 0.061214134121433922 0.058045473562685648 0 0.062656987052226956 0.05709257946849413 0 0.061593223958749804 0.058528501774641355 0 0.061214134121433922 0.058045473562685648 0 0.03315381316061955 0.071667906120262456 0 0.033856451086568283 0.074534960735047451 0 0.031794959965197607 0.073676685303621078 0 0.03315381316061955 0.071667906120262456 0 0.035694512313696622 0.073422727417481598 0 0.033856451086568283 0.074534960735047451 0 0.03315381316061955 0.071667906120262456 0 0.031794959965197607 0.073676685303621078 0 0.031755578335461047 0.071530059023222528 0 0.03315381316061955 0.071667906120262456 0 0.035694512313696622 0.073422727417481598 0 0.035313023707408464 0.06994236656920505 0 0.035694512313696622 0.073422727417481598 0 0.035313023707408464 0.06994236656920505 0 0.0383419638165617 0.071949130873525058 0 0.035313023707408464 0.06994236656920505 0 0.033009339707304144 0.067348258941204636 0 0.031934324726501137 0.069889131975774191 0 0.03315381316061955 0.071667906120262456 0 0.035313023707408464 0.06994236656920505 0 0.031934324726501137 0.069889131975774191 0 0.03315381316061955 0.071667906120262456 0 0.031934324726501137 0.069889131975774191 0 0.031755578335461047 0.071530059023222528 0 0.033009339707304144 0.067348258941204636 0 0.035028530371045551 0.065000023289013817 0 0.031218684886319268 0.06499917881608154 0 0.033009339707304144 0.067348258941204636 0 0.035028530371045551 0.065000023289013817 0 0.036547705694952637 0.067147560107895798 0 0.035313023707408464 0.06994236656920505 0 0.033009339707304144 0.067348258941204636 0 0.036547705694952637 0.067147560107895798 0 0.035313023707408464 0.06994236656920505 0 0.036547705694952637 0.067147560107895798 0 0.039063173688557738 0.068774525536833497 0 0.036547705694952637 0.067147560107895798 0 0.038836811917923729 0.06499963857870715 0 0.039063173688557738 0.068774525536833497 0 0.035028530371045551 0.065000023289013817 0 0.036547705694952637 0.067147560107895798 0 0.038836811917923729 0.06499963857870715 0 0.038836811917923729 0.06499963857870715 0 0.039063173688557738 0.068774525536833497 0 0.042590016586503521 0.067599744792639846 0 0.039063173688557738 0.068774525536833497 0 0.0383419638165617 0.071949130873525058 0 0.042860318535819258 0.071452672407591553 0 0.035313023707408464 0.06994236656920505 0 0.039063173688557738 0.068774525536833497 0 0.0383419638165617 0.071949130873525058 0 0.035694512313696622 0.073422727417481598 0 0.0383419638165617 0.071949130873525058 0 0.037959891567581831 0.074188487671900089 0 0.0383419638165617 0.071949130873525058 0 0.042860318535819258 0.071452672407591553 0 0.040177504529400589 0.074349617551240046 0 0.039801131104479553 0.070338797988702101 0 0.039225754377235279 0.069713623472622957 0 0.042860318535819258 0.071452672407591553 0 0.046716459593846911 0.069125161419916398 0 0.045779965617968862 0.074005604770128172 0 0.050027548157503585 0.069799413053696024 0 0.050946854665227172 0.070026583427384742 0 0.042860318535819258 0.071452672407591553 0 0.046716459593846911 0.069125161419916398 0 0.042590016586503521 0.067599744792639846 0 0.039063173688557738 0.068774525536833497 0 0.042860318535819258 0.071452672407591553 0 0.042590016586503521 0.067599744792639846 0 0.038836811917923729 0.06499963857870715 0 0.042590016586503521 0.067599744792639846 0 0.042646160444892382 0.06499945940975442 0 0.042590016586503521 0.067599744792639846 0 0.042646160444892382 0.06499945940975442 0 0.045511950028061479 0.066493048008852307 0 0.042646160444892382 0.06499945940975442 0 0.046454589802631924 0.06499982766746451 0 0.045511950028061479 0.066493048008852307 0 0.046716459593846911 0.069125161419916398 0 0.042590016586503521 0.067599744792639846 0 0.045511950028061479 0.066493048008852307 0 0.046716459593846911 0.069125161419916398 0 0.047985024850145781 0.067520329452729261 0 0.045511950028061479 0.066493048008852307 0 0.047985024850145781 0.067520329452729261 0 0.045511950028061479 0.066493048008852307 0 0.0476430791799234 0.066315673353151763 0 0.046454589802631924 0.06499982766746451 0 0.045511950028061479 0.066493048008852307 0 0.0476430791799234 0.066315673353151763 0 0.046454589802631924 0.06499982766746451 0 0.048850720678339912 0.065535040104980027 0 0.0476430791799234 0.066315673353151763 0 0.050263645825411769 0.064999012885159774 0 0.046454589802631924 0.06499982766746451 0 0.048850720678339912 0.065535040104980027 0 0.048850720678339912 0.065535040104980027 0 0.0476430791799234 0.066315673353151763 0 0.049210302607477226 0.067094054003523196 0 0.047985024850145781 0.067520329452729261 0 0.049210302607477226 0.067094054003523196 0 0.05008976526799265 0.068290007213354195 0 0.047985024850145781 0.067520329452729261 0 0.0476430791799234 0.066315673353151763 0 0.049210302607477226 0.067094054003523196 0 0.05008976526799265 0.068290007213354195 0 0.048979430094482558 0.068775741167282231 0 0.050489029684220102 0.069041754946042297 0 0.047985024850145781 0.067520329452729261 0 0.05008976526799265 0.068290007213354195 0 0.048979430094482558 0.068775741167282231 0 0.046716459593846911 0.069125161419916398 0 0.047985024850145781 0.067520329452729261 0 0.048979430094482558 0.068775741167282231 0 0.046716459593846911 0.069125161419916398 0 0.048979430094482558 0.068775741167282231 0 0.050128895225024103 0.069299709322337241 0 0.046716459593846911 0.069125161419916398 0 0.050128895225024103 0.069299709322337241 0 0.049125411163690978 0.06947683099281253 0 0.05201428477086676 0.069383748684660282 0 0.050128895225024103 0.069299709322337241 0 0.050489029684220102 0.069041754946042297 0 0.048979430094482558 0.068775741167282231 0 0.050128895225024103 0.069299709322337241 0 0.050489029684220102 0.069041754946042297 0 0.05201428477086676 0.069383748684660282 0 0.053465808301038489 0.068696091533698406 0 0.052752720659661502 0.069658257533411649 0 0.05201428477086676 0.069383748684660282 0 0.050128895225024103 0.069299709322337241 0 0.052752720659661502 0.069658257533411649 0 0.050128895225024103 0.069299709322337241 0 0.052752720659661502 0.069658257533411649 0 0.050369945362534134 0.070294037298521975 0 0.050128895225024103 0.069299709322337241 0 0.050369945362534134 0.070294037298521975 0 0.049125411163690978 0.06947683099281253 0 0.052752720659661502 0.069658257533411649 0 0.050369945362534134 0.070294037298521975 0 0.051681575820500696 0.071989460370556493 0 0.056340029910892715 0.064396654964060732 0 0.054860419944293318 0.063685803194198767 0 0.050369945362534134 0.070294037298521975 0 0.051681575820500696 0.071989460370556493 0 0.04898057792142748 0.071467948845072446 0 0.052752720659661502 0.069658257533411649 0 0.056020885218077569 0.067912782750334827 0 0.055732120397931677 0.067803548318494375 0 0.056340029910892715 0.064396654964060732 0 0.056357494848752326 0.064480572769091735 0 0.053465808301038489 0.068696091533698406 0 0.052752720659661502 0.069658257533411649 0 0.055732120397931677 0.067803548318494375 0 0.055689968767487073 0.065908264579912029 0 0.056340029910892715 0.064396654964060732 0 0.053465808301038489 0.068696091533698406 0 0.054550890715930868 0.066965513378915612 0 0.055732120397931677 0.067803548318494375 0 0.054550890715930868 0.066965513378915612 0 0.055732120397931677 0.067803548318494375 0 0.056462226377017914 0.065514446787738254 0 0.058911994554237339 0.068166434862240832 0 0.057505407582320124 0.066341659289593458 0 0.059136492723387564 0.064182408680882638 0 0.055732120397931677 0.067803548318494375 0 0.057505407582320124 0.066341659289593458 0 0.056462226377017914 0.065514446787738254 0 0.058911994554237339 0.068166434862240832 0 0.055732120397931677 0.067803548318494375 0 0.057505407582320124 0.066341659289593458 0 0.059136492723387564 0.064182408680882638 0 0.056462226377017914 0.065514446787738254 0 0.057113542994552076 0.062922859449456595 0 0.057505407582320124 0.066341659289593458 0 0.059136492723387564 0.064182408680882638 0 0.056462226377017914 0.065514446787738254 0 0.054742394999918571 0.064827745065819078 0 0.056462226377017914 0.065514446787738254 0 0.057113542994552076 0.062922859449456595 0 0.059136492723387564 0.064182408680882638 0 0.057113542994552076 0.062922859449456595 0 0.0589038557894166 0.060494032006363538 0 0.055691888384049835 0.060655028236974474 0 0.057113542994552076 0.062922859449456595 0 0.0589038557894166 0.060494032006363538 0 0.059136492723387564 0.064182408680882638 0 0.0589038557894166 0.060494032006363538 0 0.063283630144922692 0.061568649436381878 0 0.058911994554237339 0.068166434862240832 0 0.059136492723387564 0.064182408680882638 0 0.063283630144922692 0.061568649436381878 0 0.062569619604480001 0.059426961630892741 0 0.064130034885041765 0.054977715443954418 0 0.065045840507474584 0.057488829097532175 0 0.062569619604480001 0.059426961630892741 0 0.065045840507474584 0.057488829097532175 0 0.06648287803229512 0.059745102537463471 0 0.056340029910892715 0.064396654964060732 0 0.061528446218166638 0.057680890307990548 0 0.065045840507474584 0.057488829097532175 0 0.066993862545801794 0.055817580472905727 0 0.06648287803229512 0.059745102537463471 0 0.06118875689382558 0.054227413916853755 0 0.054860419944293318 0.063685803194198767 0 0.064130034885041765 0.054977715443954418 0 0.065045840507474584 0.057488829097532175 0 0.066993862545801794 0.055817580472905727 0 0.064130034885041765 0.054977715443954418 0 0.066993862545801794 0.055817580472905727 0 0.066074832982597878 0.053368565832102192 0 0.066503515805086164 0.049190572175401896 0 0.067016957737133398 0.048798105594084783 0 0.067161305498747673 0.049491177194731235 0 0.067016957737133398 0.048798105594084783 0 0.067161305498747673 0.049491177194731235 0 0.067512692909795571 0.048813555991980402 0 0.066503515805086164 0.049190572175401896 0 0.067161305498747673 0.049491177194731235 0 0.066348306419286046 0.050160679902792521 0 0.067161305498747673 0.049491177194731235 0 0.066348306419286046 0.050160679902792521 0 0.067276272766804132 0.050208138222537418 0 0.045140305663122958 0.078216933811154563 0 0.043117589233645691 0.075533971834463989 0 0.041349261224530046 0.077859879947607666 0 0.054860419944293318 0.063685803194198767 0 0.05189996386248779 0.062945973774115774 0 0.050369945362534134 0.070294037298521975 0 0.04898057792142748 0.071467948845072446 0 0.049125411163690978 0.06947683099281253 0 0.054860419944293318 0.063685803194198767 0 0.050946854665227172 0.070026583427384742 0 0.045140305663122958 0.078216933811154563 0 0.045779965617968862 0.074005604770128172 0 0.043117589233645691 0.075533971834463989 0 0.043117589233645691 0.075533971834463989 0 0.040287463151553154 0.074551524102398237 0 0.041349261224530046 0.077859879947607666 0 0.042860318535819258 0.071452672407591553 0 0.045779965617968862 0.074005604770128172 0 0.043117589233645691 0.075533971834463989 0 0.042860318535819258 0.071452672407591553 0 0.043117589233645691 0.075533971834463989 0 0.040287463151553154 0.074551524102398237 0 0.0383419638165617 0.071949130873525058 0 0.040177504529400589 0.074349617551240046 0 0.037959891567581831 0.074188487671900089 0 0.040177504529400589 0.074349617551240046 0 0.037959891567581831 0.074188487671900089 0 0.037656583546374037 0.077005681541132312 0 0.039225754377235279 0.069713623472622957 0 0.042777698241648045 0.061274264107363731 0 0.035694512313696622 0.073422727417481598 0 0.037959891567581831 0.074188487671900089 0 0.037656583546374037 0.077005681541132312 0 0.040287463151553154 0.074551524102398237 0 0.037635557779197255 0.077493012317781704 0 0.041349261224530046 0.077859879947607666 0 0.042777698241648045 0.061274264107363731 0 0.05189996386248779 0.062945973774115774 0 0.06814726254833961 0.050266449883188596 0 0.067276272766804132 0.050208138222537418 0 0.06794571086536734 0.049456104549854704 0 0.067161305498747673 0.049491177194731235 0 0.067276272766804132 0.050208138222537418 0 0.06794571086536734 0.049456104549854704 0 0.067161305498747673 0.049491177194731235 0 0.067512692909795571 0.048813555991980402 0 0.06794571086536734 0.049456104549854704 0 0.06794571086536734 0.049456104549854704 0 0.068827578749027257 0.049477334858370053 0 0.068447081083739869 0.048572039845318882 0 0.067512692909795571 0.048813555991980402 0 0.06794571086536734 0.049456104549854704 0 0.068447081083739869 0.048572039845318882 0 0.06814726254833961 0.050266449883188596 0 0.06794571086536734 0.049456104549854704 0 0.068827578749027257 0.049477334858370053 0 0.042777698241648045 0.061274264107363731 0 0.031856698989269995 0.053525231424578532 0 0.031856698989269995 0.053525231424578532 0 0.035541366016356393 0.048703138333639824 0 0.011098705666342388 0.051638803812601844 0 0.014808054728362096 0.047489579117908291 0 0.0082598069546817553 0.046284732978459323 0 0.012362906683316324 0.050559340798362107 0 0.014808054728362096 0.047489579117908291 0 0.01593194329199786 0.051682377804270964 0 0.031856698989269995 0.053525231424578532 0 0.026312341033306354 0.054872889982721711 0 0.012362906683316324 0.050559340798362107 0 0.01593194329199786 0.051682377804270964 0 0.01510366083488371 0.05600978053751364 0 0.031856698989269995 0.053525231424578532 0 0.030370032756421611 0.059918859652236499 0 0.01593194329199786 0.051682377804270964 0 0.01510366083488371 0.05600978053751364 0 0.018675767099094083 0.056380017134868517 0 0.030370032756421611 0.059918859652236499 0 0.027985451177038441 0.059588077773420831 0 0.042777698241648045 0.061274264107363731 0 0.030370032756421611 0.059918859652236499 0 0.037656583546374037 0.077005681541132312 0 0.033355668732393012 0.076615779456326694 0 0.033856451086568283 0.074534960735047451 0 0.035251734585168795 0.059983062071493509 0 0.034080411812446358 0.061251730478788832 0 0.033320077423089713 0.059824489468821879 0 0.035694512313696622 0.073422727417481598 0 0.037656583546374037 0.077005681541132312 0 0.033856451086568283 0.074534960735047451 0 0.030370032756421611 0.059918859652236499 0 0.028787005131326676 0.064010979951948974 0 0.033355668732393012 0.076615779456326694 0 0.033856451086568283 0.074534960735047451 0 0.031794959965197607 0.073676685303621078 0 0.016499566327048302 0.056203836408323125 0 0.019323028384214579 0.060170441496166599 0 0.018675767099094083 0.056380017134868517 0 0.013192267016568972 0.034687757251747837 0 0.014186515750522344 0.038533197977357492 0 0.016038062185578371 0.03527289616004145 0 0.013192267016568972 0.034687757251747837 0 0.010024597403143898 0.033225999283183448 0 0.01271972480232684 0.031510912239895293 0 0.013192267016568972 0.034687757251747837 0 0.010024597403143898 0.033225999283183448 0 0.010341591026352496 0.037588410060533255 0 0.010024597403143898 0.033225999283183448 0 0.010341591026352496 0.037588410060533255 0 0.0070718245906474563 0.035158949473005213 0 0.010341591026352496 0.037588410060533255 0 0.014186515750522344 0.038533197977357492 0 0.011981901119632321 0.042374949596507998 0 0.013192267016568972 0.034687757251747837 0 0.010341591026352496 0.037588410060533255 0 0.014186515750522344 0.038533197977357492 0 0.014186515750522344 0.038533197977357492 0 0.011981901119632321 0.042374949596507998 0 0.016165328544560507 0.042554485787656408 0 0.014808054728362096 0.047489579117908291 0 0.011981901119632321 0.042374949596507998 0 0.016165328544560507 0.042554485787656408 0 0.014808054728362096 0.047489579117908291 0 0.011981901119632321 0.042374949596507998 0 0.0082598069546817553 0.046284732978459323 0 0.011981901119632321 0.042374949596507998 0 0.0056744442991642123 0.041045774665853928 0 0.0082598069546817553 0.046284732978459323 0 0.010341591026352496 0.037588410060533255 0 0.011981901119632321 0.042374949596507998 0 0.0056744442991642123 0.041045774665853928 0 0.037419525407567905 0.044170576007539472 0 0.035541366016356393 0.048703138333639824 0 0.067512692909795571 0.048813555991980402 0 0.068447081083739869 0.048572039845318882 0 0.067770551099131118 0.048235564134377067 0 0.068104723700398911 0.047640466193506398 0 0.068447081083739869 0.048572039845318882 0 0.067770551099131118 0.048235564134377067 0 0.067512692909795571 0.048813555991980402 0 0.067770551099131118 0.048235564134377067 0 0.06726173942344757 0.048345812805669228 0 0.067770551099131118 0.048235564134377067 0 0.067395897424242568 0.047803136058796394 0 0.06726173942344757 0.048345812805669228 0 0.068104723700398911 0.047640466193506398 0 0.06750384072455258 0.047247674625899475 0 0.067395897424242568 0.047803136058796394 0 0.068104723700398911 0.047640466193506398 0 0.067770551099131118 0.048235564134377067 0 0.067395897424242568 0.047803136058796394 0 0.068104723700398911 0.047640466193506398 0 0.067862572798668835 0.046706985149794593 0 0.06750384072455258 0.047247674625899475 0 0.037419525407567905 0.044170576007539472 0 0.039638796418550851 0.039652475640951763 0 0.067862572798668835 0.046706985149794593 0 0.067451599948490079 0.046839801335376512 0 0.06750384072455258 0.047247674625899475 0 0.010341591026352496 0.037588410060533255 0 0.0056744442991642123 0.041045774665853928 0 0.0070718245906474563 0.035158949473005213 0 0.0056744442991642123 0.041045774665853928 0 0.0070718245906474563 0.035158949473005213 0 0.0033513346266888897 0.035943903773378326 0 0.0070718245906474563 0.035158949473005213 0 0.0047175973434270138 0.033046617547282962 0 0.007074815457485127 0.031426828442618217 0 0.010024597403143898 0.033225999283183448 0 0.0070718245906474563 0.035158949473005213 0 0.007074815457485127 0.031426828442618217 0 0.0033513346266888897 0.035943903773378326 0 0.0012178895985147863 0.031100403049666801 0 0.0047175973434270138 0.033046617547282962 0 0.0070718245906474563 0.035158949473005213 0 0.0033513346266888897 0.035943903773378326 0 0.0047175973434270138 0.033046617547282962 0 0.039638796418550851 0.039652475640951763 0 0.04454370589883918 0.035044114772102057 0 0.067444644431845516 0.046215418603992219 0 0.067184740529764392 0.047408043154201517 0 0.067801792918134457 0.04870289599889515 0 0.067862572798668835 0.046706985149794593 0 0.067444644431845516 0.046215418603992219 0 0.067739700424861632 0.045553170059419557 0 0.067444644431845516 0.046215418603992219 0 0.066965174391070775 0.047219241262504305 0 0.067451599948490079 0.046839801335376512 0 0.067862572798668835 0.046706985149794593 0 0.067444644431845516 0.046215418603992219 0 0.067451599948490079 0.046839801335376512 0 0.066016566128408463 0.047606649506140554 0 0.06558817328382148 0.048475961744459409 0 0.067444644431845516 0.046215418603992219 0 0.066537892013806638 0.046201056244987423 0 0.067184740529764392 0.047408043154201517 0 0.067184740529764392 0.047408043154201517 0 0.064754128959970417 0.04759671033963616 0 0.065524524838164386 0.046498057611445952 0 0.066537892013806638 0.046201056244987423 0 0.067184740529764392 0.047408043154201517 0 0.065524524838164386 0.046498057611445952 0 0.066537892013806638 0.046201056244987423 0 0.065524524838164386 0.046498057611445952 0 0.065604012889120364 0.045829877452512414 0 0.067184740529764392 0.047408043154201517 0 0.067801792918134457 0.04870289599889515 0 0.065768435993045743 0.05075854499253981 0 0.067184740529764392 0.047408043154201517 0 0.066943025881755158 0.053250056331987365 0 0.065475726800041711 0.049399034772821232 0 0.065639886418297266 0.050234042766659513 0 0.064523221480654244 0.05265621760434222 0 0.067184740529764392 0.047408043154201517 0 0.065475726800041711 0.049399034772821232 0 0.064754128959970417 0.04759671033963616 0 0.066965174391070775 0.047219241262504305 0 0.067451599948490079 0.046839801335376512 0 0.06750384072455258 0.047247674625899475 0 0.066965174391070775 0.047219241262504305 0 0.06750384072455258 0.047247674625899475 0 0.067395897424242568 0.047803136058796394 0 0.06558817328382148 0.048475961744459409 0 0.064182804191683027 0.050534315117199489 0 0.066965174391070775 0.047219241262504305 0 0.067395897424242568 0.047803136058796394 0 0.066698639633325632 0.048209708451569792 0 0.066503515805086164 0.049190572175401896 0 0.067016957737133398 0.048798105594084783 0 0.066698639633325632 0.048209708451569792 0 0.067395897424242568 0.047803136058796394 0 0.06726173942344757 0.048345812805669228 0 0.066698639633325632 0.048209708451569792 0 0.067016957737133398 0.048798105594084783 0 0.06726173942344757 0.048345812805669228 0 0.066698639633325632 0.048209708451569792 0 0.067016957737133398 0.048798105594084783 0 0.067512692909795571 0.048813555991980402 0 0.06726173942344757 0.048345812805669228 0 0.066993862545801794 0.055817580472905727 0 0.066074832982597878 0.053368565832102192 0 0.067440758165372358 0.052000192653101331 0 0.066074832982597878 0.053368565832102192 0 0.067440758165372358 0.052000192653101331 0 0.065768435993045743 0.05075854499253981 0 0.06118875689382558 0.054227413916853755 0 0.064182804191683027 0.050534315117199489 0 0.064130034885041765 0.054977715443954418 0 0.066074832982597878 0.053368565832102192 0 0.065768435993045743 0.05075854499253981 0 0.067801792918134457 0.04870289599889515 0 0.067440758165372358 0.052000192653101331 0 0.065768435993045743 0.05075854499253981 0 0.066943025881755158 0.053250056331987365 0 0.061800297570195756 0.056627273333296473 0 0.062855011824848872 0.04983714974411789 0 0.066943025881755158 0.053250056331987365 0 0.062855011824848872 0.04983714974411789 0 0.065475726800041711 0.049399034772821232 0 0.0589038557894166 0.060494032006363538 0 0.063283630144922692 0.061568649436381878 0 0.061800297570195756 0.056627273333296473 0 0.063283630144922692 0.061568649436381878 0 0.066943025881755158 0.053250056331987365 0 0.061800297570195756 0.056627273333296473 0 0.061528446218166638 0.057680890307990548 0 0.064523221480654244 0.05265621760434222 0 0.055691888384049835 0.060655028236974474 0 0.0589038557894166 0.060494032006363538 0 0.057516196905315349 0.056977209921923615 0 0.0589038557894166 0.060494032006363538 0 0.061800297570195756 0.056627273333296473 0 0.057516196905315349 0.056977209921923615 0 0.061800297570195756 0.056627273333296473 0 0.057516196905315349 0.056977209921923615 0 0.062855011824848872 0.04983714974411789 0 0.057516196905315349 0.056977209921923615 0 0.062855011824848872 0.04983714974411789 0 0.055703368142671725 0.054142047903325517 0 0.062855011824848872 0.04983714974411789 0 0.064754128959970417 0.04759671033963616 0 0.063996271598779242 0.046536445146735904 0 0.062855011824848872 0.04983714974411789 0 0.063996271598779242 0.046536445146735904 0 0.064871394321014839 0.045268299425117488 0 0.06386824312090153 0.049388636302578247 0 0.06325911696025667 0.049281327734840147 0 0.062855011824848872 0.04983714974411789 0 0.065475726800041711 0.049399034772821232 0 0.064754128959970417 0.04759671033963616 0 0.064754128959970417 0.04759671033963616 0 0.064616741368231131 0.046471657124753589 0 0.063996271598779242 0.046536445146735904 0 0.064754128959970417 0.04759671033963616 0 0.065524524838164386 0.046498057611445952 0 0.064616741368231131 0.046471657124753589 0 0.065524524838164386 0.046498057611445952 0 0.064616741368231131 0.046471657124753589 0 0.064972558337044406 0.0458861228059756 0 0.064616741368231131 0.046471657124753589 0 0.063996271598779242 0.046536445146735904 0 0.064424105186126665 0.045813540655039113 0 0.063996271598779242 0.046536445146735904 0 0.064021226065273981 0.04511615990211551 0 0.064424105186126665 0.045813540655039113 0 0.063996271598779242 0.046536445146735904 0 0.064395805441940721 0.047452553230499357 0 0.064870913280776668 0.046780652464007193 0 0.065720960842764728 0.045747063228759384 0 0.066475980258043244 0.044421178454117728 0 0.064021226065273981 0.04511615990211551 0 0.06448508436333672 0.045227528546980186 0 0.064424105186126665 0.045813540655039113 0 0.064395805441940721 0.047452553230499357 0 0.064856117973245545 0.047537857014888385 0 0.064870913280776668 0.046780652464007193 0 0.064616741368231131 0.046471657124753589 0 0.064424105186126665 0.045813540655039113 0 0.064972558337044406 0.0458861228059756 0 0.064424105186126665 0.045813540655039113 0 0.064972558337044406 0.0458861228059756 0 0.064797512827041742 0.045444303401559437 0 0.065524524838164386 0.046498057611445952 0 0.064972558337044406 0.0458861228059756 0 0.065604012889120364 0.045829877452512414 0 0.064972558337044406 0.0458861228059756 0 0.065604012889120364 0.045829877452512414 0 0.06540558680146849 0.045266671915148292 0 0.065604012889120364 0.045829877452512414 0 0.06540558680146849 0.045266671915148292 0 0.066095633273852594 0.045491422988802439 0 0.064972558337044406 0.0458861228059756 0 0.06540558680146849 0.045266671915148292 0 0.064797512827041742 0.045444303401559437 0 0.06448508436333672 0.045227528546980186 0 0.064424105186126665 0.045813540655039113 0 0.064797512827041742 0.045444303401559437 0 0.06540558680146849 0.045266671915148292 0 0.064797512827041742 0.045444303401559437 0 0.064987745948985473 0.045019366097476261 0 0.06448508436333672 0.045227528546980186 0 0.064797512827041742 0.045444303401559437 0 0.064987745948985473 0.045019366097476261 0 0.06448508436333672 0.045227528546980186 0 0.064987745948985473 0.045019366097476261 0 0.064733701488251971 0.044489650316679528 0 0.064733701488251971 0.044489650316679528 0 0.065206702429379315 0.043870223913556779 0 0.064421141597768974 0.042943786415424554 0 0.064987745948985473 0.045019366097476261 0 0.064733701488251971 0.044489650316679528 0 0.065297798805143192 0.044650917360090109 0 0.065297798805143192 0.044650917360090109 0 0.065828003931449261 0.04412323656586755 0 0.066021410720409235 0.044910500942182935 0 0.06540558680146849 0.045266671915148292 0 0.064987745948985473 0.045019366097476261 0 0.065297798805143192 0.044650917360090109 0 0.06540558680146849 0.045266671915148292 0 0.065297798805143192 0.044650917360090109 0 0.066021410720409235 0.044910500942182935 0 0.065297798805143192 0.044650917360090109 0 0.065206702429379315 0.043870223913556779 0 0.065828003931449261 0.04412323656586755 0 0.065206702429379315 0.043870223913556779 0 0.065586050329460674 0.04336167827006307 0 0.065828003931449261 0.04412323656586755 0 0.064733701488251971 0.044489650316679528 0 0.065297798805143192 0.044650917360090109 0 0.065206702429379315 0.043870223913556779 0 0.06441512373819526 0.047686276136408946 0 0.064132180820063805 0.048546693259915126 0 0.065121046351268613 0.048052681120259497 0 0.066475980258043244 0.044421178454117728 0 0.069983165692210275 0.036047866334280532 0 0.069055233904210422 0.040651187983665578 0 0.069731568893161011 0.039649020760591971 0 0.06441512373819526 0.047686276136408946 0 0.064856117973245545 0.047537857014888385 0 0.065461925319162326 0.048652643073791919 0 0.064021226065273981 0.04511615990211551 0 0.064733701488251971 0.044489650316679528 0 0.064421141597768974 0.042943786415424554 0 0.064395805441940721 0.047452553230499357 0 0.06441512373819526 0.047686276136408946 0 0.064132180820063805 0.048546693259915126 0 0.064021226065273981 0.04511615990211551 0 0.06448508436333672 0.045227528546980186 0 0.064733701488251971 0.044489650316679528 0 0.064395805441940721 0.047452553230499357 0 0.06441512373819526 0.047686276136408946 0 0.064856117973245545 0.047537857014888385 0 0.069983165692210275 0.036047866334280532 0 0.069731568893161011 0.039649020760591971 0 0.076705554083983371 0.031359991660842551 0 0.075071322918505795 0.032158371565572427 0 0.075254133194411391 0.030544878766181054 0 0.076705554083983371 0.031359991660842551 0 0.076273064754268705 0.030300306049885817 0 0.075254133194411391 0.030544878766181054 0 0.076705554083983371 0.031359991660842551 0 0.076273064754268705 0.030300306049885817 0 0.077141876787268013 0.029651439419563993 0 0.076273064754268705 0.030300306049885817 0 0.076007163606275269 0.029634518826753779 0 0.077141876787268013 0.029651439419563993 0 0.076273064754268705 0.030300306049885817 0 0.075254133194411391 0.030544878766181054 0 0.076007163606275269 0.029634518826753779 0 0.076556279088298387 0.024902431353004684 0 0.076876551516554592 0.024546362364850388 0 0.076696371613730913 0.02446791795059516 0 0.076556279088298387 0.024902431353004684 0 0.076941375942723073 0.024683600999862512 0 0.076876551516554592 0.024546362364850388 0 0.069983165692210275 0.036047866334280532 0 0.074079150126205445 0.02861449979897181 0 0.064421141597768974 0.042943786415424554 0 0.065586050329460674 0.04336167827006307 0 0.066125293905735572 0.042074555308533962 0 0.069983165692210275 0.036047866334280532 0 0.068595067645291344 0.031526338788641833 0 0.065206702429379315 0.043870223913556779 0 0.064421141597768974 0.042943786415424554 0 0.065586050329460674 0.04336167827006307 0 0.065586050329460674 0.04336167827006307 0 0.066205577619936645 0.04350432446028521 0 0.065828003931449261 0.04412323656586755 0 0.065586050329460674 0.04336167827006307 0 0.066205577619936645 0.04350432446028521 0 0.066125293905735572 0.042074555308533962 0 0.057297412748574285 0.032777013209229676 0 0.068595067645291344 0.031526338788641833 0 0.074173157271158696 0.029008896021109589 0 0.072871446711825688 0.026469461179895497 0 0.074437432946951904 0.027247665905120434 0 0.066205577619936645 0.04350432446028521 0 0.066945023425259015 0.043686253909855109 0 0.066125293905735572 0.042074555308533962 0 0.072871446711825688 0.026469461179895497 0 0.074968693294896124 0.026389920052474009 0 0.074437432946951904 0.027247665905120434 0 0.068595067645291344 0.031526338788641833 0 0.07385402954163775 0.028046786081779938 0 0.076901320293778191 0.024577882386936173 0 0.076942347236552411 0.024485418185118922 0 0.077004485162191119 0.024445936377835285 0 0.068595067645291344 0.031526338788641833 0 0.068715649011494156 0.031235084156530646 0 0.076942347236552411 0.024485418185118922 0 0.076876551516554592 0.024546362364850388 0 0.076923164163384239 0.024437403339986417 0 0.076901320293778191 0.024577882386936173 0 0.076942347236552411 0.024485418185118922 0 0.076876551516554592 0.024546362364850388 0 0.075069588328835701 0.02545204507274523 0 0.075939371490353832 0.026333988576546671 0 0.076931913939197225 0.024639665951418685 0 0.072871446711825688 0.026469461179895497 0 0.075069588328835701 0.02545204507274523 0 0.074968693294896124 0.026389920052474009 0 0.074968693294896124 0.026389920052474009 0 0.075939371490353832 0.026333988576546671 0 0.074437432946951904 0.027247665905120434 0 0.075069588328835701 0.02545204507274523 0 0.074968693294896124 0.026389920052474009 0 0.075939371490353832 0.026333988576546671 0 -0.0009786142473441875 0.026493496187583173 0 0.0018970319200716217 0.022330912422211548 0 0.0015438654109677682 0.02517486351703925 0 0.057297412748574285 0.032777013209229676 0 0.046942953189593607 0.028267145759596646 0 0.0018970319200716217 0.022330912422211548 0 0.0015438654109677682 0.02517486351703925 0 0.0028490991137463378 0.023842833758356993 0 0.074173157271158696 0.029008896021109589 0 0.075939371490353832 0.026333988576546671 0 0.074437432946951904 0.027247665905120434 0 -0.0009786142473441875 0.026493496187583173 0 0.0015438654109677682 0.02517486351703925 0 0.00081949933719291986 0.026564679183989453 0 0.0015438654109677682 0.02517486351703925 0 0.0022541396311695537 0.026817662751051401 0 0.00081949933719291986 0.026564679183989453 0 0.0022541396311695537 0.026817662751051401 0 0.0013020120551128804 0.027999399667370823 0 0.0029342285982109678 0.02903103019742732 0 -0.0009786142473441875 0.026493496187583173 0 0.0013020120551128804 0.027999399667370823 0 0.0012178895985147863 0.031100403049666801 0 0.066928341521174578 0.043700222231606078 0 0.066809312721019504 0.044806631738770634 0 0.067739700424861632 0.045553170059419557 0 0.057297412748574285 0.032777013209229676 0 0.04454370589883918 0.035044114772102057 0 0.0022541396311695537 0.026817662751051401 0 0.00081949933719291986 0.026564679183989453 0 0.0013020120551128804 0.027999399667370823 0 0.0013020120551128804 0.027999399667370823 0 0.0012178895985147863 0.031100403049666801 0 0.0029342285982109678 0.02903103019742732 0 -0.0009786142473441875 0.026493496187583173 0 0.00081949933719291986 0.026564679183989453 0 0.0013020120551128804 0.027999399667370823 0 0.057297412748574285 0.032777013209229676 0 0.057383126242694815 0.033365341521207646 0 0.066205577619936645 0.04350432446028521 0 0.066945023425259015 0.043686253909855109 0 0.066542992570928772 0.044267319997748203 0 0.066928341521174578 0.043700222231606078 0 0.066542992570928772 0.044267319997748203 0 0.066809312721019504 0.044806631738770634 0 0.066205577619936645 0.04350432446028521 0 0.066542992570928772 0.044267319997748203 0 0.065828003931449261 0.04412323656586755 0 0.066542992570928772 0.044267319997748203 0 0.065828003931449261 0.04412323656586755 0 0.066021410720409235 0.044910500942182935 0 0.066542992570928772 0.044267319997748203 0 0.066021410720409235 0.044910500942182935 0 0.066809312721019504 0.044806631738770634 0 0.066021410720409235 0.044910500942182935 0 0.066809312721019504 0.044806631738770634 0 0.066775061002204178 0.045552019693254606 0 0.06540558680146849 0.045266671915148292 0 0.066021410720409235 0.044910500942182935 0 0.066095633273852594 0.045491422988802439 0 0.066021410720409235 0.044910500942182935 0 0.066775061002204178 0.045552019693254606 0 0.066095633273852594 0.045491422988802439 0 0.066537892013806638 0.046201056244987423 0 0.065604012889120364 0.045829877452512414 0 0.066095633273852594 0.045491422988802439 0 0.067444644431845516 0.046215418603992219 0 0.066537892013806638 0.046201056244987423 0 0.066775061002204178 0.045552019693254606 0 0.066537892013806638 0.046201056244987423 0 0.066775061002204178 0.045552019693254606 0 0.066095633273852594 0.045491422988802439 0 0.067444644431845516 0.046215418603992219 0 0.066775061002204178 0.045552019693254606 0 0.067739700424861632 0.045553170059419557 0 0.066809312721019504 0.044806631738770634 0 0.066775061002204178 0.045552019693254606 0 0.067739700424861632 0.045553170059419557 0 0.0012178895985147863 0.031100403049666801 0 0.0044139454092510825 0.030573695734708778 0 0.0047175973434270138 0.033046617547282962 0 0.0012178895985147863 0.031100403049666801 0 0.0044139454092510825 0.030573695734708778 0 0.0029342285982109678 0.02903103019742732 0 0.0044139454092510825 0.030573695734708778 0 0.007074815457485127 0.031426828442618217 0 0.0057495193715948623 0.028079275266425403 0 0.0044139454092510825 0.030573695734708778 0 0.0047175973434270138 0.033046617547282962 0 0.007074815457485127 0.031426828442618217 0 0.0057495193715948623 0.028079275266425403 0 0.0082108120142459998 0.026346837668683593 0 0.0097998648034528721 0.029157063055093888 0 0.007074815457485127 0.031426828442618217 0 0.0057495193715948623 0.028079275266425403 0 0.0097998648034528721 0.029157063055093888 0 0.0057495193715948623 0.028079275266425403 0 0.0039897231278665617 0.026888959625482847 0 0.0058207855133610249 0.025006668022280059 0 0.0057495193715948623 0.028079275266425403 0 0.0039897231278665617 0.026888959625482847 0 0.0029342285982109678 0.02903103019742732 0 0.0044139454092510825 0.030573695734708778 0 0.0057495193715948623 0.028079275266425403 0 0.0029342285982109678 0.02903103019742732 0 0.0022541396311695537 0.026817662751051401 0 0.0039897231278665617 0.026888959625482847 0 0.0029342285982109678 0.02903103019742732 0 0.0015438654109677682 0.02517486351703925 0 0.0022541396311695537 0.026817662751051401 0 0.0031587361230689514 0.025322585042571902 0 0.0022541396311695537 0.026817662751051401 0 0.0039897231278665617 0.026888959625482847 0 0.0031587361230689514 0.025322585042571902 0 0.0039897231278665617 0.026888959625482847 0 0.0031587361230689514 0.025322585042571902 0 0.0058207855133610249 0.025006668022280059 0 0.0041446760162651194 0.023862128737307108 0 0.0053912881514182496 0.022733416484506656 0 0.0058207855133610249 0.025006668022280059 0 0.0031587361230689514 0.025322585042571902 0 0.0041446760162651194 0.023862128737307108 0 0.0058207855133610249 0.025006668022280059 0 0.0015438654109677682 0.02517486351703925 0 0.0031587361230689514 0.025322585042571902 0 0.0028490991137463378 0.023842833758356993 0 0.0031587361230689514 0.025322585042571902 0 0.0041446760162651194 0.023862128737307108 0 0.0028490991137463378 0.023842833758356993 0 0.0041446760162651194 0.023862128737307108 0 0.0028490991137463378 0.023842833758356993 0 0.0037988153862167509 0.022795907776646775 0 0.0018970319200716217 0.022330912422211548 0 0.0046959583474361693 0.021215215622581697 0 0.0048471170437012793 0.018306195449155658 0 0.046942953189593607 0.028267145759596646 0 0.042653686210451784 0.023151758521755487 0 0.0018970319200716217 0.022330912422211548 0 0.0037988153862167509 0.022795907776646775 0 0.0046959583474361693 0.021215215622581697 0 0.0018970319200716217 0.022330912422211548 0 0.0028490991137463378 0.023842833758356993 0 0.0037988153862167509 0.022795907776646775 0 0.0037988153862167509 0.022795907776646775 0 0.0053912881514182496 0.022733416484506656 0 0.0046959583474361693 0.021215215622581697 0 0.0053912881514182496 0.022733416484506656 0 0.0046959583474361693 0.021215215622581697 0 0.0065090823350033179 0.021573100120833241 0 0.0041446760162651194 0.023862128737307108 0 0.0037988153862167509 0.022795907776646775 0 0.0053912881514182496 0.022733416484506656 0 0.0083764978673139517 0.021430671451907642 0 0.0065090823350033179 0.021573100120833241 0 0.006942734789656433 0.01973262827001104 0 0.0046959583474361693 0.021215215622581697 0 0.0065090823350033179 0.021573100120833241 0 0.006942734789656433 0.01973262827001104 0 0.0053912881514182496 0.022733416484506656 0 0.0065090823350033179 0.021573100120833241 0 0.0071019530180389812 0.022908047433623062 0 0.0083764978673139517 0.021430671451907642 0 0.0071019530180389812 0.022908047433623062 0 0.0088025081230856568 0.023976321374109644 0 0.0083764978673139517 0.021430671451907642 0 0.0065090823350033179 0.021573100120833241 0 0.0071019530180389812 0.022908047433623062 0 0.0071019530180389812 0.022908047433623062 0 0.0058207855133610249 0.025006668022280059 0 0.0088025081230856568 0.023976321374109644 0 0.0053912881514182496 0.022733416484506656 0 0.0071019530180389812 0.022908047433623062 0 0.0058207855133610249 0.025006668022280059 0 0.0057495193715948623 0.028079275266425403 0 0.0058207855133610249 0.025006668022280059 0 0.0082108120142459998 0.026346837668683593 0 0.0058207855133610249 0.025006668022280059 0 0.0082108120142459998 0.026346837668683593 0 0.0088025081230856568 0.023976321374109644 0 0.011305145207664619 0.02558179410477909 0 0.0088025081230856568 0.023976321374109644 0 0.010752714514327775 0.022069545580297775 0 0.0082108120142459998 0.026346837668683593 0 0.011305145207664619 0.02558179410477909 0 0.0088025081230856568 0.023976321374109644 0 0.0083764978673139517 0.021430671451907642 0 0.0088025081230856568 0.023976321374109644 0 0.010752714514327775 0.022069545580297775 0 0.0083764978673139517 0.021430671451907642 0 0.010752714514327775 0.022069545580297775 0 0.0099331506389344383 0.019203535540452139 0 0.013585485776869417 0.022787415353174505 0 0.014214090428322956 0.019343046497019782 0 0.016594828071951628 0.021857852328189289 0 0.010752714514327775 0.022069545580297775 0 0.013585485776869417 0.022787415353174505 0 0.014214090428322956 0.019343046497019782 0 0.011305145207664619 0.02558179410477909 0 0.013585485776869417 0.022787415353174505 0 0.014943291407104814 0.025173299393317066 0 0.011305145207664619 0.02558179410477909 0 0.010752714514327775 0.022069545580297775 0 0.013585485776869417 0.022787415353174505 0 0.011305145207664619 0.02558179410477909 0 0.013408114420796048 0.028303755338672309 0 0.014943291407104814 0.025173299393317066 0 0.0082108120142459998 0.026346837668683593 0 0.011305145207664619 0.02558179410477909 0 0.0097998648034528721 0.029157063055093888 0 0.011305145207664619 0.02558179410477909 0 0.013408114420796048 0.028303755338672309 0 0.0097998648034528721 0.029157063055093888 0 0.010024597403143898 0.033225999283183448 0 0.0097998648034528721 0.029157063055093888 0 0.01271972480232684 0.031510912239895293 0 0.010024597403143898 0.033225999283183448 0 0.007074815457485127 0.031426828442618217 0 0.0097998648034528721 0.029157063055093888 0 0.013408114420796048 0.028303755338672309 0 0.0097998648034528721 0.029157063055093888 0 0.01271972480232684 0.031510912239895293 0 0.013408114420796048 0.028303755338672309 0 0.01271972480232684 0.031510912239895293 0 0.015634294449370111 0.031895394844571642 0 0.013192267016568972 0.034687757251747837 0 0.01271972480232684 0.031510912239895293 0 0.015634294449370111 0.031895394844571642 0 0.068913705682865881 0.04399348291351874 0 0.069340764785212686 0.043283004451194762 0 0.068701708848615317 0.042769738845698693 0 0.068913705682865881 0.04399348291351874 0 0.068701708848615317 0.042769738845698693 0 0.067547605913813966 0.043194406578381965 0 0.067588022393592545 0.045711138128621445 0 0.065734712433762013 0.04748281630552089 0 0.068913705682865881 0.04399348291351874 0 0.069820045564523217 0.043406053521443194 0 0.069340764785212686 0.043283004451194762 0 0.068913705682865881 0.04399348291351874 0 0.069820045564523217 0.043406053521443194 0 0.070226002673873467 0.043475671400731997 0 0.069820045564523217 0.043406053521443194 0 0.069340764785212686 0.043283004451194762 0 0.069640000019681653 0.042915312896212844 0 0.069820045564523217 0.043406053521443194 0 0.069640000019681653 0.042915312896212844 0 0.070139563661982332 0.043332112511979222 0 0.069640000019681653 0.042915312896212844 0 0.069959407590303113 0.042558272261055255 0 0.070139563661982332 0.043332112511979222 0 0.069640000019681653 0.042915312896212844 0 0.069959407590303113 0.042558272261055255 0 0.069252037540107281 0.041726212397869389 0 0.068701708848615317 0.042769738845698693 0 0.068133961478971078 0.041466008470462667 0 0.069252037540107281 0.041726212397869389 0 0.068701708848615317 0.042769738845698693 0 0.068133961478971078 0.041466008470462667 0 0.067326152038928153 0.042176976407964813 0 0.069640000019681653 0.042915312896212844 0 0.068701708848615317 0.042769738845698693 0 0.069252037540107281 0.041726212397869389 0 0.069340764785212686 0.043283004451194762 0 0.069640000019681653 0.042915312896212844 0 0.068701708848615317 0.042769738845698693 0 0.068133961478971078 0.041466008470462667 0 0.067326152038928153 0.042176976407964813 0 0.066755596180173266 0.040087066636660562 0 0.067326152038928153 0.042176976407964813 0 0.066237114471592709 0.042083422178564034 0 0.066755596180173266 0.040087066636660562 0 0.068701708848615317 0.042769738845698693 0 0.067326152038928153 0.042176976407964813 0 0.067547605913813966 0.043194406578381965 0 0.067326152038928153 0.042176976407964813 0 0.066237114471592709 0.042083422178564034 0 0.066564141007601579 0.043029620783863978 0 0.064999789271521002 0.041608262119491431 0 0.066237114471592709 0.042083422178564034 0 0.066755596180173266 0.040087066636660562 0 0.064999789271521002 0.041608262119491431 0 0.066237114471592709 0.042083422178564034 0 0.065474620553618107 0.043594998005733625 0 0.064999789271521002 0.041608262119491431 0 0.065474620553618107 0.043594998005733625 0 0.064999979298670726 0.045054279858946507 0 0.065474620553618107 0.043594998005733625 0 0.066035888023199957 0.044107791580429663 0 0.06566907887648768 0.044855830551298978 0 0.066237114471592709 0.042083422178564034 0 0.065474620553618107 0.043594998005733625 0 0.066564141007601579 0.043029620783863978 0 0.065474620553618107 0.043594998005733625 0 0.066564141007601579 0.043029620783863978 0 0.066035888023199957 0.044107791580429663 0 0.067588022393592545 0.045711138128621445 0 0.066954346985326985 0.045247824630231435 0 0.068913705682865881 0.04399348291351874 0 0.066035888023199957 0.044107791580429663 0 0.067547605913813966 0.043194406578381965 0 0.066564141007601579 0.043029620783863978 0 0.066035888023199957 0.044107791580429663 0 0.067547605913813966 0.043194406578381965 0 0.067326152038928153 0.042176976407964813 0 0.066564141007601579 0.043029620783863978 0 0.067547605913813966 0.043194406578381965 0 0.066035888023199957 0.044107791580429663 0 0.067040067718488972 0.044657905295348049 0 0.066382768544692813 0.044835291779772538 0 0.06765518959481992 0.044260434147352125 0 0.066035888023199957 0.044107791580429663 0 0.067040067718488972 0.044657905295348049 0 0.066382768544692813 0.044835291779772538 0 0.06619225528623747 0.045208362063091097 0 0.066965483666704295 0.045275058473316698 0 0.067040067718488972 0.044657905295348049 0 0.066382768544692813 0.044835291779772538 0 0.066965483666704295 0.045275058473316698 0 0.064493734148121429 0.045915009596999699 0 0.064402339259533842 0.046919672624761495 0 0.065474620553618107 0.043594998005733625 0 0.064999979298670726 0.045054279858946507 0 0.065628914730060106 0.045902327759523943 0 0.064999979298670726 0.045054279858946507 0 0.065628914730060106 0.045902327759523943 0 0.065000010409684575 0.048500984851321698 0 0.066035888023199957 0.044107791580429663 0 0.066382768544692813 0.044835291779772538 0 0.06566907887648768 0.044855830551298978 0 0.066382768544692813 0.044835291779772538 0 0.06566907887648768 0.044855830551298978 0 0.06619225528623747 0.045208362063091097 0 0.06566907887648768 0.044855830551298978 0 0.06619225528623747 0.045208362063091097 0 0.065738315356927202 0.045856693358041982 0 0.064402339259533842 0.046919672624761495 0 0.064069460061320957 0.049721284409427857 0 0.06619225528623747 0.045208362063091097 0 0.065738315356927202 0.045856693358041982 0 0.066965483666704295 0.045275058473316698 0 0.065628914730060106 0.045902327759523943 0 0.065744630090809733 0.048173623714375252 0 0.065000010409684575 0.048500984851321698 0 0.064069460061320957 0.049721284409427857 0 0.064997636458822117 0.048508290197553476 0 0.062035928736479937 0.059113034574084053 0 0.063345947477607981 0.059826901245177144 0 0.061554271824179746 0.060161462893547318 0 0.064069460061320957 0.049721284409427857 0 0.063810296449148166 0.050488973071743749 0 0.062035928736479937 0.059113034574084053 0 0.061554271824179746 0.060161462893547318 0 0.060484710607485614 0.059174027722426525 0 0.060484710607485614 0.059174027722426525 0 0.060258131545444113 0.059701159393373657 0 0.05924519950060355 0.05929315840472648 0 0.061554271824179746 0.060161462893547318 0 0.060484710607485614 0.059174027722426525 0 0.060258131545444113 0.059701159393373657 0 0.061554271824179746 0.060161462893547318 0 0.060258131545444113 0.059701159393373657 0 0.059717144915032529 0.060256168744098698 0 0.063810296449148166 0.050488973071743749 0 0.063951026209664238 0.049942670589682173 0 0.067040067718488972 0.044657905295348049 0 0.066965483666704295 0.045275058473316698 0 0.068069355673035584 0.044742873163446238 0 0.06765518959481992 0.044260434147352125 0 0.067040067718488972 0.044657905295348049 0 0.068069355673035584 0.044742873163446238 0 0.063951026209664238 0.049942670589682173 0 0.065734712433762013 0.04748281630552089 0 0.059717144915032529 0.060256168744098698 0 0.05924519950060355 0.05929315840472648 0 0.057528922265887364 0.060265295608004241 0 0.06765518959481992 0.044260434147352125 0 0.068069355673035584 0.044742873163446238 0 0.069088209174556797 0.044300247973301031 0 0.05935854996307454 0.058532586330204174 0 0.05924519950060355 0.05929315840472648 0 0.05811492176731415 0.058627256171600126 0 0.05935854996307454 0.058532586330204174 0 0.060484710607485614 0.059174027722426525 0 0.05924519950060355 0.05929315840472648 0 0.060258131545444113 0.059701159393373657 0 0.059717144915032529 0.060256168744098698 0 0.05924519950060355 0.05929315840472648 0 0.058258711463125855 0.058300340525846595 0 0.05811492176731415 0.058627256171600126 0 0.056755602261764411 0.058386353649288091 0 0.054856457333022426 0.061701113879386975 0 0.054771298174419537 0.060800257508370245 0 0.05809590946619058 0.058071452234691567 0 0.056755602261764411 0.058386353649288091 0 0.054539477797363463 0.058224003093844595 0 0.055921234303835728 0.058995475299173816 0 0.054642269883168094 0.058521534865936725 0 0.057528922265887364 0.060265295608004241 0 0.056755602261764411 0.058386353649288091 0 0.054539477797363463 0.058224003093844595 0 0.055921234303835728 0.058995475299173816 0 0.054539477797363463 0.058224003093844595 0 0.055921234303835728 0.058995475299173816 0 0.054642269883168094 0.058521534865936725 0 0.05924519950060355 0.05929315840472648 0 0.05811492176731415 0.058627256171600126 0 0.057528922265887364 0.060265295608004241 0 0.05811492176731415 0.058627256171600126 0 0.056755602261764411 0.058386353649288091 0 0.057528922265887364 0.060265295608004241 0 0.056755602261764411 0.058386353649288091 0 0.055921234303835728 0.058995475299173816 0 0.057528922265887364 0.060265295608004241 0 0.055691888384049835 0.060655028236974474 0 0.053643670553390303 0.060645821084235607 0 0.054902064079624779 0.057760441456008726 0 0.055691888384049835 0.060655028236974474 0 0.057516196905315349 0.056977209921923615 0 0.054902064079624779 0.057760441456008726 0 0.050803018439232815 0.063112130309658995 0 0.054539477797363463 0.058224003093844595 0 0.053643670553390303 0.060645821084235607 0 0.054539477797363463 0.058224003093844595 0 0.053643670553390303 0.060645821084235607 0 0.054902064079624779 0.057760441456008726 0 0.054539477797363463 0.058224003093844595 0 0.0547074977100281 0.057285276897917313 0 0.054902064079624779 0.057760441456008726 0 0.0547074977100281 0.057285276897917313 0 0.055703368142671725 0.054142047903325517 0 0.054642269883168094 0.058521534865936725 0 0.054539477797363463 0.058224003093844595 0 0.0547074977100281 0.057285276897917313 0 0.054642269883168094 0.058521534865936725 0 0.057516196905315349 0.056977209921923615 0 0.054902064079624779 0.057760441456008726 0 0.055703368142671725 0.054142047903325517 0 0.0547074977100281 0.057285276897917313 0 0.054902064079624779 0.057760441456008726 0 0.055703368142671725 0.054142047903325517 0 0.063996271598779242 0.046536445146735904 0 0.064871394321014839 0.045268299425117488 0 0.065433528092516374 0.045787395738264174 0 0.064871394321014839 0.045268299425117488 0 0.066674010512515022 0.044798969262296671 0 0.065433528092516374 0.045787395738264174 0 0.064871394321014839 0.045268299425117488 0 0.066674010512515022 0.044798969262296671 0 0.068290033522320673 0.0431077564165641 0 0.06325911696025667 0.049281327734840147 0 0.063518766297211732 0.048857449277964225 0 0.066674010512515022 0.044798969262296671 0 0.067863209851405287 0.044622614072654491 0 0.06877566232767246 0.043841173279937924 0 0.066674010512515022 0.044798969262296671 0 0.068290033522320673 0.0431077564165641 0 0.06877566232767246 0.043841173279937924 0 0.067863209851405287 0.044622614072654491 0 0.066749199193255879 0.045554856468693353 0 0.068462544754016239 0.044730352577738247 0 0.066749199193255879 0.045554856468693353 0 0.068462544754016239 0.044730352577738247 0 0.068053777544140132 0.045601439079387858 0 0.066674010512515022 0.044798969262296671 0 0.067863209851405287 0.044622614072654491 0 0.066749199193255879 0.045554856468693353 0 0.066674010512515022 0.044798969262296671 0 0.066749199193255879 0.045554856468693353 0 0.065433528092516374 0.045787395738264174 0 0.066749199193255879 0.045554856468693353 0 0.065433528092516374 0.045787395738264174 0 0.064870913280776668 0.046780652464007193 0 0.063996271598779242 0.046536445146735904 0 0.065433528092516374 0.045787395738264174 0 0.064870913280776668 0.046780652464007193 0 0.070226002673873467 0.043475671400731997 0 0.070169295218135475 0.043731114586005787 0 0.070139563661982332 0.043332112511979222 0 0.069820045564523217 0.043406053521443194 0 0.070226002673873467 0.043475671400731997 0 0.070139563661982332 0.043332112511979222 0 0.070226002673873467 0.043475671400731997 0 0.069436853924133762 0.043999550483768496 0 0.070169295218135475 0.043731114586005787 0 0.065734712433762013 0.04748281630552089 0 0.06784773314697759 0.046155399938199858 0 0.063518766297211732 0.048857449277964225 0 0.065734712433762013 0.04748281630552089 0 0.070226002673873467 0.043475671400731997 0 0.06877566232767246 0.043841173279937924 0 0.069436853924133762 0.043999550483768496 0 0.068290033522320673 0.0431077564165641 0 0.070475095344156524 0.043106984475718681 0 0.06877566232767246 0.043841173279937924 0 0.067863209851405287 0.044622614072654491 0 0.06877566232767246 0.043841173279937924 0 0.069436853924133762 0.043999550483768496 0 0.069436853924133762 0.043999550483768496 0 0.069676021887370737 0.04430525099992539 0 0.070169295218135475 0.043731114586005787 0 0.067863209851405287 0.044622614072654491 0 0.069436853924133762 0.043999550483768496 0 0.068462544754016239 0.044730352577738247 0 0.069436853924133762 0.043999550483768496 0 0.068462544754016239 0.044730352577738247 0 0.069676021887370737 0.04430525099992539 0 0.068462544754016239 0.044730352577738247 0 0.069676021887370737 0.04430525099992539 0 0.068053777544140132 0.045601439079387858 0 0.069676021887370737 0.04430525099992539 0 0.070169295218135475 0.043731114586005787 0 0.070602223710784659 0.04381742639029642 0 0.070169295218135475 0.043731114586005787 0 0.070522276350000704 0.043056986643198847 0 0.070602223710784659 0.04381742639029642 0 0.070169295218135475 0.043731114586005787 0 0.070139563661982332 0.043332112511979222 0 0.070522276350000704 0.043056986643198847 0 0.069959407590303113 0.042558272261055255 0 0.070139563661982332 0.043332112511979222 0 0.070522276350000704 0.043056986643198847 0 0.070522276350000704 0.043056986643198847 0 0.070795667748170713 0.041488477339938594 0 0.070000254366462511 0.041479700287526525 0 0.070522276350000704 0.043056986643198847 0 0.070795667748170713 0.041488477339938594 0 0.071383623085127301 0.04332873843301828 0 0.070795667748170713 0.041488477339938594 0 0.071383623085127301 0.04332873843301828 0 0.072236574364847608 0.040059534516784193 0 0.070522276350000704 0.043056986643198847 0 0.071383623085127301 0.04332873843301828 0 0.070602223710784659 0.04381742639029642 0 0.069676021887370737 0.04430525099992539 0 0.070602223710784659 0.04381742639029642 0 0.070044165639428974 0.044752604198728833 0 0.071383623085127301 0.04332873843301828 0 0.070602223710784659 0.04381742639029642 0 0.070044165639428974 0.044752604198728833 0 0.069676021887370737 0.04430525099992539 0 0.070044165639428974 0.044752604198728833 0 0.068053777544140132 0.045601439079387858 0 0.070044165639428974 0.044752604198728833 0 0.068053777544140132 0.045601439079387858 0 0.068421439617828789 0.046469802739514975 0 0.070044165639428974 0.044752604198728833 0 0.070009260521106786 0.046688952396960762 0 0.068421439617828789 0.046469802739514975 0 0.071383623085127301 0.04332873843301828 0 0.074023870118142931 0.042066601854218871 0 0.072236574364847608 0.040059534516784193 0 0.069738579000546919 0.040835857923164916 0 0.069702763581659097 0.040730912091773583 0 0.071383623085127301 0.04332873843301828 0 0.070044165639428974 0.044752604198728833 0 0.070140094494681351 0.045061525876627581 0 0.069704074003004629 0.041024533470651117 0 0.069702763581659097 0.040730912091773583 0 0.069702763581659097 0.040730912091773583 0 0.069151908725801195 0.040797153457836501 0 0.070410213503853125 0.038942519341901301 0 0.070413423690942084 0.038841944030528999 0 0.07050097248658356 0.038893021197198986 0 0.074023870118142931 0.042066601854218871 0 0.074232899285464685 0.038498317985090263 0 0.072236574364847608 0.040059534516784193 0 0.069702763581659097 0.040730912091773583 0 0.070479084668353315 0.038331180830941898 0 0.074232899285464685 0.038498317985090263 0 0.072236574364847608 0.040059534516784193 0 0.072168145399392911 0.037250937617587875 0 0.072236574364847608 0.040059534516784193 0 0.072168145399392911 0.037250937617587875 0 0.070285269837790029 0.038978532240298742 0 0.070795667748170713 0.041488477339938594 0 0.072236574364847608 0.040059534516784193 0 0.070285269837790029 0.038978532240298742 0 0.066749199193255879 0.045554856468693353 0 0.064870913280776668 0.046780652464007193 0 0.066297309453692319 0.046711908055326171 0 0.064856117973245545 0.047537857014888385 0 0.065384303244272926 0.047463112004714342 0 0.064870913280776668 0.046780652464007193 0 0.065384303244272926 0.047463112004714342 0 0.066297309453692319 0.046711908055326171 0 0.066128787655400645 0.047713091467331235 0 0.065384303244272926 0.047463112004714342 0 0.064870913280776668 0.046780652464007193 0 0.066297309453692319 0.046711908055326171 0 0.067239329817642246 0.046885312728213037 0 0.066297309453692319 0.046711908055326171 0 0.068053777544140132 0.045601439079387858 0 0.067239329817642246 0.046885312728213037 0 0.066297309453692319 0.046711908055326171 0 0.066128787655400645 0.047713091467331235 0 0.066749199193255879 0.045554856468693353 0 0.066297309453692319 0.046711908055326171 0 0.068053777544140132 0.045601439079387858 0 0.067239329817642246 0.046885312728213037 0 0.068421439617828789 0.046469802739514975 0 0.067195162186275928 0.048131509975237061 0 0.067239329817642246 0.046885312728213037 0 0.068053777544140132 0.045601439079387858 0 0.068421439617828789 0.046469802739514975 0 0.070009260521106786 0.046688952396960762 0 0.068421439617828789 0.046469802739514975 0 0.067195162186275928 0.048131509975237061 0 0.069151908725801195 0.040797153457836501 0 0.069731568893161011 0.039649020760591971 0 0.07050097248658356 0.038893021197198986 0 0.070589017929985967 0.038846828119798067 0 0.070503920774462214 0.038795978655536086 0 0.070413423690942084 0.038841944030528999 0 0.07050097248658356 0.038893021197198986 0 0.070503920774462214 0.038795978655536086 0 0.067239329817642246 0.046885312728213037 0 0.067195162186275928 0.048131509975237061 0 0.066128787655400645 0.047713091467331235 0 0.067195162186275928 0.048131509975237061 0 0.066128787655400645 0.047713091467331235 0 0.065461925319162326 0.048652643073791919 0 0.065384303244272926 0.047463112004714342 0 0.066128787655400645 0.047713091467331235 0 0.065461925319162326 0.048652643073791919 0 0.064856117973245545 0.047537857014888385 0 0.065384303244272926 0.047463112004714342 0 0.065461925319162326 0.048652643073791919 0 0.075071322918505795 0.032158371565572427 0 0.07400237347570067 0.031539271666191152 0 0.075254133194411391 0.030544878766181054 0 0.069731568893161011 0.039649020760591971 0 0.070636742145269465 0.037400463262286673 0 0.070636742145269465 0.037400463262286673 0 0.070855503750038781 0.03556954621469087 0 0.07400237347570067 0.031539271666191152 0 0.073830241382078679 0.030573463083902554 0 0.072968239438503418 0.030934182218066177 0 0.073830241382078679 0.030573463083902554 0 0.075254133194411391 0.030544878766181054 0 0.074180789741080763 0.029735223134370697 0 0.07400237347570067 0.031539271666191152 0 0.073830241382078679 0.030573463083902554 0 0.075254133194411391 0.030544878766181054 0 0.073830241382078679 0.030573463083902554 0 0.073036773384918013 0.029626332034591866 0 0.074180789741080763 0.029735223134370697 0 0.072168145399392911 0.037250937617587875 0 0.071334869871326437 0.033875925626464201 0 0.070778906045844373 0.036387248039560678 0 0.072168145399392911 0.037250937617587875 0 0.070778906045844373 0.036387248039560678 0 0.070285269837790029 0.038978532240298742 0 0.074232899285464685 0.038498317985090263 0 0.072168145399392911 0.037250937617587875 0 0.074314308632993237 0.035957877504250828 0 0.070413423690942084 0.038841944030528999 0 0.070503920774462214 0.038795978655536086 0 0.070416290989615576 0.038741255848160704 0 0.070479084668353315 0.038331180830941898 0 0.070855503750038781 0.03556954621469087 0 0.070855503750038781 0.03556954621469087 0 0.071578307160971411 0.031975887838312546 0 0.073081894955019586 0.032996669408573612 0 0.070679296230417743 0.031674253000392089 0 0.073129257343664322 0.031030442512206734 0 0.073830241382078679 0.030573463083902554 0 0.072968239438503418 0.030934182218066177 0 0.073036773384918013 0.029626332034591866 0 0.072168145399392911 0.037250937617587875 0 0.074314308632993237 0.035957877504250828 0 0.071334869871326437 0.033875925626464201 0 0.070855503750038781 0.03556954621469087 0 0.070218189434773703 0.03383561985985177 0 0.071334869871326437 0.033875925626464201 0 0.068419978881520127 0.034164626727779659 0 0.069307381511275343 0.036336875383666215 0 0.071334869871326437 0.033875925626464201 0 0.069307381511275343 0.036336875383666215 0 0.070778906045844373 0.036387248039560678 0 0.071334869871326437 0.033875925626464201 0 0.068419978881520127 0.034164626727779659 0 0.068601163607336757 0.031198279130023054 0 0.069307381511275343 0.036336875383666215 0 0.068709657061151105 0.038464134872133911 0 0.067768182727874784 0.036481618959787264 0 0.068419978881520127 0.034164626727779659 0 0.069307381511275343 0.036336875383666215 0 0.067768182727874784 0.036481618959787264 0 0.069307381511275343 0.036336875383666215 0 0.070778906045844373 0.036387248039560678 0 0.070285269837790029 0.038978532240298742 0 0.070285269837790029 0.038978532240298742 0 0.069259720216797341 0.040128114164160268 0 0.068709657061151105 0.038464134872133911 0 0.070285269837790029 0.038978532240298742 0 0.069259720216797341 0.040128114164160268 0 0.070000254366462511 0.041479700287526525 0 0.069307381511275343 0.036336875383666215 0 0.070285269837790029 0.038978532240298742 0 0.068709657061151105 0.038464134872133911 0 0.070795667748170713 0.041488477339938594 0 0.070285269837790029 0.038978532240298742 0 0.070000254366462511 0.041479700287526525 0 0.068709657061151105 0.038464134872133911 0 0.067531166065115097 0.038373746636624705 0 0.067768182727874784 0.036481618959787264 0 0.068709657061151105 0.038464134872133911 0 0.068303963409671417 0.04008857979485262 0 0.067531166065115097 0.038373746636624705 0 0.069259720216797341 0.040128114164160268 0 0.068709657061151105 0.038464134872133911 0 0.068303963409671417 0.04008857979485262 0 0.069259720216797341 0.040128114164160268 0 0.068303963409671417 0.04008857979485262 0 0.069252037540107281 0.041726212397869389 0 0.068133961478971078 0.041466008470462667 0 0.068303963409671417 0.04008857979485262 0 0.069252037540107281 0.041726212397869389 0 0.069959407590303113 0.042558272261055255 0 0.069252037540107281 0.041726212397869389 0 0.070000254366462511 0.041479700287526525 0 0.069959407590303113 0.042558272261055255 0 0.070522276350000704 0.043056986643198847 0 0.070000254366462511 0.041479700287526525 0 0.069259720216797341 0.040128114164160268 0 0.069252037540107281 0.041726212397869389 0 0.070000254366462511 0.041479700287526525 0 0.064999789271521002 0.041608262119491431 0 0.066755596180173266 0.040087066636660562 0 0.064999470513067079 0.038162413548448862 0 0.068303963409671417 0.04008857979485262 0 0.066755596180173266 0.040087066636660562 0 0.067531166065115097 0.038373746636624705 0 0.068133961478971078 0.041466008470462667 0 0.068303963409671417 0.04008857979485262 0 0.066755596180173266 0.040087066636660562 0 0.066755596180173266 0.040087066636660562 0 0.067531166065115097 0.038373746636624705 0 0.066161704401236004 0.036646350197534143 0 0.066755596180173266 0.040087066636660562 0 0.064999470513067079 0.038162413548448862 0 0.066161704401236004 0.036646350197534143 0 0.064999449493576125 0.034715886956002917 0 0.066161704401236004 0.036646350197534143 0 0.066645404177069947 0.034618155630756736 0 0.064999470513067079 0.038162413548448862 0 0.064999449493576125 0.034715886956002917 0 0.066161704401236004 0.036646350197534143 0 0.066161704401236004 0.036646350197534143 0 0.067768182727874784 0.036481618959787264 0 0.066645404177069947 0.034618155630756736 0 0.067531166065115097 0.038373746636624705 0 0.066161704401236004 0.036646350197534143 0 0.067768182727874784 0.036481618959787264 0 0.068419978881520127 0.034164626727779659 0 0.067768182727874784 0.036481618959787264 0 0.066645404177069947 0.034618155630756736 0 0.068419978881520127 0.034164626727779659 0 0.066645404177069947 0.034618155630756736 0 0.067086796169689891 0.032428813495727675 0 0.064999449493576125 0.034715886956002917 0 0.066645404177069947 0.034618155630756736 0 0.064999430364740721 0.03126897732840242 0 0.066645404177069947 0.034618155630756736 0 0.064999430364740721 0.03126897732840242 0 0.067086796169689891 0.032428813495727675 0 0.064999430364740721 0.03126897732840242 0 0.067086796169689891 0.032428813495727675 0 0.067203299311153764 0.029155347503583479 0 0.067086796169689891 0.032428813495727675 0 0.067203299311153764 0.029155347503583479 0 0.069681321321811929 0.029232582677098679 0 0.064999430364740721 0.03126897732840242 0 0.067203299311153764 0.029155347503583479 0 0.064999738972835286 0.027823170445728636 0 0.070679296230417743 0.031674253000392089 0 0.070081311532499205 0.030246911384296468 0 0.068601163607336757 0.031198279130023054 0 0.070218189434773703 0.03383561985985177 0 0.069178780788375582 0.032852737093361638 0 0.068419978881520127 0.034164626727779659 0 0.067086796169689891 0.032428813495727675 0 0.068601163607336757 0.031198279130023054 0 0.067086796169689891 0.032428813495727675 0 0.068601163607336757 0.031198279130023054 0 0.068689440537733168 0.029232700070541212 0 0.068064589386921379 0.030510920934133351 0 0.069201531463296898 0.029026856488787563 0 0.067203299311153764 0.029155347503583479 0 0.069681321321811929 0.029232582677098679 0 0.069223101027523187 0.027415716101913179 0 0.070081311532499205 0.030246911384296468 0 0.068601163607336757 0.031198279130023054 0 0.068689440537733168 0.029232700070541212 0 0.070081311532499205 0.030246911384296468 0 0.068689440537733168 0.029232700070541212 0 0.070901635782042574 0.02889107749145188 0 0.069681321321811929 0.029232582677098679 0 0.069223101027523187 0.027415716101913179 0 0.071439951497434415 0.026357456636547823 0 0.069201531463296898 0.029026856488787563 0 0.070892400887008336 0.026772272081438137 0 0.069223101027523187 0.027415716101913179 0 0.070134650189828007 0.025937451185968453 0 0.071439951497434415 0.026357456636547823 0 0.068689440537733168 0.029232700070541212 0 0.070564710069454598 0.026367896541398449 0 0.070901635782042574 0.02889107749145188 0 0.069223101027523187 0.027415716101913179 0 0.070134650189828007 0.025937451185968453 0 0.067541374736344875 0.026992967118417116 0 0.069734747852188347 0.02590768332886717 0 0.06749274660299355 0.02681241830939237 0 0.068641048854464051 0.024902761299030959 0 0.070067047412804784 0.025345033708894182 0 0.067797479879707204 0.026477536340579724 0 0.068641048854464051 0.024902761299030959 0 0.070067047412804784 0.025345033708894182 0 0.069678708410820786 0.024219238580636682 0 0.070134650189828007 0.025937451185968453 0 0.071439951497434415 0.026357456636547823 0 0.071992458538030144 0.024840854278502921 0 0.069734747852188347 0.02590768332886717 0 0.070846619623951917 0.025467406283966522 0 0.070067047412804784 0.025345033708894182 0 0.07066018338883473 0.024504498634693245 0 0.071992458538030144 0.024840854278502921 0 0.070067047412804784 0.025345033708894182 0 0.069678708410820786 0.024219238580636682 0 0.07066018338883473 0.024504498634693245 0 0.065002360870342363 0.027821394178394257 0 0.06749274660299355 0.02681241830939237 0 0.064999965321239889 0.027821939293453512 0 0.067797479879707204 0.026477536340579724 0 0.067030042927213096 0.024872929619347613 0 0.067203299311153764 0.029155347503583479 0 0.064999738972835286 0.027823170445728636 0 0.067541374736344875 0.026992967118417116 0 0.067203299311153764 0.029155347503583479 0 0.069223101027523187 0.027415716101913179 0 0.067541374736344875 0.026992967118417116 0 0.068641048854464051 0.024902761299030959 0 0.067797479879707204 0.026477536340579724 0 0.067030042927213096 0.024872929619347613 0 0.068641048854464051 0.024902761299030959 0 0.067030042927213096 0.024872929619347613 0 0.068433395663447624 0.023618838079207321 0 0.064999965321239889 0.027821939293453512 0 0.067030042927213096 0.024872929619347613 0 0.064999846574331721 0.023945548769843585 0 0.067030042927213096 0.024872929619347613 0 0.064999846574331721 0.023945548769843585 0 0.066889868877030009 0.022647391437074747 0 0.064999846574331721 0.023945548769843585 0 0.066889868877030009 0.022647391437074747 0 0.06499994872932062 0.020069354970240379 0 0.067632779627943632 0.020950058834155832 0 0.066889868877030009 0.022647391437074747 0 0.06499994872932062 0.020069354970240379 0 0.067632779627943632 0.020950058834155832 0 0.066889868877030009 0.022647391437074747 0 0.068515166090867441 0.022373185472622341 0 0.066889868877030009 0.022647391437074747 0 0.068433395663447624 0.023618838079207321 0 0.068515166090867441 0.022373185472622341 0 0.067030042927213096 0.024872929619347613 0 0.066889868877030009 0.022647391437074747 0 0.068433395663447624 0.023618838079207321 0 0.068641048854464051 0.024902761299030959 0 0.068433395663447624 0.023618838079207321 0 0.069678708410820786 0.024219238580636682 0 0.068433395663447624 0.023618838079207321 0 0.069678708410820786 0.024219238580636682 0 0.069586515381591399 0.022958442579680514 0 0.068433395663447624 0.023618838079207321 0 0.069586515381591399 0.022958442579680514 0 0.068515166090867441 0.022373185472622341 0 0.07066018338883473 0.024504498634693245 0 0.070554301511461318 0.023686384944447039 0 0.071238988708916748 0.024125621480055794 0 0.069678708410820786 0.024219238580636682 0 0.07066018338883473 0.024504498634693245 0 0.070554301511461318 0.023686384944447039 0 0.069586515381591399 0.022958442579680514 0 0.070554301511461318 0.023686384944447039 0 0.070703025301383574 0.022848937107921186 0 0.069678708410820786 0.024219238580636682 0 0.069586515381591399 0.022958442579680514 0 0.070554301511461318 0.023686384944447039 0 0.070554301511461318 0.023686384944447039 0 0.070703025301383574 0.022848937107921186 0 0.071765312840771658 0.023483388508678329 0 0.070566319660018598 0.021247293187323036 0 0.071233823579618119 0.020757155766497393 0 0.071856002260507937 0.021819570257885407 0 0.069789727172144905 0.021281494317631131 0 0.071472776537743518 0.021707947919885742 0 0.070703025301383574 0.022848937107921186 0 0.069836351329768453 0.021758904062435594 0 0.071654065054174182 0.022342781482423277 0 0.069586515381591399 0.022958442579680514 0 0.070703025301383574 0.022848937107921186 0 0.069836351329768453 0.021758904062435594 0 0.067632779627943632 0.020950058834155832 0 0.068515166090867441 0.022373185472622341 0 0.069836351329768453 0.021758904062435594 0 0.067542942816373935 0.020714296062446062 0 0.069789727172144905 0.021281494317631131 0 0.069586515381591399 0.022958442579680514 0 0.068515166090867441 0.022373185472622341 0 0.069836351329768453 0.021758904062435594 0 0.067982015985062885 0.020782683755257072 0 0.070566319660018598 0.021247293187323036 0 0.070027639696179853 0.019957969862007898 0 0.070566319660018598 0.021247293187323036 0 0.070027639696179853 0.019957969862007898 0 0.071233823579618119 0.020757155766497393 0 0.070027639696179853 0.019957969862007898 0 0.071233823579618119 0.020757155766497393 0 0.071440477855313197 0.020051935720221591 0 0.073060844583532528 0.017499159384405501 0 0.070082212951012163 0.017355069668502459 0 0.071419160978795332 0.015298954181969611 0 0.07050087221329035 0.018423470079509223 0 0.071311158087802154 0.01743448850284993 0 0.070027639696179853 0.019957969862007898 0 0.070082212951012163 0.017355069668502459 0 0.067524149279354642 0.018136970603960766 0 0.070027639696179853 0.019957969862007898 0 0.073060844583532528 0.017499159384405501 0 0.070082212951012163 0.017355069668502459 0 0.067524149279354642 0.018136970603960766 0 0.068574691673205831 0.015922318494679712 0 0.066717989792354243 0.015778607053165351 0 0.070082212951012163 0.017355069668502459 0 0.067524149279354642 0.018136970603960766 0 0.068574691673205831 0.015922318494679712 0 0.067524149279354642 0.018136970603960766 0 0.064999908368128051 0.017045576955593469 0 0.066717989792354243 0.015778607053165351 0 0.067982015985062885 0.020782683755257072 0 0.067524149279354642 0.018136970603960766 0 0.064999944857932979 0.020068850946735446 0 0.067542942816373935 0.020714296062446062 0 0.065002755732463474 0.020069511691713688 0 0.067524149279354642 0.018136970603960766 0 0.064999908368128051 0.017045576955593469 0 0.064999944857932979 0.020068850946735446 0 0.067982015985062885 0.020782683755257072 0 0.070027639696179853 0.019957969862007898 0 0.067524149279354642 0.018136970603960766 0 0.073973868259243833 0.020710938423688943 0 0.073125056023328375 0.021433629271563798 0 0.074663949966784271 0.022260231442221227 0 0.075025405705894221 0.020839362393915099 0 0.073973868259243833 0.020710938423688943 0 0.074663949966784271 0.022260231442221227 0 0.075025405705894221 0.020839362393915099 0 0.074663949966784271 0.022260231442221227 0 0.076021847910871063 0.021671319075323218 0 0.075025405705894221 0.020839362393915099 0 0.074356625173963062 0.019997662808125264 0 0.073973868259243833 0.020710938423688943 0 0.075025405705894221 0.020839362393915099 0 0.076017246940097288 0.020519382198907813 0 0.075150189252305502 0.01984781322180473 0 0.075025405705894221 0.020839362393915099 0 0.074356625173963062 0.019997662808125264 0 0.075150189252305502 0.01984781322180473 0 0.074356625173963062 0.019997662808125264 0 0.073973868259243833 0.020710938423688943 0 0.073518006457797103 0.01996996263316431 0 0.073973868259243833 0.020710938423688943 0 0.073518006457797103 0.01996996263316431 0 0.072817198985336021 0.020407410165418683 0 0.073973868259243833 0.020710938423688943 0 0.072817198985336021 0.020407410165418683 0 0.073125056023328375 0.021433629271563798 0 0.073518006457797103 0.01996996263316431 0 0.072817198985336021 0.020407410165418683 0 0.072646969903530603 0.019377810965795748 0 0.071440477855313197 0.020051935720221591 0 0.072817198985336021 0.020407410165418683 0 0.072031541486495751 0.020838953490902579 0 0.071440477855313197 0.020051935720221591 0 0.072817198985336021 0.020407410165418683 0 0.072646969903530603 0.019377810965795748 0 0.071233823579618119 0.020757155766497393 0 0.072031541486495751 0.020838953490902579 0 0.071856002260507937 0.021819570257885407 0 0.071233823579618119 0.020757155766497393 0 0.071440477855313197 0.020051935720221591 0 0.072031541486495751 0.020838953490902579 0 0.072031541486495751 0.020838953490902579 0 0.073125056023328375 0.021433629271563798 0 0.071856002260507937 0.021819570257885407 0 0.072817198985336021 0.020407410165418683 0 0.072031541486495751 0.020838953490902579 0 0.073125056023328375 0.021433629271563798 0 0.072265662515927337 0.021893949468790769 0 0.071472776537743518 0.021707947919885742 0 0.073125056023328375 0.021433629271563798 0 0.073259548506952987 0.02257362604379216 0 0.071856002260507937 0.021819570257885407 0 0.073259548506952987 0.02257362604379216 0 0.071654065054174182 0.022342781482423277 0 0.071765312840771658 0.023483388508678329 0 0.070703025301383574 0.022848937107921186 0 0.071654065054174182 0.022342781482423277 0 0.071765312840771658 0.023483388508678329 0 0.07066018338883473 0.024504498634693245 0 0.071238988708916748 0.024125621480055794 0 0.071992458538030144 0.024840854278502921 0 0.070554301511461318 0.023686384944447039 0 0.071765312840771658 0.023483388508678329 0 0.071238988708916748 0.024125621480055794 0 0.071765312840771658 0.023483388508678329 0 0.072648769476755332 0.024003396398201909 0 0.071992458538030144 0.024840854278502921 0 0.071765312840771658 0.023483388508678329 0 0.071238988708916748 0.024125621480055794 0 0.071992458538030144 0.024840854278502921 0 0.072648769476755332 0.024003396398201909 0 0.074177490762261725 0.024262144524220246 0 0.07329599285158267 0.025153415062756965 0 0.073259548506952987 0.02257362604379216 0 0.071765312840771658 0.023483388508678329 0 0.072648769476755332 0.024003396398201909 0 0.073259548506952987 0.02257362604379216 0 0.072648769476755332 0.024003396398201909 0 0.074177490762261725 0.024262144524220246 0 0.073259548506952987 0.02257362604379216 0 0.074177490762261725 0.024262144524220246 0 0.074663949966784271 0.022260231442221227 0 0.073125056023328375 0.021433629271563798 0 0.073259548506952987 0.02257362604379216 0 0.074663949966784271 0.022260231442221227 0 0.074663949966784271 0.022260231442221227 0 0.075519107246069278 0.024418025840688914 0 0.076010250865097662 0.023038673167191718 0 0.074177490762261725 0.024262144524220246 0 0.074663949966784271 0.022260231442221227 0 0.075519107246069278 0.024418025840688914 0 0.074177490762261725 0.024262144524220246 0 0.075519107246069278 0.024418025840688914 0 0.075105784946293067 0.025997884400232457 0 0.074177490762261725 0.024262144524220246 0 0.073949124992252466 0.026195737718963951 0 0.07329599285158267 0.025153415062756965 0 0.074177490762261725 0.024262144524220246 0 0.075105784946293067 0.025997884400232457 0 0.073949124992252466 0.026195737718963951 0 0.073949124992252466 0.026195737718963951 0 0.073280575262347963 0.027219664959978209 0 0.074354731542180613 0.027650012137629857 0 0.075105784946293067 0.025997884400232457 0 0.073949124992252466 0.026195737718963951 0 0.074354731542180613 0.027650012137629857 0 0.075105784946293067 0.025997884400232457 0 0.074354731542180613 0.027650012137629857 0 0.075916409424110667 0.027359469481104418 0 0.072648769476755332 0.024003396398201909 0 0.071439951497434415 0.026357456636547823 0 0.071992458538030144 0.024840854278502921 0 0.071858534985347541 0.025513667744930982 0 0.070892400887008336 0.026772272081438137 0 0.070564710069454598 0.026367896541398449 0 0.072408248687661436 0.025338998832378379 0 0.071962485237531348 0.026324355855615739 0 0.072648769476755332 0.024003396398201909 0 0.070564710069454598 0.026367896541398449 0 0.072408248687661436 0.025338998832378379 0 0.072408248687661436 0.025338998832378379 0 0.072842805902918542 0.026239834089630348 0 0.071962485237531348 0.026324355855615739 0 0.072648769476755332 0.024003396398201909 0 0.072408248687661436 0.025338998832378379 0 0.07329599285158267 0.025153415062756965 0 0.072408248687661436 0.025338998832378379 0 0.07329599285158267 0.025153415062756965 0 0.072842805902918542 0.026239834089630348 0 0.073949124992252466 0.026195737718963951 0 0.07329599285158267 0.025153415062756965 0 0.072842805902918542 0.026239834089630348 0 0.073949124992252466 0.026195737718963951 0 0.072842805902918542 0.026239834089630348 0 0.073280575262347963 0.027219664959978209 0 0.073280575262347963 0.027219664959978209 0 0.07196167517227009 0.027343842288291818 0 0.073068886026620483 0.028621292224103808 0 0.072842805902918542 0.026239834089630348 0 0.071962485237531348 0.026324355855615739 0 0.07196167517227009 0.027343842288291818 0 0.072842805902918542 0.026239834089630348 0 0.073280575262347963 0.027219664959978209 0 0.07196167517227009 0.027343842288291818 0 0.070564710069454598 0.026367896541398449 0 0.07196167517227009 0.027343842288291818 0 0.070901635782042574 0.02889107749145188 0 0.070564710069454598 0.026367896541398449 0 0.071962485237531348 0.026324355855615739 0 0.07196167517227009 0.027343842288291818 0 0.070081311532499205 0.030246911384296468 0 0.070901635782042574 0.02889107749145188 0 0.071731568096155537 0.030020195764915342 0 0.070901635782042574 0.02889107749145188 0 0.073068886026620483 0.028621292224103808 0 0.071731568096155537 0.030020195764915342 0 0.07196167517227009 0.027343842288291818 0 0.070901635782042574 0.02889107749145188 0 0.073068886026620483 0.028621292224103808 0 0.071796470169029444 0.030807396010526907 0 0.071578307160971411 0.031975887838312546 0 0.073068886026620483 0.028621292224103808 0 0.073129257343664322 0.031030442512206734 0 0.071731568096155537 0.030020195764915342 0 0.073068886026620483 0.028621292224103808 0 0.073036773384918013 0.029626332034591866 0 0.073921862317644166 0.028913251990718754 0 0.070679296230417743 0.031674253000392089 0 0.073129257343664322 0.031030442512206734 0 0.071731568096155537 0.030020195764915342 0 0.070679296230417743 0.031674253000392089 0 0.070081311532499205 0.030246911384296468 0 0.071731568096155537 0.030020195764915342 0 0.074354731542180613 0.027650012137629857 0 0.075019155088787703 0.028930066017232012 0 0.075916409424110667 0.027359469481104418 0 0.074354731542180613 0.027650012137629857 0 0.073921862317644166 0.028913251990718754 0 0.075019155088787703 0.028930066017232012 0 0.073280575262347963 0.027219664959978209 0 0.073068886026620483 0.028621292224103808 0 0.074354731542180613 0.027650012137629857 0 0.073068886026620483 0.028621292224103808 0 0.074354731542180613 0.027650012137629857 0 0.073921862317644166 0.028913251990718754 0 0.073921862317644166 0.028913251990718754 0 0.074180789741080763 0.029735223134370697 0 0.075019155088787703 0.028930066017232012 0 0.073036773384918013 0.029626332034591866 0 0.073921862317644166 0.028913251990718754 0 0.074180789741080763 0.029735223134370697 0 0.075254133194411391 0.030544878766181054 0 0.074180789741080763 0.029735223134370697 0 0.075019155088787703 0.028930066017232012 0 0.075254133194411391 0.030544878766181054 0 0.075019155088787703 0.028930066017232012 0 0.076007163606275269 0.029634518826753779 0 0.075019155088787703 0.028930066017232012 0 0.076007163606275269 0.029634518826753779 0 0.076316677257642615 0.02867388402894203 0 0.076007163606275269 0.029634518826753779 0 0.076316677257642615 0.02867388402894203 0 0.077141876787268013 0.029651439419563993 0 0.076316677257642615 0.02867388402894203 0 0.075916409424110667 0.027359469481104418 0 0.077536797226406357 0.027783327984778332 0 0.075019155088787703 0.028930066017232012 0 0.076316677257642615 0.02867388402894203 0 0.075916409424110667 0.027359469481104418 0 0.076860404232093366 0.024212519284236882 0 0.076696371613730913 0.02446791795059516 0 0.076856147024190954 0.024393541603894446 0 0.076316677257642615 0.02867388402894203 0 0.077536797226406357 0.027783327984778332 0 0.077141876787268013 0.029651439419563993 0 0.075779426641892592 0.026309366655254993 0 0.074079150126205445 0.02861449979897181 0 0.076876551516554592 0.024546362364850388 0 0.076696371613730913 0.02446791795059516 0 0.076856147024190954 0.024393541603894446 0 0.076876551516554592 0.024546362364850388 0 0.076856147024190954 0.024393541603894446 0 0.076923164163384239 0.024437403339986417 0 0.076942347236552411 0.024485418185118922 0 0.076923164163384239 0.024437403339986417 0 0.076983866564762832 0.024411984366826164 0 0.076944669815406347 0.024318503308553455 0 0.076983866564762832 0.024411984366826164 0 0.077012310420443139 0.024286020281642704 0 0.076923164163384239 0.024437403339986417 0 0.076944669815406347 0.024318503308553455 0 0.076983866564762832 0.024411984366826164 0 0.076856147024190954 0.024393541603894446 0 0.076923164163384239 0.024437403339986417 0 0.076944669815406347 0.024318503308553455 0 0.077004485162191119 0.024445936377835285 0 0.076975772455603858 0.024489233127804062 0 0.076931913939197225 0.024639665951418685 0 0.07385402954163775 0.028046786081779938 0 0.075226432850906799 0.02710959363112098 0 0.077004485162191119 0.024445936377835285 0 0.076975772455603858 0.024489233127804062 0 0.076994382091103278 0.024441208106396321 0 0.077004485162191119 0.024445936377835285 0 0.076983866564762832 0.024411984366826164 0 0.076994382091103278 0.024441208106396321 0 0.076942347236552411 0.024485418185118922 0 0.077004485162191119 0.024445936377835285 0 0.076983866564762832 0.024411984366826164 0 0.076983866564762832 0.024411984366826164 0 0.076994382091103278 0.024441208106396321 0 0.077010946527606955 0.024354400875470382 0 0.076983866564762832 0.024411984366826164 0 0.077010946527606955 0.024354400875470382 0 0.077012310420443139 0.024286020281642704 0 0.076975772455603858 0.024489233127804062 0 0.077010946527606955 0.024354400875470382 0 0.077032300770933648 0.024356068383524939 0 0.076975772455603858 0.024489233127804062 0 0.076994382091103278 0.024441208106396321 0 0.077010946527606955 0.024354400875470382 0 0.077087541095344603 0.024165912776184097 0 0.077132035846024127 0.024182109916945388 0 0.077168791614318652 0.024067041825623581 0 0.077010946527606955 0.024354400875470382 0 0.077087541095344603 0.024165912776184097 0 0.077132035846024127 0.024182109916945388 0 0.077010946527606955 0.024354400875470382 0 0.077012310420443139 0.024286020281642704 0 0.077087541095344603 0.024165912776184097 0 0.077012310420443139 0.024286020281642704 0 0.077087541095344603 0.024165912776184097 0 0.077027833501665685 0.024166605156358326 0 0.076860404232093366 0.024212519284236882 0 0.076944669815406347 0.024318503308553455 0 0.077027833501665685 0.024166605156358326 0 0.076860404232093366 0.024212519284236882 0 0.076856147024190954 0.024393541603894446 0 0.076944669815406347 0.024318503308553455 0 0.076944669815406347 0.024318503308553455 0 0.077012310420443139 0.024286020281642704 0 0.077027833501665685 0.024166605156358326 0 0.077027833501665685 0.024166605156358326 0 0.077145557320776659 0.024064068624644372 0 0.077090792022806706 0.024019705472433418 0 0.076860404232093366 0.024212519284236882 0 0.077027833501665685 0.024166605156358326 0 0.077090792022806706 0.024019705472433418 0 0.077087541095344603 0.024165912776184097 0 0.077145557320776659 0.024064068624644372 0 0.077168791614318652 0.024067041825623581 0 0.077087541095344603 0.024165912776184097 0 0.077027833501665685 0.024166605156358326 0 0.077145557320776659 0.024064068624644372 0 0.077145557320776659 0.024064068624644372 0 0.077206784525576194 0.024005337140743637 0 0.077168791614318652 0.024067041825623581 0 0.077145557320776659 0.024064068624644372 0 0.077206784525576194 0.024005337140743637 0 0.077209880923933674 0.023999007880276396 0 0.077206784525576194 0.024005337140743637 0 0.077209880923933674 0.023999007880276396 0 0.077276710932231304 0.023990723702358534 0 0.076540053226434521 0.025245342451389405 0 0.076774010313350863 0.024822025013317615 0 0.077209880923933674 0.023999007880276396 0 0.077090792022806706 0.024019705472433418 0 0.077461470048839118 0.024043935045673769 0 0.077145557320776659 0.024064068624644372 0 0.077209880923933674 0.023999007880276396 0 0.077090792022806706 0.024019705472433418 0 0.077726260213461809 0.025805908953697321 0 0.076507038068280006 0.026028911509912343 0 0.076623728819771572 0.024635720083757851 0 0.077726260213461809 0.025805908953697321 0 0.076623728819771572 0.024635720083757851 0 0.077461470048839118 0.024043935045673769 0 0.075519107246069278 0.024418025840688914 0 0.075105784946293067 0.025997884400232457 0 0.076507038068280006 0.026028911509912343 0 0.075519107246069278 0.024418025840688914 0 0.076507038068280006 0.026028911509912343 0 0.076623728819771572 0.024635720083757851 0 0.075916409424110667 0.027359469481104418 0 0.077536797226406357 0.027783327984778332 0 0.076507038068280006 0.026028911509912343 0 0.075105784946293067 0.025997884400232457 0 0.075916409424110667 0.027359469481104418 0 0.076507038068280006 0.026028911509912343 0 0.077536797226406357 0.027783327984778332 0 0.077726260213461809 0.025805908953697321 0 0.076507038068280006 0.026028911509912343 0 0.075779426641892592 0.026309366655254993 0 0.076540053226434521 0.025245342451389405 0 0.014214090428322956 0.019343046497019782 0 0.011622923703727051 0.016823624331983388 0 0.014494488291168423 0.01426221194485509 0 0.011622923703727051 0.016823624331983388 0 0.010744394045375309 0.014228302447975518 0 0.014494488291168423 0.01426221194485509 0 0.014214090428322956 0.019343046497019782 0 0.0099331506389344383 0.019203535540452139 0 0.011622923703727051 0.016823624331983388 0 0.010752714514327775 0.022069545580297775 0 0.014214090428322956 0.019343046497019782 0 0.0099331506389344383 0.019203535540452139 0 0.0099331506389344383 0.019203535540452139 0 0.011622923703727051 0.016823624331983388 0 0.0087351716583289676 0.017105607859036673 0 0.0076713658499311787 0.014410544003570051 0 0.0087351716583289676 0.017105607859036673 0 0.010744394045375309 0.014228302447975518 0 0.011622923703727051 0.016823624331983388 0 0.0087351716583289676 0.017105607859036673 0 0.010744394045375309 0.014228302447975518 0 0.0076713658499311787 0.014410544003570051 0 0.0087351716583289676 0.017105607859036673 0 0.0048471170437012793 0.018306195449155658 0 0.038788442063911091 0.019646360276734918 0 0.042653686210451784 0.023151758521755487 0 0.07716793844651286 0.024084894329436394 0 0.077319209627855504 0.024234043498310306 0 0.077186100703085819 0.024106714152287798 0 0.0099331506389344383 0.019203535540452139 0 0.0087351716583289676 0.017105607859036673 0 0.006942734789656433 0.01973262827001104 0 0.0087351716583289676 0.017105607859036673 0 0.006942734789656433 0.01973262827001104 0 0.0048471170437012793 0.018306195449155658 0 0.0083764978673139517 0.021430671451907642 0 0.0099331506389344383 0.019203535540452139 0 0.006942734789656433 0.01973262827001104 0 0.075939371490353832 0.026333988576546671 0 0.077319209627855504 0.024234043498310306 0 0.076931913939197225 0.024639665951418685 0 0.0046959583474361693 0.021215215622581697 0 0.006942734789656433 0.01973262827001104 0 0.0048471170437012793 0.018306195449155658 0 0.077319209627855504 0.024234043498310306 0 0.077032300770933648 0.024356068383524939 0 0.077132035846024127 0.024182109916945388 0 0.076975772455603858 0.024489233127804062 0 0.076931913939197225 0.024639665951418685 0 0.077032300770933648 0.024356068383524939 0 0.077319209627855504 0.024234043498310306 0 0.076931913939197225 0.024639665951418685 0 0.077032300770933648 0.024356068383524939 0 0.077010946527606955 0.024354400875470382 0 0.077032300770933648 0.024356068383524939 0 0.077132035846024127 0.024182109916945388 0 0.077132035846024127 0.024182109916945388 0 0.077186100703085819 0.024106714152287798 0 0.077168791614318652 0.024067041825623581 0 0.077319209627855504 0.024234043498310306 0 0.077132035846024127 0.024182109916945388 0 0.077186100703085819 0.024106714152287798 0 0.077186100703085819 0.024106714152287798 0 0.077168791614318652 0.024067041825623581 0 0.077170271642967386 0.024028894450570246 0 0.077168791614318652 0.024067041825623581 0 0.077185093464285884 0.024025347580273415 0 0.077170271642967386 0.024028894450570246 0 0.077206784525576194 0.024005337140743637 0 0.077168791614318652 0.024067041825623581 0 0.077185093464285884 0.024025347580273415 0 0.077196694602256019 0.024000489435380884 0 0.077170271642967386 0.024028894450570246 0 0.07715719539632207 0.024002043517749188 0 0.077206784525576194 0.024005337140743637 0 0.077185093464285884 0.024025347580273415 0 0.077196694602256019 0.024000489435380884 0 0.077206784525576194 0.024005337140743637 0 0.077196694602256019 0.024000489435380884 0 0.07725634604299661 0.023982010159218074 0 0.077185093464285884 0.024025347580273415 0 0.077196694602256019 0.024000489435380884 0 0.077170271642967386 0.024028894450570246 0 0.02997643322050959 0.020800928051872107 0 0.047170647107629506 0.022445020820436427 0 0.077170271642967386 0.024028894450570246 0 0.077096028014671192 0.024025921207538159 0 0.07715719539632207 0.024002043517749188 0 0.07716793844651286 0.024084894329436394 0 0.077170271642967386 0.024028894450570246 0 0.077096028014671192 0.024025921207538159 0 0.07716793844651286 0.024084894329436394 0 0.077186100703085819 0.024106714152287798 0 0.077170271642967386 0.024028894450570246 0 0.010744394045375309 0.014228302447975518 0 0.010414562329302825 0.010462147954191977 0 0.014494488291168423 0.01426221194485509 0 0.0076713658499311787 0.014410544003570051 0 0.010744394045375309 0.014228302447975518 0 0.010414562329302825 0.010462147954191977 0 0.038788442063911091 0.019646360276734918 0 0.02997643322050959 0.020800928051872107 0 0.018491178534577411 0.016615157456292187 0 0.017911356455990218 0.016590358282858046 0 0.019960226526294571 0.018914455659497183 0 0.018491178534577411 0.016615157456292187 0 0.018702747067598446 0.0162820434069798 0 0.019960226526294571 0.018914455659497183 0 0.018491178534577411 0.016615157456292187 0 0.018381660799938575 0.016474961517929151 0 0.017911356455990218 0.016590358282858046 0 0.029908501628163508 0.020816575247838361 0 0.02997643322050959 0.020800928051872107 0 0.018381660799938575 0.016474961517929151 0 0.017911356455990218 0.016590358282858046 0 0.018065644057562787 0.016754014106827284 0 0.017911356455990218 0.016590358282858046 0 0.018234756055644761 0.016295719936519789 0 0.018058858980940378 0.015815849134811513 0 0.017911356455990218 0.016590358282858046 0 0.018234756055644761 0.016295719936519789 0 0.018065644057562787 0.016754014106827284 0 0.018234756055644761 0.016295719936519789 0 0.018065644057562787 0.016754014106827284 0 0.018596169568436897 0.016624205382390421 0 0.018381660799938575 0.016474961517929151 0 0.018065644057562787 0.016754014106827284 0 0.018001632303537116 0.017304244958875992 0 0.018065644057562787 0.016754014106827284 0 0.018001632303537116 0.017304244958875992 0 0.018596169568436897 0.016624205382390421 0 0.02997643322050959 0.020800928051872107 0 0.020014104240194657 0.015489747776749725 0 0.017697944605875243 0.014838125598572373 0 0.018133150162274438 0.015133658941213126 0 0.018678543856864814 0.014175057733268404 0 0.017697944605875243 0.014838125598572373 0 0.017290658386733496 0.014559158749632678 0 0.018678543856864814 0.014175057733268404 0 0.017697944605875243 0.014838125598572373 0 0.018133150162274438 0.015133658941213126 0 0.017701521998062051 0.015347946410046687 0 0.018133150162274438 0.015133658941213126 0 0.018058858980940378 0.015815849134811513 0 0.01858036836142813 0.015426304939565497 0 0.018234756055644761 0.016295719936519789 0 0.018058858980940378 0.015815849134811513 0 0.01858036836142813 0.015426304939565497 0 0.017911356455990218 0.016590358282858046 0 0.018058858980940378 0.015815849134811513 0 0.017579099254510636 0.015858460381278573 0 0.018133150162274438 0.015133658941213126 0 0.018058858980940378 0.015815849134811513 0 0.017701521998062051 0.015347946410046687 0 0.018058858980940378 0.015815849134811513 0 0.017701521998062051 0.015347946410046687 0 0.017579099254510636 0.015858460381278573 0 0.017911356455990218 0.016590358282858046 0 0.017579099254510636 0.015858460381278573 0 0.016849555646227751 0.015532977658529908 0 0.017701521998062051 0.015347946410046687 0 0.017335783452080141 0.01545786752550154 0 0.017206091585763077 0.015109869158335067 0 0.02272775930084435 0.013580515578897561 0 0.025685773124331325 0.013807520313887964 0 0.017701521998062051 0.015347946410046687 0 0.017335783452080141 0.01545786752550154 0 0.017579099254510636 0.015858460381278573 0 0.017335783452080141 0.01545786752550154 0 0.017579099254510636 0.015858460381278573 0 0.016849555646227751 0.015532977658529908 0 0.017335783452080141 0.01545786752550154 0 0.017206091585763077 0.015109869158335067 0 0.016849555646227751 0.015532977658529908 0 0.017206091585763077 0.015109869158335067 0 0.016899793187587137 0.015121481107947286 0 0.016849555646227751 0.015532977658529908 0 0.017206091585763077 0.015109869158335067 0 0.016905489208613039 0.014851873076642581 0 0.016899793187587137 0.015121481107947286 0 0.017697944605875243 0.014838125598572373 0 0.017701521998062051 0.015347946410046687 0 0.017206091585763077 0.015109869158335067 0 0.017697944605875243 0.014838125598572373 0 0.017206091585763077 0.015109869158335067 0 0.017227439795929715 0.014822290025443103 0 0.017697944605875243 0.014838125598572373 0 0.017227439795929715 0.014822290025443103 0 0.017290658386733496 0.014559158749632678 0 0.017227439795929715 0.014822290025443103 0 0.016905489208613039 0.014851873076642581 0 0.017290658386733496 0.014559158749632678 0 0.017206091585763077 0.015109869158335067 0 0.017227439795929715 0.014822290025443103 0 0.016905489208613039 0.014851873076642581 0 0.016905489208613039 0.014851873076642581 0 0.016646245509239838 0.014990935847392174 0 0.016093602506499091 0.01473892145361844 0 0.016905489208613039 0.014851873076642581 0 0.016093602506499091 0.01473892145361844 0 0.017290658386733496 0.014559158749632678 0 0.040414174938628922 0.018113633345656351 0 0.024739860145365489 0.015693611944957716 0 0.016646245509239838 0.014990935847392174 0 0.016849555646227751 0.015532977658529908 0 0.016093602506499091 0.01473892145361844 0 0.025685773124331325 0.013807520313887964 0 0.040414174938628922 0.018113633345656351 0 0.016646245509239838 0.014990935847392174 0 0.016899793187587137 0.015121481107947286 0 0.016849555646227751 0.015532977658529908 0 0.016905489208613039 0.014851873076642581 0 0.016646245509239838 0.014990935847392174 0 0.016899793187587137 0.015121481107947286 0 0.019960226526294571 0.018914455659497183 0 0.021678654608142355 0.018547221092445595 0 0.023151671147491334 0.021799676286944469 0 0.018702747067598446 0.0162820434069798 0 0.019960226526294571 0.018914455659497183 0 0.021678654608142355 0.018547221092445595 0 0.07715719539632207 0.024002043517749188 0 0.077228006934257798 0.023989838093887581 0 0.077303992311212946 0.023984251509410203 0 0.077196694602256019 0.024000489435380884 0 0.07715719539632207 0.024002043517749188 0 0.077228006934257798 0.023989838093887581 0 0.077196694602256019 0.024000489435380884 0 0.077228006934257798 0.023989838093887581 0 0.07725634604299661 0.023982010159218074 0 0.047170647107629506 0.022445020820436427 0 0.059685052692880637 0.022208764555322183 0 0.021678654608142355 0.018547221092445595 0 0.023151671147491334 0.021799676286944469 0 0.02525257016947105 0.021564832641410486 0 0.040414174938628922 0.018113633345656351 0 0.059685052692880637 0.022208764555322183 0 0.034999491298405926 0.013167473268070952 0 0.035603390825898681 0.014995944192926523 0 0.039787335238379996 0.014718151567694666 0 0.034430129146636464 0.0099245157382363697 0 0.034999491298405926 0.013167473268070952 0 0.039787335238379996 0.014718151567694666 0 0.034430129146636464 0.0099245157382363697 0 0.034999491298405926 0.013167473268070952 0 0.032335527286359113 0.012149492624948782 0 0.032837432846283036 0.01405498742690009 0 0.034999491298405926 0.013167473268070952 0 0.032335527286359113 0.012149492624948782 0 0.032837432846283036 0.01405498742690009 0 0.034999491298405926 0.013167473268070952 0 0.035603390825898681 0.014995944192926523 0 0.035603390825898681 0.014995944192926523 0 0.033539874263685723 0.016582340339758337 0 0.037059890134142841 0.017669097690932004 0 0.033539874263685723 0.016582340339758337 0 0.037059890134142841 0.017669097690932004 0 0.033397403885458886 0.019602149041625463 0 0.032837432846283036 0.01405498742690009 0 0.035603390825898681 0.014995944192926523 0 0.033539874263685723 0.016582340339758337 0 0.032837432846283036 0.01405498742690009 0 0.033539874263685723 0.016582340339758337 0 0.030697744226644615 0.015070034589312982 0 0.033539874263685723 0.016582340339758337 0 0.030697744226644615 0.015070034589312982 0 0.030861579256513883 0.017749948010498715 0 0.033539874263685723 0.016582340339758337 0 0.030861579256513883 0.017749948010498715 0 0.033397403885458886 0.019602149041625463 0 0.030861579256513883 0.017749948010498715 0 0.028171128947979733 0.0159053645173583 0 0.028340024561238152 0.018819660575346536 0 0.030861579256513883 0.017749948010498715 0 0.028340024561238152 0.018819660575346536 0 0.030220956084282755 0.020521863673262166 0 0.030697744226644615 0.015070034589312982 0 0.030861579256513883 0.017749948010498715 0 0.028171128947979733 0.0159053645173583 0 0.034430129146636464 0.0099245157382363697 0 0.029892044182717851 0.012065936259242004 0 0.026205322420864284 0.011106090161322463 0 0.030697744226644615 0.015070034589312982 0 0.028731079650536877 0.013563022751114862 0 0.028171128947979733 0.0159053645173583 0 0.034430129146636464 0.0099245157382363697 0 0.032335527286359113 0.012149492624948782 0 0.029892044182717851 0.012065936259242004 0 0.028731079650536877 0.013563022751114862 0 0.030574121866690378 0.013292399832570703 0 0.029892044182717851 0.012065936259242004 0 0.030697744226644615 0.015070034589312982 0 0.028731079650536877 0.013563022751114862 0 0.030574121866690378 0.013292399832570703 0 0.032837432846283036 0.01405498742690009 0 0.030574121866690378 0.013292399832570703 0 0.032335527286359113 0.012149492624948782 0 0.032837432846283036 0.01405498742690009 0 0.030697744226644615 0.015070034589312982 0 0.030574121866690378 0.013292399832570703 0 0.030574121866690378 0.013292399832570703 0 0.032335527286359113 0.012149492624948782 0 0.029892044182717851 0.012065936259242004 0 0.028731079650536877 0.013563022751114862 0 0.029892044182717851 0.012065936259242004 0 0.027176418304288026 0.012251200617508154 0 0.029892044182717851 0.012065936259242004 0 0.027176418304288026 0.012251200617508154 0 0.026205322420864284 0.011106090161322463 0 0.027176418304288026 0.012251200617508154 0 0.026409902887000455 0.011902272532268209 0 0.026410203863638928 0.012720921297956827 0 0.027176418304288026 0.012251200617508154 0 0.026409902887000455 0.011902272532268209 0 0.026205322420864284 0.011106090161322463 0 0.026410203863638928 0.012720921297956827 0 0.025844403229120932 0.011613708564753095 0 0.025450949388647462 0.014072679924147121 0 0.026409902887000455 0.011902272532268209 0 0.026205322420864284 0.011106090161322463 0 0.025844403229120932 0.011613708564753095 0 0.026409902887000455 0.011902272532268209 0 0.026410203863638928 0.012720921297956827 0 0.025844403229120932 0.011613708564753095 0 0.026410203863638928 0.012720921297956827 0 0.025450949388647462 0.014072679924147121 0 0.027002560380494135 0.01396627088414122 0 0.025450949388647462 0.014072679924147121 0 0.027002560380494135 0.01396627088414122 0 0.026207793868281662 0.015507139504723778 0 0.028731079650536877 0.013563022751114862 0 0.027002560380494135 0.01396627088414122 0 0.028171128947979733 0.0159053645173583 0 0.027176418304288026 0.012251200617508154 0 0.026410203863638928 0.012720921297956827 0 0.027002560380494135 0.01396627088414122 0 0.028731079650536877 0.013563022751114862 0 0.027176418304288026 0.012251200617508154 0 0.027002560380494135 0.01396627088414122 0 0.028171128947979733 0.0159053645173583 0 0.026061912752504895 0.017756210068548266 0 0.026207793868281662 0.015507139504723778 0 0.027002560380494135 0.01396627088414122 0 0.028171128947979733 0.0159053645173583 0 0.026207793868281662 0.015507139504723778 0 0.028171128947979733 0.0159053645173583 0 0.028340024561238152 0.018819660575346536 0 0.026061912752504895 0.017756210068548266 0 0.026061912752504895 0.017756210068548266 0 0.024377844934990154 0.016194634461163124 0 0.023325474257749623 0.017993603088189956 0 0.025450949388647462 0.014072679924147121 0 0.026207793868281662 0.015507139504723778 0 0.024377844934990154 0.016194634461163124 0 0.026061912752504895 0.017756210068548266 0 0.026207793868281662 0.015507139504723778 0 0.024377844934990154 0.016194634461163124 0 0.024377844934990154 0.016194634461163124 0 0.023325474257749623 0.017993603088189956 0 0.022000461422073167 0.015711766853638905 0 0.025450949388647462 0.014072679924147121 0 0.024377844934990154 0.016194634461163124 0 0.022000461422073167 0.015711766853638905 0 0.023325474257749623 0.017993603088189956 0 0.022000461422073167 0.015711766853638905 0 0.018358658129016405 0.019447741499151038 0 0.025844403229120932 0.011613708564753095 0 0.023365933780343434 0.013575067647794621 0 0.021917322934309688 0.01212832183112501 0 0.026205322420864284 0.011106090161322463 0 0.025844403229120932 0.011613708564753095 0 0.021917322934309688 0.01212832183112501 0 0.024739860145365489 0.015693611944957716 0 0.021478925124374652 0.014530408014261439 0 0.026365187679957339 0.013834562612902879 0 0.026717752558194148 0.014044238045402901 0 0.025844403229120932 0.011613708564753095 0 0.025450949388647462 0.014072679924147121 0 0.022000461422073167 0.015711766853638905 0 0.076010250865097662 0.023038673167191718 0 0.077242003309351784 0.022350050238816976 0 0.076701791376312584 0.022036703661285791 0 0.075146769513907419 0.022113559856647678 0 0.073509730110336846 0.02195932936617271 0 0.076010250865097662 0.023038673167191718 0 0.076943050121149548 0.023860667378331233 0 0.077358105987979639 0.023662893155854042 0 0.076010250865097662 0.023038673167191718 0 0.076701791376312584 0.022036703661285791 0 0.076021847910871063 0.021671319075323218 0 0.074663949966784271 0.022260231442221227 0 0.076010250865097662 0.023038673167191718 0 0.076021847910871063 0.021671319075323218 0 0.075519107246069278 0.024418025840688914 0 0.076010250865097662 0.023038673167191718 0 0.076623728819771572 0.024635720083757851 0 0.076010250865097662 0.023038673167191718 0 0.076623728819771572 0.024635720083757851 0 0.076943050121149548 0.023860667378331233 0 0.076623728819771572 0.024635720083757851 0 0.076943050121149548 0.023860667378331233 0 0.077461470048839118 0.024043935045673769 0 0.076943050121149548 0.023860667378331233 0 0.077461470048839118 0.024043935045673769 0 0.077358105987979639 0.023662893155854042 0 0.077209880923933674 0.023999007880276396 0 0.077461470048839118 0.024043935045673769 0 0.077276710932231304 0.023990723702358534 0 0.077461470048839118 0.024043935045673769 0 0.077276710932231304 0.023990723702358534 0 0.077363876667054562 0.023963005313803788 0 0.077461470048839118 0.024043935045673769 0 0.077363876667054562 0.023963005313803788 0 0.077358105987979639 0.023662893155854042 0 0.077228006934257798 0.023989838093887581 0 0.07725634604299661 0.023982010159218074 0 0.077303992311212946 0.023984251509410203 0 0.077206784525576194 0.024005337140743637 0 0.07725634604299661 0.023982010159218074 0 0.077276710932231304 0.023990723702358534 0 0.07725634604299661 0.023982010159218074 0 0.077276710932231304 0.023990723702358534 0 0.077363876667054562 0.023963005313803788 0 0.07725634604299661 0.023982010159218074 0 0.077363876667054562 0.023963005313803788 0 0.077303992311212946 0.023984251509410203 0 0.077363876667054562 0.023963005313803788 0 0.077303992311212946 0.023984251509410203 0 0.077358105987979639 0.023662893155854042 0 0.078274768224886396 0.022118777504592072 0 0.077242003309351784 0.022350050238816976 0 0.077694155564211997 0.021543354733773321 0 0.059685052692880637 0.022208764555322183 0 0.073509730110336846 0.02195932936617271 0 0.077242003309351784 0.022350050238816976 0 0.077210103704093883 0.021744533866036645 0 0.077694155564211997 0.021543354733773321 0 0.077694155564211997 0.021543354733773321 0 0.077728739370046374 0.021474090186448407 0 0.077569998982220709 0.021298392290454042 0 0.077694155564211997 0.021543354733773321 0 0.077344990995544566 0.021311024182805862 0 0.077569998982220709 0.021298392290454042 0 0.077210103704093883 0.021744533866036645 0 0.077694155564211997 0.021543354733773321 0 0.077344990995544566 0.021311024182805862 0 0.040414174938628922 0.018113633345656351 0 0.054835105856196005 0.019346940604704103 0 0.077546642508941596 0.02138482899026432 0 0.077694155564211997 0.021543354733773321 0 0.077728739370046374 0.021474090186448407 0 0.077351731682490807 0.021409409658405067 0 0.077546642508941596 0.02138482899026432 0 0.077728739370046374 0.021474090186448407 0 0.059685052692880637 0.022208764555322183 0 0.064759278945066626 0.024606890607849069 0 0.039787335238379996 0.014718151567694666 0 0.040326691006136964 0.018388541146355433 0 0.037059890134142841 0.017669097690932004 0 0.035603390825898681 0.014995944192926523 0 0.039787335238379996 0.014718151567694666 0 0.037059890134142841 0.017669097690932004 0 0.039787335238379996 0.014718151567694666 0 0.040326691006136964 0.018388541146355433 0 0.043517301128916566 0.018017621866130804 0 0.040326691006136964 0.018388541146355433 0 0.043517301128916566 0.018017621866130804 0 0.045340207332670496 0.019655151634426243 0 0.077344990995544566 0.021311024182805862 0 0.0774802879365971 0.020784622259535795 0 0.076989389968174685 0.020915517982885958 0 0.077344990995544566 0.021311024182805862 0 0.077569998982220709 0.021298392290454042 0 0.0774802879365971 0.020784622259535795 0 0.054835105856196005 0.019346940604704103 0 0.060505276025750253 0.018388668825982463 0 0.077728739370046374 0.021474090186448407 0 0.077569998982220709 0.021298392290454042 0 0.0774802879365971 0.020784622259535795 0 0.060505276025750253 0.018388668825982463 0 0.063026342882748373 0.017692817765327565 0 0.0774802879365971 0.020784622259535795 0 0.076989389968174685 0.020915517982885958 0 0.077192216311353548 0.020440963565728731 0 0.076989389968174685 0.020915517982885958 0 0.076017246940097288 0.020519382198907813 0 0.077192216311353548 0.020440963565728731 0 0.070144369634018017 0.016917521937932653 0 0.063026342882748373 0.017692817765327565 0 0.076989389968174685 0.020915517982885958 0 0.076813942149700332 0.021414798711684273 0 0.076017246940097288 0.020519382198907813 0 0.077344990995544566 0.021311024182805862 0 0.076989389968174685 0.020915517982885958 0 0.076813942149700332 0.021414798711684273 0 0.077210103704093883 0.021744533866036645 0 0.077344990995544566 0.021311024182805862 0 0.076813942149700332 0.021414798711684273 0 0.076813942149700332 0.021414798711684273 0 0.076701791376312584 0.022036703661285791 0 0.076021847910871063 0.021671319075323218 0 0.077242003309351784 0.022350050238816976 0 0.077210103704093883 0.021744533866036645 0 0.076701791376312584 0.022036703661285791 0 0.077210103704093883 0.021744533866036645 0 0.076813942149700332 0.021414798711684273 0 0.076701791376312584 0.022036703661285791 0 0.076813942149700332 0.021414798711684273 0 0.076021847910871063 0.021671319075323218 0 0.076017246940097288 0.020519382198907813 0 0.075025405705894221 0.020839362393915099 0 0.076021847910871063 0.021671319075323218 0 0.076017246940097288 0.020519382198907813 0 0.076017246940097288 0.020519382198907813 0 0.075991290060371017 0.019459134391998468 0 0.077370858072813076 0.019674722401383724 0 0.076017246940097288 0.020519382198907813 0 0.075991290060371017 0.019459134391998468 0 0.075150189252305502 0.01984781322180473 0 0.067235773731926782 0.014095819269059963 0 0.069076613226596806 0.012776957226469886 0 0.075991290060371017 0.019459134391998468 0 0.076312342889422027 0.018511651833227803 0 0.075150399987404498 0.018986202759546284 0 0.067355984259217572 0.013108277125230314 0 0.068077280145552074 0.013127834230650288 0 0.067850677398273856 0.013323066709233573 0 0.067355984259217572 0.013108277125230314 0 0.06771014354904939 0.013488177074052319 0 0.067850677398273856 0.013323066709233573 0 0.064896035810292463 0.012908298727935424 0 0.065285972423002978 0.014515119152777138 0 0.067043727065675213 0.015232484837105256 0 0.064896035810292463 0.012908298727935424 0 0.065285972423002978 0.014515119152777138 0 0.063760842267505072 0.014203686997833956 0 0.067235773731926782 0.014095819269059963 0 0.067190076073844779 0.011542136573801355 0 0.067235773731926782 0.014095819269059963 0 0.063773913871097862 0.013713777904242641 0 0.065033704749386356 0.012948543919904704 0 0.061783253507687055 0.012839557540802677 0 0.062025475719467753 0.0096921400113948886 0 0.064896035810292463 0.012908298727935424 0 0.063760842267505072 0.014203686997833956 0 0.061746540724121078 0.0128087404730368 0 0.063760842267505072 0.014203686997833956 0 0.061746540724121078 0.0128087404730368 0 0.060919840518835519 0.01468936541783962 0 0.075991290060371017 0.019459134391998468 0 0.076312342889422027 0.018511651833227803 0 0.077370858072813076 0.019674722401383724 0 0.067235773731926782 0.014095819269059963 0 0.064333891633110721 0.017161112550001505 0 0.076017246940097288 0.020519382198907813 0 0.077370858072813076 0.019674722401383724 0 0.077625533927887153 0.019957180527872015 0 0.061783253507687055 0.012839557540802677 0 0.062025475719467753 0.0096921400113948886 0 0.061284610716389694 0.0088901505292590787 0 0.064333891633110721 0.017161112550001505 0 0.063026342882748373 0.017692817765327565 0 0.061783253507687055 0.012839557540802677 0 0.05972929067609592 0.010700196136319231 0 0.061284610716389694 0.0088901505292590787 0 0.063026342882748373 0.017692817765327565 0 0.049363393214035808 0.015584475946320571 0 0.05972929067609592 0.010700196136319231 0 0.061284610716389694 0.0088901505292590787 0 0.055874308861142252 0.010262018298626932 0 0.040326691006136964 0.018388541146355433 0 0.045340207332670496 0.019655151634426243 0 0.037830346812022859 0.021537462477387678 0 0.05972929067609592 0.010700196136319231 0 0.055874308861142252 0.010262018298626932 0 0.058530872024989418 0.012717252723579226 0 0.040326691006136964 0.018388541146355433 0 0.037059890134142841 0.017669097690932004 0 0.037830346812022859 0.021537462477387678 0 0.055874308861142252 0.010262018298626932 0 0.055755786532580787 0.013256143182290967 0 0.058530872024989418 0.012717252723579226 0 0.055013786387754386 0.010272312119650911 0 0.060195553486220958 0.010069197711314412 0 0.057232595265537103 0.0033076394205795324 0 0.059902890994468015 0.00410111075998453 0 0.058675781388897563 0.0046762617418877311 0 0.055755786532580787 0.013256143182290967 0 0.058530872024989418 0.012717252723579226 0 0.060919840518835519 0.01468936541783962 0 0.063773913871097862 0.013713777904242641 0 0.062369863829146215 0.013584472940243441 0 0.061746540724121078 0.0128087404730368 0 0.058530872024989418 0.012717252723579226 0 0.060919840518835519 0.01468936541783962 0 0.061783253507687055 0.012839557540802677 0 0.05972929067609592 0.010700196136319231 0 0.058530872024989418 0.012717252723579226 0 0.059902890994468015 0.00410111075998453 0 0.058675781388897563 0.0046762617418877311 0 0.059668640133802679 0.0053176041534962384 0 0.058675781388897563 0.0046762617418877311 0 0.059668640133802679 0.0053176041534962384 0 0.058768551026209176 0.0056514660289079038 0 0.059902890994468015 0.00410111075998453 0 0.059668640133802679 0.0053176041534962384 0 0.060757492036116301 0.0053778216020324834 0 0.057232595265537103 0.0033076394205795324 0 0.05770982601766321 0.00488398364567181 0 0.056837764316258893 0.004221607884494224 0 0.057232595265537103 0.0033076394205795324 0 0.058675781388897563 0.0046762617418877311 0 0.05770982601766321 0.00488398364567181 0 0.05770982601766321 0.00488398364567181 0 0.057854219982127322 0.0057219233247957132 0 0.058768551026209176 0.0056514660289079038 0 0.058675781388897563 0.0046762617418877311 0 0.05770982601766321 0.00488398364567181 0 0.058768551026209176 0.0056514660289079038 0 0.05770982601766321 0.00488398364567181 0 0.057854219982127322 0.0057219233247957132 0 0.05677230878920788 0.0055685864557264916 0 0.05770982601766321 0.00488398364567181 0 0.056837764316258893 0.004221607884494224 0 0.05677230878920788 0.0055685864557264916 0 0.058284634705537124 0.0066766882564626628 0 0.05677230878920788 0.0055685864557264916 0 0.057812480925724233 0.007883664917078809 0 0.056338267179415584 0.0049590524692569322 0 0.055791041476935248 0.0037193107734606388 0 0.057854219982127322 0.0057219233247957132 0 0.058284634705537124 0.0066766882564626628 0 0.05677230878920788 0.0055685864557264916 0 0.057854219982127322 0.0057219233247957132 0 0.058284634705537124 0.0066766882564626628 0 0.058768551026209176 0.0056514660289079038 0 0.058284634705537124 0.0066766882564626628 0 0.059869503840759529 0.0063574290376073308 0 0.059824466392441503 0.0078442878017966934 0 0.058284634705537124 0.0066766882564626628 0 0.058768551026209176 0.0056514660289079038 0 0.059869503840759529 0.0063574290376073308 0 0.059668640133802679 0.0053176041534962384 0 0.058768551026209176 0.0056514660289079038 0 0.059869503840759529 0.0063574290376073308 0 0.059668640133802679 0.0053176041534962384 0 0.059869503840759529 0.0063574290376073308 0 0.060757492036116301 0.0053778216020324834 0 0.059869503840759529 0.0063574290376073308 0 0.061404308689523374 0.00670355557966634 0 0.059824466392441503 0.0078442878017966934 0 0.059869503840759529 0.0063574290376073308 0 0.061404308689523374 0.00670355557966634 0 0.060757492036116301 0.0053778216020324834 0 0.061404308689523374 0.00670355557966634 0 0.061748862938111305 0.0057472839109591351 0 0.060757492036116301 0.0053778216020324834 0 0.061404308689523374 0.00670355557966634 0 0.062398905325555282 0.006014844618910704 0 0.062634383950339947 0.0074758198801133735 0 0.062398905325555282 0.006014844618910704 0 0.062634383950339947 0.0074758198801133735 0 0.063719711588928668 0.0052716909781682269 0 0.061404308689523374 0.00670355557966634 0 0.062398905325555282 0.006014844618910704 0 0.061748862938111305 0.0057472839109591351 0 0.062398905325555282 0.006014844618910704 0 0.061748862938111305 0.0057472839109591351 0 0.062432949385345139 0.0048953206066541478 0 0.06700503657251819 0.0099975732562593775 0 0.067055734633065675 0.0099819860988947171 0 0.067093261282264158 0.010019560236445738 0 0.062398905325555282 0.006014844618910704 0 0.062432949385345139 0.0048953206066541478 0 0.063719711588928668 0.0052716909781682269 0 0.065306355761229409 0.010333277557348138 0 0.067179073629664007 0.010209525262496555 0 0.065285972423002978 0.014515119152777138 0 0.065947036982692483 0.016089394431657602 0 0.067042100912759681 0.015229938486222566 0 0.067139421838457475 0.011667152597105362 0 0.067190076073844779 0.011542136573801355 0 0.065947036982692483 0.016089394431657602 0 0.067042100912759681 0.015229938486222566 0 0.067422494942083008 0.015641815622891787 0 0.065306355761229409 0.010333277557348138 0 0.06701740611424932 0.011140110327852469 0 0.067190076073844779 0.011542136573801355 0 0.06701740611424932 0.011140110327852469 0 0.065285972423002978 0.014515119152777138 0 0.063760842267505072 0.014203686997833956 0 0.065947036982692483 0.016089394431657602 0 0.060195553486220958 0.010069197711314412 0 0.065306355761229409 0.010333277557348138 0 0.061748862938111305 0.0057472839109591351 0 0.062432949385345139 0.0048953206066541478 0 0.060757492036116301 0.0053778216020324834 0 0.059902890994468015 0.00410111075998453 0 0.062499023314962224 0.0048776199075658286 0 0.060757492036116301 0.0053778216020324834 0 0.065306355761229409 0.010333277557348138 0 0.064205447141143956 0.0098858571071517177 0 0.063760842267505072 0.014203686997833956 0 0.060919840518835519 0.01468936541783962 0 0.065947036982692483 0.016089394431657602 0 0.044316668355106469 0.0010224438857944795 0 0.04459003747959428 0.0019242930527561724 0 0.043191617075571072 0.001286447959480285 0 0.044316668355106469 0.0010224438857944795 0 0.044060885603103742 0.00022573776436714155 0 0.043191617075571072 0.001286447959480285 0 0.023325474257749623 0.017993603088189956 0 0.022348261749303686 0.020607588936470394 0 0.026358705474707277 0.021730260497674743 0 0.023325474257749623 0.017993603088189956 0 0.022348261749303686 0.020607588936470394 0 0.018358658129016405 0.019447741499151038 0 0.044316668355106469 0.0010224438857944795 0 0.044060885603103742 0.00022573776436714155 0 0.045114919579813569 0.00052431983494365532 0 0.035158745870610408 0.010015760713745539 0 0.040358501336348773 0.0095790311393653491 0 0.028340024561238152 0.018819660575346536 0 0.026061912752504895 0.017756210068548266 0 0.026544974067917351 0.022244573652137563 0 0.037620349820904612 0.010476659732253186 0 0.040358501336348773 0.0095790311393653491 0 0.026061912752504895 0.017756210068548266 0 0.023325474257749623 0.017993603088189956 0 0.026544974067917351 0.022244573652137563 0 0.028340024561238152 0.018819660575346536 0 0.026544974067917351 0.022244573652137563 0 0.030220956084282755 0.020521863673262166 0 0.040358501336348773 0.0095790311393653491 0 0.046194722300807241 0.011026890430019996 0 0.045114919579813569 0.00052431983494365532 0 0.046102104757023719 0.0017291995000825772 0 0.04459003747959428 0.0019242930527561724 0 0.044316668355106469 0.0010224438857944795 0 0.045114919579813569 0.00052431983494365532 0 0.04459003747959428 0.0019242930527561724 0 0.052702326283055267 0.0020828876972008238 0 0.053716107824167858 0.0027100743216183203 0 0.054416281006237091 0.0041045498257054587 0 0.040358501336348773 0.0095790311393653491 0 0.046592910028011567 0.0060828754608415331 0 0.054361941690836302 0.0025258154295748928 0 0.055615180431085952 0.0031088368672975049 0 0.054416281006237091 0.0041045498257054587 0 0.052702326283055267 0.0020828876972008238 0 0.054354176263462846 0.0025310024998666885 0 0.053716107824167858 0.0027100743216183203 0 0.046194722300807241 0.011026890430019996 0 0.046724318145210796 0.010782911168359256 0 0.054361941690836302 0.0025258154295748928 0 0.053716107824167858 0.0027100743216183203 0 0.054416281006237091 0.0041045498257054587 0 0.026544974067917351 0.022244573652137563 0 0.030593133654538827 0.023469781200800423 0 0.030220956084282755 0.020521863673262166 0 0.030861579256513883 0.017749948010498715 0 0.030220956084282755 0.020521863673262166 0 0.033397403885458886 0.019602149041625463 0 0.030593133654538827 0.023469781200800423 0 0.030220956084282755 0.020521863673262166 0 0.033397403885458886 0.019602149041625463 0 0.037830346812022859 0.021537462477387678 0 0.030593133654538827 0.023469781200800423 0 0.033397403885458886 0.019602149041625463 0 0.049363393214035808 0.015584475946320571 0 0.046194722300807241 0.011026890430019996 0 0.037059890134142841 0.017669097690932004 0 0.037830346812022859 0.021537462477387678 0 0.033397403885458886 0.019602149041625463 0 0.055874308861142252 0.010262018298626932 0 0.055755786532580787 0.013256143182290967 0 0.050519192488742669 0.011747322787426896 0 0.055013786387754386 0.010272312119650911 0 0.046194722300807241 0.011026890430019996 0 0.057232595265537103 0.0033076394205795324 0 0.054361941690836302 0.0025258154295748928 0 0.055615180431085952 0.0031088368672975049 0 0.057232595265537103 0.0033076394205795324 0 0.055615180431085952 0.0031088368672975049 0 0.056837764316258893 0.004221607884494224 0 0.056527649709619619 0.0055533824517365197 0 0.055980299687031713 0.0060083616265375252 0 0.054416281006237091 0.0041045498257054587 0 0.055615180431085952 0.0031088368672975049 0 0.056527649709619619 0.0055533824517365197 0 0.054416281006237091 0.0041045498257054587 0 0.055615180431085952 0.0031088368672975049 0 0.056837764316258893 0.004221607884494224 0 0.05677230878920788 0.0055685864557264916 0 0.056073923280295965 0.0042786926650341169 0 0.056338267179415584 0.0049590524692569322 0 0.056527649709619619 0.0055533824517365197 0 0.055980299687031713 0.0060083616265375252 0 0.057412534222537087 0.0077994641012097861 0 0.05122534087780916 0.0047609491448655211 0 0.055791041476935248 0.0037193107734606388 0 0.047080514525944368 0.002922683579401209 0 0.045879377215061509 0.0030858222770595201 0 0.046932478850063339 0.004012026832464554 0 0.047080514525944368 0.002922683579401209 0 0.045879377215061509 0.0030858222770595201 0 0.046102104757023719 0.0017291995000825772 0 0.05122534087780916 0.0047609491448655211 0 0.046592910028011567 0.0060828754608415331 0 0.045879377215061509 0.0030858222770595201 0 0.046102104757023719 0.0017291995000825772 0 0.04459003747959428 0.0019242930527561724 0 0.045879377215061509 0.0030858222770595201 0 0.044559182176483247 0.003573166402868891 0 0.04459003747959428 0.0019242930527561724 0 0.050252104643205404 -0.0042036052694158369 0 0.047549562670270037 -0.0024264311051206198 0 0.044559182176483247 0.003573166402868891 0 0.04459003747959428 0.0019242930527561724 0 0.043120959004638304 0.0027957801610010483 0 0.058451538709255103 -0.016577467712685087 0 0.058123447983255659 -0.016245203864367317 0 0.058213707053285824 -0.016961763829532531 0 0.059005541915590459 -0.0165460640112873 0 0.058743805853542809 -0.01657287941290388 0 0.058815927747847913 -0.01679462770582996 0 0.058743805853542809 -0.01657287941290388 0 0.058613965388738067 -0.016762256015783888 0 0.058815927747847913 -0.01679462770582996 0 0.058743805853542809 -0.01657287941290388 0 0.058964814924965782 -0.01635991308635289 0 0.0585394971693542 -0.016304512273701336 0 0.059005541915590459 -0.0165460640112873 0 0.058743805853542809 -0.01657287941290388 0 0.058964814924965782 -0.01635991308635289 0 0.058693106217072279 -0.015900473423979895 0 0.058964814924965782 -0.01635991308635289 0 0.059387387420282045 -0.016151458371783941 0 0.058693106217072279 -0.015900473423979895 0 0.058964814924965782 -0.01635991308635289 0 0.0585394971693542 -0.016304512273701336 0 0.050252104643205404 -0.0042036052694158369 0 0.051634818615168415 -0.0051221450186797954 0 0.045879377215061509 0.0030858222770595201 0 0.044559182176483247 0.003573166402868891 0 0.045988140885398127 0.0043318423402828867 0 0.058693106217072279 -0.015900473423979895 0 0.0585394971693542 -0.016304512273701336 0 0.058123447983255659 -0.016245203864367317 0 0.0585394971693542 -0.016304512273701336 0 0.058451538709255103 -0.016577467712685087 0 0.058123447983255659 -0.016245203864367317 0 0.058743805853542809 -0.01657287941290388 0 0.0585394971693542 -0.016304512273701336 0 0.058451538709255103 -0.016577467712685087 0 0.058743805853542809 -0.01657287941290388 0 0.058451538709255103 -0.016577467712685087 0 0.058613965388738067 -0.016762256015783888 0 0.058123447983255659 -0.016245203864367317 0 0.057647502227535743 -0.016508360928628309 0 0.058213707053285824 -0.016961763829532531 0 0.045879377215061509 0.0030858222770595201 0 0.045988140885398127 0.0043318423402828867 0 0.046932478850063339 0.004012026832464554 0 0.047080514525944368 0.002922683579401209 0 0.046932478850063339 0.004012026832464554 0 0.048039295493325126 0.0040930019374658295 0 0.046932478850063339 0.004012026832464554 0 0.047395853775332855 0.0050675764782022884 0 0.048039295493325126 0.0040930019374658295 0 0.045988140885398127 0.0043318423402828867 0 0.046932478850063339 0.004012026832464554 0 0.047395853775332855 0.0050675764782022884 0 0.051634818615168415 -0.0051221450186797954 0 0.052896335269305796 -0.0054810065148558004 0 0.057647502227535743 -0.016508360928628309 0 0.057628387492209443 -0.01699558475367751 0 0.058213707053285824 -0.016961763829532531 0 0.055363401860905895 -0.019926760024831718 0 0.054878972733874938 -0.020647094632814462 0 0.055800757892627992 -0.020675200960717784 0 0.055363401860905895 -0.019926760024831718 0 0.056633717052333936 -0.019652754152577084 0 0.055800757892627992 -0.020675200960717784 0 0.056633717052333936 -0.019652754152577084 0 0.056758227287139175 -0.020469789225376234 0 0.055800757892627992 -0.020675200960717784 0 0.056448114724910278 -0.016040536959342464 0 0.057347400298907759 -0.017395534504505358 0 0.058451538709255103 -0.016577467712685087 0 0.058213707053285824 -0.016961763829532531 0 0.058613965388738067 -0.016762256015783888 0 0.058213707053285824 -0.016961763829532531 0 0.058786147187607982 -0.016907857847125295 0 0.058613965388738067 -0.016762256015783888 0 0.057347400298907759 -0.017395534504505358 0 0.058265473088210271 -0.018132058695847695 0 0.056633717052333936 -0.019652754152577084 0 0.057277639376543697 -0.020097695802777413 0 0.05804243542275999 -0.019398967401165319 0 0.056633717052333936 -0.019652754152577084 0 0.056758227287139175 -0.020469789225376234 0 0.057277639376543697 -0.020097695802777413 0 0.056758227287139175 -0.020469789225376234 0 0.057277639376543697 -0.020097695802777413 0 0.057551369091935235 -0.02087641682691254 0 0.058502459833759728 -0.018134411859097168 0 0.0583348537719455 -0.01739478964590796 0 0.057550111700262994 -0.019871158599317269 0 0.057277639376543697 -0.020097695802777413 0 0.05804243542275999 -0.019398967401165319 0 0.057551369091935235 -0.02087641682691254 0 0.058265473088210271 -0.018132058695847695 0 0.057570443263696147 -0.020334277347144897 0 0.058502459833759728 -0.018134411859097168 0 0.058968360033512975 -0.018636760949113734 0 0.057550111700262994 -0.019871158599317269 0 0.058502459833759728 -0.018134411859097168 0 0.058956394788410457 -0.017699501024130329 0 0.058968360033512975 -0.018636760949113734 0 0.058502459833759728 -0.018134411859097168 0 0.0583348537719455 -0.01739478964590796 0 0.058488890354586751 -0.017372364788785656 0 0.058502459833759728 -0.018134411859097168 0 0.058488890354586751 -0.017372364788785656 0 0.058956394788410457 -0.017699501024130329 0 0.058488890354586751 -0.017372364788785656 0 0.058981704011461647 -0.017114945026388328 0 0.058956394788410457 -0.017699501024130329 0 0.058265473088210271 -0.018132058695847695 0 0.058266435272202564 -0.018131265580070405 0 0.058786147187607982 -0.016907857847125295 0 0.058613965388738067 -0.016762256015783888 0 0.058815927747847913 -0.01679462770582996 0 0.058265473088210271 -0.018132058695847695 0 0.058308531792658158 -0.01801693480005297 0 0.058358773745598877 -0.017387809006676466 0 0.058488890354586751 -0.017372364788785656 0 0.058815927747847913 -0.01679462770582996 0 0.058488890354586751 -0.017372364788785656 0 0.058815927747847913 -0.01679462770582996 0 0.058981704011461647 -0.017114945026388328 0 0.060578901536207708 0.0091322173837534402 0 0.061583943780575405 0.0096674763586379799 0 0.061180940400851758 0.008139120487764934 0 0.060578901536207708 0.0091322173837534402 0 0.059410674881456099 0.0097899103938862836 0 0.060898115673662885 0.010211693328230244 0 0.060578901536207708 0.0091322173837534402 0 0.061583943780575405 0.0096674763586379799 0 0.060898115673662885 0.010211693328230244 0 0.061583943780575405 0.0096674763586379799 0 0.06279785214726992 0.0092475560352028204 0 0.062105661019085698 0.010897078867739253 0 0.064143372947316993 0.0095393209586859696 0 0.065089657468349035 0.0091044203414884714 0 0.061583943780575405 0.0096674763586379799 0 0.06279785214726992 0.0092475560352028204 0 0.062614933205955556 0.0077033918910695848 0 0.06279785214726992 0.0092475560352028204 0 0.062614933205955556 0.0077033918910695848 0 0.06351545256893143 0.0076941571490644943 0 0.061583943780575405 0.0096674763586379799 0 0.062634383950339947 0.0074758198801133735 0 0.061180940400851758 0.008139120487764934 0 0.061404308689523374 0.00670355557966634 0 0.062634383950339947 0.0074758198801133735 0 0.061180940400851758 0.008139120487764934 0 0.061404308689523374 0.00670355557966634 0 0.061180940400851758 0.008139120487764934 0 0.059824466392441503 0.0078442878017966934 0 0.060578901536207708 0.0091322173837534402 0 0.061180940400851758 0.008139120487764934 0 0.059824466392441503 0.0078442878017966934 0 0.058284634705537124 0.0066766882564626628 0 0.059824466392441503 0.0078442878017966934 0 0.057812480925724233 0.007883664917078809 0 0.059824466392441503 0.0078442878017966934 0 0.057812480925724233 0.007883664917078809 0 0.059410674881456099 0.0097899103938862836 0 0.055791041476935248 0.0037193107734606388 0 0.055542715714573851 6.0997080919605495e-05 0 0.055791041476935248 0.0037193107734606388 0 0.058677648978799721 0.0031164213981574596 0 0.052896335269305796 -0.0054810065148558004 0 0.055471402422353606 -0.005075088255240558 0 0.057465175871960462 0.0010277370901972634 0 0.057258557183358434 0.00044742435167156262 0 0.056875507320535132 0.00021168690364758348 0 0.047395853775332855 0.0050675764782022884 0 0.048039295493325126 0.0040930019374658295 0 0.048397556561635913 0.0049448160637691639 0 0.047395853775332855 0.0050675764782022884 0 0.048397556561635913 0.0049448160637691639 0 0.048761961861473149 0.0057807492339483893 0 0.060578901536207708 0.0091322173837534402 0 0.059824466392441503 0.0078442878017966934 0 0.059410674881456099 0.0097899103938862836 0 0.055542715714573851 6.0997080919605495e-05 0 0.055471402422353606 -0.005075088255240558 0 0.057258557183358434 0.00044742435167156262 0 0.056875507320535132 0.00021168690364758348 0 0.057044944715309437 -0.00012092292404918201 0 0.055471402422353606 -0.005075088255240558 0 0.05989451471255821 -0.0011354560140085387 0 0.056875507320535132 0.00021168690364758348 0 0.057044944715309437 -0.00012092292404918201 0 0.056305379601257331 -0.0005739367902062631 0 0.056003107158014181 -0.0090079185523146595 0 0.056489304244046364 -0.0078267330376767703 0 0.05853984624749619 -0.007601469117167808 0 0.057217851789406159 -0.016756961986471173 0 0.057293429719137423 -0.016803504694702546 0 0.057168436424908382 -0.01690764741980124 0 0.055471402422353606 -0.005075088255240558 0 0.056241189000946636 -0.011295854834301964 0 0.056013619946131063 -0.011805978407852823 0 0.056241189000946636 -0.011295854834301964 0 0.057647502227535743 -0.016508360928628309 0 0.057628387492209443 -0.01699558475367751 0 0.057293429719137423 -0.016803504694702546 0 0.057647502227535743 -0.016508360928628309 0 0.057217851789406159 -0.016756961986471173 0 0.057293429719137423 -0.016803504694702546 0 0.057628387492209443 -0.01699558475367751 0 0.057293429719137423 -0.016803504694702546 0 0.057133415312347224 -0.01694633986359239 0 0.056448114724910278 -0.016040536959342464 0 0.056398428319840301 -0.01294160562780128 0 0.057628387492209443 -0.01699558475367751 0 0.05709343751175279 -0.017042569826804445 0 0.057133415312347224 -0.01694633986359239 0 0.055363401860905895 -0.019926760024831718 0 0.05425084721204268 -0.020130573052959046 0 0.054878972733874938 -0.020647094632814462 0 0.05798028010711663 -0.013340880709842639 0 0.057927282604669138 -0.013349758193617311 0 0.057893955491186866 -0.013580572998380107 0 0.056398428319840301 -0.01294160562780128 0 0.057129292856641055 -0.016594635000910851 0 0.057253679832234096 -0.0071381755986543588 0 0.056489304244046364 -0.0078267330376767703 0 0.05853984624749619 -0.007601469117167808 0 0.056398428319840301 -0.01294160562780128 0 0.056982883634189414 -0.012070964720014217 0 0.055335320798354598 -0.011680282131628323 0 0.055640670268914734 -0.011635106146923957 0 0.055186401776831234 -0.01204667027542637 0 0.056982883634189414 -0.012070964720014217 0 0.056241189000946636 -0.011295854834301964 0 0.056398428319840301 -0.01294160562780128 0 0.056241189000946636 -0.011295854834301964 0 0.05425084721204268 -0.020130573052959046 0 0.054411287828357018 -0.020710996128604251 0 0.054878972733874938 -0.020647094632814462 0 0.056982883634189414 -0.012070964720014217 0 0.057779372123470459 -0.011404169607040805 0 0.057253679832234096 -0.0071381755986543588 0 0.059368380090931046 -0.0068381625977955787 0 0.05853984624749619 -0.007601469117167808 0 0.05728094073993005 -0.0071681547758024799 0 0.059368380090931046 -0.0068381625977955787 0 0.059875952387529907 -0.0047866689131376271 0 0.059410674881456099 0.0097899103938862836 0 0.060949756431593699 0.011708081421777306 0 0.060898115673662885 0.010211693328230244 0 0.060949756431593699 0.011708081421777306 0 0.060898115673662885 0.010211693328230244 0 0.062105661019085698 0.010897078867739253 0 0.058677648978799721 0.0031164213981574596 0 0.05989451471255821 -0.0011354560140085387 0 0.061583943780575405 0.0096674763586379799 0 0.060898115673662885 0.010211693328230244 0 0.062105661019085698 0.010897078867739253 0 0.063057597627963743 0.0088704439011677572 0 0.062105661019085698 0.010897078867739253 0 0.063626554290802051 0.010368283374849201 0 0.062105661019085698 0.010897078867739253 0 0.062965373748241876 0.012895686068974033 0 0.063626554290802051 0.010368283374849201 0 0.0649166898593901 0.0097013259388670208 0 0.064323247198844538 0.010249724667522784 0 0.060949756431593699 0.011708081421777306 0 0.062105661019085698 0.010897078867739253 0 0.062965373748241876 0.012895686068974033 0 0.05989451471255821 -0.0011354560140085387 0 0.063325974821253531 -0.0036694727422606427 0 0.059368380090931046 -0.0068381625977955787 0 0.05853984624749619 -0.007601469117167808 0 0.060943127033745943 -0.0062544881825633298 0 0.063325974821253531 -0.0036694727422606427 0 0.067831339304992008 0.0035646742399237565 0 0.080346204857402792 0.00015610345138910878 0 0.078000779429966013 0.00070560353030460509 0 0.078279902373072349 0.0030894357462203257 0 0.078000779429966013 0.00070560353030460509 0 0.076288864891349076 8.563020939838629e-05 0 0.076899824597561284 0.0020634693664284528 0 0.078000779429966013 0.00070560353030460509 0 0.076899824597561284 0.0020634693664284528 0 0.078279902373072349 0.0030894357462203257 0 0.076899824597561284 0.0020634693664284528 0 0.078279902373072349 0.0030894357462203257 0 0.076526873377323626 0.0039186397447149137 0 0.062965373748241876 0.012895686068974033 0 0.064896167081756939 0.010349424239247462 0 0.063626554290802051 0.010368283374849201 0 0.064896167081756939 0.010349424239247462 0 0.063626554290802051 0.010368283374849201 0 0.064347375170188764 0.0095740442698727096 0 0.063626554290802051 0.010368283374849201 0 0.063830895996838541 0.0086098510509476315 0 0.064347375170188764 0.0095740442698727096 0 0.065517566576994216 0.0093414332267102301 0 0.065742482463754678 0.00905056877931271 0 0.063057597627963743 0.0088704439011677572 0 0.063626554290802051 0.010368283374849201 0 0.063803772448877583 0.0086178865605665289 0 0.063830895996838541 0.0086098510509476315 0 0.065034889845230703 0.0089713206576939458 0 0.064758636825990937 0.0078902856114156285 0 0.063830895996838541 0.0086098510509476315 0 0.065034889845230703 0.0089713206576939458 0 0.064347375170188764 0.0095740442698727096 0 0.064896167081756939 0.010349424239247462 0 0.065034889845230703 0.0089713206576939458 0 0.064347375170188764 0.0095740442698727096 0 0.067831339304992008 0.0035646742399237565 0 0.070220997467343421 0.0070072672520364769 0 0.065034889845230703 0.0089713206576939458 0 0.065757109917311443 0.0079798664032167226 0 0.066827091822843729 0.0077285737350684868 0 0.064896167081756939 0.010349424239247462 0 0.065034889845230703 0.0089713206576939458 0 0.066827091822843729 0.0077285737350684868 0 0.078279902373072349 0.0030894357462203257 0 0.076526873377323626 0.0039186397447149137 0 0.076228683377599984 0.0059301234028192344 0 0.065034889845230703 0.0089713206576939458 0 0.065757109917311443 0.0079798664032167226 0 0.064758636825990937 0.0078902856114156285 0 0.065757109917311443 0.0079798664032167226 0 0.065518795743154556 0.0071960478670832504 0 0.064758636825990937 0.0078902856114156285 0 0.065518795743154556 0.0071960478670832504 0 0.066957076840069213 0.0075166565646183087 0 0.064808619845973414 0.0051920177415132902 0 0.065757109917311443 0.0079798664032167226 0 0.065518795743154556 0.0071960478670832504 0 0.066801130724327182 0.0077326501350723316 0 0.065518795743154556 0.0071960478670832504 0 0.066957076840069213 0.0075166565646183087 0 0.066801130724327182 0.0077326501350723316 0 0.069628786558264322 0.0071446443708265452 0 0.070220997467343421 0.0070072672520364769 0 0.063057597627963743 0.0088704439011677572 0 0.063803772448877583 0.0086178865605665289 0 0.063990892281592077 0.0068962722635704053 0 0.065742482463754678 0.00905056877931271 0 0.066372455378660405 0.0090307316445178906 0 0.0649166898593901 0.0097013259388670208 0 0.066372455378660405 0.0090307316445178906 0 0.063830895996838541 0.0086098510509476315 0 0.064025724555536692 0.0068704225806147916 0 0.064758636825990937 0.0078902856114156285 0 0.065518795743154556 0.0071960478670832504 0 0.064025724555536692 0.0068704225806147916 0 0.064758636825990937 0.0078902856114156285 0 0.07070415341840737 0.0078904633641453583 0 0.07091210818774718 0.0078427549740938355 0 0.070657135047280481 0.0077365838247961819 0 0.071313894757617152 0.0075780821990790708 0 0.07063172265517309 0.0082360001966440659 0 0.073858710449628565 0.0068370349424200661 0 0.073122848521838105 0.0051149455742186684 0 0.072057159694529388 0.0060006456008796557 0 0.07070415341840737 0.0078904633641453583 0 0.070592566796725584 0.0078427290570406566 0 0.070657135047280481 0.0077365838247961819 0 0.07070415341840737 0.0078904633641453583 0 0.070592566796725584 0.0078427290570406566 0 0.070481496798399962 0.0079218850863738768 0 0.073858710449628565 0.0068370349424200661 0 0.076267985139937544 0.0064618752957862164 0 0.074732417850665339 0.0047717738136506937 0 0.071313894757617152 0.0075780821990790708 0 0.07053471508986181 0.0071852457185776044 0 0.07053471508986181 0.0071852457185776044 0 0.070704687223007823 0.0092221590282864363 0 0.070592566796725584 0.0078427290570406566 0 0.070481496798399962 0.0079218850863738768 0 0.070624598243132886 0.0077273404295203655 0 0.076058070918582174 0.0061625938823912938 0 0.076228683377599984 0.0059301234028192344 0 0.075821749982115078 0.0048765556178555778 0 0.07053471508986181 0.0071852457185776044 0 0.070220997467343421 0.0070072672520364769 0 0.07053471508986181 0.0071852457185776044 0 0.071831753510998173 0.0065749578514189911 0 0.076526873377323626 0.0039186397447149137 0 0.076228683377599984 0.0059301234028192344 0 0.075821749982115078 0.0048765556178555778 0 0.076058070918582174 0.0061625938823912938 0 0.075821749982115078 0.0048765556178555778 0 0.074605041082100212 0.0045465533314909944 0 0.076526873377323626 0.0039186397447149137 0 0.075821749982115078 0.0048765556178555778 0 0.075206987138494191 0.0033071365596595561 0 0.075821749982115078 0.0048765556178555778 0 0.074605041082100212 0.0045465533314909944 0 0.075206987138494191 0.0033071365596595561 0 0.073858710449628565 0.0068370349424200661 0 0.074732417850665339 0.0047717738136506937 0 0.073122848521838105 0.0051149455742186684 0 0.071831753510998173 0.0065749578514189911 0 0.071898154262546241 0.0061106229136335954 0 0.074732417850665339 0.0047717738136506937 0 0.073122848521838105 0.0051149455742186684 0 0.073316174291974331 0.003196644136164955 0 0.073122848521838105 0.0051149455742186684 0 0.073316174291974331 0.003196644136164955 0 0.071860793109655444 0.0044171014216272519 0 0.073316174291974331 0.003196644136164955 0 0.075206987138494191 0.0033071365596595561 0 0.074133008198829162 0.0012484325521471156 0 0.073316174291974331 0.003196644136164955 0 0.074133008198829162 0.0012484325521471156 0 0.071765947614359935 0.0024694199916470835 0 0.074605041082100212 0.0045465533314909944 0 0.073316174291974331 0.003196644136164955 0 0.075206987138494191 0.0033071365596595561 0 0.076899824597561284 0.0020634693664284528 0 0.075206987138494191 0.0033071365596595561 0 0.074133008198829162 0.0012484325521471156 0 0.076899824597561284 0.0020634693664284528 0 0.076526873377323626 0.0039186397447149137 0 0.075206987138494191 0.0033071365596595561 0 0.076288864891349076 8.563020939838629e-05 0 0.076899824597561284 0.0020634693664284528 0 0.074061295838960386 0.00096928878137376474 0 0.075168620609443931 0.001456560842450709 0 0.073766646760729249 0.00097891418357202824 0 0.076288864891349076 8.563020939838629e-05 0 0.074061295838960386 0.00096928878137376474 0 0.075281244957646126 -0.0011202813984409158 0 0.073766646760729249 0.00097891418357202824 0 0.071203138211212935 0.00010147735382975971 0 0.074061295838960386 0.00096928878137376474 0 0.071207967188931992 -2.9469227071230971e-05 0 0.073698470896745416 -0.0014115628851807413 0 0.074133008198829162 0.0012484325521471156 0 0.071278329809228269 0.0002646498134190218 0 0.071765947614359935 0.0024694199916470835 0 0.071278329809228269 0.0002646498134190218 0 0.06981679019871613 0.0018764867139597977 0 0.071765947614359935 0.0024694199916470835 0 0.071278329809228269 0.0002646498134190218 0 0.06981679019871613 0.0018764867139597977 0 0.068319814033791545 -0.00081376377856526695 0 0.06981679019871613 0.0018764867139597977 0 0.069096761038098212 0.0036101101542180517 0 0.070539795039552391 0.0038524813333671612 0 0.06981679019871613 0.0018764867139597977 0 0.070539795039552391 0.0038524813333671612 0 0.071765947614359935 0.0024694199916470835 0 0.070539795039552391 0.0038524813333671612 0 0.071765947614359935 0.0024694199916470835 0 0.071860793109655444 0.0044171014216272519 0 0.073316174291974331 0.003196644136164955 0 0.071765947614359935 0.0024694199916470835 0 0.071860793109655444 0.0044171014216272519 0 0.065000003773124773 0.0019783292273539408 0 0.067818861088412327 0.0018285418736075426 0 0.066416634200550731 -0.0002906042650467142 0 0.067818861088412327 0.0018285418736075426 0 0.068319814033791545 -0.00081376377856526695 0 0.066416634200550731 -0.0002906042650467142 0 0.06981679019871613 0.0018764867139597977 0 0.067818861088412327 0.0018285418736075426 0 0.068319814033791545 -0.00081376377856526695 0 0.06981679019871613 0.0018764867139597977 0 0.069096761038098212 0.0036101101542180517 0 0.067818861088412327 0.0018285418736075426 0 0.069096761038098212 0.0036101101542180517 0 0.067818861088412327 0.0018285418736075426 0 0.067876560728012528 0.0035436078759537213 0 0.065000003773124773 0.0019783292273539408 0 0.067876560728012528 0.0035436078759537213 0 0.067213850199218564 0.0048902044277391882 0 0.065000003773124773 0.0019783292273539408 0 0.067818861088412327 0.0018285418736075426 0 0.067876560728012528 0.0035436078759537213 0 0.065000003773124773 0.0019783292273539408 0 0.064999960683959829 0.0057163377179563187 0 0.067213850199218564 0.0048902044277391882 0 0.064999960683959829 0.0057163377179563187 0 0.067213850199218564 0.0048902044277391882 0 0.067354003341086488 0.0064550433422624178 0 0.068485708187325564 0.0066638593058942633 0 0.068978082102436944 0.0071683002720986108 0 0.067213850199218564 0.0048902044277391882 0 0.0687920622910346 0.0063034760031561044 0 0.067354003341086488 0.0064550433422624178 0 0.067876560728012528 0.0035436078759537213 0 0.067213850199218564 0.0048902044277391882 0 0.068705158337717301 0.0048815269523989485 0 0.069096761038098212 0.0036101101542180517 0 0.067876560728012528 0.0035436078759537213 0 0.068705158337717301 0.0048815269523989485 0 0.068705158337717301 0.0048815269523989485 0 0.068675421634792067 0.0060464969390037916 0 0.069295491429097356 0.0056428652631445135 0 0.067213850199218564 0.0048902044277391882 0 0.068705158337717301 0.0048815269523989485 0 0.068675421634792067 0.0060464969390037916 0 0.0687920622910346 0.0063034760031561044 0 0.068742420836560583 0.0071503496741784044 0 0.067354003341086488 0.0064550433422624178 0 0.0687920622910346 0.0063034760031561044 0 0.068742420836560583 0.0071503496741784044 0 0.069530541159226661 0.0074479736475941832 0 0.068742420836560583 0.0071503496741784044 0 0.067891070152545099 0.007678089051251097 0 0.069552591236861666 0.0083654628238179329 0 0.067891070152545099 0.007678089051251097 0 0.067354003341086488 0.0064550433422624178 0 0.066499675444232201 0.0076419960710111152 0 0.068742420836560583 0.0071503496741784044 0 0.067891070152545099 0.007678089051251097 0 0.067354003341086488 0.0064550433422624178 0 0.067891070152545099 0.007678089051251097 0 0.066499675444232201 0.0076419960710111152 0 0.067268568758425143 0.00890835981349513 0 0.064999960683959829 0.0057163377179563187 0 0.066499675444232201 0.0076419960710111152 0 0.065000008400201481 0.0094546377049572819 0 0.064999960683959829 0.0057163377179563187 0 0.067354003341086488 0.0064550433422624178 0 0.066499675444232201 0.0076419960710111152 0 0.070913286388107774 0.005588607111046061 0 0.071860793109655444 0.0044171014216272519 0 0.072057159694529388 0.0060006456008796557 0 0.073122848521838105 0.0051149455742186684 0 0.071860793109655444 0.0044171014216272519 0 0.072057159694529388 0.0060006456008796557 0 0.070539795039552391 0.0038524813333671612 0 0.070913286388107774 0.005588607111046061 0 0.071860793109655444 0.0044171014216272519 0 0.070539795039552391 0.0038524813333671612 0 0.070913286388107774 0.005588607111046061 0 0.069775880980589663 0.0050034110673682205 0 0.069096761038098212 0.0036101101542180517 0 0.070539795039552391 0.0038524813333671612 0 0.069775880980589663 0.0050034110673682205 0 0.069096761038098212 0.0036101101542180517 0 0.068705158337717301 0.0048815269523989485 0 0.069775880980589663 0.0050034110673682205 0 0.068705158337717301 0.0048815269523989485 0 0.069775880980589663 0.0050034110673682205 0 0.069295491429097356 0.0056428652631445135 0 0.069775880980589663 0.0050034110673682205 0 0.069295491429097356 0.0056428652631445135 0 0.070087721783760215 0.0058579086929272202 0 0.070913286388107774 0.005588607111046061 0 0.069775880980589663 0.0050034110673682205 0 0.070087721783760215 0.0058579086929272202 0 0.070913286388107774 0.005588607111046061 0 0.070780323550930557 0.0062501683290593557 0 0.070087721783760215 0.0058579086929272202 0 0.070780323550930557 0.0062501683290593557 0 0.070087721783760215 0.0058579086929272202 0 0.069244204874451765 0.0064242419823392627 0 0.069244204874451765 0.0064242419823392627 0 0.070079114318423869 0.0072767983001928464 0 0.071555610271503492 0.0073739014447769058 0 0.070189924871443501 0.0078535870574974794 0 0.07063172265517309 0.0082360001966440659 0 0.070780323550930557 0.0062501683290593557 0 0.069244204874451765 0.0064242419823392627 0 0.071603429495649143 0.0073775383767315447 0 0.068978082102436944 0.0071683002720986108 0 0.069998784916703818 0.0082991120602290344 0 0.068675421634792067 0.0060464969390037916 0 0.069244204874451765 0.0064242419823392627 0 0.070079114318423869 0.0072767983001928464 0 0.068675421634792067 0.0060464969390037916 0 0.069295491429097356 0.0056428652631445135 0 0.069244204874451765 0.0064242419823392627 0 0.069295491429097356 0.0056428652631445135 0 0.070087721783760215 0.0058579086929272202 0 0.069244204874451765 0.0064242419823392627 0 0.068742420836560583 0.0071503496741784044 0 0.069530541159226661 0.0074479736475941832 0 0.069552591236861666 0.0083654628238179329 0 0.0687920622910346 0.0063034760031561044 0 0.069530541159226661 0.0074479736475941832 0 0.070338576671757039 0.0076860669085883427 0 0.069977047182934113 0.0082810319518971855 0 0.069998784916703818 0.0082991120602290344 0 0.06901108466061158 0.0088659850791039923 0 0.068950415117031982 0.008938451893093011 0 0.069530541159226661 0.0074479736475941832 0 0.070091452517773559 0.0076893473521900124 0 0.069552591236861666 0.0083654628238179329 0 0.069530541159226661 0.0074479736475941832 0 0.070091452517773559 0.0076893473521900124 0 0.070331060279468102 0.0076822227126748296 0 0.070091452517773559 0.0076893473521900124 0 0.070767889726555663 0.0080678234995449037 0 0.069554068024160226 0.0083557250306858753 0 0.070091452517773559 0.0076893473521900124 0 0.070331060279468102 0.0076822227126748296 0 0.070767889726555663 0.0080678234995449037 0 0.069998784916703818 0.0082991120602290344 0 0.070162434213453251 0.0085782834561331754 0 0.069998784916703818 0.0082991120602290344 0 0.070392090460051931 0.0084599690634679231 0 0.070587505942286716 0.0084445289817930685 0 0.070237552334004416 0.0081354499064644724 0 0.069843173323289501 0.0082294234667290127 0 0.070162434213453251 0.0085782834561331754 0 0.070392090460051931 0.0084599690634679231 0 0.073858710449628565 0.0068370349424200661 0 0.071603429495649143 0.0073775383767315447 0 0.072057159694529388 0.0060006456008796557 0 0.070079114318423869 0.0072767983001928464 0 0.070929325080722846 0.0075226751416981623 0 0.071555610271503492 0.0073739014447769058 0 0.070392090460051931 0.0084599690634679231 0 0.07063172265517309 0.0082360001966440659 0 0.070780323550930557 0.0062501683290593557 0 0.071603429495649143 0.0073775383767315447 0 0.072057159694529388 0.0060006456008796557 0 0.070913286388107774 0.005588607111046061 0 0.070780323550930557 0.0062501683290593557 0 0.072057159694529388 0.0060006456008796557 0 0.070392090460051931 0.0084599690634679231 0 0.070808696703230645 0.0090888010953656135 0 0.070742077085824445 0.0091904410139882278 0 0.07111446045380887 0.0091025013790496066 0 0.072385831762587199 0.010642813233074299 0 0.070509434455927153 0.0086981729239969472 0 0.072385860372158536 0.010457035355638295 0 0.070074859041548601 0.010013841332577668 0 0.07111446045380887 0.0091025013790496066 0 0.072385831762587199 0.010642813233074299 0 0.073845770606998151 0.0098976828107927607 0 0.070494040469152294 0.0087191104020497602 0 0.070551824703007873 0.0087056360712860544 0 0.070799531615364064 0.0088088159871194099 0 0.070162434213453251 0.0085782834561331754 0 0.071922124742250987 0.010139546512100132 0 0.070162434213453251 0.0085782834561331754 0 0.068950415117031982 0.008938451893093011 0 0.070509434455927153 0.0086981729239969472 0 0.069426276226451505 0.008929786843576825 0 0.070074859041548601 0.010013841332577668 0 0.070313141304719481 0.011249011957253202 0 0.067301851511010244 0.011400089958192619 0 0.069955141247276781 0.012957397777527666 0 0.070074859041548601 0.010013841332577668 0 0.070313141304719481 0.011249011957253202 0 0.067301851511010244 0.011400089958192619 0 0.070313141304719481 0.011249011957253202 0 0.071502034311205928 0.011818338681838087 0 0.069955141247276781 0.012957397777527666 0 0.072385860372158536 0.010457035355638295 0 0.070313141304719481 0.011249011957253202 0 0.071502034311205928 0.011818338681838087 0 0.072385860372158536 0.010457035355638295 0 0.070074859041548601 0.010013841332577668 0 0.070313141304719481 0.011249011957253202 0 0.071502034311205928 0.011818338681838087 0 0.072298092866739147 0.012874803588516935 0 0.072560110564085581 0.011795972014906219 0 0.072385860372158536 0.010457035355638295 0 0.071502034311205928 0.011818338681838087 0 0.072560110564085581 0.011795972014906219 0 0.065003014889838853 0.0094543833208193019 0 0.067098100652849893 0.0091425808952106998 0 0.066499675444232201 0.0076419960710111152 0 0.065000008400201481 0.0094546377049572819 0 0.067268568758425143 0.00890835981349513 0 0.065000007015522748 0.0094546338009879518 0 0.067256780776195665 0.0089283357788950655 0 0.067259554547273087 0.011195116340857503 0 0.068950415117031982 0.008938451893093011 0 0.067098100652849893 0.0091425808952106998 0 0.067891070152545099 0.007678089051251097 0 0.069552591236861666 0.0083654628238179329 0 0.067268568758425143 0.00890835981349513 0 0.069426276226451505 0.008929786843576825 0 0.070074859041548601 0.010013841332577668 0 0.067301851511010244 0.011400089958192619 0 0.069502702434440941 0.0083938067582772415 0 0.067256780776195665 0.0089283357788950655 0 0.067259554547273087 0.011195116340857503 0 0.068950415117031982 0.008938451893093011 0 0.067119425884242787 0.011350456114291228 0 0.065000007015522748 0.0094546338009879518 0 0.067259554547273087 0.011195116340857503 0 0.064999989244681047 0.011738503230611042 0 0.067259554547273087 0.011195116340857503 0 0.064999989244681047 0.011738503230611042 0 0.065000003175426813 0.014022422881183029 0 0.067119425884242787 0.011350456114291228 0 0.065001903310429168 0.014020022621319071 0 0.067301851511010244 0.011400089958192619 0 0.065000024580532056 0.01402272929928078 0 0.067560461419691034 0.013822359842969072 0 0.067301851511010244 0.011400089958192619 0 0.067560461419691034 0.013822359842969072 0 0.069955141247276781 0.012957397777527666 0 0.067560461419691034 0.013822359842969072 0 0.068574691673205831 0.015922318494679712 0 0.069955141247276781 0.012957397777527666 0 0.067560461419691034 0.013822359842969072 0 0.068574691673205831 0.015922318494679712 0 0.066717989792354243 0.015778607053165351 0 0.064999908368128051 0.017045576955593469 0 0.065000024580532056 0.01402272929928078 0 0.066717989792354243 0.015778607053165351 0 0.065000024580532056 0.01402272929928078 0 0.067560461419691034 0.013822359842969072 0 0.066717989792354243 0.015778607053165351 0 0.072337252778624628 0.012310021578017546 0 0.071572829561903112 0.012403385979646169 0 0.073025156064464858 0.013068290287194723 0 0.069955141247276781 0.012957397777527666 0 0.071419160978795332 0.015298954181969611 0 0.071502034311205928 0.011818338681838087 0 0.072298092866739147 0.012874803588516935 0 0.069955141247276781 0.012957397777527666 0 0.068574691673205831 0.015922318494679712 0 0.069955141247276781 0.012957397777527666 0 0.071419160978795332 0.015298954181969611 0 0.070082212951012163 0.017355069668502459 0 0.068574691673205831 0.015922318494679712 0 0.071419160978795332 0.015298954181969611 0 0.073060844583532528 0.017499159384405501 0 0.071419160978795332 0.015298954181969611 0 0.073938101113118521 0.014862185740242116 0 0.073025156064464858 0.013068290287194723 0 0.071419160978795332 0.015298954181969611 0 0.073938101113118521 0.014862185740242116 0 0.071311158087802154 0.01743448850284993 0 0.072122767826015788 0.015269041983251238 0 0.073060844583532528 0.017499159384405501 0 0.073938101113118521 0.014862185740242116 0 0.075845722523889908 0.01533412251760775 0 0.073938101113118521 0.014862185740242116 0 0.075778188926318199 0.014187090821303905 0 0.075845722523889908 0.01533412251760775 0 0.072298092866739147 0.012874803588516935 0 0.074434485909868217 0.012879552078265273 0 0.074032639359625632 0.012062072259835447 0 0.072298092866739147 0.012874803588516935 0 0.072560110564085581 0.011795972014906219 0 0.074032639359625632 0.012062072259835447 0 0.073025156064464858 0.013068290287194723 0 0.073938101113118521 0.014862185740242116 0 0.074961587356140474 0.013503573013607264 0 0.072337252778624628 0.012310021578017546 0 0.07254207112583573 0.011929205098423918 0 0.073025156064464858 0.013068290287194723 0 0.074961587356140474 0.013503573013607264 0 0.075977926138873136 0.013213645335300011 0 0.073938101113118521 0.014862185740242116 0 0.074961587356140474 0.013503573013607264 0 0.075778188926318199 0.014187090821303905 0 0.07254207112583573 0.011929205098423918 0 0.07062102607711597 0.012606346816942776 0 0.072122767826015788 0.015269041983251238 0 0.07062102607711597 0.012606346816942776 0 0.074434485909868217 0.012879552078265273 0 0.076308203105583505 0.012283516087924079 0 0.075123646347232051 0.011740632591955695 0 0.075946083808933945 0.01323126239533531 0 0.075778188926318199 0.014187090821303905 0 0.078551806682007216 0.013311125583284711 0 0.07254207112583573 0.011929205098423918 0 0.069843932699816411 0.010981853604122196 0 0.075778188926318199 0.014187090821303905 0 0.075845722523889908 0.01533412251760775 0 0.078551806682007216 0.013311125583284711 0 0.074961587356140474 0.013503573013607264 0 0.075946083808933945 0.01323126239533531 0 0.075778188926318199 0.014187090821303905 0 0.072752542615394877 0.011921994141174386 0 0.07254207112583573 0.011929205098423918 0 0.073518006457797103 0.01996996263316431 0 0.072646969903530603 0.019377810965795748 0 0.073859263291701685 0.019323028515377341 0 0.072646969903530603 0.019377810965795748 0 0.073859263291701685 0.019323028515377341 0 0.073959859507122 0.018444707745756423 0 0.074356625173963062 0.019997662808125264 0 0.073518006457797103 0.01996996263316431 0 0.073859263291701685 0.019323028515377341 0 0.074356625173963062 0.019997662808125264 0 0.073859263291701685 0.019323028515377341 0 0.07454577925828014 0.01932104911636405 0 0.073859263291701685 0.019323028515377341 0 0.07454577925828014 0.01932104911636405 0 0.074185348335477047 0.018855080916240465 0 0.074356625173963062 0.019997662808125264 0 0.075150189252305502 0.01984781322180473 0 0.07454577925828014 0.01932104911636405 0 0.07454577925828014 0.01932104911636405 0 0.075150399987404498 0.018986202759546284 0 0.074593492043754248 0.018831864729006408 0 0.07454577925828014 0.01932104911636405 0 0.074593492043754248 0.018831864729006408 0 0.074185348335477047 0.018855080916240465 0 0.075150189252305502 0.01984781322180473 0 0.07454577925828014 0.01932104911636405 0 0.075150399987404498 0.018986202759546284 0 0.075991290060371017 0.019459134391998468 0 0.075150189252305502 0.01984781322180473 0 0.075150399987404498 0.018986202759546284 0 0.076312342889422027 0.018511651833227803 0 0.075150399987404498 0.018986202759546284 0 0.074758708005971425 0.018453033938051023 0 0.075150399987404498 0.018986202759546284 0 0.074758708005971425 0.018453033938051023 0 0.074593492043754248 0.018831864729006408 0 0.069076613226596806 0.012776957226469886 0 0.069493274379367434 0.012640571555607829 0 0.074758708005971425 0.018453033938051023 0 0.074593492043754248 0.018831864729006408 0 0.07438230636737736 0.018440097723299711 0 0.069076613226596806 0.012776957226469886 0 0.068428816714601298 0.011538909749722496 0 0.068511597243268482 0.012380722997618875 0 0.068443552449563183 0.012378703047618339 0 0.068487768697508153 0.012284375720977835 0 0.068511597243268482 0.012380722997618875 0 0.068522816923847513 0.012258122434008176 0 0.068487768697508153 0.012284375720977835 0 0.069493274379367434 0.012640571555607829 0 0.068837766042612755 0.011785018344271994 0 0.068077280145552074 0.013127834230650288 0 0.067850677398273856 0.013323066709233573 0 0.068044988509588691 0.013441959368325922 0 0.071674358784426698 0.011182227927867097 0 0.070159766939255713 0.011131418138663706 0 0.070324309106833308 0.011262828534156636 0 0.071674358784426698 0.011182227927867097 0 0.070152573300065066 0.011633778119756289 0 0.070324309106833308 0.011262828534156636 0 0.073859263291701685 0.019323028515377341 0 0.074185348335477047 0.018855080916240465 0 0.073959859507122 0.018444707745756423 0 0.074593492043754248 0.018831864729006408 0 0.074185348335477047 0.018855080916240465 0 0.07438230636737736 0.018440097723299711 0 0.074185348335477047 0.018855080916240465 0 0.073959859507122 0.018444707745756423 0 0.074374767514016421 0.018454105160933817 0 0.069503597706036827 0.012926204180315731 0 0.069493274379367434 0.012640571555607829 0 0.070159766939255713 0.011131418138663706 0 0.070152166528846746 0.011632244968860648 0 0.070324309106833308 0.011262828534156636 0 0.070159766939255713 0.011131418138663706 0 0.070152166528846746 0.011632244968860648 0 0.069387310030580171 0.011688632681139496 0 0.068884962132540931 0.012422100515676313 0 0.069184620345711004 0.012431245860234436 0 0.069354448060164595 0.012077034631111663 0 0.07062102607711597 0.012606346816942776 0 0.068837766042612755 0.011785018344271994 0 0.07062102607711597 0.012606346816942776 0 0.069493274379367434 0.012640571555607829 0 0.069843932699816411 0.010981853604122196 0 0.069846247655689878 0.010992655296778175 0 0.076308203105583505 0.012283516087924079 0 0.075927979652147787 0.011453095008485846 0 0.075123646347232051 0.011740632591955695 0 0.076308203105583505 0.012283516087924079 0 0.076811556479064472 0.011175772023889195 0 0.075927979652147787 0.011453095008485846 0 0.068813611521345089 0.011386278987932956 0 0.069024221423899745 0.010924768188744972 0 0.069259102868794303 0.011252244559349062 0 0.069843932699816411 0.010981853604122196 0 0.068768620838031244 0.010571133820530565 0 0.069843932699816411 0.010981853604122196 0 0.068550062416458113 0.01146995725257611 0 0.069031435198813579 0.0092644709279521027 0 0.06894235408982248 0.0094575445672532236 0 0.069800017730178132 0.0097000900208949279 0 0.068768620838031244 0.010571133820530565 0 0.068411381257826351 0.010048240810479414 0 0.068768620838031244 0.010571133820530565 0 0.070570336420158183 0.010145600489667258 0 0.076811556479064472 0.011175772023889195 0 0.075927979652147787 0.011453095008485846 0 0.075465798298204489 0.010609762187057349 0 0.075927979652147787 0.011453095008485846 0 0.075465798298204489 0.010609762187057349 0 0.075123646347232051 0.011740632591955695 0 0.067190076073844779 0.011542136573801355 0 0.067391948504862242 0.011235263634169424 0 0.067233377056424209 0.011804488303799383 0 0.067285396801226763 0.011788967858191095 0 0.067128591063126866 0.011617270826101613 0 0.066716544785527507 0.011618873597708241 0 0.066347119807456376 0.011465370855544724 0 0.066527056684321101 0.011411868938944168 0 0.067391948504862242 0.011235263634169424 0 0.06701740611424932 0.011140110327852469 0 0.06771014354904939 0.013488177074052319 0 0.067850677398273856 0.013323066709233573 0 0.067832984190309489 0.013537801505555346 0 0.067391948504862242 0.011235263634169424 0 0.068428816714601298 0.011538909749722496 0 0.067850677398273856 0.013323066709233573 0 0.067832984190309489 0.013537801505555346 0 0.068044988509588691 0.013441959368325922 0 0.067391948504862242 0.011235263634169424 0 0.067967099192105432 0.010898150930179474 0 0.068586084922080764 0.011635918229114611 0 0.068782405131751573 0.011694886602034186 0 0.068798224024754093 0.011540373538580629 0 0.069024221423899745 0.010924768188744972 0 0.069341332633077304 0.011082058189836305 0 0.069259102868794303 0.011252244559349062 0 0.070152166528846746 0.011632244968860648 0 0.06928940679970011 0.011888287525621209 0 0.069387310030580171 0.011688632681139496 0 0.067967099192105432 0.010898150930179474 0 0.068428816714601298 0.011538909749722496 0 0.067967099192105432 0.010898150930179474 0 0.068550062416458113 0.01146995725257611 0 0.067637367014785163 0.011374887567564142 0 0.06764176850344665 0.011333673255724245 0 0.067655773547400724 0.011338339927478975 0 0.069337778050884369 0.011930297553839359 0 0.069212913633636047 0.011888331850968143 0 0.069113420097748554 0.012093544364523911 0 0.068550062416458113 0.01146995725257611 0 0.068837766042612755 0.011785018344271994 0 0.068428816714601298 0.011538909749722496 0 0.068837766042612755 0.011785018344271994 0 0.068428816714601298 0.011538909749722496 0 0.068550062416458113 0.01146995725257611 0 0.068768620838031244 0.010571133820530565 0 0.067967099192105432 0.010898150930179474 0 0.068276848994817618 0.01031239118393845 0 0.067606465618389691 0.009981535856547815 0 0.06756220561183153 0.010424622337407439 0 0.068276848994817618 0.01031239118393845 0 0.068147290877373534 0.010593463125371544 0 0.06756220561183153 0.010424622337407439 0 0.067561342982651651 0.010694746538012053 0 0.06777359736416351 0.01075660554252238 0 0.067627072294927246 0.01055155618696034 0 0.068411381257826351 0.010048240810479414 0 0.067525692904353812 0.01006619035829665 0 0.067967099192105432 0.010898150930179474 0 0.067525692904353812 0.01006619035829665 0 0.067233377056424209 0.011804488303799383 0 0.067063143806878917 0.011752247120675872 0 0.067128591063126866 0.011617270826101613 0 0.06838123195289611 0.010616524173119524 0 0.06845934736604728 0.0098329430759315616 0 0.068725320305712975 0.0099093355315094736 0 0.067967099192105432 0.010898150930179474 0 0.067179073629664007 0.010209525262496555 0 0.067525692904353812 0.01006619035829665 0 0.067179073629664007 0.010209525262496555 0 0.06701740611424932 0.011140110327852469 0 0.067179073629664007 0.010209525262496555 0 0.065518795743154556 0.0071960478670832504 0 0.064025724555536692 0.0068704225806147916 0 0.064808619845973414 0.0051920177415132902 0 0.066372455378660405 0.0090307316445178906 0 0.06788746465114652 0.0095512504136796208 0 0.065089657468349035 0.0091044203414884714 0 0.067179073629664007 0.010209525262496555 0 0.062614933205955556 0.0077033918910695848 0 0.063713049306292804 0.0058777145325939108 0 0.063562871830601456 0.0058348877652045815 0 0.066842252128003168 0.0092106192575971239 0 0.06680026840891734 0.0096603820745064985 0 0.066701143567272816 0.0095232551354612564 0 0.066372455378660405 0.0090307316445178906 0 0.067525692904353812 0.01006619035829665 0 0.062614933205955556 0.0077033918910695848 0 0.06351545256893143 0.0076941571490644943 0 0.063713049306292804 0.0058777145325939108 0 0.067525692904353812 0.01006619035829665 0 0.06788746465114652 0.0095512504136796208 0 0.068411381257826351 0.010048240810479414 0 0.06788746465114652 0.0095512504136796208 0 0.069356983607475581 0.0089015938484519729 0 0.069299019634008821 0.0090274335533478776 0 0.069760262200040182 0.0090165642653798356 0 0.07053471508986181 0.0071852457185776044 0 0.06788746465114652 0.0095512504136796208 0 0.069827649938125 0.0095938918179289956 0 0.069299019634008821 0.0090274335533478776 0 0.069760262200040182 0.0090165642653798356 0 0.069031435198813579 0.0092644709279521027 0 0.069800017730178132 0.0097000900208949279 0 0.069849975476222112 0.0095960961427644705 0 0.068411381257826351 0.010048240810479414 0 0.069607460413174865 0.0096169948315291114 0 0.069827649938125 0.0095938918179289956 0 0.069760262200040182 0.0090165642653798356 0 0.07016283567779931 0.0091320940388010929 0 0.070570336420158183 0.010145600489667258 0 0.070704687223007823 0.0092221590282864363 0 0.069607460413174865 0.0096169948315291114 0 0.070704687223007823 0.0092221590282864363 0 0.069800017730178132 0.0097000900208949279 0 0.069849975476222112 0.0095960961427644705 0 0.070653780570812064 0.0099331242144887963 0 0.07411634679127499 0.010006707814441991 0 0.073639348174442995 0.010658284111360137 0 0.074315327097894276 0.01075552467207179 0 0.075465798298204489 0.010609762187057349 0 0.07411634679127499 0.010006707814441991 0 0.074315327097894276 0.01075552467207179 0 0.070592566796725584 0.0078427290570406566 0 0.070624598243132886 0.0077273404295203655 0 0.070657135047280481 0.0077365838247961819 0 0.07063172265517309 0.0082360001966440659 0 0.070808696703230645 0.0090888010953656135 0 0.070704687223007823 0.0092221590282864363 0 0.070808696703230645 0.0090888010953656135 0 0.072385831762587199 0.010642813233074299 0 0.073845770606998151 0.0098976828107927607 0 0.073639348174442995 0.010658284111360137 0 0.074126181035423899 0.0099788775207639794 0 0.073845770606998151 0.0098976828107927607 0 0.073639348174442995 0.010658284111360137 0 0.070704687223007823 0.0092221590282864363 0 0.070833990741163519 0.0092037395212451033 0 0.073639348174442995 0.010658284111360137 0 0.073815684786556993 0.011201239208615342 0 0.074315327097894276 0.01075552467207179 0 0.072385831762587199 0.010642813233074299 0 0.073815684786556993 0.011201239208615342 0 0.074032639359625632 0.012062072259835447 0 0.072385860372158536 0.010457035355638295 0 0.072560110564085581 0.011795972014906219 0 0.074032639359625632 0.012062072259835447 0 0.071922124742250987 0.010139546512100132 0 0.072737252400478111 0.010866181851275487 0 0.072385831762587199 0.010642813233074299 0 0.073639348174442995 0.010658284111360137 0 0.073815684786556993 0.011201239208615342 0 0.074434485909868217 0.012879552078265273 0 0.074032639359625632 0.012062072259835447 0 0.075123646347232051 0.011740632591955695 0 0.073815684786556993 0.011201239208615342 0 0.074032639359625632 0.012062072259835447 0 0.074547717208853781 0.011278621452990373 0 0.074032639359625632 0.012062072259835447 0 0.075123646347232051 0.011740632591955695 0 0.074547717208853781 0.011278621452990373 0 0.075465798298204489 0.010609762187057349 0 0.075123646347232051 0.011740632591955695 0 0.074547717208853781 0.011278621452990373 0 0.075465798298204489 0.010609762187057349 0 0.074315327097894276 0.01075552467207179 0 0.074547717208853781 0.011278621452990373 0 0.073815684786556993 0.011201239208615342 0 0.074315327097894276 0.01075552467207179 0 0.074547717208853781 0.011278621452990373 0 0.021809127615597546 0.0099520387059577765 0 0.021912919907277326 0.0098049119569630881 0 0.021897197881011951 0.0099696559984038032 0 0.021809127615597546 0.0099520387059577765 0 0.021897197881011951 0.0099696559984038032 0 0.021868730989959326 0.010097602900437239 0 0.021809127615597546 0.0099520387059577765 0 0.021868730989959326 0.010097602900437239 0 0.021847128158153793 0.010203623633365952 0 0.021809127615597546 0.0099520387059577765 0 0.02181842952918539 0.010158976775422818 0 0.021757929859684198 0.0099345749723731697 0 0.021809127615597546 0.0099520387059577765 0 0.02181842952918539 0.010158976775422818 0 0.021847128158153793 0.010203623633365952 0 0.02181842952918539 0.010158976775422818 0 0.021847128158153793 0.010203623633365952 0 0.021876398371502268 0.010347636263796325 0 0.02181842952918539 0.010158976775422818 0 0.021757929859684198 0.0099345749723731697 0 0.021819746715065879 0.010084716470183205 0 0.021809127615597546 0.0099520387059577765 0 0.021757929859684198 0.0099345749723731697 0 0.021714896484729886 0.0097384469378260854 0 0.021714896484729886 0.0097384469378260854 0 0.021691251486058816 0.0097362615122194209 0 0.021633265972962397 0.0095150286793188408 0 0.021757929859684198 0.0099345749723731697 0 0.021714896484729886 0.0097384469378260854 0 0.021691251486058816 0.0097362615122194209 0 0.021714896484729886 0.0097384469378260854 0 0.021780761047166058 0.0096982747325837695 0 0.021633265972962397 0.0095150286793188408 0 0.021809127615597546 0.0099520387059577765 0 0.021780761047166058 0.0096982747325837695 0 0.021912919907277326 0.0098049119569630881 0 0.021809127615597546 0.0099520387059577765 0 0.021714896484729886 0.0097384469378260854 0 0.021780761047166058 0.0096982747325837695 0 0.021780761047166058 0.0096982747325837695 0 0.021912919907277326 0.0098049119569630881 0 0.021945399707860511 0.0096186466372232323 0 0.021912919907277326 0.0098049119569630881 0 0.022063107039683796 0.0097120253151065025 0 0.021945399707860511 0.0096186466372232323 0 0.021912919907277326 0.0098049119569630881 0 0.022063107039683796 0.0097120253151065025 0 0.022032805501335441 0.0098566968064197954 0 0.022063107039683796 0.0097120253151065025 0 0.022200879805126326 0.0096869887049922821 0 0.022128807947756395 0.0098070665036491429 0 0.022032805501335441 0.0098566968064197954 0 0.022097793301480997 0.0099403602205992841 0 0.022128807947756395 0.0098070665036491429 0 0.022063107039683796 0.0097120253151065025 0 0.022032805501335441 0.0098566968064197954 0 0.022128807947756395 0.0098070665036491429 0 0.022032805501335441 0.0098566968064197954 0 0.022097793301480997 0.0099403602205992841 0 0.021978362924174839 0.0099616278115380458 0 0.022097793301480997 0.0099403602205992841 0 0.021978362924174839 0.0099616278115380458 0 0.022036878448659574 0.01004162375508902 0 0.022097793301480997 0.0099403602205992841 0 0.022036878448659574 0.01004162375508902 0 0.022128322360837081 0.010083432990955507 0 0.021897197881011951 0.0099696559984038032 0 0.021978362924174839 0.0099616278115380458 0 0.021936815577677016 0.010101677643954187 0 0.021912919907277326 0.0098049119569630881 0 0.021897197881011951 0.0099696559984038032 0 0.021978362924174839 0.0099616278115380458 0 0.021912919907277326 0.0098049119569630881 0 0.022032805501335441 0.0098566968064197954 0 0.021978362924174839 0.0099616278115380458 0 0.021897197881011951 0.0099696559984038032 0 0.021936815577677016 0.010101677643954187 0 0.021868730989959326 0.010097602900437239 0 0.021978362924174839 0.0099616278115380458 0 0.021936815577677016 0.010101677643954187 0 0.022036878448659574 0.01004162375508902 0 0.021936815577677016 0.010101677643954187 0 0.022036878448659574 0.01004162375508902 0 0.022027172235144256 0.010098457370991477 0 0.022036878448659574 0.01004162375508902 0 0.022027172235144256 0.010098457370991477 0 0.022128322360837081 0.010083432990955507 0 0.022027172235144256 0.010098457370991477 0 0.021954175796558735 0.010148521744371371 0 0.022017152641412654 0.010067918429933639 0 0.021936815577677016 0.010101677643954187 0 0.021954175796558735 0.010148521744371371 0 0.021907882219337548 0.010250650813288254 0 0.021936815577677016 0.010101677643954187 0 0.022027172235144256 0.010098457370991477 0 0.021954175796558735 0.010148521744371371 0 0.021907882219337548 0.010250650813288254 0 0.021876503049522687 0.010240050492897992 0 0.021898314138016132 0.010394457224348362 0 0.021936815577677016 0.010101677643954187 0 0.021907882219337548 0.010250650813288254 0 0.021876503049522687 0.010240050492897992 0 0.021936815577677016 0.010101677643954187 0 0.021876503049522687 0.010240050492897992 0 0.021868730989959326 0.010097602900437239 0 0.021876503049522687 0.010240050492897992 0 0.021868730989959326 0.010097602900437239 0 0.021847128158153793 0.010203623633365952 0 0.021847128158153793 0.010203623633365952 0 0.021878501672964838 0.010340428714213703 0 0.021876398371502268 0.010347636263796325 0 0.021876503049522687 0.010240050492897992 0 0.021878501672964838 0.010340428714213703 0 0.021898314138016132 0.010394457224348362 0 0.021876503049522687 0.010240050492897992 0 0.021847128158153793 0.010203623633365952 0 0.021878501672964838 0.010340428714213703 0 0.021878501672964838 0.010340428714213703 0 0.021876398371502268 0.010347636263796325 0 0.021929136813619583 0.010505315123388195 0 0.021878501672964838 0.010340428714213703 0 0.021898314138016132 0.010394457224348362 0 0.021929136813619583 0.010505315123388195 0 0.021907882219337548 0.010250650813288254 0 0.021898314138016132 0.010394457224348362 0 0.021899824939654883 0.01037295530845575 0 0.021898314138016132 0.010394457224348362 0 0.021950746035978581 0.010569110563226644 0 0.021899824939654883 0.01037295530845575 0 0.021950746035978581 0.010569110563226644 0 0.022000154701784218 0.010725842324586477 0 0.021899824939654883 0.01037295530845575 0 0.015277668943877706 0.020011248106902173 0 0.015287706848031367 0.019546719326470199 0 0.016339717837148608 0.020631086743846078 0 0.021950746035978581 0.010569110563226644 0 0.021997913180770625 0.010672834802812134 0 0.021929136813619583 0.010505315123388195 0 0.021898314138016132 0.010394457224348362 0 0.021950746035978581 0.010569110563226644 0 0.021929136813619583 0.010505315123388195 0 0.021950746035978581 0.010569110563226644 0 0.021997913180770625 0.010672834802812134 0 0.022003120654423735 0.010704423223039121 0 0.021950746035978581 0.010569110563226644 0 0.022003120654423735 0.010704423223039121 0 0.022000154701784218 0.010725842324586477 0 0.015277668943877706 0.020011248106902173 0 0.015287706848031367 0.019546719326470199 0 0.017672471428464655 0.01806610648554462 0 0.022093207737868045 0.010845695607352282 0 0.022201345694724001 0.010972736083661377 0 0.022390032020724 0.011298092865838825 0 0.019957333863804917 0.014596659374736507 0 0.021231136475238194 0.013747041041680048 0 0.022000154701784218 0.010725842324586477 0 0.022093207737868045 0.010845695607352282 0 0.022390032020724 0.011298092865838825 0 0.014379226583215006 0.01963287939870571 0 0.014275879843369159 0.019562515899085236 0 0.022003120654423735 0.010704423223039121 0 0.022000154701784218 0.010725842324586477 0 0.022093207737868045 0.010845695607352282 0 0.021997913180770625 0.010672834802812134 0 0.022003120654423735 0.010704423223039121 0 0.022093207737868045 0.010845695607352282 0 0.021997913180770625 0.010672834802812134 0 0.022093207737868045 0.010845695607352282 0 0.022096856065411289 0.010794369048354515 0 0.021997913180770625 0.010672834802812134 0 0.022096856065411289 0.010794369048354515 0 0.021976682857122721 0.010571888244390683 0 0.022096856065411289 0.010794369048354515 0 0.022201345694724001 0.010972736083661377 0 0.022272478174832834 0.010989095173246114 0 0.022093207737868045 0.010845695607352282 0 0.022096856065411289 0.010794369048354515 0 0.022201345694724001 0.010972736083661377 0 0.022098456004287767 0.010693216651536955 0 0.022272478174832834 0.010989095173246114 0 0.022210817083240107 0.010704498376917265 0 0.022096856065411289 0.010794369048354515 0 0.022098456004287767 0.010693216651536955 0 0.022272478174832834 0.010989095173246114 0 0.022096856065411289 0.010794369048354515 0 0.022098456004287767 0.010693216651536955 0 0.021976682857122721 0.010571888244390683 0 0.022098456004287767 0.010693216651536955 0 0.021976682857122721 0.010571888244390683 0 0.022005202959692462 0.010406498353279144 0 0.021976682857122721 0.010571888244390683 0 0.021876398371502268 0.010347636263796325 0 0.021929136813619583 0.010505315123388195 0 0.021976682857122721 0.010571888244390683 0 0.021876398371502268 0.010347636263796325 0 0.021894723190843918 0.01032257060166541 0 0.021997913180770625 0.010672834802812134 0 0.021976682857122721 0.010571888244390683 0 0.021929136813619583 0.010505315123388195 0 0.022524464963120144 0.017022998922245951 0 0.018147147603026867 0.015537274163112355 0 0.023167188122906971 0.012466709040561323 0 0.012534603037196633 0.019445854009276987 0 0.014275879843369159 0.019562515899085236 0 0.022524464963120144 0.017022998922245951 0 0.018147147603026867 0.015537274163112355 0 0.017672471428464655 0.01806610648554462 0 0.015287706848031367 0.019546719326470199 0 0.018147147603026867 0.015537274163112355 0 0.017672471428464655 0.01806610648554462 0 0.022201345694724001 0.010972736083661377 0 0.022390032020724 0.011298092865838825 0 0.022272478174832834 0.010989095173246114 0 0.022272478174832834 0.010989095173246114 0 0.022435860877706434 0.010876276884068012 0 0.022210817083240107 0.010704498376917265 0 0.022272478174832834 0.010989095173246114 0 0.02256949586245029 0.011360655325303934 0 0.022435860877706434 0.010876276884068012 0 0.02256949586245029 0.011360655325303934 0 0.022840645093228973 0.011218397711709243 0 0.022435860877706434 0.010876276884068012 0 0.022390032020724 0.011298092865838825 0 0.022272478174832834 0.010989095173246114 0 0.02256949586245029 0.011360655325303934 0 0.02256949586245029 0.011360655325303934 0 0.022840645093228973 0.011218397711709243 0 0.023167188122906971 0.012466709040561323 0 0.022390032020724 0.011298092865838825 0 0.02256949586245029 0.011360655325303934 0 0.023167188122906971 0.012466709040561323 0 0.022840645093228973 0.011218397711709243 0 0.023167188122906971 0.012466709040561323 0 0.023532487145100655 0.01096633267022783 0 0.021231136475238194 0.013747041041680048 0 0.022266667139635602 0.013244702589710316 0 0.022840645093228973 0.011218397711709243 0 0.022856866516420389 0.010442520234415716 0 0.023532487145100655 0.01096633267022783 0 0.022840645093228973 0.011218397711709243 0 0.022435860877706434 0.010876276884068012 0 0.022856866516420389 0.010442520234415716 0 0.022435860877706434 0.010876276884068012 0 0.02242499825477064 0.010180982527776836 0 0.022856866516420389 0.010442520234415716 0 0.022435860877706434 0.010876276884068012 0 0.02242499825477064 0.010180982527776836 0 0.022168185726461384 0.010392265724830384 0 0.022435860877706434 0.010876276884068012 0 0.022210817083240107 0.010704498376917265 0 0.022168185726461384 0.010392265724830384 0 0.02242499825477064 0.010180982527776836 0 0.022856866516420389 0.010442520234415716 0 0.022874216135838794 0.0096214345037056899 0 0.02242499825477064 0.010180982527776836 0 0.022874216135838794 0.0096214345037056899 0 0.022271160151043704 0.0096494424727369896 0 0.022856866516420389 0.010442520234415716 0 0.023532487145100655 0.01096633267022783 0 0.023653454129092265 0.0098440621362332961 0 0.022856866516420389 0.010442520234415716 0 0.022874216135838794 0.0096214345037056899 0 0.023653454129092265 0.0098440621362332961 0 0.021819746715065879 0.010084716470183205 0 0.022005202959692462 0.010406498353279144 0 0.021908699225153039 0.010048146956520379 0 0.021819746715065879 0.010084716470183205 0 0.021894723190843918 0.01032257060166541 0 0.022005202959692462 0.010406498353279144 0 0.02181842952918539 0.010158976775422818 0 0.021819746715065879 0.010084716470183205 0 0.021894723190843918 0.01032257060166541 0 0.02181842952918539 0.010158976775422818 0 0.021876398371502268 0.010347636263796325 0 0.021894723190843918 0.01032257060166541 0 0.021976682857122721 0.010571888244390683 0 0.021894723190843918 0.01032257060166541 0 0.022005202959692462 0.010406498353279144 0 0.022098456004287767 0.010693216651536955 0 0.022005202959692462 0.010406498353279144 0 0.022210817083240107 0.010704498376917265 0 0.022005202959692462 0.010406498353279144 0 0.022210817083240107 0.010704498376917265 0 0.022168185726461384 0.010392265724830384 0 0.022005202959692462 0.010406498353279144 0 0.022168185726461384 0.010392265724830384 0 0.021908699225153039 0.010048146956520379 0 0.022168185726461384 0.010392265724830384 0 0.022107085996403892 0.010008059469554003 0 0.021908699225153039 0.010048146956520379 0 0.02242499825477064 0.010180982527776836 0 0.022168185726461384 0.010392265724830384 0 0.022107085996403892 0.010008059469554003 0 0.02242499825477064 0.010180982527776836 0 0.022107085996403892 0.010008059469554003 0 0.022271160151043704 0.0096494424727369896 0 0.022107085996403892 0.010008059469554003 0 0.021894425230018978 0.0096822915172842562 0 0.022271160151043704 0.0096494424727369896 0 0.022107085996403892 0.010008059469554003 0 0.021908699225153039 0.010048146956520379 0 0.021894425230018978 0.0096822915172842562 0 0.021908699225153039 0.010048146956520379 0 0.021691251486058816 0.0097362615122194209 0 0.021894425230018978 0.0096822915172842562 0 0.021819746715065879 0.010084716470183205 0 0.021908699225153039 0.010048146956520379 0 0.021691251486058816 0.0097362615122194209 0 0.021757929859684198 0.0099345749723731697 0 0.021819746715065879 0.010084716470183205 0 0.021691251486058816 0.0097362615122194209 0 0.021691251486058816 0.0097362615122194209 0 0.021643994958293816 0.0093655677289430014 0 0.021578475980371627 0.0094644033983616038 0 0.021691251486058816 0.0097362615122194209 0 0.021643994958293816 0.0093655677289430014 0 0.021894425230018978 0.0096822915172842562 0 0.021643994958293816 0.0093655677289430014 0 0.021419349921837784 0.0092148327963281294 0 0.021578475980371627 0.0094644033983616038 0 0.021894425230018978 0.0096822915172842562 0 0.02194930611851053 0.0091955777209644703 0 0.022271160151043704 0.0096494424727369896 0 0.021643994958293816 0.0093655677289430014 0 0.021894425230018978 0.0096822915172842562 0 0.02194930611851053 0.0091955777209644703 0 0.02194930611851053 0.0091955777209644703 0 0.021417555909049237 0.0089965400290014739 0 0.022019803135578803 0.0083273415011926553 0 0.021417555909049237 0.0089965400290014739 0 0.021264370266321903 0.0080945862901666849 0 0.022019803135578803 0.0083273415011926553 0 0.02194930611851053 0.0091955777209644703 0 0.022728855314745 0.0088929517747236148 0 0.022019803135578803 0.0083273415011926553 0 0.021417555909049237 0.0089965400290014739 0 0.021035689585283776 0.0088295894009169408 0 0.021264370266321903 0.0080945862901666849 0 0.021417555909049237 0.0089965400290014739 0 0.021035689585283776 0.0088295894009169408 0 0.021419349921837784 0.0092148327963281294 0 0.021643994958293816 0.0093655677289430014 0 0.021417555909049237 0.0089965400290014739 0 0.021419349921837784 0.0092148327963281294 0 0.021643994958293816 0.0093655677289430014 0 0.02194930611851053 0.0091955777209644703 0 0.021417555909049237 0.0089965400290014739 0 0.022874216135838794 0.0096214345037056899 0 0.022728855314745 0.0088929517747236148 0 0.023651740792232506 0.0087989121608865444 0 0.022874216135838794 0.0096214345037056899 0 0.023651740792232506 0.0087989121608865444 0 0.023653454129092265 0.0098440621362332961 0 0.02194930611851053 0.0091955777209644703 0 0.022271160151043704 0.0096494424727369896 0 0.022728855314745 0.0088929517747236148 0 0.022874216135838794 0.0096214345037056899 0 0.022271160151043704 0.0096494424727369896 0 0.022728855314745 0.0088929517747236148 0 0.022728855314745 0.0088929517747236148 0 0.023352671230475665 0.0079483621970737311 0 0.022019803135578803 0.0083273415011926553 0 0.022728855314745 0.0088929517747236148 0 0.023651740792232506 0.0087989121608865444 0 0.023352671230475665 0.0079483621970737311 0 0.023352671230475665 0.0079483621970737311 0 0.02275122875146943 0.0072153938352011926 0 0.023604633374842761 0.0070588075853326082 0 0.023352671230475665 0.0079483621970737311 0 0.023604633374842761 0.0070588075853326082 0 0.0242639359763006 0.0073096956780268887 0 0.023352671230475665 0.0079483621970737311 0 0.02275122875146943 0.0072153938352011926 0 0.022019803135578803 0.0083273415011926553 0 0.022514506490872013 0.0065227524705074253 0 0.022149093393883851 0.0071861980434832183 0 0.022707593719609471 0.0067735653419337761 0 0.023795419994218168 0.0049759466100335829 0 0.021952454894110341 0.0055116507047191475 0 0.022707593719609471 0.0067735653419337761 0 0.021450885619290438 0.0067747617184363432 0 0.021952454894110341 0.0055116507047191475 0 0.02275122875146943 0.0072153938352011926 0 0.023604633374842761 0.0070588075853326082 0 0.023511487710432023 0.0063131282725802434 0 0.022514506490872013 0.0065227524705074253 0 0.023172838744934761 0.0051025819417241493 0 0.021264370266321903 0.0080945862901666849 0 0.021450885619290438 0.0067747617184363432 0 0.020296543426627778 0.0072762277990713478 0 0.020197433536848421 0.008001263232907764 0 0.020123057452684667 0.0078223448869959005 0 0.021035689585283776 0.0088295894009169408 0 0.021264370266321903 0.0080945862901666849 0 0.020296543426627778 0.0072762277990713478 0 0.021264370266321903 0.0080945862901666849 0 0.022019803135578803 0.0083273415011926553 0 0.021450885619290438 0.0067747617184363432 0 0.022707593719609471 0.0067735653419337761 0 0.022019803135578803 0.0083273415011926553 0 0.021450885619290438 0.0067747617184363432 0 0.021450885619290438 0.0067747617184363432 0 0.021051465191242784 0.0051352436445642477 0 0.020049116740433814 0.0060271756138468779 0 0.021450885619290438 0.0067747617184363432 0 0.020296543426627778 0.0072762277990713478 0 0.020049116740433814 0.0060271756138468779 0 0.020123057452684667 0.0078223448869959005 0 0.019922239163325001 0.0072906535628291273 0 0.021284701757552434 0.0097503038757038064 0 0.021182121869634824 0.010219895467766096 0 0.020912582585354774 0.010350330763497957 0 0.020795847656874335 0.0082819444238500135 0 0.019922239163325001 0.0072906535628291273 0 0.021085959275602577 0.0095211176731251485 0 0.021725396011605756 0.00962235922290707 0 0.021099486714169946 0.0099356743118941011 0 0.021284701757552434 0.0097503038757038064 0 0.021707510183482239 0.010020495930910398 0 0.021182121869634824 0.010219895467766096 0 0.021725396011605756 0.00962235922290707 0 0.021821960180149806 0.0093585972162042608 0 0.02209900677769858 0.0093989318878695584 0 0.021725396011605756 0.00962235922290707 0 0.021821960180149806 0.0093585972162042608 0 0.021533281373952034 0.0092766742628750572 0 0.021085959275602577 0.0095211176731251485 0 0.021725396011605756 0.00962235922290707 0 0.021533281373952034 0.0092766742628750572 0 0.021035689585283776 0.0088295894009169408 0 0.021085959275602577 0.0095211176731251485 0 0.021533281373952034 0.0092766742628750572 0 0.021035689585283776 0.0088295894009169408 0 0.021533281373952034 0.0092766742628750572 0 0.021614994922922667 0.0092790827577524018 0 0.021035689585283776 0.0088295894009169408 0 0.021419349921837784 0.0092148327963281294 0 0.021614994922922667 0.0092790827577524018 0 0.021821960180149806 0.0093585972162042608 0 0.021533281373952034 0.0092766742628750572 0 0.021614994922922667 0.0092790827577524018 0 0.021821960180149806 0.0093585972162042608 0 0.021614994922922667 0.0092790827577524018 0 0.021900026699095833 0.0094661059397638941 0 0.021614994922922667 0.0092790827577524018 0 0.021752145485381614 0.009496230318553428 0 0.021633265972962397 0.0095150286793188408 0 0.021614994922922667 0.0092790827577524018 0 0.021752145485381614 0.009496230318553428 0 0.021900026699095833 0.0094661059397638941 0 0.021780761047166058 0.0096982747325837695 0 0.021752145485381614 0.009496230318553428 0 0.021945399707860511 0.0096186466372232323 0 0.021780761047166058 0.0096982747325837695 0 0.021752145485381614 0.009496230318553428 0 0.021633265972962397 0.0095150286793188408 0 0.021419349921837784 0.0092148327963281294 0 0.021614994922922667 0.0092790827577524018 0 0.021633265972962397 0.0095150286793188408 0 0.021691251486058816 0.0097362615122194209 0 0.021633265972962397 0.0095150286793188408 0 0.021578475980371627 0.0094644033983616038 0 0.021419349921837784 0.0092148327963281294 0 0.021633265972962397 0.0095150286793188408 0 0.021578475980371627 0.0094644033983616038 0 0.022063107039683796 0.0097120253151065025 0 0.022145286910751627 0.0095269156169283126 0 0.021945399707860511 0.0096186466372232323 0 0.022063107039683796 0.0097120253151065025 0 0.022145286910751627 0.0095269156169283126 0 0.022200879805126326 0.0096869887049922821 0 0.022145286910751627 0.0095269156169283126 0 0.021945399707860511 0.0096186466372232323 0 0.021900026699095833 0.0094661059397638941 0 0.021752145485381614 0.009496230318553428 0 0.021945399707860511 0.0096186466372232323 0 0.021900026699095833 0.0094661059397638941 0 0.022145286910751627 0.0095269156169283126 0 0.021900026699095833 0.0094661059397638941 0 0.02209900677769858 0.0093989318878695584 0 0.021821960180149806 0.0093585972162042608 0 0.021900026699095833 0.0094661059397638941 0 0.02209900677769858 0.0093989318878695584 0 0.022145286910751627 0.0095269156169283126 0 0.02209900677769858 0.0093989318878695584 0 0.022482777784013263 0.0094417151493142084 0 0.02209900677769858 0.0093989318878695584 0 0.022718885051379662 0.0094007432508585714 0 0.022482777784013263 0.0094417151493142084 0 0.020795847656874335 0.0082819444238500135 0 0.021181041010734737 0.0084825175413809732 0 0.02209900677769858 0.0093989318878695584 0 0.022421381965973562 0.0097583568481845774 0 0.021707510183482239 0.010020495930910398 0 0.021284701757552434 0.0097503038757038064 0 0.02209900677769858 0.0093989318878695584 0 0.021707510183482239 0.010020495930910398 0 0.02209900677769858 0.0093989318878695584 0 0.022718885051379662 0.0094007432508585714 0 0.022421381965973562 0.0097583568481845774 0 0.022718885051379662 0.0094007432508585714 0 0.022700953085005318 0.0093744850032961256 0 0.023810123217753696 0.0092299369098708464 0 0.022718885051379662 0.0094007432508585714 0 0.023810123217753696 0.0092299369098708464 0 0.022421381965973562 0.0097583568481845774 0 0.022718885051379662 0.0094007432508585714 0 0.022482777784013263 0.0094417151493142084 0 0.022700953085005318 0.0093744850032961256 0 0.025675332629297241 0.003831654548078369 0 0.027587527301132023 1.3982356761166247e-05 0 0.022482777784013263 0.0094417151493142084 0 0.022700953085005318 0.0093744850032961256 0 0.022302696128696883 0.0094741379407250765 0 0.025675332629297241 0.003831654548078369 0 0.024824342529246403 0.0059410201643952925 0 0.026308042263955039 -0.00071432306006038375 0 0.029385765713720893 0.0062471391504466721 0 0.023810123217753696 0.0092299369098708464 0 0.026308042263955039 -0.00071432306006038375 0 0.03930551970394118 0.0047140381354909867 0 0.029385765713720893 0.0062471391504466721 0 0.026308042263955039 -0.00071432306006038375 0 0.03930551970394118 0.0047140381354909867 0 0.040246794568862987 -0.0086725779090409023 0 0.051304076153955692 -0.0090038000141965894 0 0.055492383594455942 -0.011697786267816706 0 0.03930551970394118 0.0047140381354909867 0 0.040246794568862987 -0.0086725779090409023 0 0.050137969794864137 -0.0048341888926340948 0 0.026308042263955039 -0.00071432306006038375 0 0.040246794568862987 -0.0086725779090409023 0 0.030286922284682188 -0.01129616665293119 0 0.027587527301132023 1.3982356761166247e-05 0 0.029856519646101674 -0.0026712046322785441 0 0.040246794568862987 -0.0086725779090409023 0 0.030286922284682188 -0.01129616665293119 0 0.034386777882605045 -0.021933042777195308 0 0.040246794568862987 -0.0086725779090409023 0 0.045079835546428831 -0.017637641374762043 0 0.046996076113521329 -0.010982676886004315 0 0.040246794568862987 -0.0086725779090409023 0 0.045079835546428831 -0.017637641374762043 0 0.034386777882605045 -0.021933042777195308 0 0.045079835546428831 -0.017637641374762043 0 0.034386777882605045 -0.021933042777195308 0 0.041939179752670343 -0.024889173162117459 0 0.022302696128696883 0.0094741379407250765 0 0.022091063853418247 0.0096712786047988726 0 0.02221693908860576 0.0097065572323483101 0 0.022302696128696883 0.0094741379407250765 0 0.02221693908860576 0.0097065572323483101 0 0.022313034284799162 0.0095757264018692737 0 0.022145286910751627 0.0095269156169283126 0 0.022313034284799162 0.0095757264018692737 0 0.022200879805126326 0.0096869887049922821 0 0.02221693908860576 0.0097065572323483101 0 0.022313034284799162 0.0095757264018692737 0 0.022200879805126326 0.0096869887049922821 0 0.022145286910751627 0.0095269156169283126 0 0.022482777784013263 0.0094417151493142084 0 0.022313034284799162 0.0095757264018692737 0 0.022482777784013263 0.0094417151493142084 0 0.022302696128696883 0.0094741379407250765 0 0.022313034284799162 0.0095757264018692737 0 0.058815927747847913 -0.01679462770582996 0 0.058981704011461647 -0.017114945026388328 0 0.059222498004418686 -0.016668918276856445 0 0.058981704011461647 -0.017114945026388328 0 0.05931867454425916 -0.017220286196511472 0 0.059222498004418686 -0.016668918276856445 0 0.059598436890834314 -0.0168261564776628 0 0.05931867454425916 -0.017220286196511472 0 0.05991301959051356 -0.017513617174076349 0 0.059598436890834314 -0.0168261564776628 0 0.05931867454425916 -0.017220286196511472 0 0.059222498004418686 -0.016668918276856445 0 0.05931867454425916 -0.017220286196511472 0 0.059461258418973553 -0.017875280087684225 0 0.05991301959051356 -0.017513617174076349 0 0.05931867454425916 -0.017220286196511472 0 0.059461258418973553 -0.017875280087684225 0 0.058956394788410457 -0.017699501024130329 0 0.058981704011461647 -0.017114945026388328 0 0.05931867454425916 -0.017220286196511472 0 0.058956394788410457 -0.017699501024130329 0 0.059461258418973553 -0.017875280087684225 0 0.058956394788410457 -0.017699501024130329 0 0.058968360033512975 -0.018636760949113734 0 0.058968360033512975 -0.018636760949113734 0 0.059766927461136071 -0.018592415763271739 0 0.059405717901993893 -0.019844451613016435 0 0.059461258418973553 -0.017875280087684225 0 0.059766927461136071 -0.018592415763271739 0 0.05991301959051356 -0.017513617174076349 0 0.059461258418973553 -0.017875280087684225 0 0.058968360033512975 -0.018636760949113734 0 0.059766927461136071 -0.018592415763271739 0 0.059766927461136071 -0.018592415763271739 0 0.06110221516023482 -0.01872151616461986 0 0.060390925490901075 -0.019650356312497445 0 0.059766927461136071 -0.018592415763271739 0 0.06110221516023482 -0.01872151616461986 0 0.05991301959051356 -0.017513617174076349 0 0.06110221516023482 -0.01872151616461986 0 0.05991301959051356 -0.017513617174076349 0 0.060735508284261684 -0.017142388554915029 0 0.059598436890834314 -0.0168261564776628 0 0.05991301959051356 -0.017513617174076349 0 0.059992129742373522 -0.016557953583670407 0 0.05991301959051356 -0.017513617174076349 0 0.060735508284261684 -0.017142388554915029 0 0.059992129742373522 -0.016557953583670407 0 0.06110221516023482 -0.01872151616461986 0 0.060735508284261684 -0.017142388554915029 0 0.063017241361207704 -0.01740481530429875 0 0.060735508284261684 -0.017142388554915029 0 0.063017241361207704 -0.01740481530429875 0 0.060023919672956116 -0.015458859181743905 0 0.06110221516023482 -0.01872151616461986 0 0.063017241361207704 -0.01740481530429875 0 0.063008804378520439 -0.019738006643383967 0 0.065040484414618072 -0.019291536308289541 0 0.063017241361207704 -0.01740481530429875 0 0.063008804378520439 -0.019738006643383967 0 0.040246794568862987 -0.0086725779090409023 0 0.050137969794864137 -0.0048341888926340948 0 0.046996076113521329 -0.010982676886004315 0 0.050137969794864137 -0.0048341888926340948 0 0.046996076113521329 -0.010982676886004315 0 0.052198703122940456 -0.014646294810154755 0 0.045079835546428831 -0.017637641374762043 0 0.046996076113521329 -0.010982676886004315 0 0.052198703122940456 -0.014646294810154755 0 0.045079835546428831 -0.017637641374762043 0 0.051939279466714137 -0.022246300435172128 0 0.041939179752670343 -0.024889173162117459 0 0.045079835546428831 -0.017637641374762043 0 0.052198703122940456 -0.014646294810154755 0 0.051939279466714137 -0.022246300435172128 0 0.051939279466714137 -0.022246300435172128 0 0.057981573402563956 -0.016931319179498472 0 0.059167282766337148 -0.02598718489421915 0 0.052198703122940456 -0.014646294810154755 0 0.051939279466714137 -0.022246300435172128 0 0.057981573402563956 -0.016931319179498472 0 0.044000898628992188 -0.011444987534938349 0 0.041365370153732428 -0.0061649709271828475 0 0.057981573402563956 -0.016931319179498472 0 0.059364129111960366 -0.016599499863100893 0 0.059214342754104025 -0.017186181884451129 0 0.055492383594455942 -0.011697786267816706 0 0.057707097408031927 -0.013569453528550915 0 0.050137969794864137 -0.0048341888926340948 0 0.052198703122940456 -0.014646294810154755 0 0.060023919672956116 -0.015458859181743905 0 0.052198703122940456 -0.014646294810154755 0 0.057981573402563956 -0.016931319179498472 0 0.060023919672956116 -0.015458859181743905 0 0.057981573402563956 -0.016931319179498472 0 0.060023919672956116 -0.015458859181743905 0 0.059364129111960366 -0.016599499863100893 0 0.060735508284261684 -0.017142388554915029 0 0.059992129742373522 -0.016557953583670407 0 0.060023919672956116 -0.015458859181743905 0 0.059992129742373522 -0.016557953583670407 0 0.060023919672956116 -0.015458859181743905 0 0.059791813128514872 -0.016018934116379925 0 0.059992129742373522 -0.016557953583670407 0 0.059791813128514872 -0.016018934116379925 0 0.059591741695785745 -0.01632014739144886 0 0.059598436890834314 -0.0168261564776628 0 0.059992129742373522 -0.016557953583670407 0 0.059591741695785745 -0.01632014739144886 0 0.059791813128514872 -0.016018934116379925 0 0.059491354845222291 -0.016437760456290793 0 0.059591741695785745 -0.01632014739144886 0 0.060023919672956116 -0.015458859181743905 0 0.059791813128514872 -0.016018934116379925 0 0.059364129111960366 -0.016599499863100893 0 0.059791813128514872 -0.016018934116379925 0 0.059364129111960366 -0.016599499863100893 0 0.059491354845222291 -0.016437760456290793 0 0.052137915212916143 -0.0071308853196346035 0 0.041365370153732428 -0.0061649709271828475 0 0.059364129111960366 -0.016599499863100893 0 0.059491354845222291 -0.016437760456290793 0 0.059214342754104025 -0.017186181884451129 0 0.059491354845222291 -0.016437760456290793 0 0.059387387420282045 -0.016151458371783941 0 0.059214342754104025 -0.017186181884451129 0 0.059491354845222291 -0.016437760456290793 0 0.059387387420282045 -0.016151458371783941 0 0.059367959785847406 -0.016340036641279546 0 0.058964814924965782 -0.01635991308635289 0 0.059387387420282045 -0.016151458371783941 0 0.059367959785847406 -0.016340036641279546 0 0.059005541915590459 -0.0165460640112873 0 0.058964814924965782 -0.01635991308635289 0 0.059367959785847406 -0.016340036641279546 0 0.059491354845222291 -0.016437760456290793 0 0.059367959785847406 -0.016340036641279546 0 0.059591741695785745 -0.01632014739144886 0 0.059598436890834314 -0.0168261564776628 0 0.059591741695785745 -0.01632014739144886 0 0.059222498004418686 -0.016668918276856445 0 0.059367959785847406 -0.016340036641279546 0 0.059591741695785745 -0.01632014739144886 0 0.059222498004418686 -0.016668918276856445 0 0.059005541915590459 -0.0165460640112873 0 0.058815927747847913 -0.01679462770582996 0 0.059222498004418686 -0.016668918276856445 0 0.059005541915590459 -0.0165460640112873 0 0.059367959785847406 -0.016340036641279546 0 0.059222498004418686 -0.016668918276856445 0 0.043120959004638304 0.0027957801610010483 0 0.042444866225417356 0.0016610019938471392 0 0.043191617075571072 0.001286447959480285 0 0.04459003747959428 0.0019242930527561724 0 0.043120959004638304 0.0027957801610010483 0 0.043191617075571072 0.001286447959480285 0 0.058693106217072279 -0.015900473423979895 0 0.059387387420282045 -0.016151458371783941 0 0.059390569859945813 -0.015547581614530417 0 0.059387387420282045 -0.016151458371783941 0 0.059390569859945813 -0.015547581614530417 0 0.059742610000997669 -0.015545583877084599 0 0.059387387420282045 -0.016151458371783941 0 0.059742610000997669 -0.015545583877084599 0 0.059991905985306966 -0.015792622516477672 0 0.059742610000997669 -0.015545583877084599 0 0.059896331197070614 -0.015214027266219815 0 0.059991905985306966 -0.015792622516477672 0 0.059390569859945813 -0.015547581614530417 0 0.059742610000997669 -0.015545583877084599 0 0.059896331197070614 -0.015214027266219815 0 0.047549562670270037 -0.0024264311051206198 0 0.039751679245304851 -6.7090902594907135e-06 0 0.043120959004638304 0.0027957801610010483 0 0.041678217857658142 0.0020046806935280562 0 0.042444866225417356 0.0016610019938471392 0 0.021233426690224291 0.012618763643768771 0 0.020965554249702187 0.012683576092201485 0 0.021146902647866332 0.012867113873046669 0 0.021233426690224291 0.012618763643768771 0 0.021167986735144601 0.012568631493098082 0 0.020965554249702187 0.012683576092201485 0 0.039751679245304851 -6.7090902594907135e-06 0 0.039274259669364202 -2.5375715128537334e-05 0 0.039751679245304851 -6.7090902594907135e-06 0 0.041365370153732428 -0.0061649709271828475 0 0.051939279466714137 -0.022246300435172128 0 0.059167282766337148 -0.02598718489421915 0 0.048760020162312075 -0.029334370631082331 0 0.041365370153732428 -0.0061649709271828475 0 0.034939568841521648 -0.0036967049993960385 0 0.020965554249702187 0.012683576092201485 0 0.021146902647866332 0.012867113873046669 0 0.020921203987379754 0.012772006909396059 0 0.051939279466714137 -0.022246300435172128 0 0.048760020162312075 -0.029334370631082331 0 0.041939179752670343 -0.024889173162117459 0 0.020965554249702187 0.012683576092201485 0 0.020921203987379754 0.012772006909396059 0 0.020894664787892012 0.012738473750848153 0 0.020965554249702187 0.012683576092201485 0 0.020894664787892012 0.012738473750848153 0 0.020893943055042233 0.012760271741882948 0 0.020894664787892012 0.012738473750848153 0 0.020893943055042233 0.012760271741882948 0 0.020851244649688603 0.012773177263463244 0 0.020965554249702187 0.012683576092201485 0 0.020893943055042233 0.012760271741882948 0 0.020903818743955183 0.012800569320125476 0 0.020893943055042233 0.012760271741882948 0 0.02084353502716263 0.012777239092991497 0 0.020903818743955183 0.012800569320125476 0 0.020893943055042233 0.012760271741882948 0 0.02084353502716263 0.012777239092991497 0 0.020851244649688603 0.012773177263463244 0 0.024790925411032158 0.010435491600440237 0 0.023460784627692053 0.011959207500766088 0 0.02084353502716263 0.012777239092991497 0 0.020776960123024272 0.012797479272711097 0 0.020719288613181314 0.012557465765153699 0 0.02084353502716263 0.012777239092991497 0 0.020851244649688603 0.012773177263463244 0 0.020719288613181314 0.012557465765153699 0 0.02084353502716263 0.012777239092991497 0 0.020875061757273921 0.01290790251200916 0 0.020776960123024272 0.012797479272711097 0 0.020776960123024272 0.012797479272711097 0 0.020900691757039121 0.013074712039552624 0 0.02061014255635496 0.012684904603002868 0 0.020715022537623258 0.01326856918235006 0 0.020756538868556863 0.013467343107763491 0 0.020900691757039121 0.013074712039552624 0 0.020848658993233026 0.013625495835774356 0 0.020837552876599771 0.013521821430361156 0 0.020875061757273921 0.01290790251200916 0 0.020776960123024272 0.012797479272711097 0 0.020900691757039121 0.013074712039552624 0 0.020875061757273921 0.01290790251200916 0 0.020805201206268498 0.012820828451679568 0 0.020900691757039121 0.013074712039552624 0 0.020875061757273921 0.01290790251200916 0 0.020903818743955183 0.012800569320125476 0 0.020805201206268498 0.012820828451679568 0 0.02084353502716263 0.012777239092991497 0 0.020875061757273921 0.01290790251200916 0 0.020903818743955183 0.012800569320125476 0 0.021167986735144601 0.012568631493098082 0 0.020965554249702187 0.012683576092201485 0 0.021352036385421113 0.012243172730906476 0 0.021311673039986104 0.012639793783625553 0 0.021167986735144601 0.012568631493098082 0 0.021352036385421113 0.012243172730906476 0 0.027878810592512245 0.011360404940947784 0 0.032406505877355489 0.0079300786626736036 0 0.020965554249702187 0.012683576092201485 0 0.020903818743955183 0.012800569320125476 0 0.020805201206268498 0.012820828451679568 0 0.042444866225417356 0.0016610019938471392 0 0.041800927743849053 0.0011258014282426816 0 0.043191617075571072 0.001286447959480285 0 0.039751679245304851 -6.7090902594907135e-06 0 0.032406505877355489 0.0079300786626736036 0 0.041678217857658142 0.0020046806935280562 0 0.042444866225417356 0.0016610019938471392 0 0.041800927743849053 0.0011258014282426816 0 0.032406505877355489 0.0079300786626736036 0 0.031943413322109926 0.010787650540310426 0 0.020771146225175882 0.014675190452925195 0 0.020848658993233026 0.013625495835774356 0 0.021449883444403475 0.013883238502671291 0 0.020771146225175882 0.014675190452925195 0 0.02167198182366251 0.013947159546855043 0 0.021449883444403475 0.013883238502671291 0 0.032406505877355489 0.0079300786626736036 0 0.030228807140636603 0.011160728228599764 0 0.020805201206268498 0.012820828451679568 0 0.020900691757039121 0.013074712039552624 0 0.020848658993233026 0.013625495835774356 0 0.044060885603103742 0.00022573776436714155 0 0.043005947330722029 -6.8968064943642906e-05 0 0.043191617075571072 0.001286447959480285 0 0.035158745870610408 0.010015760713745539 0 0.031943413322109926 0.010787650540310426 0 0.031943413322109926 0.010787650540310426 0 0.031559273561661744 0.0107437396160091 0 0.041800927743849053 0.0011258014282426816 0 0.043005947330722029 -6.8968064943642906e-05 0 0.043191617075571072 0.001286447959480285 0 0.022254089568768814 0.01006510982988755 0 0.022187722899365075 0.010003991069680574 0 0.022206294317771019 0.0099060519123197032 0 0.022254089568768814 0.01006510982988755 0 0.022206294317771019 0.0099060519123197032 0 0.022145548239027632 0.0098411563391310915 0 0.022254089568768814 0.01006510982988755 0 0.02201375753151975 0.010233142445149786 0 0.022323035762379637 0.010311183410540227 0 0.022254089568768814 0.01006510982988755 0 0.022187722899365075 0.010003991069680574 0 0.022225006891691646 0.010149871352210273 0 0.022187722899365075 0.010003991069680574 0 0.022128322360837081 0.010083432990955507 0 0.022225006891691646 0.010149871352210273 0 0.022097793301480997 0.0099403602205992841 0 0.022187722899365075 0.010003991069680574 0 0.022128322360837081 0.010083432990955507 0 0.022097793301480997 0.0099403602205992841 0 0.022187722899365075 0.010003991069680574 0 0.022188398154321356 0.0098539324234616296 0 0.022187722899365075 0.010003991069680574 0 0.022188398154321356 0.0098539324234616296 0 0.022206294317771019 0.0099060519123197032 0 0.02221693908860576 0.0097065572323483101 0 0.022200879805126326 0.0096869887049922821 0 0.022188398154321356 0.0098539324234616296 0 0.022097793301480997 0.0099403602205992841 0 0.022188398154321356 0.0098539324234616296 0 0.022128807947756395 0.0098070665036491429 0 0.022200879805126326 0.0096869887049922821 0 0.022188398154321356 0.0098539324234616296 0 0.022128807947756395 0.0098070665036491429 0 0.02221693908860576 0.0097065572323483101 0 0.022188398154321356 0.0098539324234616296 0 0.022206294317771019 0.0099060519123197032 0 0.022091063853418247 0.0096712786047988726 0 0.02221693908860576 0.0097065572323483101 0 0.022145548239027632 0.0098411563391310915 0 0.02221693908860576 0.0097065572323483101 0 0.022206294317771019 0.0099060519123197032 0 0.022145548239027632 0.0098411563391310915 0 0.029856519646101674 -0.0026712046322785441 0 0.030919936387940418 0.0014876065362952379 0 0.022091063853418247 0.0096712786047988726 0 0.022145548239027632 0.0098411563391310915 0 0.0219679590719601 0.0099004633498891367 0 0.034939568841521648 -0.0036967049993960385 0 0.030919936387940418 0.0014876065362952379 0 0.034386777882605045 -0.021933042777195308 0 0.041939179752670343 -0.024889173162117459 0 0.03852506316582751 -0.032620024175499952 0 0.048760020162312075 -0.029334370631082331 0 0.041939179752670343 -0.024889173162117459 0 0.03852506316582751 -0.032620024175499952 0 0.020921203987379754 0.012772006909396059 0 0.020894664787892012 0.012738473750848153 0 0.020911837434387886 0.012720023760460575 0 0.030919936387940418 0.0014876065362952379 0 0.024790925411032158 0.010435491600440237 0 0.020894664787892012 0.012738473750848153 0 0.020911837434387886 0.012720023760460575 0 0.020851244649688603 0.012773177263463244 0 0.026439950630328692 0.0028674820001735957 0 0.030919936387940418 0.0014876065362952379 0 0.021574190730854616 0.0097537134109673337 0 0.02201375753151975 0.010233142445149786 0 0.021778339224963007 0.010451993358211217 0 0.022254089568768814 0.01006510982988755 0 0.021574190730854616 0.0097537134109673337 0 0.02201375753151975 0.010233142445149786 0 0.022254089568768814 0.01006510982988755 0 0.022145548239027632 0.0098411563391310915 0 0.0219679590719601 0.0099004633498891367 0 0.02201375753151975 0.010233142445149786 0 0.021778339224963007 0.010451993358211217 0 0.022091605598717017 0.010607629841336435 0 0.021778339224963007 0.010451993358211217 0 0.021052437930249614 0.010789377744882202 0 0.022087471819609215 0.011156583786501093 0 0.021778339224963007 0.010451993358211217 0 0.022091605598717017 0.010607629841336435 0 0.022087471819609215 0.011156583786501093 0 0.021574190730854616 0.0097537134109673337 0 0.021778339224963007 0.010451993358211217 0 0.021052437930249614 0.010789377744882202 0 0.021052437930249614 0.010789377744882202 0 0.021479190468329992 0.011720931076464196 0 0.022087471819609215 0.011156583786501093 0 0.021052437930249614 0.010789377744882202 0 0.021479190468329992 0.011720931076464196 0 0.020719288613181314 0.012557465765153699 0 0.022091605598717017 0.010607629841336435 0 0.022087471819609215 0.011156583786501093 0 0.022550961900547655 0.011269374304840872 0 0.021479190468329992 0.011720931076464196 0 0.022087471819609215 0.011156583786501093 0 0.022202508007772945 0.012130400583709695 0 0.022087471819609215 0.011156583786501093 0 0.023041684878582921 0.011537477602680212 0 0.022202508007772945 0.012130400583709695 0 0.021514361413508831 0.01249014240020962 0 0.021377255502279764 0.012566574432657775 0 0.022091605598717017 0.010607629841336435 0 0.022550961900547655 0.011269374304840872 0 0.022323035762379637 0.010311183410540227 0 0.021377255502279764 0.012566574432657775 0 0.02148118508009509 0.011778215045999414 0 0.022261033934996125 0.010039264381215917 0 0.022323035762379637 0.010311183410540227 0 0.022160934329301281 0.010120457384977747 0 0.022254089568768814 0.01006510982988755 0 0.022323035762379637 0.010311183410540227 0 0.022225006891691646 0.010149871352210273 0 0.022323035762379637 0.010311183410540227 0 0.022225006891691646 0.010149871352210273 0 0.022160934329301281 0.010120457384977747 0 0.02201375753151975 0.010233142445149786 0 0.022091605598717017 0.010607629841336435 0 0.022323035762379637 0.010311183410540227 0 0.022027172235144256 0.010098457370991477 0 0.022128322360837081 0.010083432990955507 0 0.022160934329301281 0.010120457384977747 0 0.022128322360837081 0.010083432990955507 0 0.022225006891691646 0.010149871352210273 0 0.022160934329301281 0.010120457384977747 0 0.022027172235144256 0.010098457370991477 0 0.022160934329301281 0.010120457384977747 0 0.022017152641412654 0.010067918429933639 0 0.022261033934996125 0.010039264381215917 0 0.022160934329301281 0.010120457384977747 0 0.022017152641412654 0.010067918429933639 0 0.021377255502279764 0.012566574432657775 0 0.021192942644563357 0.013429025968307449 0 0.021241517415540114 0.01446290867069119 0 0.021197516548222134 0.014496024465357601 0 0.021195461669589081 0.014431553795173134 0 0.021288139545759581 0.014523689882611608 0 0.021241517415540114 0.01446290867069119 0 0.021197516548222134 0.014496024465357601 0 0.021517272242108136 0.015506420836304213 0 0.020694151847639536 0.015859015279112369 0 0.021241517415540114 0.01446290867069119 0 0.021285776358094088 0.014402855532403403 0 0.021195461669589081 0.014431553795173134 0 0.023057286793943751 0.012797845941515651 0 0.022574006119404081 0.013660528422919063 0 0.023067734736731557 0.013892745918512682 0 0.021241517415540114 0.01446290867069119 0 0.021286310397170195 0.014463655349866537 0 0.021285776358094088 0.014402855532403403 0 0.021549023061069081 0.013851319512715577 0 0.021517272242108136 0.015506420836304213 0 0.021377255502279764 0.012566574432657775 0 0.021549023061069081 0.013851319512715577 0 0.023041684878582921 0.011537477602680212 0 0.023057286793943751 0.012797845941515651 0 0.022202508007772945 0.012130400583709695 0 0.021288139545759581 0.014523689882611608 0 0.021241517415540114 0.01446290867069119 0 0.021286310397170195 0.014463655349866537 0 0.021479190468329992 0.011720931076464196 0 0.022202508007772945 0.012130400583709695 0 0.021540473519542937 0.012515114666233966 0 0.022202508007772945 0.012130400583709695 0 0.021540473519542937 0.012515114666233966 0 0.022203818238911478 0.013023022305138316 0 0.021540473519542937 0.012515114666233966 0 0.02172345116872049 0.013241126816589507 0 0.022203818238911478 0.013023022305138316 0 0.023057286793943751 0.012797845941515651 0 0.022202508007772945 0.012130400583709695 0 0.022203818238911478 0.013023022305138316 0 0.021479190468329992 0.011720931076464196 0 0.021540473519542937 0.012515114666233966 0 0.020719288613181314 0.012557465765153699 0 0.021540473519542937 0.012515114666233966 0 0.021155796468487149 0.012966152528303599 0 0.020719288613181314 0.012557465765153699 0 0.021540473519542937 0.012515114666233966 0 0.021155796468487149 0.012966152528303599 0 0.02172345116872049 0.013241126816589507 0 0.021155796468487149 0.012966152528303599 0 0.021355453133067574 0.013381189157617783 0 0.02099802483155085 0.013431909085220066 0 0.021155796468487149 0.012966152528303599 0 0.021355453133067574 0.013381189157617783 0 0.02172345116872049 0.013241126816589507 0 0.021355453133067574 0.013381189157617783 0 0.02172345116872049 0.013241126816589507 0 0.021658234590309775 0.013866604370233952 0 0.021355453133067574 0.013381189157617783 0 0.02130637591381471 0.013805195146171031 0 0.021658234590309775 0.013866604370233952 0 0.02172345116872049 0.013241126816589507 0 0.022036565865816642 0.01365217619485789 0 0.021658234590309775 0.013866604370233952 0 0.021355453133067574 0.013381189157617783 0 0.02130637591381471 0.013805195146171031 0 0.02099802483155085 0.013431909085220066 0 0.02130637591381471 0.013805195146171031 0 0.021015153630151735 0.01406562600674501 0 0.02099802483155085 0.013431909085220066 0 0.023057286793943751 0.012797845941515651 0 0.022203818238911478 0.013023022305138316 0 0.022574006119404081 0.013660528422919063 0 0.02172345116872049 0.013241126816589507 0 0.022203818238911478 0.013023022305138316 0 0.022036565865816642 0.01365217619485789 0 0.022036565865816642 0.01365217619485789 0 0.022574006119404081 0.013660528422919063 0 0.022111528524931475 0.014125291735481679 0 0.022203818238911478 0.013023022305138316 0 0.022036565865816642 0.01365217619485789 0 0.022574006119404081 0.013660528422919063 0 0.022574006119404081 0.013660528422919063 0 0.022111528524931475 0.014125291735481679 0 0.022143461958475167 0.014219715164796051 0 0.021833342301952427 0.01552412877571803 0 0.021517272242108136 0.015506420836304213 0 0.022574006119404081 0.013660528422919063 0 0.022143461958475167 0.014219715164796051 0 0.023067734736731557 0.013892745918512682 0 0.021878550219468069 0.014021912055576392 0 0.022111528524931475 0.014125291735481679 0 0.021703355144685875 0.014471000417105397 0 0.022036565865816642 0.01365217619485789 0 0.021878550219468069 0.014021912055576392 0 0.022111528524931475 0.014125291735481679 0 0.022111528524931475 0.014125291735481679 0 0.02214620791038982 0.014218542023970306 0 0.021703355144685875 0.014471000417105397 0 0.022036565865816642 0.01365217619485789 0 0.021878550219468069 0.014021912055576392 0 0.021658234590309775 0.013866604370233952 0 0.021831942766039069 0.015517022537102992 0 0.021833342301952427 0.01552412877571803 0 0.022451837079320705 0.014251769242823516 0 0.021703355144685875 0.014471000417105397 0 0.021947785330712771 0.015358878029566295 0 0.021833342301952427 0.01552412877571803 0 0.021872562818554944 0.015462602831271795 0 0.02130637591381471 0.013805195146171031 0 0.021015153630151735 0.01406562600674501 0 0.021703355144685875 0.014471000417105397 0 0.02130637591381471 0.013805195146171031 0 0.021658234590309775 0.013866604370233952 0 0.021703355144685875 0.014471000417105397 0 0.021878550219468069 0.014021912055576392 0 0.021658234590309775 0.013866604370233952 0 0.021703355144685875 0.014471000417105397 0 0.021015153630151735 0.01406562600674501 0 0.021703355144685875 0.014471000417105397 0 0.02087231239650451 0.01508416644935273 0 0.021250944263531198 0.015009936628967954 0 0.021462784357530112 0.015571492449079356 0 0.021947785330712771 0.015358878029566295 0 0.02087231239650451 0.01508416644935273 0 0.021695295876838074 0.01665583923257135 0 0.021703355144685875 0.014471000417105397 0 0.021947785330712771 0.015358878029566295 0 0.02087231239650451 0.01508416644935273 0 0.021833342301952427 0.01552412877571803 0 0.022087514825431417 0.016323104893188844 0 0.02153795893949793 0.015760085951722045 0 0.021998981508856194 0.016335224222593044 0 0.021777818436394088 0.016413413843370094 0 0.022451837079320705 0.014251769242823516 0 0.021947785330712771 0.015358878029566295 0 0.022999110255119928 0.01621984234780809 0 0.021858920944006984 0.0172158743271262 0 0.021079116419323047 0.018250167890303221 0 0.020775408780584044 0.017405111316123656 0 0.021079116419323047 0.018250167890303221 0 0.022030778109411741 0.018724132644266461 0 0.020618102923470688 0.019350646663739878 0 0.021858920944006984 0.0172158743271262 0 0.021079116419323047 0.018250167890303221 0 0.022030778109411741 0.018724132644266461 0 0.021869622568233618 0.016771860263356846 0 0.021517272242108136 0.015506420836304213 0 0.02153795893949793 0.015760085951722045 0 0.021998981508856194 0.016335224222593044 0 0.02197928468403618 0.015604038071482905 0 0.023365933780343434 0.013575067647794621 0 0.021917322934309688 0.01212832183112501 0 0.02172232456189405 0.013534661872317191 0 0.021917322934309688 0.01212832183112501 0 0.02172232456189405 0.013534661872317191 0 0.021162819684913264 0.013292377648137619 0 0.023365933780343434 0.013575067647794621 0 0.021750630002373657 0.014137201229121103 0 0.02172232456189405 0.013534661872317191 0 0.026717752558194148 0.014044238045402901 0 0.031943413322109926 0.010787650540310426 0 0.021449883444403475 0.013883238502671291 0 0.02172232456189405 0.013534661872317191 0 0.021143311559707379 0.013578005295425338 0 0.021750630002373657 0.014137201229121103 0 0.021449883444403475 0.013883238502671291 0 0.02172232456189405 0.013534661872317191 0 0.02172232456189405 0.013534661872317191 0 0.021162819684913264 0.013292377648137619 0 0.021143311559707379 0.013578005295425338 0 0.020848658993233026 0.013625495835774356 0 0.021449883444403475 0.013883238502671291 0 0.021143311559707379 0.013578005295425338 0 0.020848658993233026 0.013625495835774356 0 0.021143311559707379 0.013578005295425338 0 0.020834538738679503 0.01353919001829044 0 0.021162819684913264 0.013292377648137619 0 0.021143311559707379 0.013578005295425338 0 0.020834538738679503 0.01353919001829044 0 0.021162819684913264 0.013292377648137619 0 0.020834538738679503 0.01353919001829044 0 0.020545063873137853 0.013658378439555518 0 0.021478925124374652 0.014530408014261439 0 0.021043644933277973 0.014243388666936573 0 0.018678543856864814 0.014175057733268404 0 0.020545063873137853 0.013658378439555518 0 0.019606140216945393 0.014872441693945703 0 0.021917322934309688 0.01212832183112501 0 0.021162819684913264 0.013292377648137619 0 0.020545063873137853 0.013658378439555518 0 0.020545063873137853 0.013658378439555518 0 0.020837552876599771 0.013521821430361156 0 0.021127889865548137 0.013975984009769142 0 0.020756538868556863 0.013467343107763491 0 0.020936862164821601 0.014094798464717529 0 0.020834538738679503 0.01353919001829044 0 0.020545063873137853 0.013658378439555518 0 0.020837552876599771 0.013521821430361156 0 0.020848658993233026 0.013625495835774356 0 0.020834538738679503 0.01353919001829044 0 0.020837552876599771 0.013521821430361156 0 0.020776960123024272 0.012797479272711097 0 0.02061014255635496 0.012684904603002868 0 0.020719288613181314 0.012557465765153699 0 0.02061014255635496 0.012684904603002868 0 0.020719288613181314 0.012557465765153699 0 0.020739711040773906 0.012984334160128402 0 0.021155796468487149 0.012966152528303599 0 0.020719288613181314 0.012557465765153699 0 0.020739711040773906 0.012984334160128402 0 0.02061014255635496 0.012684904603002868 0 0.020739711040773906 0.012984334160128402 0 0.020458044608415261 0.013567784577940431 0 0.020739711040773906 0.012984334160128402 0 0.020458044608415261 0.013567784577940431 0 0.02099802483155085 0.013431909085220066 0 0.021155796468487149 0.012966152528303599 0 0.020739711040773906 0.012984334160128402 0 0.02099802483155085 0.013431909085220066 0 0.021015153630151735 0.01406562600674501 0 0.020458044608415261 0.013567784577940431 0 0.02099802483155085 0.013431909085220066 0 0.021015153630151735 0.01406562600674501 0 0.020458044608415261 0.013567784577940431 0 0.02087231239650451 0.01508416644935273 0 0.021127889865548137 0.013975984009769142 0 0.021564567551672815 0.01541900569177708 0 0.02058097197233736 0.014921466499794714 0 0.020936862164821601 0.014094798464717529 0 0.021250944263531198 0.015009936628967954 0 0.021564567551672815 0.01541900569177708 0 0.020818842916354208 0.015795080065092011 0 0.02058097197233736 0.014921466499794714 0 0.021564567551672815 0.01541900569177708 0 0.020818842916354208 0.015795080065092011 0 0.021253581086856887 0.016235014070956965 0 0.020818842916354208 0.015795080065092011 0 0.02058097197233736 0.014921466499794714 0 0.01968935742076491 0.015974600005572628 0 0.020545063873137853 0.013658378439555518 0 0.021127889865548137 0.013975984009769142 0 0.02058097197233736 0.014921466499794714 0 0.020545063873137853 0.013658378439555518 0 0.02058097197233736 0.014921466499794714 0 0.019606140216945393 0.014872441693945703 0 0.02058097197233736 0.014921466499794714 0 0.019606140216945393 0.014872441693945703 0 0.01968935742076491 0.015974600005572628 0 0.019606140216945393 0.014872441693945703 0 0.01968935742076491 0.015974600005572628 0 0.01858036836142813 0.015426304939565497 0 0.019377421676913632 0.015962378086326664 0 0.01858036836142813 0.015426304939565497 0 0.018596169568436897 0.016624205382390421 0 0.019685473617545173 0.016119612644187372 0 0.01921771116354935 0.015839266845698339 0 0.018678543856864814 0.014175057733268404 0 0.019606140216945393 0.014872441693945703 0 0.01858036836142813 0.015426304939565497 0 0.018133150162274438 0.015133658941213126 0 0.018678543856864814 0.014175057733268404 0 0.01858036836142813 0.015426304939565497 0 0.018001632303537116 0.017304244958875992 0 0.018596169568436897 0.016624205382390421 0 0.019397347817589939 0.017364083848841645 0 0.018234756055644761 0.016295719936519789 0 0.01858036836142813 0.015426304939565497 0 0.018596169568436897 0.016624205382390421 0 0.019377421676913632 0.015962378086326664 0 0.018596169568436897 0.016624205382390421 0 0.019397347817589939 0.017364083848841645 0 0.019397347817589939 0.017364083848841645 0 0.020505290118221595 0.016537881869835326 0 0.020798216673650012 0.017617416551241726 0 0.019685473617545173 0.016119612644187372 0 0.020564230375604845 0.016667352993757358 0 0.020818842916354208 0.015795080065092011 0 0.01968935742076491 0.015974600005572628 0 0.020676115663397773 0.016585764884460095 0 0.019377421676913632 0.015962378086326664 0 0.019397347817589939 0.017364083848841645 0 0.020505290118221595 0.016537881869835326 0 0.020676115663397773 0.016585764884460095 0 0.021253581086856887 0.016235014070956965 0 0.021429132498709133 0.017301288030235663 0 0.020818842916354208 0.015795080065092011 0 0.020676115663397773 0.016585764884460095 0 0.021253581086856887 0.016235014070956965 0 0.020798216673650012 0.017617416551241726 0 0.021730217663128739 0.017436600668145247 0 0.021844434103961211 0.018603942328297454 0 0.020505290118221595 0.016537881869835326 0 0.020798216673650012 0.017617416551241726 0 0.021730217663128739 0.017436600668145247 0 0.020564230375604845 0.016667352993757358 0 0.021422795924363459 0.017241233160611189 0 0.020798216673650012 0.017617416551241726 0 0.020807943346284441 0.018705138073966645 0 0.021844434103961211 0.018603942328297454 0 0.021557671550750314 0.019421403314858209 0 0.021337853285089151 0.020631308351907657 0 0.022023054606815622 0.019752946778274254 0 0.021557671550750314 0.019421403314858209 0 0.020807943346284441 0.018705138073966645 0 0.021337853285089151 0.020631308351907657 0 0.021557671550750314 0.019421403314858209 0 0.020807943346284441 0.018705138073966645 0 0.021844434103961211 0.018603942328297454 0 0.020807943346284441 0.018705138073966645 0 0.018602093193329249 0.018492140020315812 0 0.01978873432555045 0.020936314397927751 0 0.020807943346284441 0.018705138073966645 0 0.01978873432555045 0.020936314397927751 0 0.021337853285089151 0.020631308351907657 0 0.019397347817589939 0.017364083848841645 0 0.020798216673650012 0.017617416551241726 0 0.020807943346284441 0.018705138073966645 0 0.019397347817589939 0.017364083848841645 0 0.020807943346284441 0.018705138073966645 0 0.018602093193329249 0.018492140020315812 0 0.014214090428322956 0.019343046497019782 0 0.018602093193329249 0.018492140020315812 0 0.016594828071951628 0.021857852328189289 0 0.014214090428322956 0.019343046497019782 0 0.014494488291168423 0.01426221194485509 0 0.018602093193329249 0.018492140020315812 0 0.018001632303537116 0.017304244958875992 0 0.019397347817589939 0.017364083848841645 0 0.018602093193329249 0.018492140020315812 0 0.020014104240194657 0.015489747776749725 0 0.019378208181811366 0.016002431360040974 0 0.023138061482322288 0.017981622443744478 0 0.022999110255119928 0.01621984234780809 0 0.022772378327486881 0.017613157000632967 0 0.022772378327486881 0.017613157000632967 0 0.022447357378386951 0.018223697500752555 0 0.022992473114450608 0.018317545538577173 0 0.023138061482322288 0.017981622443744478 0 0.022772378327486881 0.017613157000632967 0 0.022992473114450608 0.018317545538577173 0 0.022175385843636802 0.01719204869509532 0 0.022183906680780362 0.017229291256181462 0 0.021473312380880433 0.016791447761155959 0 0.021971788163455682 0.017325516356683248 0 0.021377587988586164 0.016518107933336648 0 0.02140088518525576 0.016886268078665362 0 0.021473312380880433 0.016791447761155959 0 0.021971788163455682 0.017325516356683248 0 0.021858920944006984 0.0172158743271262 0 0.021473312380880433 0.016791447761155959 0 0.020775408780584044 0.017405111316123656 0 0.022175385843636802 0.01719204869509532 0 0.022087514825431417 0.016323104893188844 0 0.021998981508856194 0.016335224222593044 0 0.022019762678176222 0.017068301318775354 0 0.021777818436394088 0.016413413843370094 0 0.021869622568233618 0.016771860263356846 0 0.022175385843636802 0.01719204869509532 0 0.021858920944006984 0.0172158743271262 0 0.02140088518525576 0.016886268078665362 0 0.021473312380880433 0.016791447761155959 0 0.021947785330712771 0.015358878029566295 0 0.022999110255119928 0.01621984234780809 0 0.021695295876838074 0.01665583923257135 0 0.022999110255119928 0.01621984234780809 0 0.021695295876838074 0.01665583923257135 0 0.022227649077526654 0.017231052981964867 0 0.022999110255119928 0.01621984234780809 0 0.022227649077526654 0.017231052981964867 0 0.022772378327486881 0.017613157000632967 0 0.021253581086856887 0.016235014070956965 0 0.021695295876838074 0.01665583923257135 0 0.021429132498709133 0.017301288030235663 0 0.021564567551672815 0.01541900569177708 0 0.021253581086856887 0.016235014070956965 0 0.021695295876838074 0.01665583923257135 0 0.021422795924363459 0.017241233160611189 0 0.021872549782374569 0.017552851542083477 0 0.021429132498709133 0.017301288030235663 0 0.022227649077526654 0.017231052981964867 0 0.022447357378386951 0.018223697500752555 0 0.021695295876838074 0.01665583923257135 0 0.021429132498709133 0.017301288030235663 0 0.022227649077526654 0.017231052981964867 0 0.022227649077526654 0.017231052981964867 0 0.022772378327486881 0.017613157000632967 0 0.022447357378386951 0.018223697500752555 0 0.022447357378386951 0.018223697500752555 0 0.022346100432823989 0.019091705835188027 0 0.022640527663083859 0.018747663758299709 0 0.022447357378386951 0.018223697500752555 0 0.021844434103961211 0.018603942328297454 0 0.022346100432823989 0.019091705835188027 0 0.021730217663128739 0.017436600668145247 0 0.022447357378386951 0.018223697500752555 0 0.021844434103961211 0.018603942328297454 0 0.021844434103961211 0.018603942328297454 0 0.022346100432823989 0.019091705835188027 0 0.022023054606815622 0.019752946778274254 0 0.021557671550750314 0.019421403314858209 0 0.021844434103961211 0.018603942328297454 0 0.022023054606815622 0.019752946778274254 0 0.022346100432823989 0.019091705835188027 0 0.022023054606815622 0.019752946778274254 0 0.022307771360155621 0.019900808542246157 0 0.022346100432823989 0.019091705835188027 0 0.022535074218948566 0.01926300852530299 0 0.022307771360155621 0.019900808542246157 0 0.022346100432823989 0.019091705835188027 0 0.022535074218948566 0.01926300852530299 0 0.022640527663083859 0.018747663758299709 0 0.022535074218948566 0.01926300852530299 0 0.022357757950164536 0.018622529751936918 0 0.022567508250667567 0.019481364430455589 0 0.022535074218948566 0.01926300852530299 0 0.022640527663083859 0.018747663758299709 0 0.022357757950164536 0.018622529751936918 0 0.023120726811930871 0.018255684032548063 0 0.022992473114450608 0.018317545538577173 0 0.022357757950164536 0.018622529751936918 0 0.022447357378386951 0.018223697500752555 0 0.022640527663083859 0.018747663758299709 0 0.022992473114450608 0.018317545538577173 0 0.022175385843636802 0.01719204869509532 0 0.022300260315829917 0.017691208324681573 0 0.022640527663083859 0.018747663758299709 0 0.022992473114450608 0.018317545538577173 0 0.022357757950164536 0.018622529751936918 0 0.02140088518525576 0.016886268078665362 0 0.021971788163455682 0.017325516356683248 0 0.022357757950164536 0.018622529751936918 0 0.021971788163455682 0.017325516356683248 0 0.022357757950164536 0.018622529751936918 0 0.022918282280715064 0.018188309101984459 0 0.022357757950164536 0.018622529751936918 0 0.022918282280715064 0.018188309101984459 0 0.022764984662948459 0.019035564059556517 0 0.021335161938034607 0.014241679079701709 0 0.020229095490972182 0.013067743170256378 0 0.021254857723455044 0.012129983581938435 0 0.021700978549258784 0.016999788418696888 0 0.021550572997445484 0.018439922098179403 0 0.022918282280715064 0.018188309101984459 0 0.023203487546390136 0.019474326862007667 0 0.022764984662948459 0.019035564059556517 0 0.021335161938034607 0.014241679079701709 0 0.020229095490972182 0.013067743170256378 0 0.020115457667969381 0.014176997227435774 0 0.01907137362391462 0.01388640334292944 0 0.020115457667969381 0.014176997227435774 0 0.019862579325313136 0.015327544223894971 0 0.020229095490972182 0.013067743170256378 0 0.01907137362391462 0.01388640334292944 0 0.019082021726634143 0.012415848954432943 0 0.020229095490972182 0.013067743170256378 0 0.01907137362391462 0.01388640334292944 0 0.020115457667969381 0.014176997227435774 0 0.019862579325313136 0.015327544223894971 0 0.01840725804200111 0.015067909377301016 0 0.018980903930884148 0.016276664821022427 0 0.01907137362391462 0.01388640334292944 0 0.019862579325313136 0.015327544223894971 0 0.01840725804200111 0.015067909377301016 0 0.021971788163455682 0.017325516356683248 0 0.022918282280715064 0.018188309101984459 0 0.021377587988586164 0.016518107933336648 0 0.021700978549258784 0.016999788418696888 0 0.021686330501442808 0.016916264764776253 0 0.021335161938034607 0.014241679079701709 0 0.020115457667969381 0.014176997227435774 0 0.019862579325313136 0.015327544223894971 0 0.021335161938034607 0.014241679079701709 0 0.019862579325313136 0.015327544223894971 0 0.021377587988586164 0.016518107933336648 0 0.01647156284683176 0.013344408476197292 0 0.016881644021461171 0.014908907448341717 0 0.01535111297053166 0.014072603102263629 0 0.01647156284683176 0.013344408476197292 0 0.017819850365634257 0.01413573113785771 0 0.017882175313813323 0.012947780075467602 0 0.01647156284683176 0.013344408476197292 0 0.017819850365634257 0.01413573113785771 0 0.016881644021461171 0.014908907448341717 0 0.01907137362391462 0.01388640334292944 0 0.017882175313813323 0.012947780075467602 0 0.019082021726634143 0.012415848954432943 0 0.01907137362391462 0.01388640334292944 0 0.017819850365634257 0.01413573113785771 0 0.017882175313813323 0.012947780075467602 0 0.01907137362391462 0.01388640334292944 0 0.017819850365634257 0.01413573113785771 0 0.01840725804200111 0.015067909377301016 0 0.017799191451365118 0.015625865899946308 0 0.01840725804200111 0.015067909377301016 0 0.016881644021461171 0.014908907448341717 0 0.017819850365634257 0.01413573113785771 0 0.01840725804200111 0.015067909377301016 0 0.016881644021461171 0.014908907448341717 0 0.017799191451365118 0.015625865899946308 0 0.01840725804200111 0.015067909377301016 0 0.018980903930884148 0.016276664821022427 0 0.016881644021461171 0.014908907448341717 0 0.016883935975743117 0.016199284238294077 0 0.015190300966862653 0.015846934460465045 0 0.017799191451365118 0.015625865899946308 0 0.016881644021461171 0.014908907448341717 0 0.016883935975743117 0.016199284238294077 0 0.016881644021461171 0.014908907448341717 0 0.015012170049242541 0.015146505509015435 0 0.01535111297053166 0.014072603102263629 0 0.017784267500501539 0.016290560049954248 0 0.017986951317453512 0.015935054770550731 0 0.018181490340739095 0.016337175532256522 0 0.017986951317453512 0.015935054770550731 0 0.018980903930884148 0.016276664821022427 0 0.018181490340739095 0.016337175532256522 0 0.016776657496712137 0.015888884342704371 0 0.01764298784917482 0.01606293639151031 0 0.017799191451365118 0.015625865899946308 0 0.016883935975743117 0.016199284238294077 0 0.018980903930884148 0.016276664821022427 0 0.018980903930884148 0.016276664821022427 0 0.018132003738773345 0.016616418757744125 0 0.018181490340739095 0.016337175532256522 0 0.018980903930884148 0.016276664821022427 0 0.018132003738773345 0.016616418757744125 0 0.01937547660955747 0.017226362456533063 0 0.017784267500501539 0.016290560049954248 0 0.018132003738773345 0.016616418757744125 0 0.018181490340739095 0.016337175532256522 0 0.015924015603706067 0.015978663468688571 0 0.01660221498073839 0.016331064762590351 0 0.016443557927227237 0.01452608087317042 0 0.018132003738773345 0.016616418757744125 0 0.016151575921517832 0.01647129722363944 0 0.019862579325313136 0.015327544223894971 0 0.021377587988586164 0.016518107933336648 0 0.020189969995640177 0.016867340362471891 0 0.021473312380880433 0.016791447761155959 0 0.021377587988586164 0.016518107933336648 0 0.020189969995640177 0.016867340362471891 0 0.019862579325313136 0.015327544223894971 0 0.018980903930884148 0.016276664821022427 0 0.020189969995640177 0.016867340362471891 0 0.018980903930884148 0.016276664821022427 0 0.020189969995640177 0.016867340362471891 0 0.01937547660955747 0.017226362456533063 0 0.021473312380880433 0.016791447761155959 0 0.020189969995640177 0.016867340362471891 0 0.020775408780584044 0.017405111316123656 0 0.020189969995640177 0.016867340362471891 0 0.020775408780584044 0.017405111316123656 0 0.01937547660955747 0.017226362456533063 0 0.021079116419323047 0.018250167890303221 0 0.020775408780584044 0.017405111316123656 0 0.019993697301487832 0.018220627178303944 0 0.020775408780584044 0.017405111316123656 0 0.019993697301487832 0.018220627178303944 0 0.01937547660955747 0.017226362456533063 0 0.021079116419323047 0.018250167890303221 0 0.019993697301487832 0.018220627178303944 0 0.020618102923470688 0.019350646663739878 0 0.019993697301487832 0.018220627178303944 0 0.018897135757006123 0.018234044202725282 0 0.019017658263778738 0.019116353139098433 0 0.019993697301487832 0.018220627178303944 0 0.018897135757006123 0.018234044202725282 0 0.01937547660955747 0.017226362456533063 0 0.018897135757006123 0.018234044202725282 0 0.01937547660955747 0.017226362456533063 0 0.01769802695496004 0.017689935322000257 0 0.018132003738773345 0.016616418757744125 0 0.01937547660955747 0.017226362456533063 0 0.01769802695496004 0.017689935322000257 0 0.018132003738773345 0.016616418757744125 0 0.01769802695496004 0.017689935322000257 0 0.016151575921517832 0.01647129722363944 0 0.01769802695496004 0.017689935322000257 0 0.015591685132972974 0.017803987712916667 0 0.016151575921517832 0.01647129722363944 0 0.01769802695496004 0.017689935322000257 0 0.016602379907657734 0.018757881857192418 0 0.015591685132972974 0.017803987712916667 0 0.01769802695496004 0.017689935322000257 0 0.017979342603576792 0.018873578833592423 0 0.016602379907657734 0.018757881857192418 0 0.018897135757006123 0.018234044202725282 0 0.01769802695496004 0.017689935322000257 0 0.017979342603576792 0.018873578833592423 0 0.018897135757006123 0.018234044202725282 0 0.017979342603576792 0.018873578833592423 0 0.019017658263778738 0.019116353139098433 0 0.017979342603576792 0.018873578833592423 0 0.017048265010152247 0.019631637198160724 0 0.018457263230898118 0.0200219666134175 0 0.017979342603576792 0.018873578833592423 0 0.018457263230898118 0.0200219666134175 0 0.019017658263778738 0.019116353139098433 0 0.018741744222621943 0.020109623107294642 0 0.018457263230898118 0.0200219666134175 0 0.019017658263778738 0.019116353139098433 0 0.017979342603576792 0.018873578833592423 0 0.016602379907657734 0.018757881857192418 0 0.017048265010152247 0.019631637198160724 0 0.016602379907657734 0.018757881857192418 0 0.017048265010152247 0.019631637198160724 0 0.015796693809427019 0.019838693806160386 0 0.017048265010152247 0.019631637198160724 0 0.016339717837148608 0.020631086743846078 0 0.015796693809427019 0.019838693806160386 0 0.019779949344877541 0.015073741273683975 0 0.020545018464948665 0.015146641632514895 0 0.016339717837148608 0.020631086743846078 0 0.018796513877244389 0.020176853548861257 0 0.018457263230898118 0.0200219666134175 0 0.021907882219337548 0.010250650813288254 0 0.021899824939654883 0.01037295530845575 0 0.02192063814724772 0.010195105500336161 0 0.017048265010152247 0.019631637198160724 0 0.016339717837148608 0.020631086743846078 0 0.018457263230898118 0.0200219666134175 0 0.020545018464948665 0.015146641632514895 0 0.020531483326257174 0.015170796579755862 0 0.021954175796558735 0.010148521744371371 0 0.02192063814724772 0.010195105500336161 0 0.022017152641412654 0.010067918429933639 0 0.020545018464948665 0.015146641632514895 0 0.021192942644563357 0.013429025968307449 0 0.021954175796558735 0.010148521744371371 0 0.021907882219337548 0.010250650813288254 0 0.02192063814724772 0.010195105500336161 0 0.021101593893388181 0.014464342575587133 0 0.021197516548222134 0.014496024465357601 0 0.021195461669589081 0.014431553795173134 0 0.019993697301487832 0.018220627178303944 0 0.020618102923470688 0.019350646663739878 0 0.019017658263778738 0.019116353139098433 0 0.018741744222621943 0.020109623107294642 0 0.020618102923470688 0.019350646663739878 0 0.019017658263778738 0.019116353139098433 0 0.020545018464948665 0.015146641632514895 0 0.020694151847639536 0.015859015279112369 0 0.013168371020037805 0.018932494208237373 0 0.01043160061979264 0.019354002639926936 0 0.012148055639296499 0.018228937691899431 0 0.010407717367121998 0.018665845560279046 0 0.0088168955454754269 0.018409114185294052 0 0.013168371020037805 0.018932494208237373 0 0.012896123296473376 0.020092438373549029 0 0.014044508477186969 0.019820381671621555 0 0.0099999613468346963 0.017518586545002018 0 0.011474205108858104 0.020427846078784326 0 0.0091685760669793035 0.019833095793345749 0 0.013168371020037805 0.018932494208237373 0 0.0099999613468346963 0.017518586545002018 0 0.011474205108858104 0.020427846078784326 0 0.009930284373669454 0.021514182174859873 0 0.012853701203381612 0.021295720224946395 0 0.011474205108858104 0.020427846078784326 0 0.0091883166114089844 0.022078981696558399 0 0.011474205108858104 0.020427846078784326 0 0.0091685760669793035 0.019833095793345749 0 0.012534603037196633 0.019445854009276987 0 0.01193946093812496 0.019884233062447344 0 0.012853701203381612 0.021295720224946395 0 0.011474205108858104 0.020427846078784326 0 0.012896123296473376 0.020092438373549029 0 0.013168371020037805 0.018932494208237373 0 0.011474205108858104 0.020427846078784326 0 0.012896123296473376 0.020092438373549029 0 0.012853701203381612 0.021295720224946395 0 0.012896123296473376 0.020092438373549029 0 0.014044508477186969 0.019820381671621555 0 0.015277668943877706 0.020011248106902173 0 0.012853701203381612 0.021295720224946395 0 0.01437111336183872 0.020192164614595744 0 0.012853701203381612 0.021295720224946395 0 0.01437111336183872 0.020192164614595744 0 0.014044508477186969 0.019820381671621555 0 0.015277668943877706 0.020011248106902173 0 0.01437111336183872 0.020192164614595744 0 0.01507038946480665 0.019850345315506685 0 0.01437111336183872 0.020192164614595744 0 0.014044508477186969 0.019820381671621555 0 0.01507038946480665 0.019850345315506685 0 0.014044508477186969 0.019820381671621555 0 0.01507038946480665 0.019850345315506685 0 0.015074708229658319 0.019211481755823875 0 0.015277668943877706 0.020011248106902173 0 0.016339717837148608 0.020631086743846078 0 0.015796693809427019 0.019838693806160386 0 0.019957333863804917 0.014596659374736507 0 0.019779949344877541 0.015073741273683975 0 0.015277668943877706 0.020011248106902173 0 0.01507038946480665 0.019850345315506685 0 0.015796693809427019 0.019838693806160386 0 0.016602379907657734 0.018757881857192418 0 0.015796693809427019 0.019838693806160386 0 0.015074708229658319 0.019211481755823875 0 0.01507038946480665 0.019850345315506685 0 0.015796693809427019 0.019838693806160386 0 0.015074708229658319 0.019211481755823875 0 0.013168371020037805 0.018932494208237373 0 0.015074708229658319 0.019211481755823875 0 0.01377903030059149 0.018024469930366695 0 0.013168371020037805 0.018932494208237373 0 0.014044508477186969 0.019820381671621555 0 0.015074708229658319 0.019211481755823875 0 0.015074708229658319 0.019211481755823875 0 0.01377903030059149 0.018024469930366695 0 0.015591685132972974 0.017803987712916667 0 0.01377903030059149 0.018024469930366695 0 0.015591685132972974 0.017803987712916667 0 0.014331625284500061 0.016727764240621581 0 0.016602379907657734 0.018757881857192418 0 0.015074708229658319 0.019211481755823875 0 0.015591685132972974 0.017803987712916667 0 0.015591685132972974 0.017803987712916667 0 0.016151575921517832 0.01647129722363944 0 0.014331625284500061 0.016727764240621581 0 0.016151575921517832 0.01647129722363944 0 0.014331625284500061 0.016727764240621581 0 0.01450602894068315 0.015134233669337702 0 0.01377903030059149 0.018024469930366695 0 0.014331625284500061 0.016727764240621581 0 0.012334722822715607 0.017012935312642329 0 0.014331625284500061 0.016727764240621581 0 0.012334722822715607 0.017012935312642329 0 0.013043946751442079 0.015719042739503739 0 0.012334722822715607 0.017012935312642329 0 0.011579625962627202 0.015668852597055409 0 0.013043946751442079 0.015719042739503739 0 0.013168371020037805 0.018932494208237373 0 0.01377903030059149 0.018024469930366695 0 0.012148055639296499 0.018228937691899431 0 0.01377903030059149 0.018024469930366695 0 0.012334722822715607 0.017012935312642329 0 0.012148055639296499 0.018228937691899431 0 0.012334722822715607 0.017012935312642329 0 0.012148055639296499 0.018228937691899431 0 0.010747543879665375 0.017807589222685372 0 0.01043160061979264 0.019354002639926936 0 0.010747543879665375 0.017807589222685372 0 0.0087691608987575456 0.017705308390532994 0 0.01043160061979264 0.019354002639926936 0 0.012148055639296499 0.018228937691899431 0 0.010747543879665375 0.017807589222685372 0 0.010747543879665375 0.017807589222685372 0 0.01063576532637411 0.016606635212428205 0 0.0087691608987575456 0.017705308390532994 0 0.012334722822715607 0.017012935312642329 0 0.010747543879665375 0.017807589222685372 0 0.01063576532637411 0.016606635212428205 0 0.012334722822715607 0.017012935312642329 0 0.01063576532637411 0.016606635212428205 0 0.011579625962627202 0.015668852597055409 0 0.01063576532637411 0.016606635212428205 0 0.011579625962627202 0.015668852597055409 0 0.0099002196117419835 0.015052065283441815 0 0.011381577320926085 0.01573756528266038 0 0.010619249825839911 0.01556482215691735 0 0.010453418134473492 0.016226354982416005 0 0.011579625962627202 0.015668852597055409 0 0.012423430198146079 0.014058008342612735 0 0.0099002196117419835 0.015052065283441815 0 0.012007877413075093 0.015468742290904657 0 0.0096191329152206673 0.016105850111174248 0 0.0095319874068274333 0.015452735973428333 0 0.0096191329152206673 0.016105850111174248 0 0.011579625962627202 0.015668852597055409 0 0.013043946751442079 0.015719042739503739 0 0.012423430198146079 0.014058008342612735 0 0.011381577320926085 0.01573756528266038 0 0.011077674121385812 0.015315112625154947 0 0.011527532377230644 0.015055750804138348 0 0.0072394718862185681 0.015510853496728401 0 0.0074180412538451014 0.014896401172736939 0 0.0068421250943701724 0.015326736809501003 0 0.010619249825839911 0.01556482215691735 0 0.011077674121385812 0.015315112625154947 0 0.010782987666391347 0.014901745230216555 0 0.011381577320926085 0.01573756528266038 0 0.010619249825839911 0.01556482215691735 0 0.011077674121385812 0.015315112625154947 0 0.0095319874068274333 0.015452735973428333 0 0.0096401804885588669 0.014601567097564022 0 0.016443557927227237 0.01452608087317042 0 0.016151575921517832 0.01647129722363944 0 0.01450602894068315 0.015134233669337702 0 0.014331625284500061 0.016727764240621581 0 0.013043946751442079 0.015719042739503739 0 0.01450602894068315 0.015134233669337702 0 0.013043946751442079 0.015719042739503739 0 0.012423430198146079 0.014058008342612735 0 0.01450602894068315 0.015134233669337702 0 0.012007877413075093 0.015468742290904657 0 0.01427015638319293 0.015361961293544642 0 0.011381577320926085 0.01573756528266038 0 0.012354345406249263 0.015228021162573048 0 0.012277001337843471 0.015211795846819349 0 0.012423430198146079 0.014058008342612735 0 0.01450602894068315 0.015134233669337702 0 0.014865048543302986 0.012904072491307025 0 0.011381577320926085 0.01573756528266038 0 0.012277001337843471 0.015211795846819349 0 0.011527532377230644 0.015055750804138348 0 0.016776657496712137 0.015888884342704371 0 0.01427015638319293 0.015361961293544642 0 0.017784267500501539 0.016290560049954248 0 0.017986951317453512 0.015935054770550731 0 0.017249902389274915 0.015788724437125545 0 0.016443557927227237 0.01452608087317042 0 0.01450602894068315 0.015134233669337702 0 0.014865048543302986 0.012904072491307025 0 0.015924015603706067 0.015978663468688571 0 0.01427015638319293 0.015361961293544642 0 0.016881644021461171 0.014908907448341717 0 0.013755077332937911 0.016822057030782267 0 0.015012170049242541 0.015146505509015435 0 0.015284153251113949 0.01507021906051286 0 0.01427015638319293 0.015361961293544642 0 0.013755077332937911 0.016822057030782267 0 0.015012170049242541 0.015146505509015435 0 0.0136895985270005 0.01602788608640451 0 0.015012170049242541 0.015146505509015435 0 0.014061267802149807 0.015068822321781862 0 0.01417336358700475 0.014238748386922897 0 0.015012170049242541 0.015146505509015435 0 0.0136895985270005 0.01602788608640451 0 0.014061267802149807 0.015068822321781862 0 0.013205153968463798 0.016475408227722321 0 0.011736183663245 0.015183211198649533 0 0.0111028034080175 0.016043031304098437 0 0.013836503348640882 0.015320205483434782 0 0.011596282483486958 0.015022894592169034 0 0.0136895985270005 0.01602788608640451 0 0.014061267802149807 0.015068822321781862 0 0.01295831027984954 0.014699659090063256 0 0.0136895985270005 0.01602788608640451 0 0.011852621520748915 0.015280377326525828 0 0.01295831027984954 0.014699659090063256 0 0.0136895985270005 0.01602788608640451 0 0.013500608265746773 0.016755712802431884 0 0.011852621520748915 0.015280377326525828 0 0.013755077332937911 0.016822057030782267 0 0.0136895985270005 0.01602788608640451 0 0.013500608265746773 0.016755712802431884 0 0.01427015638319293 0.015361961293544642 0 0.013836503348640882 0.015320205483434782 0 0.013836503348640882 0.015320205483434782 0 0.012733790669359632 0.014812578863256574 0 0.011852621520748915 0.015280377326525828 0 0.01295831027984954 0.014699659090063256 0 0.0115914645034633 0.013973680324547651 0 0.01228407000666808 0.013208453209008517 0 0.01295831027984954 0.014699659090063256 0 0.0115914645034633 0.013973680324547651 0 0.01228407000666808 0.013208453209008517 0 0.013348780913876906 0.013709194169824203 0 0.01295831027984954 0.014699659090063256 0 0.01228407000666808 0.013208453209008517 0 0.013348780913876906 0.013709194169824203 0 0.014151032720387605 0.012667877009447125 0 0.013348780913876906 0.013709194169824203 0 0.01295831027984954 0.014699659090063256 0 0.01417336358700475 0.014238748386922897 0 0.01647156284683176 0.013344408476197292 0 0.01535111297053166 0.014072603102263629 0 0.014151032720387605 0.012667877009447125 0 0.014061267802149807 0.015068822321781862 0 0.01295831027984954 0.014699659090063256 0 0.01417336358700475 0.014238748386922897 0 0.01417336358700475 0.014238748386922897 0 0.01535111297053166 0.014072603102263629 0 0.014151032720387605 0.012667877009447125 0 0.013348780913876906 0.013709194169824203 0 0.01417336358700475 0.014238748386922897 0 0.014151032720387605 0.012667877009447125 0 0.015012170049242541 0.015146505509015435 0 0.01417336358700475 0.014238748386922897 0 0.01535111297053166 0.014072603102263629 0 0.011077674121385812 0.015315112625154947 0 0.010782987666391347 0.014901745230216555 0 0.011527532377230644 0.015055750804138348 0 0.0089895638220463987 0.015611444941358249 0 0.0111028034080175 0.016043031304098437 0 0.010584921240510952 0.015001587459248362 0 0.0096401804885588669 0.014601567097564022 0 0.011596282483486958 0.015022894592169034 0 0.011736183663245 0.015183211198649533 0 0.0111028034080175 0.016043031304098437 0 0.010584921240510952 0.015001587459248362 0 0.0089895638220463987 0.015611444941358249 0 0.010584921240510952 0.015001587459248362 0 0.01026184480427036 0.013881109149902874 0 0.011852621520748915 0.015280377326525828 0 0.0115914645034633 0.013973680324547651 0 0.01026184480427036 0.013881109149902874 0 0.011736183663245 0.015183211198649533 0 0.010584921240510952 0.015001587459248362 0 0.01026184480427036 0.013881109149902874 0 0.012733790669359632 0.014812578863256574 0 0.012162819336119056 0.014451284589320884 0 0.01228407000666808 0.013208453209008517 0 0.0115914645034633 0.013973680324547651 0 0.010878253485688775 0.01254623806745358 0 0.0115914645034633 0.013973680324547651 0 0.01026184480427036 0.013881109149902874 0 0.010878253485688775 0.01254623806745358 0 0.01026184480427036 0.013881109149902874 0 0.0095661644045963359 0.01320045830088278 0 0.010878253485688775 0.01254623806745358 0 0.0084928172711682542 0.015221665287038236 0 0.0091523456527112402 0.013165171279024867 0 0.0073422050115761949 0.013372986333515722 0 0.0089895638220463987 0.015611444941358249 0 0.01026184480427036 0.013881109149902874 0 0.0095661644045963359 0.01320045830088278 0 0.0096401804885588669 0.014601567097564022 0 0.0097317749870059755 0.013312862812323812 0 0.0091523456527112402 0.013165171279024867 0 0.0081961100396751828 0.011894169235617747 0 0.0073422050115761949 0.013372986333515722 0 0.0091523456527112402 0.013165171279024867 0 0.0081961100396751828 0.011894169235617747 0 0.010048291598257136 0.010738461698796669 0 0.0097317749870059755 0.013312862812323812 0 0.0099025258711698989 0.012380318602876141 0 0.010878253485688775 0.01254623806745358 0 0.010048291598257136 0.010738461698796669 0 0.012495042656765949 0.011623826426089371 0 0.0095661644045963359 0.01320045830088278 0 0.010878253485688775 0.01254623806745358 0 0.010048291598257136 0.010738461698796669 0 0.010048291598257136 0.010738461698796669 0 0.012004258736595748 0.0083560339157779176 0 0.012543343004402475 0.010022133323848013 0 0.0081961100396751828 0.011894169235617747 0 0.010048291598257136 0.010738461698796669 0 0.0078690977620213716 0.010247970736730618 0 0.010048291598257136 0.010738461698796669 0 0.0078690977620213716 0.010247970736730618 0 0.0086530802135259856 0.0087794323954184916 0 0.0086530802135259856 0.0087794323954184916 0 0.010388487418333021 0.0075456677539809391 0 0.008104220754094121 0.0067844441689162019 0 0.0086530802135259856 0.0087794323954184916 0 0.008104220754094121 0.0067844441689162019 0 0.0068038940659258711 0.0085359844683593686 0 0.0078690977620213716 0.010247970736730618 0 0.0086530802135259856 0.0087794323954184916 0 0.0068038940659258711 0.0085359844683593686 0 0.010048291598257136 0.010738461698796669 0 0.0086530802135259856 0.0087794323954184916 0 0.010388487418333021 0.0075456677539809391 0 0.010048291598257136 0.010738461698796669 0 0.010388487418333021 0.0075456677539809391 0 0.012004258736595748 0.0083560339157779176 0 0.010388487418333021 0.0075456677539809391 0 0.012004258736595748 0.0083560339157779176 0 0.012473954903535259 0.0052445421179871448 0 0.010388487418333021 0.0075456677539809391 0 0.0096659541149349548 0.0053978816984347816 0 0.012473954903535259 0.0052445421179871448 0 0.010388487418333021 0.0075456677539809391 0 0.008104220754094121 0.0067844441689162019 0 0.0096659541149349548 0.0053978816984347816 0 0.014949486587697992 0.0074821936478646871 0 0.014861171543606048 0.0079777834414525399 0 0.017190991195795723 0.0068077050862208098 0 0.014949486587697992 0.0074821936478646871 0 0.013986933209992372 0.0086064056087761711 0 0.014229780770680598 0.005829903901364987 0 0.014949486587697992 0.0074821936478646871 0 0.014861171543606048 0.0079777834414525399 0 0.013986933209992372 0.0086064056087761711 0 0.019785315322995836 0.021220251680137612 0 0.019164905057846862 0.025993047806179611 0 0.014949486587697992 0.0074821936478646871 0 0.015969190482618755 0.0064110041434940479 0 0.015470767748664922 0.0059052974670201963 0 0.014949486587697992 0.0074821936478646871 0 0.014229780770680598 0.005829903901364987 0 0.015422891459821808 0.0055060828475260648 0 0.013993648691569093 0.0083948883040470806 0 0.013372823449662114 0.0070453232402394551 0 0.013986933209992372 0.0086064056087761711 0 0.012473954903535259 0.0052445421179871448 0 0.014229780770680598 0.005829903901364987 0 0.012004258736595748 0.0083560339157779176 0 0.013676586804637274 0.0078731995124938364 0 0.012473954903535259 0.0052445421179871448 0 0.012004258736595748 0.0083560339157779176 0 0.013676586804637274 0.0078731995124938364 0 0.012543343004402475 0.010022133323848013 0 0.013993648691569093 0.0083948883040470806 0 0.015009710449623176 0.0105562169219973 0 0.013986933209992372 0.0086064056087761711 0 0.015595532630541269 0.0093539381828403011 0 0.015341218479351633 0.011105847397726583 0 0.014861171543606048 0.0079777834414525399 0 0.015595532630541269 0.0093539381828403011 0 0.016407439463153092 0.0083745862231195366 0 0.014861171543606048 0.0079777834414525399 0 0.013986933209992372 0.0086064056087761711 0 0.015595532630541269 0.0093539381828403011 0 0.013676586804637274 0.0078731995124938364 0 0.015026187419132074 0.010575574227436208 0 0.012543343004402475 0.010022133323848013 0 0.010048291598257136 0.010738461698796669 0 0.012543343004402475 0.010022133323848013 0 0.012495042656765949 0.011623826426089371 0 0.015026187419132074 0.010575574227436208 0 0.012543343004402475 0.010022133323848013 0 0.012495042656765949 0.011623826426089371 0 0.01228407000666808 0.013208453209008517 0 0.012495042656765949 0.011623826426089371 0 0.014151032720387605 0.012667877009447125 0 0.01228407000666808 0.013208453209008517 0 0.010878253485688775 0.01254623806745358 0 0.012495042656765949 0.011623826426089371 0 0.015026187419132074 0.010575574227436208 0 0.012495042656765949 0.011623826426089371 0 0.014151032720387605 0.012667877009447125 0 0.01647156284683176 0.013344408476197292 0 0.015026187419132074 0.010575574227436208 0 0.014151032720387605 0.012667877009447125 0 0.01647156284683176 0.013344408476197292 0 0.015341218479351633 0.011105847397726583 0 0.016880351239730879 0.011977152335824392 0 0.015596901931433756 0.011802443648288995 0 0.015009710449623176 0.0105562169219973 0 0.01647156284683176 0.013344408476197292 0 0.016880351239730879 0.011977152335824392 0 0.017882175313813323 0.012947780075467602 0 0.017882175313813323 0.012947780075467602 0 0.01794806341197127 0.011670310946483946 0 0.019082021726634143 0.012415848954432943 0 0.01794806341197127 0.011670310946483946 0 0.019082021726634143 0.012415848954432943 0 0.019012678570593876 0.011216138293933855 0 0.016880351239730879 0.011977152335824392 0 0.017882175313813323 0.012947780075467602 0 0.01794806341197127 0.011670310946483946 0 0.01794806341197127 0.011670310946483946 0 0.018120607513162187 0.010468415761134491 0 0.016838277147149174 0.010676668974066125 0 0.01794806341197127 0.011670310946483946 0 0.018120607513162187 0.010468415761134491 0 0.019012678570593876 0.011216138293933855 0 0.018120607513162187 0.010468415761134491 0 0.019012678570593876 0.011216138293933855 0 0.019555346575485237 0.0098692080869641503 0 0.018120607513162187 0.010468415761134491 0 0.016838277147149174 0.010676668974066125 0 0.017094043508371511 0.0093869020039223199 0 0.015595532630541269 0.0093539381828403011 0 0.015341218479351633 0.011105847397726583 0 0.016838277147149174 0.010676668974066125 0 0.015341218479351633 0.011105847397726583 0 0.016880351239730879 0.011977152335824392 0 0.016838277147149174 0.010676668974066125 0 0.016880351239730879 0.011977152335824392 0 0.01794806341197127 0.011670310946483946 0 0.016838277147149174 0.010676668974066125 0 0.020229095490972182 0.013067743170256378 0 0.021254857723455044 0.012129983581938435 0 0.0202287225213802 0.011713086598689025 0 0.020229095490972182 0.013067743170256378 0 0.0202287225213802 0.011713086598689025 0 0.019082021726634143 0.012415848954432943 0 0.0202287225213802 0.011713086598689025 0 0.019082021726634143 0.012415848954432943 0 0.019012678570593876 0.011216138293933855 0 0.0202287225213802 0.011713086598689025 0 0.020494225231820477 0.01101023706350578 0 0.019859581842852071 0.010710194983779965 0 0.0202287225213802 0.011713086598689025 0 0.019012678570593876 0.011216138293933855 0 0.019555346575485237 0.0098692080869641503 0 0.016847861440770363 0.014660474661746095 0 0.016783091091549282 0.016063532546192385 0 0.023203487546390136 0.019474326862007667 0 0.023164864562063018 0.020276986653379035 0 0.022856296877890876 0.019721509289276282 0 0.021254857723455044 0.012129983581938435 0 0.020494225231820477 0.01101023706350578 0 0.021132552862553392 0.010590467092913381 0 0.021550572997445484 0.018439922098179403 0 0.021022824863804215 0.026380109109904546 0 0.021254857723455044 0.012129983581938435 0 0.0202287225213802 0.011713086598689025 0 0.020494225231820477 0.01101023706350578 0 0.021022824863804215 0.026380109109904546 0 0.01971889963684342 0.037807204177439449 0 0.017816316707936562 0.030713591452193125 0 0.019029643745031407 0.031381825487275229 0 0.017779434015193253 0.032834524211270325 0 0.020494225231820477 0.01101023706350578 0 0.021132552862553392 0.010590467092913381 0 0.020245643560745281 0.010192887227996729 0 0.021022824863804215 0.026380109109904546 0 0.019035593643672764 0.024197053304093875 0 0.020245643560745281 0.010192887227996729 0 0.019859581842852071 0.010710194983779965 0 0.019459218438213362 0.0098122714371942799 0 0.016783091091549282 0.016063532546192385 0 0.017620595020783267 0.023131533086222705 0 0.020494225231820477 0.01101023706350578 0 0.020245643560745281 0.010192887227996729 0 0.019859581842852071 0.010710194983779965 0 0.019035593643672764 0.024197053304093875 0 0.017620595020783267 0.023131533086222705 0 0.019217475696260363 0.032728255805395637 0 0.020237640565491977 0.032047042031595564 0 0.020794233184719846 0.03334437294904205 0 0.019029643745031407 0.031381825487275229 0 0.019217475696260363 0.032728255805395637 0 0.020237640565491977 0.032047042031595564 0 0.025868332330058127 0.040976903755306091 0 0.025770607954752184 0.045469905430847633 0 0.024265977827023916 0.044249262513450766 0 0.019029643745031407 0.031381825487275229 0 0.019217475696260363 0.032728255805395637 0 0.017779434015193253 0.032834524211270325 0 0.016407439463153092 0.0083745862231195366 0 0.017094043508371511 0.0093869020039223199 0 0.017523338716720075 0.0084341780592984798 0 0.015595532630541269 0.0093539381828403011 0 0.016407439463153092 0.0083745862231195366 0 0.017094043508371511 0.0093869020039223199 0 0.015595532630541269 0.0093539381828403011 0 0.016838277147149174 0.010676668974066125 0 0.017094043508371511 0.0093869020039223199 0 0.018120607513162187 0.010468415761134491 0 0.017094043508371511 0.0093869020039223199 0 0.018308890003564362 0.0093378881440188341 0 0.019555346575485237 0.0098692080869641503 0 0.018308890003564362 0.0093378881440188341 0 0.018816835872164255 0.0080553369553628702 0 0.018120607513162187 0.010468415761134491 0 0.019555346575485237 0.0098692080869641503 0 0.018308890003564362 0.0093378881440188341 0 0.018308890003564362 0.0093378881440188341 0 0.017523338716720075 0.0084341780592984798 0 0.018816835872164255 0.0080553369553628702 0 0.017094043508371511 0.0093869020039223199 0 0.018308890003564362 0.0093378881440188341 0 0.017523338716720075 0.0084341780592984798 0 0.017523338716720075 0.0084341780592984798 0 0.018816835872164255 0.0080553369553628702 0 0.016981074674639742 0.0070205608038234144 0 0.017620595020783267 0.023131533086222705 0 0.018421490817506277 0.025186580505871678 0 0.020759751081110289 0.025945781259521201 0 0.016910770995343227 0.02386578237239937 0 0.019316468400603949 0.022624222721817158 0 0.017620595020783267 0.023131533086222705 0 0.01716074315629915 0.031113173481637137 0 0.018421490817506277 0.025186580505871678 0 0.01716074315629915 0.031113173481637137 0 0.014949486587697992 0.0074821936478646871 0 0.017190991195795723 0.0068077050862208098 0 0.015969190482618755 0.0064110041434940479 0 0.014861171543606048 0.0079777834414525399 0 0.016407439463153092 0.0083745862231195366 0 0.016981074674639742 0.0070205608038234144 0 0.018421490817506277 0.025186580505871678 0 0.018946740490692768 0.027040259524633084 0 0.019590677693508432 0.021382973935906106 0 0.018421490817506277 0.025186580505871678 0 0.016407439463153092 0.0083745862231195366 0 0.017523338716720075 0.0084341780592984798 0 0.016981074674639742 0.0070205608038234144 0 0.017190991195795723 0.0068077050862208098 0 0.015969190482618755 0.0064110041434940479 0 0.016221941933265212 0.0062845206890875535 0 0.018980713973807271 0.026973672834249587 0 0.018946740490692768 0.027040259524633084 0 0.018946740490692768 0.027040259524633084 0 0.01668541960672151 0.03606133907200082 0 0.015203774491679147 0.033947639716370284 0 0.014053118880247488 0.034546146776472539 0 0.015512306730285641 0.034719570909350968 0 0.015969190482618755 0.0064110041434940479 0 0.016207140613060625 0.0062936199461475452 0 0.015470767748664922 0.0059052974670201963 0 0.017826586354222691 0.031498349521958666 0 0.014865929313561344 0.029891079295184461 0 0.020721103471411619 0.02689455289408817 0 0.018946740490692768 0.027040259524633084 0 0.019164905057846862 0.025993047806179611 0 0.015203774491679147 0.033947639716370284 0 0.015669397865499902 0.034192972409297195 0 0.015512306730285641 0.034719570909350968 0 0.01668541960672151 0.03606133907200082 0 0.014415853097896864 0.045139120622113262 0 0.017826586354222691 0.031498349521958666 0 0.021824758704304625 0.029437031295500005 0 0.020721103471411619 0.02689455289408817 0 0.016978418642140624 0.041086114964301416 0 0.017081291899847775 0.041325976288866473 0 0.016372791556825857 0.041427509433252158 0 0.01716074315629915 0.031113173481637137 0 0.01668541960672151 0.03606133907200082 0 0.013270892968860545 0.059688362628979932 0 0.012803263268907246 0.060777678104747719 0 0.012002064161925147 0.060412453548873618 0 0.013270892968860545 0.059688362628979932 0 0.012803263268907246 0.060777678104747719 0 0.013972790146701192 0.061314322708435787 0 0.014053118880247488 0.034546146776472539 0 0.014800329063607334 0.036318206209954969 0 0.015512306730285641 0.034719570909350968 0 0.015053286402573871 0.036273872145125195 0 0.014800329063607334 0.036318206209954969 0 0.015512306730285641 0.034719570909350968 0 0.012366640285279316 0.044490353693125866 0 0.018005608541121345 0.027693473640251237 0 0.01668541960672151 0.03606133907200082 0 0.012345121099906787 0.046656702043467883 0 0.017779434015193253 0.032834524211270325 0 0.019278173790200262 0.034148927177393283 0 0.017744412178057115 0.034964620764568903 0 0.01971889963684342 0.037807204177439449 0 0.017390012788034256 0.045595955057838013 0 0.025770607954752184 0.045469905430847633 0 0.025002000669519409 0.047637606674807528 0 0.025641994486960935 0.049866267701335704 0 0.019217475696260363 0.032728255805395637 0 0.017779434015193253 0.032834524211270325 0 0.019278173790200262 0.034148927177393283 0 0.01755687796550497 0.038168406311248029 0 0.017390012788034256 0.045595955057838013 0 0.018339865900627774 0.047567562663057124 0 0.017777611510882838 0.047224696394710948 0 0.019217475696260363 0.032728255805395637 0 0.020794233184719846 0.03334437294904205 0 0.019278173790200262 0.034148927177393283 0 0.017081291899847775 0.041325976288866473 0 0.016372791556825857 0.041427509433252158 0 0.016422840482188564 0.041696538613153838 0 0.01716074315629915 0.031113173481637137 0 0.01755687796550497 0.038168406311248029 0 0.016372791556825857 0.041427509433252158 0 0.016422840482188564 0.041696538613153838 0 0.015763093390761276 0.04177187258382567 0 0.012803263268907246 0.060777678104747719 0 0.012002064161925147 0.060412453548873618 0 0.011980097952322103 0.061698347869135882 0 0.012002064161925147 0.060412453548873618 0 0.011414551418069926 0.061513858292643227 0 0.011980097952322103 0.061698347869135882 0 0.014415853097896864 0.045139120622113262 0 0.016307927882151869 0.049744040656856323 0 0.016422840482188564 0.041696538613153838 0 0.015760589295700119 0.042070453601897526 0 0.015763093390761276 0.04177187258382567 0 0.012002064161925147 0.060412453548873618 0 0.010889980108141673 0.061095019735087484 0 0.011414551418069926 0.061513858292643227 0 0.017303575606540719 0.04664461396188558 0 0.015975538539321363 0.047323742949600046 0 0.017302144165430078 0.049650883767040861 0 0.016307927882151869 0.049744040656856323 0 0.017390012788034256 0.045595955057838013 0 0.016929446751162685 0.050446871965335274 0 0.017777611510882838 0.047224696394710948 0 0.016929446751162685 0.050446871965335274 0 0.016307927882151869 0.049744040656856323 0 0.025002000669519409 0.047637606674807528 0 0.024962346456962908 0.050214587385454354 0 0.025641994486960935 0.049866267701335704 0 0.015975538539321363 0.047323742949600046 0 0.017302144165430078 0.049650883767040861 0 0.015936697165601879 0.050354202553039899 0 0.017777611510882838 0.047224696394710948 0 0.017390012788034256 0.045595955057838013 0 0.010729236018660729 0.061201509812100326 0 0.010952016712166482 0.061866407872445649 0 0.010826130234073953 0.06268503977511701 0 0.016929446751162685 0.050446871965335274 0 0.016939648307247708 0.057235940861305609 0 0.016307927882151869 0.049744040656856323 0 0.015909122662716799 0.052643064616127132 0 0.010889980108141673 0.061095019735087484 0 0.010952016712166482 0.061866407872445649 0 0.011414551418069926 0.061513858292643227 0 0.010729236018660729 0.061201509812100326 0 0.010942353639955407 0.061087973383900027 0 0.010952016712166482 0.061866407872445649 0 0.010952016712166482 0.061866407872445649 0 0.011414551418069926 0.061513858292643227 0 0.011431606349514612 0.062330387168566231 0 0.011414551418069926 0.061513858292643227 0 0.011980097952322103 0.061698347869135882 0 0.011431606349514612 0.062330387168566231 0 0.011997922401385655 0.062933040508215396 0 0.011431606349514612 0.062330387168566231 0 0.01146999175784531 0.063187902148286262 0 0.011980097952322103 0.061698347869135882 0 0.011997922401385655 0.062933040508215396 0 0.01251987509612781 0.062600867091551701 0 0.011980097952322103 0.061698347869135882 0 0.011997922401385655 0.062933040508215396 0 0.011431606349514612 0.062330387168566231 0 0.011431606349514612 0.062330387168566231 0 0.010826130234073953 0.06268503977511701 0 0.01146999175784531 0.063187902148286262 0 0.010952016712166482 0.061866407872445649 0 0.011431606349514612 0.062330387168566231 0 0.010826130234073953 0.06268503977511701 0 0.013360410547989983 0.061733783478306575 0 0.012844667576892278 0.062038867027088898 0 0.013105110287047615 0.062627280706727156 0 0.012782828305159916 0.062437153101470716 0 0.012854395074892088 0.062752537943547571 0 0.012911217348201141 0.062538021072824218 0 0.012373921805122293 0.049837309771987068 0 0.011318805332562994 0.05800204038394538 0 0.012373921805122293 0.049837309771987068 0 0.014173979418563012 0.057197926372491763 0 0.012782828305159916 0.062437153101470716 0 0.012814045061022012 0.062349139324166046 0 0.012911217348201141 0.062538021072824218 0 0.012373921805122293 0.049837309771987068 0 0.012366640285279316 0.044490353693125866 0 0.009456083737103509 0.038949185373547052 0 0.0063861586392882823 0.049428662616223848 0 0.013482257963413955 0.048227193947271298 0 0.012373921805122293 0.049837309771987068 0 0.012345121099906787 0.046656702043467883 0 0.013360410547989983 0.061733783478306575 0 0.013267280270083986 0.061531787839078499 0 0.012844667576892278 0.062038867027088898 0 0.012366640285279316 0.044490353693125866 0 0.012345121099906787 0.046656702043467883 0 0.011980097952322103 0.061698347869135882 0 0.012844667576892278 0.062038867027088898 0 0.01251987509612781 0.062600867091551701 0 0.011980097952322103 0.061698347869135882 0 0.013267280270083986 0.061531787839078499 0 0.012844667576892278 0.062038867027088898 0 0.012803263268907246 0.060777678104747719 0 0.011980097952322103 0.061698347869135882 0 0.013972790146701192 0.061314322708435787 0 0.01136534105627892 0.051196105582204492 0 0.012345121099906787 0.046656702043467883 0 0.01251987509612781 0.062600867091551701 0 0.013105110287047615 0.062627280706727156 0 0.012661787578598918 0.063557416866230662 0 0.012844667576892278 0.062038867027088898 0 0.01251987509612781 0.062600867091551701 0 0.013105110287047615 0.062627280706727156 0 0.012803524852135527 0.062609079197626497 0 0.012689973986294647 0.063079533606588759 0 0.012963996301425154 0.063027359879403513 0 0.012689973986294647 0.063079533606588759 0 0.012963996301425154 0.063027359879403513 0 0.012857218397881436 0.063326803727302594 0 0.012854395074892088 0.062752537943547571 0 0.013150831513078165 0.062880154031002847 0 0.013047461383922905 0.063287430034267692 0 0.014173979418563012 0.057197926372491763 0 0.014553063722412192 0.059061679801853451 0 0.013150831513078165 0.062880154031002847 0 0.01304302701794182 0.062669864376533158 0 0.013260311754416975 0.062690034565672778 0 0.012854395074892088 0.062752537943547571 0 0.01304302701794182 0.062669864376533158 0 0.012911217348201141 0.062538021072824218 0 0.012854395074892088 0.062752537943547571 0 0.013150831513078165 0.062880154031002847 0 0.01304302701794182 0.062669864376533158 0 0.01304302701794182 0.062669864376533158 0 0.012911217348201141 0.062538021072824218 0 0.01306733384698488 0.062500763346471769 0 0.012814045061022012 0.062349139324166046 0 0.01306733384698488 0.062500763346471769 0 0.013254446456926926 0.06234956300962749 0 0.01304302701794182 0.062669864376533158 0 0.01306733384698488 0.062500763346471769 0 0.013260311754416975 0.062690034565672778 0 0.012814045061022012 0.062349139324166046 0 0.012911217348201141 0.062538021072824218 0 0.01306733384698488 0.062500763346471769 0 0.01306733384698488 0.062500763346471769 0 0.013290375525481972 0.062495085390244225 0 0.013260311754416975 0.062690034565672778 0 0.01306733384698488 0.062500763346471769 0 0.013290375525481972 0.062495085390244225 0 0.013254446456926926 0.06234956300962749 0 0.013290375525481972 0.062495085390244225 0 0.01329840519722115 0.062398886365809994 0 0.013254446456926926 0.06234956300962749 0 0.013290375525481972 0.062495085390244225 0 0.013260311754416975 0.062690034565672778 0 0.013334141406739733 0.06263796316789555 0 0.013260311754416975 0.062690034565672778 0 0.013418034363331643 0.062800631734827153 0 0.013334141406739733 0.06263796316789555 0 0.013150831513078165 0.062880154031002847 0 0.013260311754416975 0.062690034565672778 0 0.013361746171304185 0.062902430347019658 0 0.013260311754416975 0.062690034565672778 0 0.013361746171304185 0.062902430347019658 0 0.013418034363331643 0.062800631734827153 0 0.013361746171304185 0.062902430347019658 0 0.013418034363331643 0.062800631734827153 0 0.013534013800553135 0.062861026993336233 0 0.013418034363331643 0.062800631734827153 0 0.013502421173245143 0.062872422382914309 0 0.013534013800553135 0.062861026993336233 0 0.013418034363331643 0.062800631734827153 0 0.013502421173245143 0.062872422382914309 0 0.013369931244062837 0.062762458533534404 0 0.013502421173245143 0.062872422382914309 0 0.01344534292972384 0.063091157643236487 0 0.013369931244062837 0.062762458533534404 0 0.01344534292972384 0.063091157643236487 0 0.013369931244062837 0.062762458533534404 0 0.013292815507816745 0.062562001249289984 0 0.013369931244062837 0.062762458533534404 0 0.013292815507816745 0.062562001249289984 0 0.013307156631995243 0.062516386939546309 0 0.013369931244062837 0.062762458533534404 0 0.013334141406739733 0.06263796316789555 0 0.013307156631995243 0.062516386939546309 0 0.013418034363331643 0.062800631734827153 0 0.013369931244062837 0.062762458533534404 0 0.013334141406739733 0.06263796316789555 0 0.01344534292972384 0.063091157643236487 0 0.013292815507816745 0.062562001249289984 0 0.013131272918882237 0.062120629473129137 0 0.013941164317874512 0.059231609445898899 0 0.012854582904618434 0.06089240920527822 0 0.013131272918882237 0.062120629473129137 0 0.013387510129326373 0.060378477859646916 0 0.013146437504520277 0.061392107091758887 0 0.012209099204217913 0.059589003626067498 0 0.012906681427386048 0.059888057126634128 0 0.01229190214559381 0.060288675098030951 0 0.012209099204217913 0.059589003626067498 0 0.012951257237101858 0.059229564400740571 0 0.012233828920943775 0.058885232216183025 0 0.012209099204217913 0.059589003626067498 0 0.012951257237101858 0.059229564400740571 0 0.012906681427386048 0.059888057126634128 0 0.013941164317874512 0.059231609445898899 0 0.012906681427386048 0.059888057126634128 0 0.012854582904618434 0.06089240920527822 0 0.013941164317874512 0.059231609445898899 0 0.012951257237101858 0.059229564400740571 0 0.012906681427386048 0.059888057126634128 0 0.012906681427386048 0.059888057126634128 0 0.012854582904618434 0.06089240920527822 0 0.01229190214559381 0.060288675098030951 0 0.012854582904618434 0.06089240920527822 0 0.01229190214559381 0.060288675098030951 0 0.011940601342135289 0.060942752209777032 0 0.012854582904618434 0.06089240920527822 0 0.012847958239380031 0.061784160966832528 0 0.013131272918882237 0.062120629473129137 0 0.012854582904618434 0.06089240920527822 0 0.012257096768427535 0.06140120015717053 0 0.011940601342135289 0.060942752209777032 0 0.012854582904618434 0.06089240920527822 0 0.012257096768427535 0.06140120015717053 0 0.012847958239380031 0.061784160966832528 0 0.013292815507816745 0.062562001249289984 0 0.013131272918882237 0.062120629473129137 0 0.013258293862689698 0.062375819224647445 0 0.013131272918882237 0.062120629473129137 0 0.013247445804160747 0.062313348352161534 0 0.013258293862689698 0.062375819224647445 0 0.013290375525481972 0.062495085390244225 0 0.013334141406739733 0.06263796316789555 0 0.013307156631995243 0.062516386939546309 0 0.013290375525481972 0.062495085390244225 0 0.013307156631995243 0.062516386939546309 0 0.01329840519722115 0.062398886365809994 0 0.013307156631995243 0.062516386939546309 0 0.013258293862689698 0.062375819224647445 0 0.01329840519722115 0.062398886365809994 0 0.013292815507816745 0.062562001249289984 0 0.013307156631995243 0.062516386939546309 0 0.013258293862689698 0.062375819224647445 0 0.013247445804160747 0.062313348352161534 0 0.013258293862689698 0.062375819224647445 0 0.01329840519722115 0.062398886365809994 0 0.0094142550314040684 0.0028780226487879544 0 0.012473954903535259 0.0052445421179871448 0 0.012877148784199691 0.0024292226370942051 0 0.010846811277529381 0.035058565749872581 0 0.013044215221973176 0.037682874924372722 0 0.01329840519722115 0.062398886365809994 0 0.013278421708956236 0.062494453326806157 0 0.013254446456926926 0.06234956300962749 0 0.013247445804160747 0.062313348352161534 0 0.01329840519722115 0.062398886365809994 0 0.013278421708956236 0.062494453326806157 0 0.0094142550314040684 0.0028780226487879544 0 0.0079116478280900904 0.0046124758508856454 0 0.0059522483300271795 0.0032760705491901975 0 0.013131272918882237 0.062120629473129137 0 0.013278421708956236 0.062494453326806157 0 0.012153954324973281 0.062724988107463991 0 0.013131272918882237 0.062120629473129137 0 0.013247445804160747 0.062313348352161534 0 0.013278421708956236 0.062494453326806157 0 0.008104220754094121 0.0067844441689162019 0 0.0096659541149349548 0.0053978816984347816 0 0.0079116478280900904 0.0046124758508856454 0 0.0094142550314040684 0.0028780226487879544 0 0.0096659541149349548 0.0053978816984347816 0 0.0079116478280900904 0.0046124758508856454 0 0.0094142550314040684 0.0028780226487879544 0 0.0096659541149349548 0.0053978816984347816 0 0.012473954903535259 0.0052445421179871448 0 0.012473954903535259 0.0052445421179871448 0 0.014068209861122907 0.0040984484159020907 0 0.012877148784199691 0.0024292226370942051 0 0.012473954903535259 0.0052445421179871448 0 0.014229780770680598 0.005829903901364987 0 0.014068209861122907 0.0040984484159020907 0 0.014229780770680598 0.005829903901364987 0 0.015422891459821808 0.0055060828475260648 0 0.015654277599291135 0.0045670941403921908 0 0.019164905057846862 0.025993047806179611 0 0.018005608541121345 0.027693473640251237 0 0.015654277599291135 0.0045670941403921908 0 0.014068209861122907 0.0040984484159020907 0 0.014746859264544745 0.0032586059656289456 0 0.014229780770680598 0.005829903901364987 0 0.015654277599291135 0.0045670941403921908 0 0.014068209861122907 0.0040984484159020907 0 0.016396306006300456 0.0019523347181652476 0 0.015654277599291135 0.0045670941403921908 0 0.014746859264544745 0.0032586059656289456 0 0.016396306006300456 0.0019523347181652476 0 0.014746859264544745 0.0032586059656289456 0 0.012877148784199691 0.0024292226370942051 0 0.014068209861122907 0.0040984484159020907 0 0.014746859264544745 0.0032586059656289456 0 0.012877148784199691 0.0024292226370942051 0 0.012366640285279316 0.044490353693125866 0 0.013044215221973176 0.037682874924372722 0 0.013408114420796048 0.028303755338672309 0 0.015634294449370111 0.031895394844571642 0 0.016772255948647244 0.028319128293710527 0 0.015634294449370111 0.031895394844571642 0 0.018652706836068251 0.031979831303214808 0 0.016772255948647244 0.028319128293710527 0 0.018652706836068251 0.031979831303214808 0 0.020446583033666137 0.028208636479328798 0 0.023149826104724595 0.033121678329897444 0 0.018652706836068251 0.031979831303214808 0 0.020446583033666137 0.028208636479328798 0 0.016772255948647244 0.028319128293710527 0 0.020446583033666137 0.028208636479328798 0 0.016772255948647244 0.028319128293710527 0 0.017911778149181917 0.024836939953699632 0 0.020446583033666137 0.028208636479328798 0 0.017911778149181917 0.024836939953699632 0 0.020763791194453481 0.023377778298126844 0 0.013408114420796048 0.028303755338672309 0 0.016772255948647244 0.028319128293710527 0 0.014943291407104814 0.025173299393317066 0 0.016772255948647244 0.028319128293710527 0 0.014943291407104814 0.025173299393317066 0 0.017911778149181917 0.024836939953699632 0 0.014943291407104814 0.025173299393317066 0 0.016594828071951628 0.021857852328189289 0 0.017911778149181917 0.024836939953699632 0 0.013585485776869417 0.022787415353174505 0 0.014943291407104814 0.025173299393317066 0 0.016594828071951628 0.021857852328189289 0 0.016594828071951628 0.021857852328189289 0 0.01978873432555045 0.020936314397927751 0 0.017911778149181917 0.024836939953699632 0 0.018602093193329249 0.018492140020315812 0 0.016594828071951628 0.021857852328189289 0 0.01978873432555045 0.020936314397927751 0 0.01978873432555045 0.020936314397927751 0 0.017911778149181917 0.024836939953699632 0 0.020763791194453481 0.023377778298126844 0 0.020763791194453481 0.023377778298126844 0 0.021337853285089151 0.020631308351907657 0 0.021563641912125859 0.021721207926812786 0 0.022367191713509579 0.025190491820656576 0 0.023724539664072265 0.025833693833773611 0 0.01978873432555045 0.020936314397927751 0 0.020763791194453481 0.023377778298126844 0 0.021337853285089151 0.020631308351907657 0 0.021337853285089151 0.020631308351907657 0 0.021563641912125859 0.021721207926812786 0 0.021971069843836982 0.020657063219842092 0 0.027101384659894603 0.024457140861259771 0 0.024896520778373444 0.028448923223743434 0 0.029503963360374166 0.028445280176288088 0 0.020763791194453481 0.023377778298126844 0 0.027101384659894603 0.024457140861259771 0 0.024896520778373444 0.028448923223743434 0 0.020446583033666137 0.028208636479328798 0 0.020763791194453481 0.023377778298126844 0 0.024896520778373444 0.028448923223743434 0 0.020446583033666137 0.028208636479328798 0 0.024896520778373444 0.028448923223743434 0 0.023149826104724595 0.033121678329897444 0 0.024896520778373444 0.028448923223743434 0 0.027751071586961714 0.031715846571199247 0 0.029503963360374166 0.028445280176288088 0 0.024896520778373444 0.028448923223743434 0 0.027751071586961714 0.031715846571199247 0 0.023149826104724595 0.033121678329897444 0 0.030820686852982448 0.031288661421280374 0 0.033618525120562355 0.02915897227752021 0 0.029503963360374166 0.028445280176288088 0 0.027751071586961714 0.031715846571199247 0 0.030820686852982448 0.031288661421280374 0 0.029503963360374166 0.028445280176288088 0 0.027751071586961714 0.031715846571199247 0 0.030820686852982448 0.031288661421280374 0 0.029864914325495179 0.033561747375903915 0 0.030820686852982448 0.031288661421280374 0 0.033449471940283929 0.032905917677678122 0 0.033618525120562355 0.02915897227752021 0 0.030820686852982448 0.031288661421280374 0 0.033449471940283929 0.032905917677678122 0 0.029864914325495179 0.033561747375903915 0 0.02901992688532614 0.038220546836660735 0 0.031042937303516004 0.036001737509449745 0 0.030128891478476583 0.038586579620981727 0 0.028348911458421496 0.035343653684154284 0 0.025696334108105671 0.035093444717724208 0 0.033449471940283929 0.032905917677678122 0 0.033618525120562355 0.02915897227752021 0 0.037299681162601163 0.028721125879605736 0 0.025569141554414303 0.02782593566092555 0 0.024884701205343543 0.031640768687311915 0 0.033618525120562355 0.02915897227752021 0 0.032668003862479499 0.025526950956147852 0 0.037299681162601163 0.028721125879605736 0 0.032668003862479499 0.025526950956147852 0 0.038125606436267577 0.026459006249804375 0 0.037299681162601163 0.028721125879605736 0 0.027101384659894603 0.024457140861259771 0 0.032668003862479499 0.025526950956147852 0 0.029503963360374166 0.028445280176288088 0 0.033618525120562355 0.02915897227752021 0 0.032668003862479499 0.025526950956147852 0 0.029503963360374166 0.028445280176288088 0 0.023724539664072265 0.025833693833773611 0 0.025569141554414303 0.02782593566092555 0 0.021563641912125859 0.021721207926812786 0 0.022152225550886511 0.020947510053133337 0 0.021971069843836982 0.020657063219842092 0 0.021971069843836982 0.020657063219842092 0 0.022023054606815622 0.019752946778274254 0 0.022307771360155621 0.019900808542246157 0 0.021337853285089151 0.020631308351907657 0 0.021971069843836982 0.020657063219842092 0 0.022023054606815622 0.019752946778274254 0 0.021971069843836982 0.020657063219842092 0 0.022307771360155621 0.019900808542246157 0 0.022361641035198013 0.020357001515691881 0 0.022535074218948566 0.01926300852530299 0 0.022307771360155621 0.019900808542246157 0 0.02249425059395151 0.019857847304817537 0 0.022307771360155621 0.019900808542246157 0 0.02249425059395151 0.019857847304817537 0 0.022361641035198013 0.020357001515691881 0 0.022152225550886511 0.020947510053133337 0 0.022647953296670117 0.020532517942774563 0 0.022799217798514692 0.020872083269985939 0 0.022152225550886511 0.020947510053133337 0 0.021971069843836982 0.020657063219842092 0 0.022361641035198013 0.020357001515691881 0 0.02249425059395151 0.019857847304817537 0 0.022361641035198013 0.020357001515691881 0 0.022662188222738883 0.020022786267444848 0 0.022152225550886511 0.020947510053133337 0 0.022361641035198013 0.020357001515691881 0 0.022647953296670117 0.020532517942774563 0 0.022647953296670117 0.020532517942774563 0 0.023050472913668379 0.020293837001997647 0 0.022799217798514692 0.020872083269985939 0 0.021653857855011595 0.038664036570876734 0 0.021926096929471395 0.041522005160488977 0 0.020677889126908221 0.04131311323185767 0 0.023007545615705283 0.026417693685033654 0 0.024884701205343543 0.031640768687311915 0 0.022747477600878863 0.020017684979299531 0 0.022662188222738883 0.020022786267444848 0 0.022645177296576439 0.01948200096285458 0 0.023007545615705283 0.026417693685033654 0 0.022780848002637681 0.026130037829639529 0 0.022647953296670117 0.020532517942774563 0 0.023050472913668379 0.020293837001997647 0 0.022662188222738883 0.020022786267444848 0 0.022361641035198013 0.020357001515691881 0 0.022647953296670117 0.020532517942774563 0 0.022662188222738883 0.020022786267444848 0 0.022357757950164536 0.018622529751936918 0 0.022567508250667567 0.019481364430455589 0 0.022645177296576439 0.01948200096285458 0 0.02249425059395151 0.019857847304817537 0 0.022662188222738883 0.020022786267444848 0 0.022567508250667567 0.019481364430455589 0 0.023007545615705283 0.026417693685033654 0 0.023329857522925445 0.025037510008152786 0 0.022662188222738883 0.020022786267444848 0 0.022567508250667567 0.019481364430455589 0 0.022645177296576439 0.01948200096285458 0 0.022535074218948566 0.01926300852530299 0 0.02249425059395151 0.019857847304817537 0 0.022567508250667567 0.019481364430455589 0 0.023203487546390136 0.019474326862007667 0 0.022764984662948459 0.019035564059556517 0 0.022856296877890876 0.019721509289276282 0 0.022764984662948459 0.019035564059556517 0 0.022645177296576439 0.01948200096285458 0 0.022856296877890876 0.019721509289276282 0 0.022357757950164536 0.018622529751936918 0 0.022764984662948459 0.019035564059556517 0 0.022645177296576439 0.01948200096285458 0 0.023164864562063018 0.020276986653379035 0 0.022463205872481573 0.019852823601016298 0 0.022856296877890876 0.019721509289276282 0 0.025868332330058127 0.040976903755306091 0 0.021653857855011595 0.038664036570876734 0 0.023307248660002666 0.041249279890593356 0 0.021022824863804215 0.026380109109904546 0 0.023007545615705283 0.026417693685033654 0 0.022463205872481573 0.019852823601016298 0 0.022645177296576439 0.01948200096285458 0 0.022856296877890876 0.019721509289276282 0 0.021653857855011595 0.038664036570876734 0 0.023307248660002666 0.041249279890593356 0 0.021926096929471395 0.041522005160488977 0 0.025868332330058127 0.040976903755306091 0 0.023314279694585584 0.043059122212823764 0 0.023307248660002666 0.041249279890593356 0 0.025868332330058127 0.040976903755306091 0 0.023314279694585584 0.043059122212823764 0 0.024265977827023916 0.044249262513450766 0 0.023314279694585584 0.043059122212823764 0 0.022508063370577851 0.042384918581041299 0 0.023307248660002666 0.041249279890593356 0 0.022324019156675728 0.043366432912079381 0 0.023314279694585584 0.043059122212823764 0 0.022508063370577851 0.042384918581041299 0 0.022508063370577851 0.042384918581041299 0 0.023307248660002666 0.041249279890593356 0 0.021926096929471395 0.041522005160488977 0 0.024729247172806001 0.031809662398619931 0 0.024884701205343543 0.031640768687311915 0 0.021926096929471395 0.041522005160488977 0 0.020695663393664829 0.041331764247005395 0 0.021193088006752566 0.042032207421159602 0 0.020695663393664829 0.041331764247005395 0 0.020519086792237181 0.042560488916148963 0 0.021193088006752566 0.042032207421159602 0 0.020695663393664829 0.041331764247005395 0 0.020519086792237181 0.042560488916148963 0 0.020067326496701846 0.043051734748965509 0 0.024884701205343543 0.031640768687311915 0 0.025696334108105671 0.035093444717724208 0 0.020519086792237181 0.042560488916148963 0 0.020057792465903942 0.043068708103288438 0 0.020872829595341147 0.043294359893850443 0 0.025567335665685746 0.035242646253374497 0 0.025696334108105671 0.035093444717724208 0 0.022508063370577851 0.042384918581041299 0 0.021926096929471395 0.041522005160488977 0 0.021668586448107298 0.042724146631728147 0 0.021926096929471395 0.041522005160488977 0 0.021193088006752566 0.042032207421159602 0 0.021668586448107298 0.042724146631728147 0 0.020519086792237181 0.042560488916148963 0 0.021193088006752566 0.042032207421159602 0 0.021668586448107298 0.042724146631728147 0 0.020872829595341147 0.043294359893850443 0 0.021668586448107298 0.042724146631728147 0 0.02147481693241364 0.043921373010975741 0 0.020519086792237181 0.042560488916148963 0 0.020872829595341147 0.043294359893850443 0 0.021668586448107298 0.042724146631728147 0 0.022324019156675728 0.043366432912079381 0 0.022508063370577851 0.042384918581041299 0 0.021668586448107298 0.042724146631728147 0 0.022324019156675728 0.043366432912079381 0 0.021668586448107298 0.042724146631728147 0 0.02147481693241364 0.043921373010975741 0 0.02147481693241364 0.043921373010975741 0 0.021084778556292285 0.04503025059914359 0 0.022528556984564119 0.044839786449426211 0 0.020057792465903942 0.043068708103288438 0 0.020016778452896018 0.045158369573085819 0 0.018773656029519605 0.046792583658660174 0 0.025696334108105671 0.035093444717724208 0 0.023525862511668504 0.041883050292789249 0 0.022324019156675728 0.043366432912079381 0 0.02147481693241364 0.043921373010975741 0 0.022528556984564119 0.044839786449426211 0 0.020872829595341147 0.043294359893850443 0 0.02147481693241364 0.043921373010975741 0 0.020686270359919528 0.044103216269185556 0 0.02147481693241364 0.043921373010975741 0 0.020686270359919528 0.044103216269185556 0 0.021084778556292285 0.04503025059914359 0 0.020057792465903942 0.043068708103288438 0 0.020686270359919528 0.044103216269185556 0 0.020016778452896018 0.045158369573085819 0 0.020057792465903942 0.043068708103288438 0 0.020872829595341147 0.043294359893850443 0 0.020686270359919528 0.044103216269185556 0 0.020686270359919528 0.044103216269185556 0 0.020016778452896018 0.045158369573085819 0 0.021084778556292285 0.04503025059914359 0 0.020016778452896018 0.045158369573085819 0 0.019845743166146439 0.046255712208329712 0 0.018773656029519605 0.046792583658660174 0 0.020016778452896018 0.045158369573085819 0 0.020499867330987298 0.045989623426967413 0 0.021084778556292285 0.04503025059914359 0 0.020016778452896018 0.045158369573085819 0 0.020499867330987298 0.045989623426967413 0 0.019845743166146439 0.046255712208329712 0 0.021440066449262461 0.046303415822414803 0 0.022553948427205178 0.046288000648126375 0 0.022528556984564119 0.044839786449426211 0 0.021084778556292285 0.04503025059914359 0 0.021440066449262461 0.046303415822414803 0 0.022528556984564119 0.044839786449426211 0 0.020499867330987298 0.045989623426967413 0 0.021084778556292285 0.04503025059914359 0 0.021440066449262461 0.046303415822414803 0 0.024265977827023916 0.044249262513450766 0 0.022528556984564119 0.044839786449426211 0 0.023789355810144665 0.046339059269829633 0 0.022553948427205178 0.046288000648126375 0 0.022528556984564119 0.044839786449426211 0 0.023789355810144665 0.046339059269829633 0 0.025770607954752184 0.045469905430847633 0 0.024265977827023916 0.044249262513450766 0 0.023789355810144665 0.046339059269829633 0 0.022324019156675728 0.043366432912079381 0 0.023314279694585584 0.043059122212823764 0 0.022528556984564119 0.044839786449426211 0 0.023314279694585584 0.043059122212823764 0 0.024265977827023916 0.044249262513450766 0 0.022528556984564119 0.044839786449426211 0 0.023386367594730544 0.04812316398140911 0 0.022438838169237273 0.047393201251350728 0 0.022201473261028854 0.048561864910922542 0 0.023386367594730544 0.04812316398140911 0 0.022201473261028854 0.048561864910922542 0 0.022837284319219168 0.049507191392020075 0 0.023386367594730544 0.04812316398140911 0 0.024099093317022226 0.049072770940325999 0 0.022837284319219168 0.049507191392020075 0 0.025002000669519409 0.047637606674807528 0 0.024965907092144031 0.05020526449490785 0 0.024099093317022226 0.049072770940325999 0 0.025002000669519409 0.047637606674807528 0 0.023386367594730544 0.04812316398140911 0 0.024099093317022226 0.049072770940325999 0 0.025002000669519409 0.047637606674807528 0 0.023386367594730544 0.04812316398140911 0 0.023789355810144665 0.046339059269829633 0 0.025770607954752184 0.045469905430847633 0 0.025002000669519409 0.047637606674807528 0 0.023789355810144665 0.046339059269829633 0 0.023386367594730544 0.04812316398140911 0 0.023789355810144665 0.046339059269829633 0 0.022438838169237273 0.047393201251350728 0 0.022553948427205178 0.046288000648126375 0 0.023789355810144665 0.046339059269829633 0 0.022438838169237273 0.047393201251350728 0 0.021440066449262461 0.046303415822414803 0 0.022553948427205178 0.046288000648126375 0 0.022438838169237273 0.047393201251350728 0 0.021440066449262461 0.046303415822414803 0 0.022438838169237273 0.047393201251350728 0 0.021429659322970154 0.047845191331706387 0 0.021440066449262461 0.046303415822414803 0 0.020108740103263714 0.047207396663044313 0 0.021429659322970154 0.047845191331706387 0 0.019845743166146439 0.046255712208329712 0 0.020108740103263714 0.047207396663044313 0 0.018773656029519605 0.046792583658660174 0 0.020499867330987298 0.045989623426967413 0 0.021440066449262461 0.046303415822414803 0 0.020108740103263714 0.047207396663044313 0 0.020499867330987298 0.045989623426967413 0 0.019845743166146439 0.046255712208329712 0 0.020108740103263714 0.047207396663044313 0 0.021429659322970154 0.047845191331706387 0 0.022201473261028854 0.048561864910922542 0 0.021003095816369034 0.04951796451634792 0 0.020108740103263714 0.047207396663044313 0 0.021429659322970154 0.047845191331706387 0 0.021003095816369034 0.04951796451634792 0 0.022438838169237273 0.047393201251350728 0 0.021429659322970154 0.047845191331706387 0 0.022201473261028854 0.048561864910922542 0 0.021003095816369034 0.04951796451634792 0 0.019567380287505477 0.050885568384642761 0 0.022323195735322019 0.051495281416561615 0 0.022201473261028854 0.048561864910922542 0 0.021003095816369034 0.04951796451634792 0 0.022837284319219168 0.049507191392020075 0 0.020108740103263714 0.047207396663044313 0 0.021003095816369034 0.04951796451634792 0 0.019567380287505477 0.050885568384642761 0 0.021003095816369034 0.04951796451634792 0 0.022323195735322019 0.051495281416561615 0 0.022837284319219168 0.049507191392020075 0 0.019567380287505477 0.050885568384642761 0 0.022323195735322019 0.051495281416561615 0 0.019751289101509903 0.052631719425718378 0 0.022323195735322019 0.051495281416561615 0 0.02355460242039947 0.050073180958124235 0 0.022837284319219168 0.049507191392020075 0 0.024099093317022226 0.049072770940325999 0 0.02355460242039947 0.050073180958124235 0 0.022837284319219168 0.049507191392020075 0 0.024965907092144031 0.05020526449490785 0 0.024099093317022226 0.049072770940325999 0 0.02355460242039947 0.050073180958124235 0 0.017777611510882838 0.047224696394710948 0 0.019022151431300451 0.048186783200977953 0 0.022585994694985973 0.052001971061511984 0 0.022581300786887901 0.051200742655101973 0 0.021181360552218774 0.051941430693943191 0 0.024965907092144031 0.05020526449490785 0 0.022323195735322019 0.051495281416561615 0 0.02355460242039947 0.050073180958124235 0 0.016929446751162685 0.050446871965335274 0 0.018887135781518728 0.051111268928170223 0 0.022882875462677348 0.050470456873595256 0 0.021851099692814173 0.052187715327842672 0 0.019994715915727539 0.052023199429101288 0 0.022585994694985973 0.052001971061511984 0 0.021181360552218774 0.051941430693943191 0 0.020452428495069463 0.053149025351438249 0 0.022882875462677348 0.050470456873595256 0 0.022965651002825112 0.053809727153327526 0 0.021851099692814173 0.052187715327842672 0 0.021851099692814173 0.052187715327842672 0 0.02075736427271762 0.053307261772559657 0 0.019994715915727539 0.052023199429101288 0 0.022965651002825112 0.053809727153327526 0 0.021851099692814173 0.052187715327842672 0 0.02075736427271762 0.053307261772559657 0 0.022965651002825112 0.053809727153327526 0 0.02075736427271762 0.053307261772559657 0 0.019798055712528236 0.05482269165463962 0 0.019192717636700045 0.053732881838893964 0 0.01832188219270299 0.054441940387727011 0 0.019798055712528236 0.05482269165463962 0 0.019192717636700045 0.053732881838893964 0 0.02075736427271762 0.053307261772559657 0 0.019798055712528236 0.05482269165463962 0 0.019192717636700045 0.053732881838893964 0 0.02075736427271762 0.053307261772559657 0 0.019994715915727539 0.052023199429101288 0 0.020452428495069463 0.053149025351438249 0 0.019751289101509903 0.052631719425718378 0 0.018767453179511871 0.053124408856160481 0 0.019022151431300451 0.048186783200977953 0 0.019039946924843083 0.048670616529380817 0 0.021181360552218774 0.051941430693943191 0 0.020452428495069463 0.053149025351438249 0 0.019751289101509903 0.052631719425718378 0 0.019567380287505477 0.050885568384642761 0 0.019751289101509903 0.052631719425718378 0 0.018622176479318672 0.052163324595083896 0 0.018622176479318672 0.052163324595083896 0 0.017550122205221296 0.053860110313782836 0 0.017857258144408146 0.050467199436533161 0 0.019751289101509903 0.052631719425718378 0 0.018622176479318672 0.052163324595083896 0 0.018767453179511871 0.053124408856160481 0 0.020452428495069463 0.053149025351438249 0 0.018767453179511871 0.053124408856160481 0 0.017818987371967233 0.053954975767986718 0 0.019656475149148381 0.05110979100425752 0 0.021224419177505647 0.047744585568112737 0 0.018622176479318672 0.052163324595083896 0 0.018767453179511871 0.053124408856160481 0 0.017550122205221296 0.053860110313782836 0 0.018767453179511871 0.053124408856160481 0 0.017818987371967233 0.053954975767986718 0 0.017550122205221296 0.053860110313782836 0 0.018887135781518728 0.051111268928170223 0 0.018536093322179582 0.051773856907569207 0 0.019192717636700045 0.053732881838893964 0 0.019994715915727539 0.052023199429101288 0 0.017818987371967233 0.053954975767986718 0 0.019192717636700045 0.053732881838893964 0 0.017818987371967233 0.053954975767986718 0 0.01832188219270299 0.054441940387727011 0 0.017795826300125297 0.054116350219675383 0 0.017748089069892992 0.054091072459933803 0 0.019098150924758878 0.054120685354929775 0 0.017818987371967233 0.053954975767986718 0 0.017795826300125297 0.054116350219675383 0 0.017055992827192137 0.054446934823970082 0 0.017795826300125297 0.054116350219675383 0 0.017748089069892992 0.054091072459933803 0 0.017550122205221296 0.053860110313782836 0 0.017818987371967233 0.053954975767986718 0 0.017795826300125297 0.054116350219675383 0 0.017550122205221296 0.053860110313782836 0 0.021755070300830452 0.048645747564362726 0 0.021224419177505647 0.047744585568112737 0 0.017748089069892992 0.054091072459933803 0 0.017550122205221296 0.053860110313782836 0 0.017296481426318042 0.054571028969857265 0 0.027184149003106586 0.043877593932048882 0 0.026902548119762448 0.040478176194676647 0 0.02921265562824758 0.041248249097291585 0 0.020108740103263714 0.047207396663044313 0 0.019567380287505477 0.050885568384642761 0 0.017857258144408146 0.050467199436533161 0 0.019567380287505477 0.050885568384642761 0 0.018622176479318672 0.052163324595083896 0 0.017857258144408146 0.050467199436533161 0 0.02051914966344023 0.048256945199719486 0 0.021224419177505647 0.047744585568112737 0 0.020108740103263714 0.047207396663044313 0 0.017482906151751552 0.050366542980783663 0 0.018773656029519605 0.046792583658660174 0 0.02901992688532614 0.038220546836660735 0 0.02921265562824758 0.041248249097291585 0 0.030128891478476583 0.038586579620981727 0 0.021224419177505647 0.047744585568112737 0 0.023525862511668504 0.041883050292789249 0 0.033449471940283929 0.032905917677678122 0 0.029584945974864257 0.03705387334024169 0 0.029864914325495179 0.033561747375903915 0 0.028348911458421496 0.035343653684154284 0 0.027135083252275011 0.038170683505016532 0 0.02901992688532614 0.038220546836660735 0 0.026902548119762448 0.040478176194676647 0 0.02921265562824758 0.041248249097291585 0 0.029584945974864257 0.03705387334024169 0 0.029864914325495179 0.033561747375903915 0 0.027721474799844169 0.034820775785152955 0 0.027751071586961714 0.031715846571199247 0 0.027721474799844169 0.034820775785152955 0 0.023149826104724595 0.033121678329897444 0 0.029584945974864257 0.03705387334024169 0 0.027721474799844169 0.034820775785152955 0 0.025142790170172222 0.036151592530191824 0 0.027721474799844169 0.034820775785152955 0 0.023149826104724595 0.033121678329897444 0 0.025142790170172222 0.036151592530191824 0 0.027751071586961714 0.031715846571199247 0 0.029864914325495179 0.033561747375903915 0 0.027721474799844169 0.034820775785152955 0 0.023149826104724595 0.033121678329897444 0 0.025142790170172222 0.036151592530191824 0 0.02159996998918351 0.037665129160516848 0 0.02159996998918351 0.037665129160516848 0 0.02581523903604788 0.041149278997549374 0 0.020296313148802269 0.041729103310367423 0 0.025142790170172222 0.036151592530191824 0 0.02159996998918351 0.037665129160516848 0 0.02581523903604788 0.041149278997549374 0 0.027184149003106586 0.043877593932048882 0 0.026902548119762448 0.040478176194676647 0 0.024567475554516102 0.042857143185002132 0 0.029584945974864257 0.03705387334024169 0 0.025142790170172222 0.036151592530191824 0 0.02581523903604788 0.041149278997549374 0 0.027135083252275011 0.038170683505016532 0 0.024997872120357381 0.041138419024541899 0 0.027184149003106586 0.043877593932048882 0 0.024674122893493446 0.044784984064063504 0 0.024567475554516102 0.042857143185002132 0 0.021755070300830452 0.048645747564362726 0 0.021509804381360072 0.049786624455324974 0 0.027184149003106586 0.043877593932048882 0 0.024674122893493446 0.044784984064063504 0 0.024953565695581052 0.047063409999375222 0 0.024953565695581052 0.047063409999375222 0 0.021785605473501505 0.045385942992148189 0 0.020271326376949558 0.048350066034355946 0 0.024674122893493446 0.044784984064063504 0 0.024953565695581052 0.047063409999375222 0 0.021785605473501505 0.045385942992148189 0 0.02581523903604788 0.041149278997549374 0 0.021785605473501505 0.045385942992148189 0 0.020296313148802269 0.041729103310367423 0 0.024997872120357381 0.041138419024541899 0 0.023655449864979226 0.042755004640079253 0 0.024674122893493446 0.044784984064063504 0 0.024567475554516102 0.042857143185002132 0 0.021785605473501505 0.045385942992148189 0 0.020296313148802269 0.041729103310367423 0 0.0185193018700366 0.046050230104805245 0 0.016165328544560507 0.042554485787656408 0 0.021785605473501505 0.045385942992148189 0 0.0185193018700366 0.046050230104805245 0 0.020271326376949558 0.048350066034355946 0 0.021785605473501505 0.045385942992148189 0 0.020296313148802269 0.041729103310367423 0 0.0185193018700366 0.046050230104805245 0 0.014808054728362096 0.047489579117908291 0 0.0185193018700366 0.046050230104805245 0 0.016165328544560507 0.042554485787656408 0 0.020296313148802269 0.041729103310367423 0 0.016165328544560507 0.042554485787656408 0 0.017825514630688408 0.03850737199561622 0 0.014186515750522344 0.038533197977357492 0 0.017825514630688408 0.03850737199561622 0 0.016038062185578371 0.03527289616004145 0 0.014186515750522344 0.038533197977357492 0 0.016165328544560507 0.042554485787656408 0 0.017825514630688408 0.03850737199561622 0 0.02159996998918351 0.037665129160516848 0 0.017825514630688408 0.03850737199561622 0 0.019293834727894189 0.035306108623957208 0 0.02159996998918351 0.037665129160516848 0 0.020296313148802269 0.041729103310367423 0 0.017825514630688408 0.03850737199561622 0 0.018652706836068251 0.031979831303214808 0 0.023149826104724595 0.033121678329897444 0 0.019293834727894189 0.035306108623957208 0 0.023149826104724595 0.033121678329897444 0 0.02159996998918351 0.037665129160516848 0 0.019293834727894189 0.035306108623957208 0 0.015634294449370111 0.031895394844571642 0 0.018652706836068251 0.031979831303214808 0 0.016038062185578371 0.03527289616004145 0 0.018652706836068251 0.031979831303214808 0 0.019293834727894189 0.035306108623957208 0 0.016038062185578371 0.03527289616004145 0 0.013192267016568972 0.034687757251747837 0 0.015634294449370111 0.031895394844571642 0 0.016038062185578371 0.03527289616004145 0 0.017825514630688408 0.03850737199561622 0 0.019293834727894189 0.035306108623957208 0 0.016038062185578371 0.03527289616004145 0 0.019323028384214579 0.060170441496166599 0 0.022560768371002154 0.05777411811087832 0 0.018675767099094083 0.056380017134868517 0 0.019323028384214579 0.060170441496166599 0 0.022560768371002154 0.05777411811087832 0 0.023306815051688155 0.060673792125645033 0 0.022560768371002154 0.05777411811087832 0 0.026337821635585301 0.056311990032801476 0 0.024813626403469236 0.059039261214680054 0 0.022560768371002154 0.05777411811087832 0 0.024813626403469236 0.059039261214680054 0 0.023306815051688155 0.060673792125645033 0 0.024813626403469236 0.059039261214680054 0 0.025159810981735756 0.060769525238414585 0 0.023306815051688155 0.060673792125645033 0 0.019644647174728785 0.05467410275763715 0 0.02122354355067468 0.056498548658270697 0 0.022560768371002154 0.05777411811087832 0 0.022340744936424208 0.054141663709109354 0 0.026337821635585301 0.056311990032801476 0 0.01593194329199786 0.051682377804270964 0 0.018675767099094083 0.056380017134868517 0 0.022340744936424208 0.054141663709109354 0 0.022560768371002154 0.05777411811087832 0 0.018675767099094083 0.056380017134868517 0 0.022340744936424208 0.054141663709109354 0 0.01593194329199786 0.051682377804270964 0 0.018230574446915396 0.049773151728602236 0 0.019282946844152066 0.052198923020346386 0 0.018164214087708814 0.053806601193874523 0 0.019644647174728785 0.05467410275763715 0 0.014808054728362096 0.047489579117908291 0 0.0185193018700366 0.046050230104805245 0 0.018230574446915396 0.049773151728602236 0 0.014808054728362096 0.047489579117908291 0 0.01593194329199786 0.051682377804270964 0 0.018230574446915396 0.049773151728602236 0 0.0185193018700366 0.046050230104805245 0 0.018230574446915396 0.049773151728602236 0 0.020271326376949558 0.048350066034355946 0 0.018230574446915396 0.049773151728602236 0 0.020271326376949558 0.048350066034355946 0 0.021071555209757179 0.051366036269061013 0 0.018230574446915396 0.049773151728602236 0 0.019282946844152066 0.052198923020346386 0 0.021071555209757179 0.051366036269061013 0 0.021071555209757179 0.051366036269061013 0 0.0195190212669396 0.051602171671112015 0 0.020402423595269083 0.051401881937078078 0 0.019282946844152066 0.052198923020346386 0 0.021071555209757179 0.051366036269061013 0 0.020402423595269083 0.051401881937078078 0 0.021509804381360072 0.049786624455324974 0 0.021221364692914926 0.050373093735787314 0 0.024953565695581052 0.047063409999375222 0 0.020271326376949558 0.048350066034355946 0 0.021071555209757179 0.051366036269061013 0 0.017795826300125297 0.054116350219675383 0 0.019098150924758878 0.054120685354929775 0 0.018604373383144884 0.053145002143675561 0 0.019098150924758878 0.054120685354929775 0 0.021071555209757179 0.051366036269061013 0 0.018604373383144884 0.053145002143675561 0 0.018604373383144884 0.053145002143675561 0 0.0195190212669396 0.051602171671112015 0 0.017929463384643116 0.051745370881938299 0 0.021071555209757179 0.051366036269061013 0 0.018604373383144884 0.053145002143675561 0 0.0195190212669396 0.051602171671112015 0 0.02122354355067468 0.056498548658270697 0 0.021062533195980268 0.059331741970119457 0 0.0195190212669396 0.051602171671112015 0 0.020402423595269083 0.051401881937078078 0 0.018828555446567086 0.050347757169109428 0 0.026337821635585301 0.056311990032801476 0 0.024813626403469236 0.059039261214680054 0 0.026680757482883906 0.059429455399314962 0 0.024813626403469236 0.059039261214680054 0 0.026680757482883906 0.059429455399314962 0 0.025159810981735756 0.060769525238414585 0 0.021062533195980268 0.059331741970119457 0 0.022788938216573032 0.061289296944367577 0 0.026337821635585301 0.056311990032801476 0 0.026680757482883906 0.059429455399314962 0 0.029779551769188378 0.05784802250486961 0 0.026680757482883906 0.059429455399314962 0 0.029779551769188378 0.05784802250486961 0 0.027923443371024887 0.061647012078263105 0 0.021537916776416564 0.067066131574979967 0 0.021080235636834737 0.065629616316714739 0 0.022945296729972541 0.065426410475292171 0 0.021062533195980268 0.059331741970119457 0 0.02037041621945301 0.061095267916975247 0 0.021537916776416564 0.067066131574979967 0 0.020250429194821274 0.066086773341037325 0 0.021080235636834737 0.065629616316714739 0 0.020250429194821274 0.066086773341037325 0 0.019769312497054756 0.064666134583379567 0 0.020055461716012302 0.065403593114399486 0 0.02037041621945301 0.061095267916975247 0 0.020488708038792207 0.061713423347110968 0 0.016681513029997225 0.063155118559269419 0 0.017204337325423223 0.060252340875790671 0 0.019487490946459542 0.061888958624634137 0 0.013473801345833324 0.061908106289630373 0 0.016681513029997225 0.063155118559269419 0 0.017204337325423223 0.060252340875790671 0 0.0195190212669396 0.051602171671112015 0 0.018828555446567086 0.050347757169109428 0 0.017929463384643116 0.051745370881938299 0 0.021062533195980268 0.059331741970119457 0 0.019837374511516282 0.05723338501015629 0 0.013473801345833324 0.061908106289630373 0 0.017204337325423223 0.060252340875790671 0 0.014895430529272969 0.058483800824014449 0 0.018604373383144884 0.053145002143675561 0 0.017929463384643116 0.051745370881938299 0 0.017055992827192137 0.054446934823970082 0 0.019837374511516282 0.05723338501015629 0 0.019520339402243365 0.056527734318778423 0 0.017795826300125297 0.054116350219675383 0 0.018604373383144884 0.053145002143675561 0 0.017055992827192137 0.054446934823970082 0 0.017818987371967233 0.053954975767986718 0 0.017055992827192137 0.054446934823970082 0 0.01832188219270299 0.054441940387727011 0 0.017055992827192137 0.054446934823970082 0 0.01832188219270299 0.054441940387727011 0 0.018661447942594139 0.056524778005792607 0 0.014895430529272969 0.058483800824014449 0 0.017055992827192137 0.054446934823970082 0 0.018661447942594139 0.056524778005792607 0 0.017204337325423223 0.060252340875790671 0 0.018661447942594139 0.056524778005792607 0 0.020347416217821969 0.059231015085697641 0 0.017204337325423223 0.060252340875790671 0 0.014895430529272969 0.058483800824014449 0 0.018661447942594139 0.056524778005792607 0 0.018661447942594139 0.056524778005792607 0 0.020925903409660482 0.056831567200255201 0 0.020347416217821969 0.059231015085697641 0 0.018661447942594139 0.056524778005792607 0 0.020925903409660482 0.056831567200255201 0 0.019798055712528236 0.05482269165463962 0 0.01832188219270299 0.054441940387727011 0 0.018661447942594139 0.056524778005792607 0 0.019798055712528236 0.05482269165463962 0 0.022965651002825112 0.053809727153327526 0 0.020925903409660482 0.056831567200255201 0 0.019798055712528236 0.05482269165463962 0 0.022965651002825112 0.053809727153327526 0 0.020925903409660482 0.056831567200255201 0 0.02324788988733462 0.057478047363862202 0 0.020925903409660482 0.056831567200255201 0 0.020347416217821969 0.059231015085697641 0 0.02324788988733462 0.057478047363862202 0 0.020347416217821969 0.059231015085697641 0 0.02324788988733462 0.057478047363862202 0 0.022880142526930641 0.062144695174268905 0 0.020347416217821969 0.059231015085697641 0 0.019487490946459542 0.061888958624634137 0 0.022880142526930641 0.062144695174268905 0 0.017204337325423223 0.060252340875790671 0 0.020347416217821969 0.059231015085697641 0 0.019487490946459542 0.061888958624634137 0 0.019487490946459542 0.061888958624634137 0 0.019769312497054756 0.064666134583379567 0 0.022880142526930641 0.062144695174268905 0 0.016681513029997225 0.063155118559269419 0 0.019487490946459542 0.061888958624634137 0 0.019769312497054756 0.064666134583379567 0 0.019769312497054756 0.064666134583379567 0 0.022880142526930641 0.062144695174268905 0 0.021263244861067412 0.065413854847804806 0 0.019769312497054756 0.064666134583379567 0 0.019969001004619354 0.065763849829860707 0 0.021263244861067412 0.065413854847804806 0 0.019769312497054756 0.064666134583379567 0 0.019969001004619354 0.065763849829860707 0 0.020055461716012302 0.065403593114399486 0 0.019969001004619354 0.065763849829860707 0 0.020137819407473664 0.065693187848706494 0 0.020055461716012302 0.065403593114399486 0 0.019969001004619354 0.065763849829860707 0 0.019549333486399229 0.0659099355699969 0 0.020137819407473664 0.065693187848706494 0 0.019969001004619354 0.065763849829860707 0 0.021263244861067412 0.065413854847804806 0 0.019204307759684236 0.066195461138381928 0 0.018440043195685089 0.065676438278723645 0 0.019549333486399229 0.0659099355699969 0 0.019204307759684236 0.066195461138381928 0 0.019969001004619354 0.065763849829860707 0 0.019549333486399229 0.0659099355699969 0 0.019204307759684236 0.066195461138381928 0 0.018440043195685089 0.065676438278723645 0 0.018623755009618014 0.06499929210493284 0 0.016250553080317497 0.064999922753091882 0 0.018440043195685089 0.065676438278723645 0 0.019204307759684236 0.066195461138381928 0 0.016250553080317497 0.064999922753091882 0 0.018623755009618014 0.06499929210493284 0 0.019549333486399229 0.0659099355699969 0 0.020993309173219492 0.065000108693387029 0 0.018440043195685089 0.065676438278723645 0 0.018623755009618014 0.06499929210493284 0 0.019549333486399229 0.0659099355699969 0 0.019549333486399229 0.0659099355699969 0 0.020514437866623929 0.065557893005491405 0 0.020137819407473664 0.065693187848706494 0 0.020514437866623929 0.065557893005491405 0 0.020993309173219492 0.065000108693387029 0 0.020716764662438495 0.065367836298699036 0 0.020998988734464461 0.064999798196312991 0 0.022651006965739937 0.065313857476681711 0 0.019549333486399229 0.0659099355699969 0 0.020514437866623929 0.065557893005491405 0 0.020993309173219492 0.065000108693387029 0 0.020996980505680607 0.064999998383630006 0 0.024204416879896884 0.064999993672271758 0 0.02345302411684197 0.066503583640075831 0 0.024204416879896884 0.064999993672271758 0 0.02345302411684197 0.066503583640075831 0 0.025201695643363019 0.066349637463668773 0 0.020514437866623929 0.065557893005491405 0 0.020716764662438495 0.065367836298699036 0 0.020680709502007091 0.065486343772853409 0 0.020514437866623929 0.065557893005491405 0 0.020680709502007091 0.065486343772853409 0 0.020541079593210262 0.06550902754069407 0 0.020680709502007091 0.065486343772853409 0 0.020541079593210262 0.06550902754069407 0 0.020747149622242819 0.065530220022417027 0 0.020514437866623929 0.065557893005491405 0 0.020541079593210262 0.06550902754069407 0 0.020137819407473664 0.065693187848706494 0 0.020541079593210262 0.06550902754069407 0 0.020137819407473664 0.065693187848706494 0 0.020055461716012302 0.065403593114399486 0 0.020250429194821274 0.066086773341037325 0 0.020055461716012302 0.065403593114399486 0 0.021080235636834737 0.065629616316714739 0 0.020541079593210262 0.06550902754069407 0 0.020055461716012302 0.065403593114399486 0 0.021080235636834737 0.065629616316714739 0 0.020541079593210262 0.06550902754069407 0 0.021080235636834737 0.065629616316714739 0 0.020747149622242819 0.065530220022417027 0 0.023141793548624591 0.066072618104944317 0 0.023625532787267318 0.065828569791467714 0 0.021080235636834737 0.065629616316714739 0 0.022945296729972541 0.065426410475292171 0 0.022826447924223468 0.064050979926154272 0 0.026680757482883906 0.059429455399314962 0 0.027923443371024887 0.061647012078263105 0 0.026352725176428254 0.061337633393203431 0 0.026680757482883906 0.059429455399314962 0 0.026352725176428254 0.061337633393203431 0 0.025159810981735756 0.060769525238414585 0 0.026352725176428254 0.061337633393203431 0 0.025159810981735756 0.060769525238414585 0 0.025584328302403828 0.062210193654348246 0 0.025584328302403828 0.062210193654348246 0 0.025226465929500168 0.063083078263350995 0 0.024570822936278311 0.062274810595877902 0 0.025159810981735756 0.060769525238414585 0 0.025584328302403828 0.062210193654348246 0 0.024570822936278311 0.062274810595877902 0 0.027923443371024887 0.061647012078263105 0 0.026352725176428254 0.061337633393203431 0 0.026187767644950306 0.062438017601126244 0 0.026352725176428254 0.061337633393203431 0 0.025584328302403828 0.062210193654348246 0 0.026187767644950306 0.062438017601126244 0 0.026187767644950306 0.062438017601126244 0 0.025631339726845569 0.063012995967078517 0 0.025223600455983302 0.063338095624271465 0 0.025584328302403828 0.062210193654348246 0 0.026187767644950306 0.062438017601126244 0 0.025631339726845569 0.063012995967078517 0 0.025584328302403828 0.062210193654348246 0 0.025631339726845569 0.063012995967078517 0 0.025226465929500168 0.063083078263350995 0 0.025631339726845569 0.063012995967078517 0 0.025226465929500168 0.063083078263350995 0 0.025577072882961391 0.063387624419326924 0 0.025631339726845569 0.063012995967078517 0 0.025577072882961391 0.063387624419326924 0 0.025223600455983302 0.063338095624271465 0 0.022945296729972541 0.065426410475292171 0 0.025223600455983302 0.063338095624271465 0 0.022826447924223468 0.064050979926154272 0 0.027923443371024887 0.061647012078263105 0 0.026187767644950306 0.062438017601126244 0 0.025223600455983302 0.063338095624271465 0 0.023625532787267318 0.065828569791467714 0 0.024874298734376386 0.065587883991908236 0 0.022788938216573032 0.061289296944367577 0 0.02334123183174857 0.061646267523736233 0 0.025223600455983302 0.063338095624271465 0 0.022826447924223468 0.064050979926154272 0 0.024712768741996793 0.062416505106110569 0 0.020680709502007091 0.065486343772853409 0 0.020747149622242819 0.065530220022417027 0 0.020774110316276729 0.065464747032271647 0 0.020716764662438495 0.065367836298699036 0 0.020680709502007091 0.065486343772853409 0 0.020774110316276729 0.065464747032271647 0 0.022651006965739937 0.065313857476681711 0 0.024874298734376386 0.065587883991908236 0 0.025901537101701243 0.068004281598148822 0 0.025201695643363019 0.066349637463668773 0 0.02741183206648205 0.064999996096978263 0 0.02345302411684197 0.066503583640075831 0 0.025901537101701243 0.068004281598148822 0 0.025201695643363019 0.066349637463668773 0 0.024204416879896884 0.064999993672271758 0 0.025201695643363019 0.066349637463668773 0 0.02741183206648205 0.064999996096978263 0 0.027412216679148043 0.065000865791485216 0 0.027717771002913907 0.066629259449922304 0 0.028024583229624141 0.067403470391105225 0 0.024874298734376386 0.065587883991908236 0 0.027407964850172769 0.065000023907217652 0 0.027161224247772665 0.066832493598270495 0 0.027412216679148043 0.065000865791485216 0 0.027717771002913907 0.066629259449922304 0 0.028168439981770887 0.066416503553675232 0 0.027161224247772665 0.066832493598270495 0 0.027717771002913907 0.066629259449922304 0 0.025126831318162578 0.065250448070083691 0 0.024874298734376386 0.065587883991908236 0 0.025577072882961391 0.063387624419326924 0 0.025223600455983302 0.063338095624271465 0 0.024712768741996793 0.062416505106110569 0 0.028168439981770887 0.066416503553675232 0 0.027717771002913907 0.066629259449922304 0 0.028024583229624141 0.067403470391105225 0 0.028168439981770887 0.066416503553675232 0 0.028024583229624141 0.067403470391105225 0 0.026156257783299299 0.065429605145492925 0 0.028024583229624141 0.067403470391105225 0 0.030747772257218298 0.068379833442975754 0 0.030142542753227638 0.070834141130365819 0 0.027412216679148043 0.065000865791485216 0 0.028024583229624141 0.067403470391105225 0 0.030425497559292566 0.066583901381551139 0 0.027412216679148043 0.065000865791485216 0 0.031218684886319268 0.06499917881608154 0 0.030425497559292566 0.066583901381551139 0 0.033009339707304144 0.067348258941204636 0 0.031218684886319268 0.06499917881608154 0 0.030425497559292566 0.066583901381551139 0 0.033009339707304144 0.067348258941204636 0 0.030747772257218298 0.068379833442975754 0 0.031934324726501137 0.069889131975774191 0 0.033009339707304144 0.067348258941204636 0 0.030425497559292566 0.066583901381551139 0 0.030747772257218298 0.068379833442975754 0 0.028024583229624141 0.067403470391105225 0 0.030425497559292566 0.066583901381551139 0 0.030747772257218298 0.068379833442975754 0 0.030747772257218298 0.068379833442975754 0 0.031934324726501137 0.069889131975774191 0 0.030142542753227638 0.070834141130365819 0 0.031934324726501137 0.069889131975774191 0 0.030142542753227638 0.070834141130365819 0 0.031755578335461047 0.071530059023222528 0 0.028024583229624141 0.067403470391105225 0 0.022573046907673845 0.063690717714965928 0 0.026156257783299299 0.065429605145492925 0 0.027943835613076978 0.065820743729965533 0 0.028043299463026302 0.065429345191254581 0 0.025126831318162578 0.065250448070083691 0 0.024934762603954011 0.064985467740505995 0 0.025226465929500168 0.063083078263350995 0 0.025577072882961391 0.063387624419326924 0 0.024630741400020351 0.063730909515052336 0 0.028168439981770887 0.066416503553675232 0 0.026156257783299299 0.065429605145492925 0 0.024630741400020351 0.063730909515052336 0 0.025226465929500168 0.063083078263350995 0 0.024630741400020351 0.063730909515052336 0 0.024570822936278311 0.062274810595877902 0 0.022573046907673845 0.063690717714965928 0 0.026156257783299299 0.065429605145492925 0 0.024630741400020351 0.063730909515052336 0 0.022573046907673845 0.063690717714965928 0 0.024630741400020351 0.063730909515052336 0 0.022911619227052114 0.062103639324170332 0 0.024630741400020351 0.063730909515052336 0 0.022911619227052114 0.062103639324170332 0 0.024570822936278311 0.062274810595877902 0 0.022911619227052114 0.062103639324170332 0 0.024570822936278311 0.062274810595877902 0 0.023306815051688155 0.060673792125645033 0 0.025159810981735756 0.060769525238414585 0 0.024570822936278311 0.062274810595877902 0 0.023306815051688155 0.060673792125645033 0 0.019323028384214579 0.060170441496166599 0 0.022911619227052114 0.062103639324170332 0 0.023306815051688155 0.060673792125645033 0 0.031794959965197607 0.073676685303621078 0 0.030142542753227638 0.070834141130365819 0 0.031755578335461047 0.071530059023222528 0 0.019323028384214579 0.060170441496166599 0 0.022573046907673845 0.063690717714965928 0 0.022911619227052114 0.062103639324170332 0 0.028787005131326676 0.064010979951948974 0 0.028043299463026302 0.065429345191254581 0 0.014042056329520013 0.057844482113663089 0 0.013831718933533493 0.055961641483756402 0 0.013377102266604008 0.060208953147472696 0 0.014042056329520013 0.057844482113663089 0 0.01477617471059281 0.056228268881382819 0 0.01388801730068254 0.059956382022263062 0 0.013445928929003655 0.060734469247245029 0 0.013373266531420319 0.061737156801585931 0 0.013521107844818518 0.064262695156452471 0 0.013592318111758461 0.064852164521486386 0 0.013844813293098463 0.063856123630475659 0 0.013370607880851332 0.064572472139440257 0 0.013521107844818518 0.064262695156452471 0 0.013592318111758461 0.064852164521486386 0 0.014042056329520013 0.057844482113663089 0 0.01477617471059281 0.056228268881382819 0 0.014288546088226913 0.056328513955863864 0 0.013521107844818518 0.064262695156452471 0 0.013346425205602166 0.064025813964397757 0 0.01353923516192143 0.063906735047296312 0 0.013370607880851332 0.064572472139440257 0 0.013521107844818518 0.064262695156452471 0 0.013309588293688461 0.064318906601251058 0 0.013521107844818518 0.064262695156452471 0 0.013309588293688461 0.064318906601251058 0 0.013346425205602166 0.064025813964397757 0 0.013309588293688461 0.064318906601251058 0 0.013346425205602166 0.064025813964397757 0 0.013119373002429329 0.064123992906937502 0 0.013309588293688461 0.064318906601251058 0 0.013139038136731387 0.064637565556192517 0 0.013119373002429329 0.064123992906937502 0 0.013139038136731387 0.064637565556192517 0 0.013119373002429329 0.064123992906937502 0 0.012892724463566239 0.064457560260091779 0 0.013139038136731387 0.064637565556192517 0 0.012892724463566239 0.064457560260091779 0 0.012769717447609293 0.06504993144684583 0 0.013370607880851332 0.064572472139440257 0 0.013309588293688461 0.064318906601251058 0 0.013139038136731387 0.064637565556192517 0 0.013370607880851332 0.064572472139440257 0 0.013139038136731387 0.064637565556192517 0 0.013301479944498104 0.064796076833727206 0 0.013301479944498104 0.064796076833727206 0 0.013128972980452154 0.065133394644841372 0 0.013592318111758461 0.064852164521486386 0 0.013139038136731387 0.064637565556192517 0 0.013301479944498104 0.064796076833727206 0 0.013128972980452154 0.065133394644841372 0 0.013128972980452154 0.065133394644841372 0 0.013592318111758461 0.064852164521486386 0 0.013078825056321281 0.06568846376102383 0 0.013139038136731387 0.064637565556192517 0 0.013128972980452154 0.065133394644841372 0 0.012769717447609293 0.06504993144684583 0 0.013128972980452154 0.065133394644841372 0 0.012769717447609293 0.06504993144684583 0 0.012750568933583672 0.065464153404524827 0 0.014395230782779142 0.055761681135089725 0 0.014004638279332578 0.054798037438235983 0 0.015687463763146919 0.053647179900874815 0 0.01477617471059281 0.056228268881382819 0 0.014395230782779142 0.055761681135089725 0 0.015687463763146919 0.053647179900874815 0 0.013445928929003655 0.060734469247245029 0 0.012915486068235905 0.06027683547391597 0 0.013370607880851332 0.064572472139440257 0 0.013301479944498104 0.064796076833727206 0 0.013592318111758461 0.064852164521486386 0 0.014042056329520013 0.057844482113663089 0 0.014288546088226913 0.056328513955863864 0 0.013831718933533493 0.055961641483756402 0 0.01477617471059281 0.056228268881382819 0 0.014288546088226913 0.056328513955863864 0 0.014395230782779142 0.055761681135089725 0 0.013776238905377342 0.056063158904594922 0 0.013761051852649265 0.056069404158459644 0 0.014288546088226913 0.056328513955863864 0 0.014395230782779142 0.055761681135089725 0 0.013831718933533493 0.055961641483756402 0 0.014395230782779142 0.055761681135089725 0 0.013905435539530237 0.055834100569069171 0 0.013725513442111368 0.055477918751491974 0 0.014395230782779142 0.055761681135089725 0 0.013725513442111368 0.055477918751491974 0 0.014004638279332578 0.054798037438235983 0 0.013725513442111368 0.055477918751491974 0 0.014004638279332578 0.054798037438235983 0 0.013317934187577592 0.055132111580085678 0 0.013905435539530237 0.055834100569069171 0 0.012912820805090668 0.055518384364633092 0 0.011414845106141771 0.056252526825838048 0 0.013761051852649265 0.056069404158459644 0 0.012450390317150931 0.055904660838968431 0 0.014004638279332578 0.054798037438235983 0 0.013317934187577592 0.055132111580085678 0 0.013064383284129668 0.054667616460521894 0 0.013725513442111368 0.055477918751491974 0 0.013317934187577592 0.055132111580085678 0 0.012912820805090668 0.055518384364633092 0 0.012919927943623765 0.055163310923647131 0 0.013064383284129668 0.054667616460521894 0 0.012312688923899882 0.055218150547416738 0 0.013317934187577592 0.055132111580085678 0 0.012919927943623765 0.055163310923647131 0 0.012912820805090668 0.055518384364633092 0 0.013317934187577592 0.055132111580085678 0 0.012919927943623765 0.055163310923647131 0 0.013064383284129668 0.054667616460521894 0 0.012312688923899882 0.055218150547416738 0 0.011788708722329814 0.05491481288846585 0 0.012136502586028799 0.054418073250914988 0 0.013064383284129668 0.054667616460521894 0 0.012312688923899882 0.055218150547416738 0 0.012136502586028799 0.054418073250914988 0 0.012919927943623765 0.055163310923647131 0 0.012312688923899882 0.055218150547416738 0 0.012912820805090668 0.055518384364633092 0 0.012312688923899882 0.055218150547416738 0 0.012912820805090668 0.055518384364633092 0 0.011414845106141771 0.056252526825838048 0 0.013905435539530237 0.055834100569069171 0 0.013725513442111368 0.055477918751491974 0 0.012912820805090668 0.055518384364633092 0 0.011186416275695995 0.054732711788764932 0 0.01143422850523316 0.055321902173681221 0 0.010480461243761365 0.05550663236428232 0 0.012312688923899882 0.055218150547416738 0 0.011788708722329814 0.05491481288846585 0 0.01143422850523316 0.055321902173681221 0 0.011186416275695995 0.054732711788764932 0 0.011788708722329814 0.05491481288846585 0 0.012136502586028799 0.054418073250914988 0 0.011186416275695995 0.054732711788764932 0 0.011788708722329814 0.05491481288846585 0 0.01143422850523316 0.055321902173681221 0 0.012312688923899882 0.055218150547416738 0 0.01143422850523316 0.055321902173681221 0 0.011414845106141771 0.056252526825838048 0 0.01143422850523316 0.055321902173681221 0 0.011414845106141771 0.056252526825838048 0 0.010480461243761365 0.05550663236428232 0 0.013256440850061068 0.054528820929705617 0 0.014166556165876042 0.055370297466719808 0 0.013576275593811598 0.056454776872979791 0 0.013256440850061068 0.054528820929705617 0 0.012164406006052666 0.056097929020448224 0 0.013576275593811598 0.056454776872979791 0 0.015804050204748565 0.053589571364298393 0 0.013256440850061068 0.054528820929705617 0 0.014166556165876042 0.055370297466719808 0 0.015804050204748565 0.053589571364298393 0 0.014166556165876042 0.055370297466719808 0 0.014853340756556702 0.056396319608475888 0 0.013761051852649265 0.056069404158459644 0 0.013798927200616829 0.057992822837364226 0 0.014042056329520013 0.057844482113663089 0 0.013377102266604008 0.060208953147472696 0 0.01388801730068254 0.059956382022263062 0 0.013377102266604008 0.060208953147472696 0 0.01388801730068254 0.059956382022263062 0 0.013581259609041977 0.062550464046883456 0 0.013373266531420319 0.061737156801585931 0 0.013268488952053206 0.062221743384991104 0 0.014166556165876042 0.055370297466719808 0 0.014853340756556702 0.056396319608475888 0 0.013576275593811598 0.056454776872979791 0 0.014853340756556702 0.056396319608475888 0 0.013576275593811598 0.056454776872979791 0 0.013701805727912934 0.057839193176526714 0 0.012164406006052666 0.056097929020448224 0 0.013576275593811598 0.056454776872979791 0 0.012276306751691836 0.057121935244583831 0 0.013576275593811598 0.056454776872979791 0 0.012276306751691836 0.057121935244583831 0 0.013006753522457642 0.057556653232525602 0 0.013576275593811598 0.056454776872979791 0 0.013006753522457642 0.057556653232525602 0 0.013701805727912934 0.057839193176526714 0 0.012276306751691836 0.057121935244583831 0 0.012372580455460708 0.058121394154200631 0 0.013006753522457642 0.057556653232525602 0 0.012372580455460708 0.058121394154200631 0 0.013107682690994974 0.058242512180587208 0 0.013006753522457642 0.057556653232525602 0 0.013107682690994974 0.058242512180587208 0 0.013701805727912934 0.057839193176526714 0 0.013342036537156678 0.058744895198589407 0 0.013107682690994974 0.058242512180587208 0 0.013006753522457642 0.057556653232525602 0 0.013701805727912934 0.057839193176526714 0 0.013941164317874512 0.059231609445898899 0 0.012951257237101858 0.059229564400740571 0 0.013342036537156678 0.058744895198589407 0 0.013941164317874512 0.059231609445898899 0 0.013701805727912934 0.057839193176526714 0 0.013342036537156678 0.058744895198589407 0 0.012951257237101858 0.059229564400740571 0 0.013342036537156678 0.058744895198589407 0 0.012799738420325514 0.05868755789834848 0 0.013107682690994974 0.058242512180587208 0 0.013342036537156678 0.058744895198589407 0 0.012799738420325514 0.05868755789834848 0 0.012372580455460708 0.058121394154200631 0 0.013107682690994974 0.058242512180587208 0 0.012799738420325514 0.05868755789834848 0 0.012951257237101858 0.059229564400740571 0 0.012799738420325514 0.05868755789834848 0 0.012233828920943775 0.058885232216183025 0 0.012372580455460708 0.058121394154200631 0 0.012799738420325514 0.05868755789834848 0 0.012233828920943775 0.058885232216183025 0 0.013941164317874512 0.059231609445898899 0 0.014853340756556702 0.056396319608475888 0 0.013701805727912934 0.057839193176526714 0 0.013844813293098463 0.063856123630475659 0 0.013587221410890081 0.063114353670408116 0 0.013581259609041977 0.062550464046883456 0 0.01344534292972384 0.063091157643236487 0 0.013377102266604008 0.060208953147472696 0 0.013581259609041977 0.062550464046883456 0 0.013387510129326373 0.060378477859646916 0 0.013798927200616829 0.057992822837364226 0 0.013502421173245143 0.062872422382914309 0 0.01344534292972384 0.063091157643236487 0 0.013581259609041977 0.062550464046883456 0 0.013502421173245143 0.062872422382914309 0 0.013581259609041977 0.062550464046883456 0 0.013534013800553135 0.062861026993336233 0 0.013587221410890081 0.063114353670408116 0 0.013581259609041977 0.062550464046883456 0 0.013534013800553135 0.062861026993336233 0 0.013361746171304185 0.062902430347019658 0 0.013534013800553135 0.062861026993336233 0 0.013454707230934887 0.063103650829869615 0 0.013361746171304185 0.062902430347019658 0 0.013269435620414168 0.063105568306995305 0 0.013454707230934887 0.063103650829869615 0 0.013150831513078165 0.062880154031002847 0 0.013361746171304185 0.062902430347019658 0 0.013269435620414168 0.063105568306995305 0 0.013269435620414168 0.063105568306995305 0 0.013297670231622243 0.063389741131365793 0 0.013454707230934887 0.063103650829869615 0 0.013297670231622243 0.063389741131365793 0 0.013454707230934887 0.063103650829869615 0 0.013576255489213339 0.06345289967736932 0 0.013587221410890081 0.063114353670408116 0 0.013454707230934887 0.063103650829869615 0 0.013576255489213339 0.06345289967736932 0 0.013587221410890081 0.063114353670408116 0 0.013534013800553135 0.062861026993336233 0 0.013454707230934887 0.063103650829869615 0 0.013844813293098463 0.063856123630475659 0 0.013587221410890081 0.063114353670408116 0 0.013576255489213339 0.06345289967736932 0 0.013576255489213339 0.06345289967736932 0 0.013410572705492408 0.063687272213652293 0 0.013604589808496981 0.063720300047814857 0 0.013297670231622243 0.063389741131365793 0 0.013576255489213339 0.06345289967736932 0 0.013410572705492408 0.063687272213652293 0 0.013410572705492408 0.063687272213652293 0 0.013346425205602166 0.064025813964397757 0 0.01353923516192143 0.063906735047296312 0 0.013410572705492408 0.063687272213652293 0 0.01353923516192143 0.063906735047296312 0 0.013604589808496981 0.063720300047814857 0 0.013844813293098463 0.063856123630475659 0 0.013576255489213339 0.06345289967736932 0 0.013604589808496981 0.063720300047814857 0 0.013521107844818518 0.064262695156452471 0 0.013844813293098463 0.063856123630475659 0 0.01353923516192143 0.063906735047296312 0 0.013844813293098463 0.063856123630475659 0 0.01353923516192143 0.063906735047296312 0 0.013604589808496981 0.063720300047814857 0 0.013119373002429329 0.064123992906937502 0 0.012912661860694076 0.063771637145047536 0 0.012892724463566239 0.064457560260091779 0 0.013119373002429329 0.064123992906937502 0 0.013140659523483743 0.063658976077232587 0 0.012912661860694076 0.063771637145047536 0 0.013346425205602166 0.064025813964397757 0 0.013119373002429329 0.064123992906937502 0 0.013140659523483743 0.063658976077232587 0 0.013410572705492408 0.063687272213652293 0 0.013346425205602166 0.064025813964397757 0 0.013140659523483743 0.063658976077232587 0 0.013297670231622243 0.063389741131365793 0 0.013410572705492408 0.063687272213652293 0 0.013140659523483743 0.063658976077232587 0 0.013140659523483743 0.063658976077232587 0 0.013047461383922905 0.063287430034267692 0 0.012912661860694076 0.063771637145047536 0 0.012963996301425154 0.063027359879403513 0 0.013047461383922905 0.063287430034267692 0 0.012857218397881436 0.063326803727302594 0 0.013297670231622243 0.063389741131365793 0 0.013140659523483743 0.063658976077232587 0 0.013047461383922905 0.063287430034267692 0 0.013269435620414168 0.063105568306995305 0 0.013297670231622243 0.063389741131365793 0 0.013047461383922905 0.063287430034267692 0 0.013150831513078165 0.062880154031002847 0 0.013269435620414168 0.063105568306995305 0 0.013047461383922905 0.063287430034267692 0 0.012689973986294647 0.063079533606588759 0 0.012857218397881436 0.063326803727302594 0 0.012661787578598918 0.063557416866230662 0 0.012857218397881436 0.063326803727302594 0 0.012661787578598918 0.063557416866230662 0 0.012912661860694076 0.063771637145047536 0 0.013047461383922905 0.063287430034267692 0 0.012857218397881436 0.063326803727302594 0 0.012912661860694076 0.063771637145047536 0 0.011997922401385655 0.062933040508215396 0 0.01251987509612781 0.062600867091551701 0 0.012661787578598918 0.063557416866230662 0 0.011318805332562994 0.05800204038394538 0 0.011137414140746133 0.059994790186050577 0 0.012434098138879588 0.064100525127447031 0 0.012008031843024776 0.06391060399309817 0 0.012319448549627779 0.064681377748979224 0 0.012661787578598918 0.063557416866230662 0 0.012434098138879588 0.064100525127447031 0 0.012683065566224307 0.06432224335767954 0 0.012661787578598918 0.063557416866230662 0 0.012434098138879588 0.064100525127447031 0 0.012008031843024776 0.06391060399309817 0 0.012661787578598918 0.063557416866230662 0 0.012912661860694076 0.063771637145047536 0 0.012683065566224307 0.06432224335767954 0 0.012912661860694076 0.063771637145047536 0 0.012892724463566239 0.064457560260091779 0 0.012683065566224307 0.06432224335767954 0 0.010826130234073953 0.06268503977511701 0 0.01146999175784531 0.063187902148286262 0 0.011060865885792765 0.063954027658276402 0 0.016939648307247708 0.057235940861305609 0 0.016959966400086721 0.060467260682238774 0 0.01146999175784531 0.063187902148286262 0 0.012008031843024776 0.06391060399309817 0 0.011060865885792765 0.063954027658276402 0 0.011997922401385655 0.062933040508215396 0 0.012661787578598918 0.063557416866230662 0 0.012008031843024776 0.06391060399309817 0 0.011997922401385655 0.062933040508215396 0 0.01146999175784531 0.063187902148286262 0 0.012008031843024776 0.06391060399309817 0 0.012008031843024776 0.06391060399309817 0 0.011060865885792765 0.063954027658276402 0 0.011823822520514445 0.064655757733511357 0 0.011443417473711217 0.065097509759128008 0 0.011823822520514445 0.064655757733511357 0 0.012169162634046002 0.065521308162772574 0 0.016959966400086721 0.060467260682238774 0 0.016888100338643706 0.062873053424107664 0 0.011060865885792765 0.063954027658276402 0 0.011443417473711217 0.065097509759128008 0 0.011823822520514445 0.064655757733511357 0 0.012008031843024776 0.06391060399309817 0 0.011823822520514445 0.064655757733511357 0 0.012319448549627779 0.064681377748979224 0 0.011823822520514445 0.064655757733511357 0 0.012169162634046002 0.065521308162772574 0 0.012319448549627779 0.064681377748979224 0 0.011443417473711217 0.065097509759128008 0 0.012169162634046002 0.065521308162772574 0 0.012189796165529102 0.066043070699930345 0 0.016888100338643706 0.062873053424107664 0 0.016695369053313345 0.06443189048669426 0 0.012605658082435366 0.064842055744464694 0 0.012892724463566239 0.064457560260091779 0 0.012769717447609293 0.06504993144684583 0 0.012605658082435366 0.064842055744464694 0 0.012892724463566239 0.064457560260091779 0 0.012683065566224307 0.06432224335767954 0 0.012605658082435366 0.064842055744464694 0 0.012683065566224307 0.06432224335767954 0 0.012319448549627779 0.064681377748979224 0 0.012434098138879588 0.064100525127447031 0 0.012683065566224307 0.06432224335767954 0 0.012319448549627779 0.064681377748979224 0 0.012605658082435366 0.064842055744464694 0 0.012319448549627779 0.064681377748979224 0 0.012434716555995113 0.065294968905633272 0 0.012169162634046002 0.065521308162772574 0 0.012319448549627779 0.064681377748979224 0 0.012434716555995113 0.065294968905633272 0 0.012169162634046002 0.065521308162772574 0 0.012434716555995113 0.065294968905633272 0 0.012354350095879587 0.065964448550892285 0 0.012434716555995113 0.065294968905633272 0 0.012769717447609293 0.06504993144684583 0 0.012503929845349331 0.065545162680978306 0 0.012605658082435366 0.064842055744464694 0 0.012434716555995113 0.065294968905633272 0 0.012769717447609293 0.06504993144684583 0 0.012769717447609293 0.06504993144684583 0 0.012750568933583672 0.065464153404524827 0 0.012503929845349331 0.065545162680978306 0 0.012750568933583672 0.065464153404524827 0 0.012388680394634456 0.065844935522450493 0 0.012503929845349331 0.065545162680978306 0 0.012434716555995113 0.065294968905633272 0 0.012503929845349331 0.065545162680978306 0 0.012354350095879587 0.065964448550892285 0 0.012388680394634456 0.065844935522450493 0 0.012503929845349331 0.065545162680978306 0 0.012354350095879587 0.065964448550892285 0 0.012388680394634456 0.065844935522450493 0 0.012354350095879587 0.065964448550892285 0 0.012103197033335884 0.066180277642992058 0 0.012354350095879587 0.065964448550892285 0 0.012103197033335884 0.066180277642992058 0 0.012479031704776907 0.066281135978349226 0 0.012103197033335884 0.066180277642992058 0 0.012214469952644979 0.066096688206416981 0 0.01181602083654414 0.066248728648367158 0 0.012388680394634456 0.065844935522450493 0 0.012214469952644979 0.066096688206416981 0 0.013078825056321281 0.06568846376102383 0 0.012214469952644979 0.066096688206416981 0 0.01181602083654414 0.066248728648367158 0 0.012379270051083684 0.066261117984187282 0 0.012388680394634456 0.065844935522450493 0 0.012103197033335884 0.066180277642992058 0 0.012214469952644979 0.066096688206416981 0 0.012169162634046002 0.065521308162772574 0 0.012189796165529102 0.066043070699930345 0 0.01269067734774776 0.066297644703194963 0 0.012169162634046002 0.065521308162772574 0 0.012354350095879587 0.065964448550892285 0 0.01269067734774776 0.066297644703194963 0 0.012354350095879587 0.065964448550892285 0 0.01269067734774776 0.066297644703194963 0 0.012479031704776907 0.066281135978349226 0 0.016695369053313345 0.06443189048669426 0 0.01646855062870458 0.064832527816810454 0 0.012189796165529102 0.066043070699930345 0 0.01269067734774776 0.066297644703194963 0 0.01368265601078335 0.06638305705515099 0 0.01269067734774776 0.066297644703194963 0 0.01368265601078335 0.06638305705515099 0 0.013486212544500439 0.06610993263044454 0 0.01269067734774776 0.066297644703194963 0 0.013486212544500439 0.06610993263044454 0 0.012479031704776907 0.066281135978349226 0 0.013486212544500439 0.06610993263044454 0 0.012479031704776907 0.066281135978349226 0 0.012206474700202365 0.06586377134783658 0 0.013486212544500439 0.06610993263044454 0 0.013071524609777216 0.064999213232854985 0 0.012206474700202365 0.06586377134783658 0 0.01368265601078335 0.06638305705515099 0 0.013486212544500439 0.06610993263044454 0 0.016244076204132055 0.064999977027339562 0 0.013486212544500439 0.06610993263044454 0 0.013071524609777216 0.064999213232854985 0 0.016244076204132055 0.064999977027339562 0 0.01646855062870458 0.064832527816810454 0 0.01624803942464392 0.064998969111648069 0 0.01181602083654414 0.066248728648367158 0 0.011747942956930754 0.066128986603823284 0 0.011268783343886887 0.065950603773435229 0 0.011747942956930754 0.066128986603823284 0 0.011175976428892519 0.065798537502888207 0 0.011268783343886887 0.065950603773435229 0 0.0099724858533426913 0.064494664532437698 0 0.010449611460456629 0.062646533419670705 0 0.0089157213326065375 0.066934149496379353 0 0.0074284981630024227 0.067203853148099554 0 0.0079702941366452413 0.06882827217778166 0 0.01181602083654414 0.066248728648367158 0 0.011268783343886887 0.065950603773435229 0 0.011742862474957007 0.066330427239656944 0 0.010494084313429426 0.062745610694692214 0 0.010449611460456629 0.062646533419670705 0 0.012103197033335884 0.066180277642992058 0 0.01181602083654414 0.066248728648367158 0 0.011747942956930754 0.066128986603823284 0 0.012103197033335884 0.066180277642992058 0 0.012479031704776907 0.066281135978349226 0 0.011747942956930754 0.066128986603823284 0 0.012479031704776907 0.066281135978349226 0 0.011747942956930754 0.066128986603823284 0 0.012206474700202365 0.06586377134783658 0 0.013071524609777216 0.064999213232854985 0 0.012206474700202365 0.06586377134783658 0 0.0099003318196372939 0.06500022262031234 0 0.011175976428892519 0.065798537502888207 0 0.012206474700202365 0.06586377134783658 0 0.0099003318196372939 0.06500022262031234 0 0.011747942956930754 0.066128986603823284 0 0.011175976428892519 0.065798537502888207 0 0.012206474700202365 0.06586377134783658 0 0.0098964155718926795 0.064999177040282241 0 0.0099724858533426913 0.064494664532437698 0 0.0098963177901820465 0.064999980522981435 0 0.0089157213326065375 0.066934149496379353 0 0.0071604292416042889 0.064999939637084364 0 0.011175976428892519 0.065798537502888207 0 0.0099003318196372939 0.06500022262031234 0 0.011268783343886887 0.065950603773435229 0 0.0089157213326065375 0.066934149496379353 0 0.0071604292416042889 0.064999939637084364 0 0.0074284981630024227 0.067203853148099554 0 0.0071604292416042889 0.064999939637084364 0 0.0058111383133451211 0.067287536250044522 0 0.0074284981630024227 0.067203853148099554 0 0.0071604292416042889 0.064999939637084364 0 0.0044250125440492977 0.065000026610630757 0 0.0058111383133451211 0.067287536250044522 0 0.0044250125440492977 0.065000026610630757 0 0.0058111383133451211 0.067287536250044522 0 0.0039495753817063491 0.067279102597965601 0 0.0058111383133451211 0.067287536250044522 0 0.0047325411980886408 0.070169329206272418 0 0.0039495753817063491 0.067279102597965601 0 0.0058111383133451211 0.067287536250044522 0 0.0079702941366452413 0.06882827217778166 0 0.0047325411980886408 0.070169329206272418 0 0.0058111383133451211 0.067287536250044522 0 0.0074284981630024227 0.067203853148099554 0 0.0079702941366452413 0.06882827217778166 0 0.016698948512428695 0.051434429305980703 0 0.014055459854111774 0.052548834179004439 0 0.015687463763146919 0.053647179900874815 0 0.010449611460456629 0.062646533419670705 0 0.0091371079800960792 0.061300650466608653 0 0.012214469952644979 0.066096688206416981 0 0.012379270051083684 0.066261117984187282 0 0.013078825056321281 0.06568846376102383 0 0.010449611460456629 0.062646533419670705 0 0.012915486068235905 0.06027683547391597 0 0.014004638279332578 0.054798037438235983 0 0.013900439803705053 0.054011091804052426 0 0.015687463763146919 0.053647179900874815 0 0.014055459854111774 0.052548834179004439 0 0.013900439803705053 0.054011091804052426 0 0.015687463763146919 0.053647179900874815 0 0.014055459854111774 0.052548834179004439 0 0.013900439803705053 0.054011091804052426 0 0.012895807799866116 0.054042574104860658 0 0.014004638279332578 0.054798037438235983 0 0.013064383284129668 0.054667616460521894 0 0.013900439803705053 0.054011091804052426 0 0.012750568933583672 0.065464153404524827 0 0.012388680394634456 0.065844935522450493 0 0.013078825056321281 0.06568846376102383 0 0.013128972980452154 0.065133394644841372 0 0.012750568933583672 0.065464153404524827 0 0.013078825056321281 0.06568846376102383 0 0.011186416275695995 0.054732711788764932 0 0.011329425488130406 0.053920792749425565 0 0.0097354848509244064 0.054604809480962788 0 0.011186416275695995 0.054732711788764932 0 0.011344308263272589 0.0537203247643952 0 0.012136502586028799 0.054418073250914988 0 0.0071905624449620197 0.059263928295483069 0 0.0068711928020896091 0.060248586153397336 0 0.013064383284129668 0.054667616460521894 0 0.012136502586028799 0.054418073250914988 0 0.012895807799866116 0.054042574104860658 0 0.014055459854111774 0.052548834179004439 0 0.011344308263272589 0.0537203247643952 0 0.012895807799866116 0.054042574104860658 0 0.0091371079800960792 0.061300650466608653 0 0.0068711928020896091 0.060248586153397336 0 0.011344308263272589 0.0537203247643952 0 0.012136502586028799 0.054418073250914988 0 0.012895807799866116 0.054042574104860658 0 0.013064383284129668 0.054667616460521894 0 0.013900439803705053 0.054011091804052426 0 0.012895807799866116 0.054042574104860658 0 0.0047325411980886408 0.070169329206272418 0 0.0016176072972030444 0.071492538291916388 0 0.0021384090050216627 0.068486732810210144 0 0.0068711928020896091 0.060248586153397336 0 0.004020322319845432 0.063939392859938576 0 0.0023531534791442254 0.06080118273742096 0 0.002357600157457351 0.060752951778930628 0 0.0023155174955919928 0.060771838620812306 0 0.002357600157457351 0.060752951778930628 0 0.0023284132710160955 0.060735067963428771 0 0.0023155174955919928 0.060771838620812306 0 0.002357600157457351 0.060752951778930628 0 0.0023284132710160955 0.060735067963428771 0 0.0023638223722566164 0.060708972033860241 0 0.004020322319845432 0.063939392859938576 0 0.0026502820669576359 0.06469702196295489 0 0.0021384090050216627 0.068486732810210144 0 0.0039495753817063491 0.067279102597965601 0 0.0026480635502772582 0.065421206866641698 0 0.0047325411980886408 0.070169329206272418 0 0.0021384090050216627 0.068486732810210144 0 0.0039495753817063491 0.067279102597965601 0 0.0044250125440492977 0.065000026610630757 0 0.0039495753817063491 0.067279102597965601 0 0.0026480635502772582 0.065421206866641698 0 0.0026502820669576359 0.06469702196295489 0 0.0025534496803118123 0.064997852248506224 0 0.0044215363833975821 0.064998513332723287 0 0.0026502820669576359 0.06469702196295489 0 0.004424680117576749 0.064999998949139826 0 0.0024746543243125752 0.065429272445238787 0 0.0025524309899072214 0.064999996995719983 0 0.0023284132710160955 0.060735067963428771 0 0.0023638223722566164 0.060708972033860241 0 0.0023140760195232168 0.060706712344347422 0 0.0026502820669576359 0.06469702196295489 0 0.00099134050004597843 0.06392301597204203 0 0.0024746499374479957 0.065428978450831884 0 0.0025524017716851079 0.064999996801811899 0 -0.00051997537165400921 0.066082326928334392 0 0.0025524017716851079 0.064999996801811899 0 -0.00051997537165400921 0.066082326928334392 0 -0.001209430398061438 0.064999988021648955 0 0.00099134050004597843 0.06392301597204203 0 -0.00066379894238581072 0.063412626922022208 0 -0.00051997537165400921 0.066082326928334392 0 -0.001209430398061438 0.064999988021648955 0 -0.003477595992829278 0.066724553800623282 0 -0.0012094798467310269 0.064999997327359074 0 -0.0046944982037618712 0.064999995189709267 0 -0.0040834333870617056 0.06606829924975173 0 -0.0012121770793591751 0.065001000805226583 0 -0.0036306109227289148 0.065900220057299883 0 -0.001209430398061438 0.064999988021648955 0 -0.003477595992829278 0.066724553800623282 0 -0.0040464779893232931 0.066047868558082035 0 0.0022458111598628121 0.060696720495012423 0 0.0022833924409610012 0.060740830313499125 0 0.0022346323361052893 0.060757844237990827 0 0.0023140760195232168 0.060706712344347422 0 0.0022458111598628121 0.060696720495012423 0 0.0022833924409610012 0.060740830313499125 0 0.0023284132710160955 0.060735067963428771 0 0.0023140760195232168 0.060706712344347422 0 0.0022833924409610012 0.060740830313499125 0 0.0023284132710160955 0.060735067963428771 0 0.0022833924409610012 0.060740830313499125 0 0.0023155174955919928 0.060771838620812306 0 -0.0058800623880861389 0.065928511804858175 0 -0.0046944982037618712 0.064999995189709267 0 -0.0081794960803238947 0.064999991494273282 0 -0.0058800623880861389 0.065928511804858175 0 -0.0069429157831662714 0.067128725521670443 0 -0.0081794960803238947 0.064999991494273282 0 -0.0040464779893232931 0.066047868558082035 0 -0.0064903704308060398 0.067397515545159992 0 -0.0069429157831662714 0.067128725521670443 0 -0.003477595992829278 0.066724553800623282 0 -0.0040464779893232931 0.066047868558082035 0 -0.0064903704308060398 0.067397515545159992 0 -0.0036306109227289148 0.065900220057299883 0 -0.0049431082848746186 0.066388597908277253 0 -0.0058800623880861389 0.065928511804858175 0 -0.0040834333870617056 0.06606829924975173 0 -0.0069429157831662714 0.067128725521670443 0 -0.0058800623880861389 0.065928511804858175 0 -0.0046944982037618712 0.064999995189709267 0 -0.0040834333870617056 0.06606829924975173 0 0.0021307024173021888 0.060694504617170644 0 0.0021685098095306668 0.060779725318564279 0 0.0022346323361052893 0.060757844237990827 0 -0.00066379894238581072 0.063412626922022208 0 -0.0022688844437907703 0.062742321572640147 0 0.0022458111598628121 0.060696720495012423 0 0.0021307024173021888 0.060694504617170644 0 0.0022346323361052893 0.060757844237990827 0 0.0021307024173021888 0.060694504617170644 0 0.0021027713590881947 0.060814727669268279 0 0.0019917603479203427 0.060716542993075016 0 -0.0064903704308060398 0.067397515545159992 0 -0.0069429157831662714 0.067128725521670443 0 -0.0094854721445709125 0.06805500324112379 0 -0.0022688844437907703 0.062742321572640147 0 -0.0035141059370949689 0.061356630533099463 0 0.0021307024173021888 0.060694504617170644 0 0.0021027713590881947 0.060814727669268279 0 0.0021685098095306668 0.060779725318564279 0 0.0021027713590881947 0.060814727669268279 0 0.0021685098095306668 0.060779725318564279 0 0.002213116733523091 0.06083089605003051 0 0.0021685098095306668 0.060779725318564279 0 0.0022346323361052893 0.060757844237990827 0 0.002213116733523091 0.06083089605003051 0 0.0031295665336264853 0.059877526417256875 0 0.0033003571775667585 0.059431351403852868 0 0.0021027713590881947 0.060814727669268279 0 0.002213116733523091 0.06083089605003051 0 0.0021990588762137364 0.060898089928626754 0 0.0033003571775667585 0.059431351403852868 0 0.0039254669036420924 0.057655049525734088 0 0.0022463624322629867 0.060783893909903262 0 0.0022476478456228926 0.060806919241309376 0 0.0022659425580051455 0.060801387024921619 0 0.005719917346076883 0.049971832469877873 0 0.0076793265427526616 0.052139033345094968 0 0.0057726218129812946 0.052797517264760938 0 0.00089592954986422973 0.058396354532691618 0 0.0039254669036420924 0.057655049525734088 0 0.005719917346076883 0.049971832469877873 0 0.0057726218129812946 0.052797517264760938 0 0.0038795967249714673 0.05215113120093743 0 0.0022833924409610012 0.060740830313499125 0 0.0023155174955919928 0.060771838620812306 0 0.0022742348231854738 0.060781001327302422 0 0.0022833924409610012 0.060740830313499125 0 0.0022346323361052893 0.060757844237990827 0 0.0022742348231854738 0.060781001327302422 0 0.0022346323361052893 0.060757844237990827 0 0.0022463624322629867 0.060783893909903262 0 0.0022742348231854738 0.060781001327302422 0 0.0022742348231854738 0.060781001327302422 0 0.0022659425580051455 0.060801387024921619 0 0.0023045451145363937 0.060814940709418119 0 0.0022463624322629867 0.060783893909903262 0 0.0022742348231854738 0.060781001327302422 0 0.0022659425580051455 0.060801387024921619 0 0.0023155174955919928 0.060771838620812306 0 0.0022742348231854738 0.060781001327302422 0 0.0023045451145363937 0.060814940709418119 0 0.0023531534791442254 0.06080118273742096 0 0.0023155174955919928 0.060771838620812306 0 0.0023045451145363937 0.060814940709418119 0 0.0068711928020896091 0.060248586153397336 0 0.0060936203737790937 0.058512494666443648 0 0.011186416275695995 0.054732711788764932 0 0.0097354848509244064 0.054604809480962788 0 0.010480461243761365 0.05550663236428232 0 0.0097354848509244064 0.054604809480962788 0 0.0094885728000855835 0.0556129073384517 0 0.010480461243761365 0.05550663236428232 0 0.012450390317150931 0.055904660838968431 0 0.010598021856217296 0.05625103039549003 0 0.013256440850061068 0.054528820929705617 0 0.012164406006052666 0.056097929020448224 0 0.010629155850253348 0.055488523222970453 0 0.0094885728000855835 0.0556129073384517 0 0.010480461243761365 0.05550663236428232 0 0.0094949311154143481 0.056525233716215227 0 0.011414845106141771 0.056252526825838048 0 0.010480461243761365 0.05550663236428232 0 0.0094949311154143481 0.056525233716215227 0 0.0094949311154143481 0.056525233716215227 0 0.0088162544023410259 0.056055190240330115 0 0.0080175866286987564 0.056675379569170306 0 0.0088162544023410259 0.056055190240330115 0 0.0081712658070001911 0.055983021194366288 0 0.0080175866286987564 0.056675379569170306 0 0.0094885728000855835 0.0556129073384517 0 0.0088162544023410259 0.056055190240330115 0 0.0085785672399356031 0.055428095836093982 0 0.0094885728000855835 0.0556129073384517 0 0.0094949311154143481 0.056525233716215227 0 0.0088162544023410259 0.056055190240330115 0 0.0088162544023410259 0.056055190240330115 0 0.0084427007478264701 0.055768904749607023 0 0.0081712658070001911 0.055983021194366288 0 0.0088162544023410259 0.056055190240330115 0 0.0084427007478264701 0.055768904749607023 0 0.0085785672399356031 0.055428095836093982 0 0.0084427007478264701 0.055768904749607023 0 0.0085785672399356031 0.055428095836093982 0 0.0082218973433493495 0.055604472952601298 0 0.0085785672399356031 0.055428095836093982 0 0.0083849360658308086 0.05522050093851158 0 0.0082218973433493495 0.055604472952601298 0 0.0022659425580051455 0.060801387024921619 0 0.0023045451145363937 0.060814940709418119 0 0.0022641423494229617 0.060822716889407907 0 0.0097354848509244064 0.054604809480962788 0 0.0094885728000855835 0.0556129073384517 0 0.0085785672399356031 0.055428095836093982 0 0.0060936203737790937 0.058512494666443648 0 0.0049304106201066428 0.057287682762334133 0 0.0097354848509244064 0.054604809480962788 0 0.0085785672399356031 0.055428095836093982 0 0.0083549341556402763 0.055182546191098629 0 0.0049817237987476032 0.05728915794016165 0 0.0049304106201066428 0.057287682762334133 0 0.0022476478456228926 0.060806919241309376 0 0.0022659425580051455 0.060801387024921619 0 0.0022641423494229617 0.060822716889407907 0 0.0041475580832700904 0.057013453573006266 0 0.00443659739642262 0.057332893021002029 0 0.0040360611493458513 0.057508825852769146 0 0.0076793265427526616 0.052139033345094968 0 0.0073159869245067767 0.053734289080188243 0 0.0057726218129812946 0.052797517264760938 0 0.0039254669036420924 0.057655049525734088 0 0.0049304106201066428 0.057287682762334133 0 0.0039254669036420924 0.057655049525734088 0 0.0054215658610649569 0.056308650681579191 0 0.0083849360658308086 0.05522050093851158 0 0.0077480351844879574 0.055482810077977132 0 0.0082218973433493495 0.055604472952601298 0 0.0049304106201066428 0.057287682762334133 0 0.0054215658610649569 0.056308650681579191 0 0.0073159869245067767 0.053734289080188243 0 0.0057726218129812946 0.052797517264760938 0 0.0059052533565354106 0.054356421114295547 0 0.0057726218129812946 0.052797517264760938 0 0.0059052533565354106 0.054356421114295547 0 0.0045052841487148347 0.054382795502888825 0 0.0073189255455069933 0.053734490889120683 0 0.0059052533565354106 0.054356421114295547 0 0.0068313761294617505 0.055991791625943213 0 0.0059052533565354106 0.054356421114295547 0 0.0056127646144903467 0.055476757657696253 0 0.0045052841487148347 0.054382795502888825 0 0.0054215658610649569 0.056308650681579191 0 0.0057920931372847182 0.05601363673736863 0 0.0059052533565354106 0.054356421114295547 0 0.0056127646144903467 0.055476757657696253 0 0.0068313761294617505 0.055991791625943213 0 0.0054215658610649569 0.056308650681579191 0 0.0059444353874058449 0.056461737667328427 0 0.0077480351844879574 0.055482810077977132 0 0.0078012190158644971 0.056155269981498328 0 0.0072872778323105443 0.05650365528808074 0 0.0077480351844879574 0.055482810077977132 0 0.0081712658070001911 0.055983021194366288 0 0.0082218973433493495 0.055604472952601298 0 0.0077480351844879574 0.055482810077977132 0 0.0081712658070001911 0.055983021194366288 0 0.0078012190158644971 0.056155269981498328 0 0.0084427007478264701 0.055768904749607023 0 0.0081712658070001911 0.055983021194366288 0 0.0082218973433493495 0.055604472952601298 0 0.0081712658070001911 0.055983021194366288 0 0.0078012190158644971 0.056155269981498328 0 0.0080175866286987564 0.056675379569170306 0 0.0072872778323105443 0.05650365528808074 0 0.0064301983671538132 0.05827157017750563 0 0.0076787620189255803 0.057773786008619939 0 0.0078012190158644971 0.056155269981498328 0 0.0080175866286987564 0.056675379569170306 0 0.0072872778323105443 0.05650365528808074 0 0.0080175866286987564 0.056675379569170306 0 0.0072872778323105443 0.05650365528808074 0 0.0076787620189255803 0.057773786008619939 0 0.0080175866286987564 0.056675379569170306 0 0.0076787620189255803 0.057773786008619939 0 0.0086272898149104167 0.057658471555988182 0 0.0059444353874058449 0.056461737667328427 0 0.0059696041355093614 0.057024987755875181 0 0.0068313761294617505 0.055991791625943213 0 0.005640825000515509 0.056630859992638269 0 0.0064301983671538132 0.05827157017750563 0 0.0056127646144903467 0.055476757657696253 0 0.005640825000515509 0.056630859992638269 0 0.0046581184372330971 0.05606644695915184 0 0.0056127646144903467 0.055476757657696253 0 0.0068313761294617505 0.055991791625943213 0 0.005640825000515509 0.056630859992638269 0 0.0064301983671538132 0.05827157017750563 0 0.0047435087496860316 0.057549763655145199 0 0.0053532191006407876 0.059631764116614867 0 0.005640825000515509 0.056630859992638269 0 0.0064301983671538132 0.05827157017750563 0 0.0047435087496860316 0.057549763655145199 0 0.0076787620189255803 0.057773786008619939 0 0.0085778952116200066 0.058649732371773788 0 0.0086272898149104167 0.057658471555988182 0 0.0064301983671538132 0.05827157017750563 0 0.0076787620189255803 0.057773786008619939 0 0.0072832229853294342 0.05930773410201251 0 0.0076787620189255803 0.057773786008619939 0 0.0085778952116200066 0.058649732371773788 0 0.0072832229853294342 0.05930773410201251 0 0.0085778952116200066 0.058649732371773788 0 0.0095054566936719643 0.058205288632595685 0 0.0095599396987413234 0.059158152693910164 0 0.0085778952116200066 0.058649732371773788 0 0.0086272898149104167 0.057658471555988182 0 0.0095054566936719643 0.058205288632595685 0 0.0086272898149104167 0.057658471555988182 0 0.0095054566936719643 0.058205288632595685 0 0.0096365180277099925 0.057112311180792207 0 0.0095054566936719643 0.058205288632595685 0 0.01050971650910658 0.05792350471951533 0 0.0096365180277099925 0.057112311180792207 0 0.0095054566936719643 0.058205288632595685 0 0.010422020050887734 0.058852245180435726 0 0.01050971650910658 0.05792350471951533 0 0.0095054566936719643 0.058205288632595685 0 0.010422020050887734 0.058852245180435726 0 0.0095599396987413234 0.059158152693910164 0 0.010422020050887734 0.058852245180435726 0 0.01143994705430657 0.058457110473105804 0 0.01050971650910658 0.05792350471951533 0 0.010422020050887734 0.058852245180435726 0 0.01143994705430657 0.058457110473105804 0 0.011347795539699499 0.059208454698781762 0 0.012233828920943775 0.058885232216183025 0 0.01143994705430657 0.058457110473105804 0 0.011347795539699499 0.059208454698781762 0 0.012372580455460708 0.058121394154200631 0 0.012233828920943775 0.058885232216183025 0 0.01143994705430657 0.058457110473105804 0 0.012372580455460708 0.058121394154200631 0 0.01143994705430657 0.058457110473105804 0 0.011417037915914406 0.057729122478638283 0 0.012276306751691836 0.057121935244583831 0 0.012372580455460708 0.058121394154200631 0 0.011417037915914406 0.057729122478638283 0 0.011417037915914406 0.057729122478638283 0 0.01050971650910658 0.05792350471951533 0 0.011066778915819062 0.056895057386178831 0 0.01143994705430657 0.058457110473105804 0 0.011417037915914406 0.057729122478638283 0 0.01050971650910658 0.05792350471951533 0 0.01050971650910658 0.05792350471951533 0 0.011066778915819062 0.056895057386178831 0 0.0096365180277099925 0.057112311180792207 0 0.012276306751691836 0.057121935244583831 0 0.011417037915914406 0.057729122478638283 0 0.011066778915819062 0.056895057386178831 0 0.012164406006052666 0.056097929020448224 0 0.012276306751691836 0.057121935244583831 0 0.011066778915819062 0.056895057386178831 0 0.012164406006052666 0.056097929020448224 0 0.010629155850253348 0.055488523222970453 0 0.011066778915819062 0.056895057386178831 0 0.010629155850253348 0.055488523222970453 0 0.011066778915819062 0.056895057386178831 0 0.0096365180277099925 0.057112311180792207 0 0.010629155850253348 0.055488523222970453 0 0.0080175866286987564 0.056675379569170306 0 0.0096365180277099925 0.057112311180792207 0 0.010598021856217296 0.05625103039549003 0 0.0095894449685939662 0.056517269180213443 0 0.0080175866286987564 0.056675379569170306 0 0.0086272898149104167 0.057658471555988182 0 0.0096365180277099925 0.057112311180792207 0 0.00063669017636392886 0.057269691278788656 0 0.0026728635138024617 0.055710847760342005 0 -0.00046077845034410599 0.054974360839169623 0 -0.00137813129117371 0.057216921675681667 0 -0.00046077845034410599 0.054974360839169623 0 -0.003251642046543584 0.05652549049778835 0 -0.00137813129117371 0.057216921675681667 0 0.00063669017636392886 0.057269691278788656 0 -0.00046077845034410599 0.054974360839169623 0 -0.00137813129117371 0.057216921675681667 0 0.00063669017636392886 0.057269691278788656 0 -0.0012971693905886198 0.059160075668840746 0 0.00063669017636392886 0.057269691278788656 0 0.00085299687254630373 0.059026340924916015 0 -0.0012971693905886198 0.059160075668840746 0 0.0032075743608731386 0.057949491818811344 0 0.002836364995297672 0.055926243036659586 0 0.00063669017636392886 0.057269691278788656 0 0.0031780094911880159 0.058092004326589175 0 0.0026728635138024617 0.055710847760342005 0 0.00063669017636392886 0.057269691278788656 0 0.0031780094911880159 0.058092004326589175 0 0.00085299687254630373 0.059026340924916015 0 0.0034507206408484455 0.058528219272129457 0 0.0047435087496860316 0.057549763655145199 0 0.0053532191006407876 0.059631764116614867 0 0.0034507206408484455 0.058528219272129457 0 0.0047435087496860316 0.057549763655145199 0 0.0029781379837665709 0.056123564229992928 0 0.0047435087496860316 0.057549763655145199 0 0.0046581184372330971 0.05606644695915184 0 0.0029781379837665709 0.056123564229992928 0 0.005640825000515509 0.056630859992638269 0 0.0047435087496860316 0.057549763655145199 0 0.0046581184372330971 0.05606644695915184 0 0.002836364995297672 0.055926243036659586 0 0.0024707345503820703 0.053920277632767077 0 0.0026728635138024617 0.055710847760342005 0 0.0022472855914827624 0.053423805591060559 0 -0.00046077845034410599 0.054974360839169623 0 0.0046581184372330971 0.05606644695915184 0 0.0029781379837665709 0.056123564229992928 0 0.0045052841487148347 0.054382795502888825 0 0.0029781379837665709 0.056123564229992928 0 0.0045052841487148347 0.054382795502888825 0 0.0024738003257339949 0.053675802745540221 0 0.0056127646144903467 0.055476757657696253 0 0.0046581184372330971 0.05606644695915184 0 0.0045052841487148347 0.054382795502888825 0 0.0045052841487148347 0.054382795502888825 0 0.0024738003257339949 0.053675802745540221 0 0.0038795967249714673 0.05215113120093743 0 0.0057726218129812946 0.052797517264760938 0 0.0045052841487148347 0.054382795502888825 0 0.0038795967249714673 0.05215113120093743 0 0.0024707345503820703 0.053920277632767077 0 0.002279283796473431 0.05284649455760769 0 0.0024738003257339949 0.053675802745540221 0 0.0038795967249714673 0.05215113120093743 0 0.0019368070670928294 0.051155774709970361 0 0.0022472855914827624 0.053423805591060559 0 0.0001374866017562941 0.052919267015273962 0 0.0019368070670928294 0.051155774709970361 0 0.0022472855914827624 0.053423805591060559 0 0.0001374866017562941 0.052919267015273962 0 -0.00046077845034410599 0.054974360839169623 0 -0.0043271151613187443 0.055087088182331427 0 -0.0064544962196780402 0.05392333763602708 0 0.0001374866017562941 0.052919267015273962 0 -0.00046077845034410599 0.054974360839169623 0 -0.001965065230344675 0.052550726637008389 0 0.0001374866017562941 0.052919267015273962 0 -0.00050949250057598296 0.050884403436143082 0 -0.001965065230344675 0.052550726637008389 0 -0.00050949250057598296 0.050884403436143082 0 -0.0020513497510817927 0.050451629953221104 0 -0.0022319067467348602 0.052825925185683055 0 -0.0043211231824336 0.052150001512544952 0 -0.0064544962196780402 0.05392333763602708 0 0.0001374866017562941 0.052919267015273962 0 -0.00050949250057598296 0.050884403436143082 0 0.0019368070670928294 0.051155774709970361 0 -0.00050949250057598296 0.050884403436143082 0 0.0019368070670928294 0.051155774709970361 0 0.001101825731129699 0.048388388412945398 0 -0.0091688401556550281 0.059051280038139489 0 -0.005866774042132236 0.059797068596141228 0 -0.00050949250057598296 0.050884403436143082 0 -0.0015372337780087326 0.048944061460924393 0 0.001101825731129699 0.048388388412945398 0 -0.00050949250057598296 0.050884403436143082 0 -0.0020513497510817927 0.050451629953221104 0 -0.0015372337780087326 0.048944061460924393 0 0.005719917346076883 0.049971832469877873 0 0.0038795967249714673 0.05215113120093743 0 0.0037023631120149387 0.050144890614155939 0 0.0038795967249714673 0.05215113120093743 0 0.0019368070670928294 0.051155774709970361 0 0.0037023631120149387 0.050144890614155939 0 0.0019368070670928294 0.051155774709970361 0 0.0037023631120149387 0.050144890614155939 0 0.001101825731129699 0.048388388412945398 0 0.0037023631120149387 0.050144890614155939 0 0.0037354083468075575 0.047811860313204009 0 0.001101825731129699 0.048388388412945398 0 0.00089592954986422973 0.058396354532691618 0 -0.0035141059370949689 0.061356630533099463 0 0.005719917346076883 0.049971832469877873 0 0.0037023631120149387 0.050144890614155939 0 0.0037354083468075575 0.047811860313204009 0 -0.0069429157831662714 0.067128725521670443 0 -0.0094854721445709125 0.06805500324112379 0 -0.0096410264354788965 0.06610958348223861 0 -0.0094942481805165187 0.068021819794698984 0 -0.011914888740363314 0.067212851764530415 0 -0.012519532986639595 0.068698006233915851 0 -0.0035141059370949689 0.061356630533099463 0 -0.005866774042132236 0.059797068596141228 0 -0.0035141059370949689 0.061356630533099463 0 -0.0058921209256250938 0.062172037066475394 0 -0.011664527195352384 0.064999975705945789 0 -0.011930464583790469 0.065364378581250507 0 -0.0096410264354788965 0.06610958348223861 0 -0.0094942481805165187 0.068021819794698984 0 -0.011914888740363314 0.067212851764530415 0 -0.011930464583790469 0.065364378581250507 0 -0.0094854721445709125 0.06805500324112379 0 -0.011930464583790469 0.065364378581250507 0 -0.0096410264354788965 0.06610958348223861 0 -0.011664527195352384 0.064999975705945789 0 -0.0081794960803238947 0.064999991494273282 0 -0.0096410264354788965 0.06610958348223861 0 -0.0069429157831662714 0.067128725521670443 0 -0.0081794960803238947 0.064999991494273282 0 -0.0096410264354788965 0.06610958348223861 0 -0.015551430254335743 0.069361992971936667 0 -0.013719120569065114 0.066767527557685086 0 -0.016002712117505109 0.066985972082098305 0 -0.015551430254335743 0.069361992971936667 0 -0.012519532986639595 0.068698006233915851 0 -0.013719120569065114 0.066767527557685086 0 -0.011914888740363314 0.067212851764530415 0 -0.012519532986639595 0.068698006233915851 0 -0.013719120569065114 0.066767527557685086 0 -0.011664527195352384 0.064999975705945789 0 -0.011930464583790469 0.065364378581250507 0 -0.015149541440325544 0.064999982014442459 0 -0.011930464583790469 0.065364378581250507 0 -0.013719120569065114 0.066767527557685086 0 -0.015149541440325544 0.064999982014442459 0 -0.011914888740363314 0.067212851764530415 0 -0.011930464583790469 0.065364378581250507 0 -0.013719120569065114 0.066767527557685086 0 -0.013719120569065114 0.066767527557685086 0 -0.015149541440325544 0.064999982014442459 0 -0.016002712117505109 0.066985972082098305 0 -0.015149541440325544 0.064999982014442459 0 -0.016002712117505109 0.066985972082098305 0 -0.018634586977849053 0.064999966150941099 0 -0.016002712117505109 0.066985972082098305 0 -0.017926397071733755 0.067504141404042192 0 -0.018634586977849053 0.064999966150941099 0 -0.015551430254335743 0.069361992971936667 0 -0.016002712117505109 0.066985972082098305 0 -0.017926397071733755 0.067504141404042192 0 -0.015551430254335743 0.069361992971936667 0 -0.017926397071733755 0.067504141404042192 0 -0.018581758822631553 0.070025199933542878 0 -0.020516880088467714 0.066964074886415412 0 -0.021709583474795163 0.0688092585005044 0 -0.018691620103192856 0.069905177689656789 0 -0.014406742713765861 0.062718060582315036 0 -0.013971976393327647 0.058517695669659246 0 -0.017926397071733755 0.067504141404042192 0 -0.020516880088467714 0.066964074886415412 0 -0.018581758822631553 0.070025199933542878 0 -0.017926397071733755 0.067504141404042192 0 -0.018634586977849053 0.064999966150941099 0 -0.020516880088467714 0.066964074886415412 0 -0.020516880088467714 0.066964074886415412 0 -0.022119586429863804 0.06499998571565628 0 -0.023273888703030005 0.0662974348699569 0 -0.018634586977849053 0.064999966150941099 0 -0.020516880088467714 0.066964074886415412 0 -0.022119586429863804 0.06499998571565628 0 -0.020516880088467714 0.066964074886415412 0 -0.023273888703030005 0.0662974348699569 0 -0.023256413949746986 0.067729793949799957 0 -0.022119586429863804 0.06499998571565628 0 -0.023273888703030005 0.0662974348699569 0 -0.025604590145205868 0.064999973593578966 0 -0.023273888703030005 0.0662974348699569 0 -0.023256413949746986 0.067729793949799957 0 -0.024903706282371641 0.066786878961738599 0 -0.025159631809692162 0.066849538768611674 0 -0.025597221580040047 0.066826858226697636 0 -0.023256413949746986 0.067729793949799957 0 -0.024278457350115502 0.069303854783911517 0 -0.025185767617655057 0.068451716201653967 0 -0.023256413949746986 0.067729793949799957 0 -0.022716310666533193 0.068889569028572517 0 -0.021709583474795163 0.0688092585005044 0 -0.023256413949746986 0.067729793949799957 0 -0.022716310666533193 0.068889569028572517 0 -0.023512988640446399 0.069348637140871666 0 -0.023256413949746986 0.067729793949799957 0 -0.024278457350115502 0.069303854783911517 0 -0.023512988640446399 0.069348637140871666 0 -0.020516880088467714 0.066964074886415412 0 -0.023256413949746986 0.067729793949799957 0 -0.021709583474795163 0.0688092585005044 0 -0.019047511527302857 0.059865903363031193 0 -0.023372890907620084 0.061233558380825726 0 -0.021709583474795163 0.0688092585005044 0 -0.02068481446244224 0.070355586292567038 0 -0.018691620103192856 0.069905177689656789 0 -0.02068481446244224 0.070355586292567038 0 -0.022382122156374525 0.069669903300444425 0 -0.022683052852190185 0.0708006472665791 0 -0.022716310666533193 0.068889569028572517 0 -0.021709583474795163 0.0688092585005044 0 -0.022382122156374525 0.069669903300444425 0 -0.021709583474795163 0.0688092585005044 0 -0.02068481446244224 0.070355586292567038 0 -0.022382122156374525 0.069669903300444425 0 -0.02428885765404348 0.069305660032996264 0 -0.023512988640446399 0.069348637140871666 0 -0.022683052852190185 0.0708006472665791 0 -0.024586372958859841 0.066145104040663844 0 -0.024530948513263741 0.066195547535075436 0 -0.022716310666533193 0.068889569028572517 0 -0.023512988640446399 0.069348637140871666 0 -0.022382122156374525 0.069669903300444425 0 -0.023512988640446399 0.069348637140871666 0 -0.022382122156374525 0.069669903300444425 0 -0.022683052852190185 0.0708006472665791 0 -0.024586372958859841 0.066145104040663844 0 -0.023372890907620084 0.061233558380825726 0 -0.021690553351883215 0.048355048538369291 0 -0.023037553564567222 0.050454171213666466 0 -0.025852138911538852 0.049151159751459311 0 -0.021690553351883215 0.048355048538369291 0 -0.023037553564567222 0.050454171213666466 0 -0.019664797016265584 0.050341337700794464 0 -0.019236363342787673 0.048078250271298792 0 -0.019664797016265584 0.050341337700794464 0 -0.017840123691073347 0.049717596504272946 0 -0.019236363342787673 0.048078250271298792 0 -0.021530501516204493 0.048605518015109067 0 -0.019664797016265584 0.050341337700794464 0 -0.023372890907620084 0.061233558380825726 0 -0.024102400565582521 0.05886489278971381 0 -0.019664797016265584 0.050341337700794464 0 -0.017840123691073347 0.049717596504272946 0 -0.019015284503515677 0.051844435670480075 0 -0.017840123691073347 0.049717596504272946 0 -0.016793725223968714 0.051090962808069448 0 -0.019015284503515677 0.051844435670480075 0 -0.017840123691073347 0.049717596504272946 0 -0.01557216486904324 0.04963185041324282 0 -0.016885345457362071 0.047554306848549999 0 -0.017840123691073347 0.049717596504272946 0 -0.01557216486904324 0.04963185041324282 0 -0.016793725223968714 0.051090962808069448 0 -0.0020513497510817927 0.050451629953221104 0 -0.0032536457684368735 0.051172111051328788 0 -0.0022319067467348602 0.052825925185683055 0 -0.01557216486904324 0.04963185041324282 0 -0.014243761558679237 0.051745265163687063 0 -0.016793725223968714 0.051090962808069448 0 -0.010696732013690719 0.054708825124480498 0 -0.0064544962196780402 0.05392333763602708 0 -0.0020513497510817927 0.050451629953221104 0 -0.0032536457684368735 0.051172111051328788 0 -0.0042804866072282521 0.049536671949286161 0 -0.0091688401556550281 0.059051280038139489 0 -0.013971976393327647 0.058517695669659246 0 -0.0020513497510817927 0.050451629953221104 0 -0.0015372337780087326 0.048944061460924393 0 -0.0042804866072282521 0.049536671949286161 0 -0.010696732013690719 0.054708825124480498 0 -0.013971976393327647 0.058517695669659246 0 -0.019047511527302857 0.059865903363031193 0 -0.013971976393327647 0.058517695669659246 0 -0.019236363342787673 0.048078250271298792 0 -0.017840123691073347 0.049717596504272946 0 -0.016885345457362071 0.047554306848549999 0 -0.030510994120694225 0.068198103513122096 0 -0.03201254724195008 0.068274483073367948 0 -0.032087790094945515 0.067258951677540132 0 -0.030732738453796458 0.068926223829527025 0 -0.034027672144919557 0.068717645929598947 0 -0.032087790094945515 0.067258951677540132 0 -0.029751123894760603 0.067018305189759902 0 -0.030732738453796458 0.068926223829527025 0 -0.032087790094945515 0.067258951677540132 0 -0.031998032379308365 0.064999925282326593 0 -0.029751123894760603 0.067018305189759902 0 -0.031994991704230237 0.065001428047693918 0 -0.029591538215579357 0.066608976186436047 0 -0.029089716667726646 0.064999991775302662 0 -0.029574951058901202 0.067070399845985562 0 -0.02727525503753709 0.06673122443055364 0 -0.031997599850083713 0.06499999335018436 0 -0.029089716667726646 0.064999991775302662 0 -0.029574951058901202 0.067070399845985562 0 -0.028869014168557854 0.068519453860347287 0 -0.027559564802843807 0.069090444245693897 0 -0.030732738453796458 0.068926223829527025 0 -0.029751123894760603 0.067018305189759902 0 -0.028869014168557854 0.068519453860347287 0 -0.027366237545495487 0.069101238333015541 0 -0.029751123894760603 0.067018305189759902 0 -0.028869014168557854 0.068519453860347287 0 -0.030732738453796458 0.068926223829527025 0 -0.029591538215579357 0.066608976186436047 0 -0.02749444408014393 0.067656570331811286 0 -0.02727525503753709 0.06673122443055364 0 -0.025471424534940685 0.068427100398249882 0 -0.027170795397947981 0.069147376403157088 0 -0.029574951058901202 0.067070399845985562 0 -0.02727525503753709 0.06673122443055364 0 -0.027170795397947981 0.069147376403157088 0 -0.029089632982857518 0.065000001830210971 0 -0.027200092003703102 0.066755421369562778 0 -0.025604590145205868 0.064999973593578966 0 -0.02908683972325531 0.065001148600204076 0 -0.027188702317513941 0.066162204180727685 0 -0.027200092003703102 0.066755421369562778 0 -0.025604590145205868 0.064999973593578966 0 -0.024903706282371641 0.066786878961738599 0 -0.023273888703030005 0.0662974348699569 0 -0.025604590145205868 0.064999973593578966 0 -0.024903706282371641 0.066786878961738599 0 -0.027200092003703102 0.066755421369562778 0 -0.024903706282371641 0.066786878961738599 0 -0.025312170729234616 0.068512471812450793 0 -0.023256413949746986 0.067729793949799957 0 -0.024903706282371641 0.066786878961738599 0 -0.025312170729234616 0.068512471812450793 0 -0.027188702317513941 0.066162204180727685 0 -0.025597221580040047 0.066826858226697636 0 -0.025597221580040047 0.066826858226697636 0 -0.02749444408014393 0.067656570331811286 0 -0.024586372958859841 0.066145104040663844 0 -0.025597221580040047 0.066826858226697636 0 -0.024739494426637507 0.068802660155718967 0 -0.026422755868103158 0.069517485482666536 0 -0.027397652925371437 0.068667786843033221 0 -0.024739494426637507 0.068802660155718967 0 -0.023131421822297077 0.070296556155185097 0 -0.026414879411590819 0.071050972747945515 0 -0.024739494426637507 0.068802660155718967 0 -0.026422755868103158 0.069517485482666536 0 -0.026414879411590819 0.071050972747945515 0 -0.025499524789672906 0.066742913368168511 0 -0.025744768565041883 0.066515528764649598 0 -0.026199746532358022 0.066708020230758072 0 -0.024586372958859841 0.066145104040663844 0 -0.02749444408014393 0.067656570331811286 0 -0.023372890907620084 0.061233558380825726 0 -0.026275679686973578 0.060897784228442824 0 -0.026414879411590819 0.071050972747945515 0 -0.027936471781406787 0.07030166158745306 0 -0.029721792521386351 0.071829071465703984 0 -0.026275679686973578 0.060897784228442824 0 -0.029986130397273929 0.061217206005043968 0 -0.025852138911538852 0.049151159751459311 0 -0.030206229674754781 0.049999172764260885 0 -0.028430264278420565 0.053174697867551461 0 -0.028698546802962261 0.069735834108292705 0 -0.027936471781406787 0.07030166158745306 0 -0.027602006238070641 0.069330796315604723 0 -0.028698546802962261 0.069735834108292705 0 -0.027936471781406787 0.07030166158745306 0 -0.029334980538667444 0.070404240286567873 0 -0.026422755868103158 0.069517485482666536 0 -0.027936471781406787 0.07030166158745306 0 -0.027602006238070641 0.069330796315604723 0 -0.026422755868103158 0.069517485482666536 0 -0.026414879411590819 0.071050972747945515 0 -0.027936471781406787 0.07030166158745306 0 -0.026422755868103158 0.069517485482666536 0 -0.027602006238070641 0.069330796315604723 0 -0.027399167875820238 0.06867122462470962 0 -0.0273317759736692 0.067836342845330397 0 -0.02749444408014393 0.067656570331811286 0 -0.027602006238070641 0.069330796315604723 0 -0.027399167875820238 0.06867122462470962 0 -0.02759648579101228 0.068659536315482758 0 -0.02749444408014393 0.067656570331811286 0 -0.027826934811381949 0.067775604254627225 0 -0.028869014168557854 0.068519453860347287 0 -0.027366237545495487 0.069101238333015541 0 -0.027559564802843807 0.069090444245693897 0 -0.028698546802962261 0.069735834108292705 0 -0.027602006238070641 0.069330796315604723 0 -0.02759648579101228 0.068659536315482758 0 -0.027826934811381949 0.067775604254627225 0 -0.030965656688987212 0.069496017612123415 0 -0.028137122090128346 0.06903197261651399 0 -0.031247670592107705 0.070198877383143218 0 -0.031083261722303551 0.068877151801356604 0 -0.028698546802962261 0.069735834108292705 0 -0.02759648579101228 0.068659536315482758 0 -0.031023930959224049 0.06998250232426631 0 -0.028698546802962261 0.069735834108292705 0 -0.029334980538667444 0.070404240286567873 0 -0.031023930959224049 0.06998250232426631 0 -0.027826934811381949 0.067775604254627225 0 -0.030510994120694225 0.068198103513122096 0 -0.027936471781406787 0.07030166158745306 0 -0.029334980538667444 0.070404240286567873 0 -0.029721792521386351 0.071829071465703984 0 -0.029334980538667444 0.070404240286567873 0 -0.029721792521386351 0.071829071465703984 0 -0.031023930959224049 0.06998250232426631 0 -0.029986130397273929 0.061217206005043968 0 -0.033820131377921302 0.061747458836605602 0 -0.029721792521386351 0.071829071465703984 0 -0.031023930959224049 0.06998250232426631 0 -0.033033346714134909 0.07262088957155588 0 -0.031247670592107705 0.070198877383143218 0 -0.031083261722303551 0.068877151801356604 0 -0.034027672144919557 0.068717645929598947 0 -0.032036706061979461 0.053836917645965932 0 -0.032704095676919558 0.056455609488264315 0 -0.035019053785732147 0.055079558399891544 0 -0.032036706061979461 0.053836917645965932 0 -0.03044843626026137 0.055753432882640314 0 -0.032704095676919558 0.056455609488264315 0 -0.032036706061979461 0.053836917645965932 0 -0.034633568256216558 0.050905259630448542 0 -0.035019053785732147 0.055079558399891544 0 -0.030206229674754781 0.049999172764260885 0 -0.032036706061979461 0.053836917645965932 0 -0.034633568256216558 0.050905259630448542 0 -0.030206229674754781 0.049999172764260885 0 -0.032036706061979461 0.053836917645965932 0 -0.028430264278420565 0.053174697867551461 0 -0.032036706061979461 0.053836917645965932 0 -0.03044843626026137 0.055753432882640314 0 -0.028430264278420565 0.053174697867551461 0 -0.03044843626026137 0.055753432882640314 0 -0.028430264278420565 0.053174697867551461 0 -0.027818590774386007 0.056178413836526747 0 -0.028430264278420565 0.053174697867551461 0 -0.024405109141297763 0.053595367789939126 0 -0.027818590774386007 0.056178413836526747 0 -0.025852138911538852 0.049151159751459311 0 -0.028430264278420565 0.053174697867551461 0 -0.024405109141297763 0.053595367789939126 0 -0.023037553564567222 0.050454171213666466 0 -0.025852138911538852 0.049151159751459311 0 -0.024405109141297763 0.053595367789939126 0 -0.026976592896073411 0.053964862642797713 0 -0.028396119881734717 0.054585793927230328 0 -0.024405109141297763 0.053595367789939126 0 -0.025103599998848539 0.05634332971230719 0 -0.023294681210112928 0.056242423261966219 0 -0.024405109141297763 0.053595367789939126 0 -0.025103599998848539 0.05634332971230719 0 -0.027359240392514878 0.055890735783666025 0 -0.025103599998848539 0.05634332971230719 0 -0.02434082677887496 0.057751692783762486 0 -0.023294681210112928 0.056242423261966219 0 -0.025103599998848539 0.05634332971230719 0 -0.02434082677887496 0.057751692783762486 0 -0.026482390759731109 0.057596579790053559 0 -0.022237759467552656 0.056160008222478519 0 -0.017967464007792949 0.057346912456309886 0 -0.020632158702648187 0.056802131226312988 0 -0.020588676950094358 0.056811941412771925 0 -0.020622178459243627 0.056832729975584577 0 -0.020632158702648187 0.056802131226312988 0 -0.020647712896842731 0.056820651558303209 0 -0.020622178459243627 0.056832729975584577 0 -0.02434082677887496 0.057751692783762486 0 -0.025645677621906372 0.059025275378115041 0 -0.022896327650948501 0.059560982704410612 0 -0.02434082677887496 0.057751692783762486 0 -0.025645677621906372 0.059025275378115041 0 -0.026482390759731109 0.057596579790053559 0 -0.022237759467552656 0.056160008222478519 0 -0.025665740383406702 0.054569542942632193 0 -0.020672815301803711 0.056793161574307235 0 -0.020668471862405634 0.056828645528497299 0 -0.020647712896842731 0.056820651558303209 0 -0.025645677621906372 0.059025275378115041 0 -0.026482390759731109 0.057596579790053559 0 -0.028343220986000478 0.058497003215852605 0 -0.020632158702648187 0.056802131226312988 0 -0.020672815301803711 0.056793161574307235 0 -0.020647712896842731 0.056820651558303209 0 -0.028274839530998162 0.057932137811069054 0 -0.026482390759731109 0.057596579790053559 0 -0.028343220986000478 0.058497003215852605 0 -0.028274839530998162 0.057932137811069054 0 -0.026482390759731109 0.057596579790053559 0 -0.027359240392514878 0.055890735783666025 0 -0.025103599998848539 0.05634332971230719 0 -0.026482390759731109 0.057596579790053559 0 -0.027359240392514878 0.055890735783666025 0 -0.03044843626026137 0.055753432882640314 0 -0.031248747827944005 0.058749275298568243 0 -0.032704095676919558 0.056455609488264315 0 -0.028274839530998162 0.057932137811069054 0 -0.027359240392514878 0.055890735783666025 0 -0.030318367921402554 0.05812426568458063 0 -0.03044843626026137 0.055753432882640314 0 -0.027818590774386007 0.056178413836526747 0 -0.031248747827944005 0.058749275298568243 0 -0.028396119881734717 0.054585793927230328 0 -0.029823511138409767 0.054048733803621539 0 -0.025665740383406702 0.054569542942632193 0 -0.029823511138409767 0.054048733803621539 0 -0.025665740383406702 0.054569542942632193 0 -0.023215940157449377 0.055114188337041195 0 -0.028274839530998162 0.057932137811069054 0 -0.028340862029385593 0.058486705289331996 0 -0.030318367921402554 0.05812426568458063 0 -0.029889733181260387 0.05057903704231187 0 -0.030072881802756028 0.050866402450812226 0 -0.029970900947599761 0.051280253648485062 0 -0.029889733181260387 0.05057903704231187 0 -0.030072881802756028 0.050866402450812226 0 -0.030367636541238512 0.050500160787311468 0 -0.02568942510056103 0.05465777933615372 0 -0.025665740383406702 0.054569542942632193 0 -0.030531773764726128 0.051693257878646107 0 -0.031011567886634023 0.052060635184854417 0 -0.032094031831296957 0.051009934742710976 0 -0.032453217950481381 0.050936958885095328 0 -0.032444471882206082 0.051258563551199579 0 -0.030072881802756028 0.050866402450812226 0 -0.030367636541238512 0.050500160787311468 0 -0.03107324179205254 0.051035979518317343 0 -0.029823511138409767 0.054048733803621539 0 -0.031011567886634023 0.052060635184854417 0 -0.032704095676919558 0.056455609488264315 0 -0.035019053785732147 0.055079558399891544 0 -0.034761341927655641 0.058100521717337608 0 -0.029823511138409767 0.054048733803621539 0 -0.033138028949444856 0.054044646645252659 0 -0.031248747827944005 0.058749275298568243 0 -0.032704095676919558 0.056455609488264315 0 -0.034761341927655641 0.058100521717337608 0 -0.016655693988418676 0.054436957479698546 0 -0.018393375577943561 0.054324055950429759 0 -0.017341241742785982 0.05278596516564061 0 -0.018393375577943561 0.054324055950429759 0 -0.017341241742785982 0.05278596516564061 0 -0.019080527140559717 0.053454492995961139 0 -0.016655693988418676 0.054436957479698546 0 -0.018393375577943561 0.054324055950429759 0 -0.018790287735319069 0.055975447509521221 0 -0.00046077845034410599 0.054974360839169623 0 -0.0038393427730254734 0.054277255766469454 0 -0.0021002439886558285 0.052338826014490615 0 -0.016655693988418676 0.054436957479698546 0 -0.014243761558679237 0.051745265163687063 0 -0.017341241742785982 0.05278596516564061 0 -0.014243761558679237 0.051745265163687063 0 -0.016793725223968714 0.051090962808069448 0 -0.017341241742785982 0.05278596516564061 0 -0.0093543998476717741 0.055124453981728751 0 -0.0064544962196780402 0.05392333763602708 0 -0.017341241742785982 0.05278596516564061 0 -0.019015284503515677 0.051844435670480075 0 -0.019080527140559717 0.053454492995961139 0 -0.016793725223968714 0.051090962808069448 0 -0.017341241742785982 0.05278596516564061 0 -0.019015284503515677 0.051844435670480075 0 -0.019015284503515677 0.051844435670480075 0 -0.02172998766787473 0.052201788767546359 0 -0.020441620942081348 0.053397974422384142 0 -0.019664797016265584 0.050341337700794464 0 -0.019015284503515677 0.051844435670480075 0 -0.02172998766787473 0.052201788767546359 0 -0.019015284503515677 0.051844435670480075 0 -0.019080527140559717 0.053454492995961139 0 -0.020441620942081348 0.053397974422384142 0 -0.023037553564567222 0.050454171213666466 0 -0.019664797016265584 0.050341337700794464 0 -0.02172998766787473 0.052201788767546359 0 -0.023037553564567222 0.050454171213666466 0 -0.024405109141297763 0.053595367789939126 0 -0.02172998766787473 0.052201788767546359 0 -0.024405109141297763 0.053595367789939126 0 -0.02172998766787473 0.052201788767546359 0 -0.021813889683436404 0.054823280690998975 0 -0.024405109141297763 0.053595367789939126 0 -0.021813889683436404 0.054823280690998975 0 -0.023294681210112928 0.056242423261966219 0 -0.02172998766787473 0.052201788767546359 0 -0.021813889683436404 0.054823280690998975 0 -0.020441620942081348 0.053397974422384142 0 -0.018393375577943561 0.054324055950429759 0 -0.019080527140559717 0.053454492995961139 0 -0.019898425892327175 0.054702144655375762 0 -0.019080527140559717 0.053454492995961139 0 -0.020441620942081348 0.053397974422384142 0 -0.019898425892327175 0.054702144655375762 0 -0.021813889683436404 0.054823280690998975 0 -0.020441620942081348 0.053397974422384142 0 -0.019898425892327175 0.054702144655375762 0 -0.021813889683436404 0.054823280690998975 0 -0.019898425892327175 0.054702144655375762 0 -0.020654782065884753 0.055996940962126415 0 -0.019898425892327175 0.054702144655375762 0 -0.020654782065884753 0.055996940962126415 0 -0.018790287735319069 0.055975447509521221 0 -0.018393375577943561 0.054324055950429759 0 -0.019898425892327175 0.054702144655375762 0 -0.018790287735319069 0.055975447509521221 0 -0.019096279705304357 0.057775694442350103 0 -0.019017410854009591 0.057528981991269983 0 -0.020654782065884753 0.055996940962126415 0 -0.020868792657740495 0.057808589009125867 0 -0.021858998368055538 0.056570267189694379 0 -0.020654782065884753 0.055996940962126415 0 -0.020868792657740495 0.057808589009125867 0 -0.018790287735319069 0.055975447509521221 0 -0.020528632875956295 0.057596696370543717 0 -0.019001135759631655 0.057026549643562373 0 -0.018790287735319069 0.055975447509521221 0 -0.023294681210112928 0.056242423261966219 0 -0.021858998368055538 0.056570267189694379 0 -0.022581827137164438 0.057741884952616791 0 -0.021813889683436404 0.054823280690998975 0 -0.023294681210112928 0.056242423261966219 0 -0.021858998368055538 0.056570267189694379 0 -0.021813889683436404 0.054823280690998975 0 -0.020654782065884753 0.055996940962126415 0 -0.021858998368055538 0.056570267189694379 0 -0.020868792657740495 0.057808589009125867 0 -0.021858998368055538 0.056570267189694379 0 -0.022581827137164438 0.057741884952616791 0 -0.02434082677887496 0.057751692783762486 0 -0.023294681210112928 0.056242423261966219 0 -0.022581827137164438 0.057741884952616791 0 -0.02434082677887496 0.057751692783762486 0 -0.022581827137164438 0.057741884952616791 0 -0.022896327650948501 0.059560982704410612 0 -0.019096279705304357 0.057775694442350103 0 -0.017967464007792949 0.057346912456309886 0 -0.020868792657740495 0.057808589009125867 0 -0.022581827137164438 0.057741884952616791 0 -0.022896327650948501 0.059560982704410612 0 -0.020528632875956295 0.057596696370543717 0 -0.021060079993347119 0.059315451999135696 0 -0.022211569607139863 0.059099558503093431 0 -0.013674158389777419 0.057937886685603568 0 -0.017967464007792949 0.057346912456309886 0 -0.016307992581373842 0.057808621253486736 0 -0.016281695532301559 0.057810520223223735 0 -0.016291022235962415 0.057784267504856171 0 -0.011607029954442058 0.057965310489872746 0 -0.012854532094320401 0.057861687540085832 0 -0.013495632457739199 0.059000339002205825 0 -0.014462492747108164 0.058824589963639685 0 -0.012262144051313583 0.057615889264686956 0 -0.013674158389777419 0.057937886685603568 0 -0.012854532094320401 0.057861687540085832 0 -0.0055759426383844629 0.0561908297840302 0 -0.0073398814706036345 0.058123937928534791 0 -0.0061334903088382502 0.057831130435580094 0 -0.0068444659280676593 0.058219761085344164 0 -0.0061334903088382502 0.057831130435580094 0 -0.0040298049767986876 0.05870743774592057 0 -0.011798112160521339 0.056692145621035278 0 -0.013674158389777419 0.057937886685603568 0 -0.020528632875956295 0.057596696370543717 0 -0.019001135759631655 0.057026549643562373 0 -0.021060079993347119 0.059315451999135696 0 -0.0055759426383844629 0.0561908297840302 0 -0.0061334903088382502 0.057831130435580094 0 -0.0046965950551165654 0.057388167243642409 0 -0.0073398814706036345 0.058123937928534791 0 -0.0068469975411944639 0.058215428035385992 0 -0.0061334903088382502 0.057831130435580094 0 -0.011607029954442058 0.057965310489872746 0 -0.011250472687517088 0.057831500685716304 0 -0.013674158389777419 0.057937886685603568 0 -0.011607029954442058 0.057965310489872746 0 -0.0046965950551165654 0.057388167243642409 0 -0.003251642046543584 0.05652549049778835 0 -0.0040298049767986876 0.05870743774592057 0 -0.0061334903088382502 0.057831130435580094 0 -0.0046965950551165654 0.057388167243642409 0 -0.0040298049767986876 0.05870743774592057 0 -0.011607029954442058 0.057965310489872746 0 -0.0054864170260422859 0.058751307270867886 0 -0.0055759426383844629 0.0561908297840302 0 -0.0046965950551165654 0.057388167243642409 0 -0.003251642046543584 0.05652549049778835 0 -0.0038393427730254734 0.054277255766469454 0 -0.0055759426383844629 0.0561908297840302 0 -0.003251642046543584 0.05652549049778835 0 -0.016655693988418676 0.054436957479698546 0 -0.019001135759631655 0.057026549643562373 0 -0.018790287735319069 0.055975447509521221 0 -0.0093543998476717741 0.055124453981728751 0 -0.011798112160521339 0.056692145621035278 0 -0.00046077845034410599 0.054974360839169623 0 -0.0038393427730254734 0.054277255766469454 0 -0.003251642046543584 0.05652549049778835 0 -0.00137813129117371 0.057216921675681667 0 -0.0040298049767986876 0.05870743774592057 0 -0.0012971693905886198 0.059160075668840746 0 -0.00137813129117371 0.057216921675681667 0 -0.003251642046543584 0.05652549049778835 0 -0.0040298049767986876 0.05870743774592057 0 -0.0033995184503437369 0.060272037229847482 0 -0.0042959643578825216 0.058436838033213055 0 -0.0012971693905886198 0.059160075668840746 0 -0.0054864170260422859 0.058751307270867886 0 -0.0035110700060977085 0.059025509536129589 0 -0.0033995184503437369 0.060272037229847482 0 -0.0030958089336858875 0.061821227653417653 0 -0.0012420396116573093 0.061101606404756217 0 -0.0033995184503437369 0.060272037229847482 0 -0.0030958089336858875 0.061821227653417653 0 -0.0051048709604983381 0.0612915081122207 0 -0.0033995184503437369 0.060272037229847482 0 -0.0051048709604983381 0.0612915081122207 0 -0.005411103979256834 0.05979281821140793 0 -0.0051048709604983381 0.0612915081122207 0 -0.0064322324220483619 0.061428189417116724 0 -0.0048363013712461218 0.062677174154802534 0 -0.0051048709604983381 0.0612915081122207 0 -0.005411103979256834 0.05979281821140793 0 -0.0062534707711733705 0.060487594576590344 0 -0.0033995184503437369 0.060272037229847482 0 -0.005411103979256834 0.05979281821140793 0 -0.0042959643578825216 0.058436838033213055 0 -0.0072879470442285951 0.057836102808603976 0 -0.005411103979256834 0.05979281821140793 0 -0.0042959643578825216 0.058436838033213055 0 -0.0072879470442285951 0.057836102808603976 0 -0.005411103979256834 0.05979281821140793 0 -0.0070608100244696813 0.059637955107579466 0 -0.0072879470442285951 0.057836102808603976 0 -0.0070608100244696813 0.059637955107579466 0 -0.0078440451269399455 0.058844122094181738 0 -0.005411103979256834 0.05979281821140793 0 -0.0070608100244696813 0.059637955107579466 0 -0.0062534707711733705 0.060487594576590344 0 -0.016281695532301559 0.057810520223223735 0 -0.016291022235962415 0.057784267504856171 0 -0.016244773382420752 0.05776150677128148 0 -0.012854532094320401 0.057861687540085832 0 -0.014556702781166405 0.057648172329803349 0 -0.012854532094320401 0.057861687540085832 0 -0.012422823415453452 0.057771201218644527 0 -0.0072879470442285951 0.057836102808603976 0 -0.0078440451269399455 0.058844122094181738 0 -0.0084639391590168433 0.058468598058211946 0 -0.0078440451269399455 0.058844122094181738 0 -0.0084639391590168433 0.058468598058211946 0 -0.0084877408296602855 0.05946175704619789 0 -0.0070608100244696813 0.059637955107579466 0 -0.0078440451269399455 0.058844122094181738 0 -0.0084877408296602855 0.05946175704619789 0 -0.0070608100244696813 0.059637955107579466 0 -0.0084877408296602855 0.05946175704619789 0 -0.0082860371211950189 0.060372004859904363 0 -0.0084877408296602855 0.05946175704619789 0 -0.0090428253407380307 0.060149474004834079 0 -0.0082860371211950189 0.060372004859904363 0 -0.0084877408296602855 0.05946175704619789 0 -0.0090428253407380307 0.060149474004834079 0 -0.0095291560888894223 0.059611600579676571 0 -0.0084639391590168433 0.058468598058211946 0 -0.0084877408296602855 0.05946175704619789 0 -0.0095291560888894223 0.059611600579676571 0 -0.0090428253407380307 0.060149474004834079 0 -0.0082860371211950189 0.060372004859904363 0 -0.0092515823541825422 0.060976018856798181 0 -0.0090428253407380307 0.060149474004834079 0 -0.0092515823541825422 0.060976018856798181 0 -0.0099677477503623789 0.06030564308316369 0 -0.0082860371211950189 0.060372004859904363 0 -0.007904646929595192 0.061290840052369754 0 -0.0072037344730097718 0.060596564060215984 0 -0.0082860371211950189 0.060372004859904363 0 -0.007904646929595192 0.061290840052369754 0 -0.0092515823541825422 0.060976018856798181 0 -0.0092515823541825422 0.060976018856798181 0 -0.0086932279875736214 0.061933843281940848 0 -0.009787139884342504 0.062176545544993148 0 -0.007904646929595192 0.061290840052369754 0 -0.0092515823541825422 0.060976018856798181 0 -0.0086932279875736214 0.061933843281940848 0 -0.0062534707711733705 0.060487594576590344 0 -0.0072037344730097718 0.060596564060215984 0 -0.0064322324220483619 0.061428189417116724 0 -0.0070608100244696813 0.059637955107579466 0 -0.0082860371211950189 0.060372004859904363 0 -0.0072037344730097718 0.060596564060215984 0 -0.0070608100244696813 0.059637955107579466 0 -0.0062534707711733705 0.060487594576590344 0 -0.0072037344730097718 0.060596564060215984 0 -0.007904646929595192 0.061290840052369754 0 -0.0064322324220483619 0.061428189417116724 0 -0.0075582430438277922 0.06243795271978915 0 -0.007904646929595192 0.061290840052369754 0 -0.0072037344730097718 0.060596564060215984 0 -0.0064322324220483619 0.061428189417116724 0 -0.0051048709604983381 0.0612915081122207 0 -0.0062534707711733705 0.060487594576590344 0 -0.0064322324220483619 0.061428189417116724 0 -0.0064322324220483619 0.061428189417116724 0 -0.0075582430438277922 0.06243795271978915 0 -0.0063442882619614421 0.063262954138407754 0 -0.0064322324220483619 0.061428189417116724 0 -0.0063442882619614421 0.063262954138407754 0 -0.0048363013712461218 0.062677174154802534 0 -0.0075582430438277922 0.06243795271978915 0 -0.0063442882619614421 0.063262954138407754 0 -0.007630581869822301 0.063724608765589955 0 -0.0086932279875736214 0.061933843281940848 0 -0.0089286567121211035 0.063106167452277873 0 -0.009787139884342504 0.062176545544993148 0 -0.007904646929595192 0.061290840052369754 0 -0.0075582430438277922 0.06243795271978915 0 -0.0086932279875736214 0.061933843281940848 0 -0.0075582430438277922 0.06243795271978915 0 -0.0086932279875736214 0.061933843281940848 0 -0.0089286567121211035 0.063106167452277873 0 -0.0075582430438277922 0.06243795271978915 0 -0.0089286567121211035 0.063106167452277873 0 -0.007630581869822301 0.063724608765589955 0 -0.007630581869822301 0.063724608765589955 0 -0.0092242264905112881 0.064851920054073933 0 -0.0066545440645637962 0.064840913045675297 0 -0.0089286567121211035 0.063106167452277873 0 -0.007630581869822301 0.063724608765589955 0 -0.0092242264905112881 0.064851920054073933 0 -0.0063442882619614421 0.063262954138407754 0 -0.0066545440645637962 0.064840913045675297 0 -0.0049617683879583201 0.06445344729102219 0 -0.0063442882619614421 0.063262954138407754 0 -0.007630581869822301 0.063724608765589955 0 -0.0066545440645637962 0.064840913045675297 0 -0.0049617683879583201 0.06445344729102219 0 -0.0052859707665577392 0.06592542217204593 0 -0.0020626819469390079 0.06546257180817093 0 -0.0066545440645637962 0.064840913045675297 0 -0.0049617683879583201 0.06445344729102219 0 -0.0053082942998415091 0.06589216760276885 0 -0.0085176809019526754 0.045712237916328911 0 -0.007839911120023196 0.039977442297007039 0 -0.0032438819518461194 0.06353075070229279 0 -0.0020626819469390079 0.06546257180817093 0 -0.0012699923456987137 0.063237842119720278 0 -0.0049617683879583201 0.06445344729102219 0 -0.0032438819518461194 0.06353075070229279 0 -0.0020626819469390079 0.06546257180817093 0 -0.0030958089336858875 0.061821227653417653 0 -0.0032438819518461194 0.06353075070229279 0 -0.0012699923456987137 0.063237842119720278 0 -0.0030958089336858875 0.061821227653417653 0 -0.0032438819518461194 0.06353075070229279 0 -0.0048363013712461218 0.062677174154802534 0 -0.0049617683879583201 0.06445344729102219 0 -0.0032438819518461194 0.06353075070229279 0 -0.0048363013712461218 0.062677174154802534 0 -0.0063442882619614421 0.063262954138407754 0 -0.0049617683879583201 0.06445344729102219 0 -0.0048363013712461218 0.062677174154802534 0 -0.0030958089336858875 0.061821227653417653 0 -0.0051048709604983381 0.0612915081122207 0 -0.0048363013712461218 0.062677174154802534 0 -0.030644497038919045 0.051807425090281183 0 -0.030050445163720435 0.052034121234852959 0 -0.030766790292463264 0.052414291571089559 0 -0.030644497038919045 0.051807425090281183 0 -0.030766790292463264 0.052414291571089559 0 -0.031280342709883793 0.051781561099936139 0 -0.030072881802756028 0.050866402450812226 0 -0.030589517846716197 0.051194402900406881 0 -0.031197067197576586 0.051000742563118033 0 -0.030589517846716197 0.051194402900406881 0 -0.031280342709883793 0.051781561099936139 0 -0.031197067197576586 0.051000742563118033 0 -0.030644497038919045 0.051807425090281183 0 -0.030589517846716197 0.051194402900406881 0 -0.031280342709883793 0.051781561099936139 0 -0.030644497038919045 0.051807425090281183 0 -0.030589517846716197 0.051194402900406881 0 -0.030316632998622178 0.051528506634954029 0 -0.030316632998622178 0.051528506634954029 0 -0.030236643438059398 0.05121556031610968 0 -0.029970900947599761 0.051280253648485062 0 -0.030589517846716197 0.051194402900406881 0 -0.030316632998622178 0.051528506634954029 0 -0.030236643438059398 0.05121556031610968 0 -0.030072881802756028 0.050866402450812226 0 -0.030589517846716197 0.051194402900406881 0 -0.030236643438059398 0.05121556031610968 0 -0.030072881802756028 0.050866402450812226 0 -0.030236643438059398 0.05121556031610968 0 -0.029970900947599761 0.051280253648485062 0 -0.020668471862405634 0.056828645528497299 0 -0.020667584064351822 0.056856927845300415 0 -0.020649190499119171 0.056848955538173679 0 -0.030316632998622178 0.051528506634954029 0 -0.029970900947599761 0.051280253648485062 0 -0.030050445163720435 0.052034121234852959 0 -0.023215940157449377 0.055114188337041195 0 -0.020194068979754797 0.056989113507907259 0 -0.030644497038919045 0.051807425090281183 0 -0.030316632998622178 0.051528506634954029 0 -0.030050445163720435 0.052034121234852959 0 -0.013603103173319116 0.061180369044438167 0 -0.013128613441268099 0.061226861047089264 0 -0.012804282757000907 0.062146416910663679 0 -0.013128613441268099 0.061226861047089264 0 -0.011875744722220628 0.061484670304883068 0 -0.012804282757000907 0.062146416910663679 0 -0.013128613441268099 0.061226861047089264 0 -0.011875744722220628 0.061484670304883068 0 -0.012202704515133738 0.060424556730268426 0 -0.013603103173319116 0.061180369044438167 0 -0.013128613441268099 0.061226861047089264 0 -0.012247147435868029 0.060438474415096213 0 -0.011875744722220628 0.061484670304883068 0 -0.012202704515133738 0.060424556730268426 0 -0.010985052169561031 0.060582316920289446 0 -0.01692730758012187 0.057567286655176741 0 -0.017209335282249012 0.05748749160264173 0 -0.020194068979754797 0.056989113507907259 0 -0.017209335282249012 0.05748749160264173 0 -0.020668471862405634 0.056828645528497299 0 -0.020649190499119171 0.056848955538173679 0 -0.020647712896842731 0.056820651558303209 0 -0.020649190499119171 0.056848955538173679 0 -0.020647712896842731 0.056820651558303209 0 -0.020622178459243627 0.056832729975584577 0 -0.017209335282249012 0.05748749160264173 0 -0.014556702781166405 0.057648172329803349 0 -0.017209335282249012 0.05748749160264173 0 -0.017825597723296761 0.05750893781017264 0 -0.0084935852371956222 0.058454008009292707 0 -0.010335343881818723 0.059446575452814301 0 -0.0095291560888894223 0.059611600579676571 0 -0.016291022235962415 0.057784267504856171 0 -0.016249231523618152 0.057750490467045744 0 -0.016244773382420752 0.05776150677128148 0 -0.016223427500415923 0.057719546406188968 0 -0.016249231523618152 0.057750490467045744 0 -0.016244773382420752 0.05776150677128148 0 -0.017967464007792949 0.057346912456309886 0 -0.017825597723296761 0.05750893781017264 0 -0.010335343881818723 0.059446575452814301 0 -0.0095291560888894223 0.059611600579676571 0 -0.0099677477503623789 0.06030564308316369 0 -0.0090428253407380307 0.060149474004834079 0 -0.0095291560888894223 0.059611600579676571 0 -0.0099677477503623789 0.06030564308316369 0 -0.0092515823541825422 0.060976018856798181 0 -0.0099677477503623789 0.06030564308316369 0 -0.010544211969982726 0.061250082110429128 0 -0.012202704515133738 0.060424556730268426 0 -0.010335343881818723 0.059446575452814301 0 -0.010985052169561031 0.060582316920289446 0 -0.0099677477503623789 0.06030564308316369 0 -0.010985052169561031 0.060582316920289446 0 -0.010544211969982726 0.061250082110429128 0 -0.010335343881818723 0.059446575452814301 0 -0.0099677477503623789 0.06030564308316369 0 -0.010985052169561031 0.060582316920289446 0 -0.011875744722220628 0.061484670304883068 0 -0.010985052169561031 0.060582316920289446 0 -0.010544211969982726 0.061250082110429128 0 -0.011875744722220628 0.061484670304883068 0 -0.010544211969982726 0.061250082110429128 0 -0.010850557433072944 0.062226216189066839 0 -0.0092515823541825422 0.060976018856798181 0 -0.010544211969982726 0.061250082110429128 0 -0.009787139884342504 0.062176545544993148 0 -0.009787139884342504 0.062176545544993148 0 -0.010850557433072944 0.062226216189066839 0 -0.010452319917437933 0.063203294757989678 0 -0.010544211969982726 0.061250082110429128 0 -0.009787139884342504 0.062176545544993148 0 -0.010850557433072944 0.062226216189066839 0 -0.010850557433072944 0.062226216189066839 0 -0.010452319917437933 0.063203294757989678 0 -0.011824449535644155 0.06278601573849614 0 -0.0089286567121211035 0.063106167452277873 0 -0.009787139884342504 0.062176545544993148 0 -0.010452319917437933 0.063203294757989678 0 -0.0092242264905112881 0.064851920054073933 0 -0.010452319917437933 0.063203294757989678 0 -0.012009553835473688 0.064330890616455125 0 -0.0089286567121211035 0.063106167452277873 0 -0.0092242264905112881 0.064851920054073933 0 -0.010452319917437933 0.063203294757989678 0 -0.012009553835473688 0.064330890616455125 0 -0.013965579912558349 0.063835167456773145 0 -0.013187473292515345 0.065721425109939127 0 -0.012009553835473688 0.064330890616455125 0 -0.012666299946346689 0.063319738931550587 0 -0.013965579912558349 0.063835167456773145 0 -0.012009553835473688 0.064330890616455125 0 -0.012666299946346689 0.063319738931550587 0 -0.011824449535644155 0.06278601573849614 0 -0.012666299946346689 0.063319738931550587 0 -0.011824449535644155 0.06278601573849614 0 -0.012804282757000907 0.062146416910663679 0 -0.010452319917437933 0.063203294757989678 0 -0.012009553835473688 0.064330890616455125 0 -0.011824449535644155 0.06278601573849614 0 -0.011875744722220628 0.061484670304883068 0 -0.010850557433072944 0.062226216189066839 0 -0.011824449535644155 0.06278601573849614 0 -0.011875744722220628 0.061484670304883068 0 -0.011824449535644155 0.06278601573849614 0 -0.012804282757000907 0.062146416910663679 0 -0.013603103173319116 0.061180369044438167 0 -0.012804282757000907 0.062146416910663679 0 -0.013965579912558349 0.063835167456773145 0 -0.020194068979754797 0.056989113507907259 0 -0.017864117698937889 0.061256970620552034 0 -0.013246481040979719 0.055614718491906134 0 -0.013863714485154751 0.061017826196585183 0 -0.01737099791981063 0.057866613424409387 0 -0.020194068979754797 0.056989113507907259 0 -0.024011563082168487 0.053790374409321384 0 -0.012666299946346689 0.063319738931550587 0 -0.012804282757000907 0.062146416910663679 0 -0.013965579912558349 0.063835167456773145 0 -0.017864117698937889 0.061256970620552034 0 -0.017307977317373019 0.063328135881226655 0 -0.013863714485154751 0.061017826196585183 0 -0.017703415414296771 0.061023853121116231 0 -0.016233857786746294 0.064072309272366637 0 -0.017703415414296771 0.061023853121116231 0 -0.018872621335693243 0.063974718148734885 0 -0.016233857786746294 0.064072309272366637 0 -0.013863714485154751 0.061017826196585183 0 -0.017703415414296771 0.061023853121116231 0 -0.01737099791981063 0.057866613424409387 0 -0.017703415414296771 0.061023853121116231 0 -0.01737099791981063 0.057866613424409387 0 -0.021534253354457387 0.06011500358167518 0 -0.022965990438666053 0.032253878641173322 0 -0.023277452318756549 0.031800217595667035 0 -0.028546851008010389 0.033207487850197621 0 -0.029784546961721284 0.010992192681523067 0 -0.030089622851786773 0.010135794625445007 0 -0.029564278241088114 0.010515886430594732 0 -0.02339754203551277 0.032341854918880024 0 -0.02988958266261452 0.027150775678621761 0 -0.029784546961721284 0.010992192681523067 0 -0.029564278241088114 0.010515886430594732 0 -0.029030847647892932 0.010919244726752661 0 -0.032644507833783219 0.021140102391513888 0 -0.02988958266261452 0.027150775678621761 0 -0.02339754203551277 0.032341854918880024 0 -0.022580260215016277 0.034168271164325401 0 -0.016143470516085581 0.067678579081102974 0 -0.016233857786746294 0.064072309272366637 0 -0.014507032902086287 0.066479957264826847 0 -0.016143470516085581 0.067678579081102974 0 -0.018872621335693243 0.063974718148734885 0 -0.016233857786746294 0.064072309272366637 0 -0.022580260215016277 0.034168271164325401 0 -0.022824758023310236 0.045664100792140831 0 -0.025947877314190994 0.03939377297103621 0 -0.026313768756100208 0.03889312218589535 0 -0.026766866209727441 0.039389546394783592 0 -0.013965579912558349 0.063835167456773145 0 -0.014507032902086287 0.066479957264826847 0 -0.013187473292515345 0.065721425109939127 0 -0.013863714485154751 0.061017826196585183 0 -0.016233857786746294 0.064072309272366637 0 -0.014507032902086287 0.066479957264826847 0 -0.014507032902086287 0.066479957264826847 0 -0.013187473292515345 0.065721425109939127 0 -0.014295690589635399 0.067423746251070116 0 -0.017119637195989409 0.028895903725095866 0 -0.016937122373140406 0.028863206556927958 0 -0.016812951009087432 0.029291509838576958 0 -0.016937122373140406 0.028863206556927958 0 -0.016638484106097907 0.02908359497191855 0 -0.016812951009087432 0.029291509838576958 0 -0.020488968639487314 0.034177158072292144 0 -0.018330657565625418 0.032953254927399353 0 -0.02339754203551277 0.032341854918880024 0 -0.023534780030158766 0.022747544781862816 0 -0.016143470516085581 0.067678579081102974 0 -0.014507032902086287 0.066479957264826847 0 -0.014295690589635399 0.067423746251070116 0 -0.025641621400187432 0.035300337536481936 0 -0.026394747637219801 0.034201673360993466 0 -0.019964168508936807 0.034332940874986097 0 -0.022580260215016277 0.034168271164325401 0 -0.020488968639487314 0.034177158072292144 0 -0.02339754203551277 0.032341854918880024 0 -0.020488968639487314 0.034177158072292144 0 -0.016663383038222623 0.028954697824215028 0 -0.016396542909907188 0.028797406002930345 0 -0.016231639132955132 0.0289014084108348 0 -0.017130703016756024 0.028985135353281261 0 -0.016663383038222623 0.028954697824215028 0 -0.016396542909907188 0.028797406002930345 0 -0.020488968639487314 0.034177158072292144 0 -0.015473166384684369 0.040170103779823496 0 -0.018330657565625418 0.032953254927399353 0 -0.01772252986705693 0.032570265641803924 0 -0.016413805393008435 0.029059360912187297 0 -0.016577041606502987 0.02887001476201214 0 -0.016231639132955132 0.0289014084108348 0 -0.016937122373140406 0.028863206556927958 0 -0.016638484106097907 0.02908359497191855 0 -0.016577041606502987 0.02887001476201214 0 -0.016638484106097907 0.02908359497191855 0 -0.016413805393008435 0.029059360912187297 0 -0.016577041606502987 0.02887001476201214 0 -0.012009553835473688 0.064330890616455125 0 -0.013187473292515345 0.065721425109939127 0 -0.011181361600583847 0.066816493945988001 0 -0.013187473292515345 0.065721425109939127 0 -0.014295690589635399 0.067423746251070116 0 -0.011181361600583847 0.066816493945988001 0 -0.016396542909907188 0.028797406002930345 0 -0.016231639132955132 0.0289014084108348 0 -0.015815724703792639 0.028713765979896486 0 -0.0092242264905112881 0.064851920054073933 0 -0.011181361600583847 0.066816493945988001 0 -0.008239960157941947 0.066360553985795892 0 -0.0092242264905112881 0.064851920054073933 0 -0.012009553835473688 0.064330890616455125 0 -0.011181361600583847 0.066816493945988001 0 -0.015473166384684369 0.040170103779823496 0 -0.012370906450961278 0.041863744904347959 0 -0.016413805393008435 0.029059360912187297 0 -0.016231639132955132 0.0289014084108348 0 -0.016178590887285092 0.029140899507386738 0 -0.016231639132955132 0.0289014084108348 0 -0.016178590887285092 0.029140899507386738 0 -0.015955743262807083 0.029021530442721065 0 -0.016178590887285092 0.029140899507386738 0 -0.016152500951822659 0.029436981459088487 0 -0.015873996378056157 0.029263140854987737 0 -0.016413805393008435 0.029059360912187297 0 -0.016178590887285092 0.029140899507386738 0 -0.016449823299667078 0.029275781055286044 0 -0.016178590887285092 0.029140899507386738 0 -0.016152500951822659 0.029436981459088487 0 -0.016449823299667078 0.029275781055286044 0 -0.02119406382524194 0.018276188841775228 0 -0.01654563819286645 0.019151106261935523 0 -0.016152500951822659 0.029436981459088487 0 -0.016519615976076367 0.029668069715110049 0 -0.016046976578075151 0.029755882271268529 0 -0.016152500951822659 0.029436981459088487 0 -0.016519615976076367 0.029668069715110049 0 -0.016449823299667078 0.029275781055286044 0 -0.02119406382524194 0.018276188841775228 0 -0.023534780030158766 0.022747544781862816 0 -0.029264509279515041 0.010735803441435272 0 -0.029742477687183279 0.010572251685921156 0 -0.030131998458548113 0.010161648221936225 0 -0.029264509279515041 0.010735803441435272 0 -0.029562385484436633 0.01071942129708338 0 -0.029742477687183279 0.010572251685921156 0 -0.029129965466190174 0.010762477321180257 0 -0.029562385484436633 0.01071942129708338 0 -0.029255331239538943 0.011394031715844126 0 -0.02119406382524194 0.018276188841775228 0 -0.021753873912840671 0.018063520791104969 0 -0.016519615976076367 0.029668069715110049 0 -0.016449823299667078 0.029275781055286044 0 -0.016812951009087432 0.029291509838576958 0 -0.016638484106097907 0.02908359497191855 0 -0.016449823299667078 0.029275781055286044 0 -0.016812951009087432 0.029291509838576958 0 -0.016638484106097907 0.02908359497191855 0 -0.016413805393008435 0.029059360912187297 0 -0.016449823299667078 0.029275781055286044 0 -0.029784546961721284 0.010992192681523067 0 -0.030131998458548113 0.010161648221936225 0 -0.030089622851786773 0.010135794625445007 0 -0.030089622851786773 0.010135794625445007 0 -0.030215255810503765 0.010410845439663689 0 -0.030517632718520399 0.010255776369652483 0 -0.030089622851786773 0.010135794625445007 0 -0.030074043658410512 0.010312909967316916 0 -0.030215255810503765 0.010410845439663689 0 -0.030131998458548113 0.010161648221936225 0 -0.030074043658410512 0.010312909967316916 0 -0.029965293641086105 0.010431966810219776 0 -0.029742477687183279 0.010572251685921156 0 -0.030131998458548113 0.010161648221936225 0 -0.029965293641086105 0.010431966810219776 0 -0.030131998458548113 0.010161648221936225 0 -0.030089622851786773 0.010135794625445007 0 -0.030074043658410512 0.010312909967316916 0 -0.030074043658410512 0.010312909967316916 0 -0.029965293641086105 0.010431966810219776 0 -0.03006938477174104 0.010553790252250436 0 -0.03006938477174104 0.010553790252250436 0 -0.029926012280958224 0.010706212997956563 0 -0.030280933094480298 0.010705481261687364 0 -0.029965293641086105 0.010431966810219776 0 -0.03006938477174104 0.010553790252250436 0 -0.029926012280958224 0.010706212997956563 0 -0.029742477687183279 0.010572251685921156 0 -0.029965293641086105 0.010431966810219776 0 -0.029926012280958224 0.010706212997956563 0 -0.029562385484436633 0.01071942129708338 0 -0.029742477687183279 0.010572251685921156 0 -0.029926012280958224 0.010706212997956563 0 -0.029926012280958224 0.010706212997956563 0 -0.030171606755195157 0.01105533600033551 0 -0.029790139530525627 0.011081825431551142 0 -0.029562385484436633 0.01071942129708338 0 -0.029926012280958224 0.010706212997956563 0 -0.029790139530525627 0.011081825431551142 0 -0.030546249998621999 0.011009911252437263 0 -0.030280933094480298 0.010705481261687364 0 -0.030171606755195157 0.01105533600033551 0 -0.029926012280958224 0.010706212997956563 0 -0.030280933094480298 0.010705481261687364 0 -0.030171606755195157 0.01105533600033551 0 -0.030280933094480298 0.010705481261687364 0 -0.030215255810503765 0.010410845439663689 0 -0.030510349592309079 0.01052178310580696 0 -0.03006938477174104 0.010553790252250436 0 -0.030280933094480298 0.010705481261687364 0 -0.030215255810503765 0.010410845439663689 0 -0.030074043658410512 0.010312909967316916 0 -0.03006938477174104 0.010553790252250436 0 -0.030215255810503765 0.010410845439663689 0 -0.030215255810503765 0.010410845439663689 0 -0.030510349592309079 0.01052178310580696 0 -0.030517632718520399 0.010255776369652483 0 -0.030510349592309079 0.01052178310580696 0 -0.030966811164670975 0.010335372810034599 0 -0.030517632718520399 0.010255776369652483 0 -0.030280933094480298 0.010705481261687364 0 -0.030510349592309079 0.01052178310580696 0 -0.03078095224691195 0.010747626672211495 0 -0.030510349592309079 0.01052178310580696 0 -0.03078095224691195 0.010747626672211495 0 -0.030966811164670975 0.010335372810034599 0 -0.030546249998621999 0.011009911252437263 0 -0.03078095224691195 0.010747626672211495 0 -0.030989466905826324 0.011210660454343229 0 -0.030546249998621999 0.011009911252437263 0 -0.030280933094480298 0.010705481261687364 0 -0.03078095224691195 0.010747626672211495 0 -0.03078095224691195 0.010747626672211495 0 -0.031514243179257585 0.010765840297851178 0 -0.030989466905826324 0.011210660454343229 0 -0.03078095224691195 0.010747626672211495 0 -0.030966811164670975 0.010335372810034599 0 -0.031514243179257585 0.010765840297851178 0 -0.030966811164670975 0.010335372810034599 0 -0.031452202257044259 0.010028718597203987 0 -0.031514243179257585 0.010765840297851178 0 -0.030966811164670975 0.010335372810034599 0 -0.030916575728381444 0.009611531738557751 0 -0.031452202257044259 0.010028718597203987 0 -0.030916575728381444 0.009611531738557751 0 -0.031606265088297593 0.0092022857024095916 0 -0.031452202257044259 0.010028718597203987 0 -0.030966811164670975 0.010335372810034599 0 -0.030517632718520399 0.010255776369652483 0 -0.030916575728381444 0.009611531738557751 0 -0.030089622851786773 0.010135794625445007 0 -0.030517632718520399 0.010255776369652483 0 -0.030916575728381444 0.009611531738557751 0 -0.033195141282078379 0.019481735846999845 0 -0.032644507833783219 0.021140102391513888 0 -0.004489887358100437 0.017213852540820591 0 -0.0022954049294878201 0.016437408279345676 0 -0.0034905917003997026 0.014839330151273623 0 -0.004489887358100437 0.017213852540820591 0 -0.0027300209020033406 0.018744296844106469 0 -0.0022954049294878201 0.016437408279345676 0 -0.007839911120023196 0.039977442297007039 0 -0.0043963644348683226 0.040214378118496277 0 -0.004489887358100437 0.017213852540820591 0 -0.0027300209020033406 0.018744296844106469 0 -0.0056727127930858434 0.019295234377098867 0 -0.007839911120023196 0.039977442297007039 0 -0.0084298656819797296 0.027107722553534386 0 -0.007839911120023196 0.039977442297007039 0 -0.012370906450961278 0.041863744904347959 0 -0.0066545440645637962 0.064840913045675297 0 -0.0053082942998415091 0.06589216760276885 0 -0.008239960157941947 0.066360553985795892 0 -0.015281295262377502 0.028647217987287199 0 -0.015815724703792639 0.028713765979896486 0 -0.015389364380881279 0.029044156355349467 0 -0.0092242264905112881 0.064851920054073933 0 -0.0066545440645637962 0.064840913045675297 0 -0.008239960157941947 0.066360553985795892 0 -0.015815724703792639 0.028713765979896486 0 -0.015955743262807083 0.029021530442721065 0 -0.015697992943082811 0.029093530623731382 0 -0.016231639132955132 0.0289014084108348 0 -0.015815724703792639 0.028713765979896486 0 -0.015955743262807083 0.029021530442721065 0 -0.015955743262807083 0.029021530442721065 0 -0.015697992943082811 0.029093530623731382 0 -0.015873996378056157 0.029263140854987737 0 -0.015815724703792639 0.028713765979896486 0 -0.015389364380881279 0.029044156355349467 0 -0.015697992943082811 0.029093530623731382 0 -0.015389364380881279 0.029044156355349467 0 -0.015697992943082811 0.029093530623731382 0 -0.015497696051317235 0.029436397522693166 0 -0.015697992943082811 0.029093530623731382 0 -0.015873996378056157 0.029263140854987737 0 -0.015497696051317235 0.029436397522693166 0 -0.0084298656819797296 0.027107722553534386 0 -0.010195281569159468 0.022160661444127237 0 -0.015873996378056157 0.029263140854987737 0 -0.015811658675343551 0.029531581307215355 0 -0.015497696051317235 0.029436397522693166 0 -0.016152500951822659 0.029436981459088487 0 -0.015873996378056157 0.029263140854987737 0 -0.015811658675343551 0.029531581307215355 0 -0.016178590887285092 0.029140899507386738 0 -0.015955743262807083 0.029021530442721065 0 -0.015873996378056157 0.029263140854987737 0 -0.016152500951822659 0.029436981459088487 0 -0.015811658675343551 0.029531581307215355 0 -0.016046976578075151 0.029755882271268529 0 -0.015811658675343551 0.029531581307215355 0 -0.015591221489534695 0.029832487278125205 0 -0.016046976578075151 0.029755882271268529 0 -0.010195281569159468 0.022160661444127237 0 -0.012650851994151269 0.018001440528014247 0 -0.0020841723998053837 0.014270431388525243 0 -0.003058668993717273 0.013284114823176423 0 -0.0020463115825528908 0.012638726887790113 0 -0.015811658675343551 0.029531581307215355 0 -0.015497696051317235 0.029436397522693166 0 -0.015591221489534695 0.029832487278125205 0 -0.0020841723998053837 0.014270431388525243 0 -0.003058668993717273 0.013284114823176423 0 -0.0034905917003997026 0.014839330151273623 0 -0.003058668993717273 0.013284114823176423 0 -0.0034905917003997026 0.014839330151273623 0 -0.003951557921151338 0.013150466210063815 0 -0.0022954049294878201 0.016437408279345676 0 -0.0020841723998053837 0.014270431388525243 0 -0.0034905917003997026 0.014839330151273623 0 -0.004489887358100437 0.017213852540820591 0 -0.0034905917003997026 0.014839330151273623 0 -0.0056421017120953888 0.015292923562013134 0 -0.0034905917003997026 0.014839330151273623 0 -0.003951557921151338 0.013150466210063815 0 -0.0056421017120953888 0.015292923562013134 0 -0.0015675369894792325 0.016007986360618405 0 -0.0013136503728572826 0.017400977175222342 0 -0.003951557921151338 0.013150466210063815 0 -0.0038274094717145996 0.012571538694855357 0 -0.0039604086268359914 0.012925509648485311 0 -0.0036095085013153568 0.01270500816989004 0 -0.0038274094717145996 0.012571538694855357 0 -0.0039604086268359914 0.012925509648485311 0 -0.0036095085013153568 0.01270500816989004 0 -0.0031971361975423876 0.012626095738920089 0 -0.0032748658860740662 0.012913298979896161 0 -0.0036095085013153568 0.01270500816989004 0 -0.0032542902470537659 0.012499476800085301 0 -0.0031971361975423876 0.012626095738920089 0 -0.0036095085013153568 0.01270500816989004 0 -0.0035143878010146217 0.012484511303440341 0 -0.0032542902470537659 0.012499476800085301 0 -0.0035143878010146217 0.012484511303440341 0 -0.0032609295372620119 0.012428749649750263 0 -0.0032542902470537659 0.012499476800085301 0 -0.0035143878010146217 0.012484511303440341 0 -0.0033384286488610587 0.012375751233453249 0 -0.0032609295372620119 0.012428749649750263 0 -0.0036095085013153568 0.01270500816989004 0 -0.0035143878010146217 0.012484511303440341 0 -0.0038274094717145996 0.012571538694855357 0 -0.0013136503728572826 0.017400977175222342 0 -0.00049503949649084709 0.022547789935726443 0 -0.004489887358100437 0.017213852540820591 0 -0.0056421017120953888 0.015292923562013134 0 -0.0071672849311498078 0.017567832380889735 0 -0.0035143878010146217 0.012484511303440341 0 -0.0038274094717145996 0.012571538694855357 0 -0.0034848922652818033 0.01230483934772752 0 -0.0035143878010146217 0.012484511303440341 0 -0.0034848922652818033 0.01230483934772752 0 -0.0033384286488610587 0.012375751233453249 0 -0.0034848922652818033 0.01230483934772752 0 -0.0033384286488610587 0.012375751233453249 0 -0.0032576535215586106 0.012338770897389644 0 -0.0034848922652818033 0.01230483934772752 0 -0.0032576535215586106 0.012338770897389644 0 -0.0032919931275478841 0.01227119853059032 0 -0.00049503949649084709 0.022547789935726443 0 -0.0018887985499227401 0.03900028105651588 0 -0.0071672849311498078 0.017567832380889735 0 -0.0056727127930858434 0.019295234377098867 0 -0.0086615611387776195 0.019875268420580343 0 -0.004489887358100437 0.017213852540820591 0 -0.0071672849311498078 0.017567832380889735 0 -0.0056727127930858434 0.019295234377098867 0 -0.0031645816326692942 0.012348490863154376 0 -0.003070593363440152 0.012399870786143226 0 -0.0031070446383204917 0.012336929740919478 0 -0.0031645816326692942 0.012348490863154376 0 -0.0031204002833350297 0.012397983462032049 0 -0.003070593363440152 0.012399870786143226 0 -0.0031645816326692942 0.012348490863154376 0 -0.0032576535215586106 0.012338770897389644 0 -0.0031204002833350297 0.012397983462032049 0 -0.0031645816326692942 0.012348490863154376 0 -0.0032576535215586106 0.012338770897389644 0 -0.0032919931275478841 0.01227119853059032 0 -0.0032576535215586106 0.012338770897389644 0 -0.0031813783134669047 0.012398680565567286 0 -0.0031204002833350297 0.012397983462032049 0 -0.0033384286488610587 0.012375751233453249 0 -0.0032576535215586106 0.012338770897389644 0 -0.0031813783134669047 0.012398680565567286 0 -0.0033384286488610587 0.012375751233453249 0 -0.0031813783134669047 0.012398680565567286 0 -0.0032609295372620119 0.012428749649750263 0 -0.0031813783134669047 0.012398680565567286 0 -0.0031204002833350297 0.012397983462032049 0 -0.0031034810955154232 0.012425925213278597 0 -0.0031204002833350297 0.012397983462032049 0 -0.003082111145936818 0.012413614052252915 0 -0.003070593363440152 0.012399870786143226 0 -0.0031204002833350297 0.012397983462032049 0 -0.003082111145936818 0.012413614052252915 0 -0.0030857753270522249 0.012428868907642009 0 -0.0031204002833350297 0.012397983462032049 0 -0.0030857753270522249 0.012428868907642009 0 -0.0031034810955154232 0.012425925213278597 0 -0.0030857753270522249 0.012428868907642009 0 -0.0030899026379868771 0.012436062910021712 0 -0.0030999649207176768 0.012434080627939161 0 -0.0022807158091374797 0.012010329472216892 0 -0.0023841037550098726 0.011885088600733675 0 -0.0028787647322433057 0.012419843004158463 0 -0.0030857753270522249 0.012428868907642009 0 -0.0030899026379868771 0.012436062910021712 0 -0.0031034810955154232 0.012425925213278597 0 -0.0030899026379868771 0.012436062910021712 0 -0.0030596659101357572 0.01243845148410745 0 -0.0030999649207176768 0.012434080627939161 0 -0.0030899026379868771 0.012436062910021712 0 -0.0031034810955154232 0.012425925213278597 0 -0.0030596659101357572 0.01243845148410745 0 -0.0031034810955154232 0.012425925213278597 0 -0.0030596659101357572 0.01243845148410745 0 -0.003109521621960079 0.012434207571385501 0 -0.0030596659101357572 0.01243845148410745 0 -0.0030999649207176768 0.012434080627939161 0 -0.0028787647322433057 0.012419843004158463 0 -0.0031813783134669047 0.012398680565567286 0 -0.0032609295372620119 0.012428749649750263 0 -0.003109521621960079 0.012434207571385501 0 -0.0031813783134669047 0.012398680565567286 0 -0.0031034810955154232 0.012425925213278597 0 -0.003109521621960079 0.012434207571385501 0 -0.0030596659101357572 0.01243845148410745 0 -0.003109521621960079 0.012434207571385501 0 -0.0028787647322433057 0.012419843004158463 0 -0.0032609295372620119 0.012428749649750263 0 -0.003109521621960079 0.012434207571385501 0 -0.0032542902470537659 0.012499476800085301 0 -0.0032542902470537659 0.012499476800085301 0 -0.0028787647322433057 0.012419843004158463 0 -0.0031971361975423876 0.012626095738920089 0 -0.003109521621960079 0.012434207571385501 0 -0.0032542902470537659 0.012499476800085301 0 -0.0028787647322433057 0.012419843004158463 0 -0.0028787647322433057 0.012419843004158463 0 -0.0025322983145489903 0.01254386601444816 0 -0.0028951244463260133 0.012694818284600878 0 -0.0028787647322433057 0.012419843004158463 0 -0.0031971361975423876 0.012626095738920089 0 -0.0028951244463260133 0.012694818284600878 0 -0.0022807158091374797 0.012010329472216892 0 -0.0028787647322433057 0.012419843004158463 0 -0.0025322983145489903 0.01254386601444816 0 -0.0015850048654415156 0.010821749935106163 0 -0.0025322983145489903 0.01254386601444816 0 -0.0014685606089089968 0.011956975970567427 0 -0.0008462393944223466 0.012343223627079855 0 -0.0011623561992340214 0.012477193149191155 0 -0.0013602322714484224 0.012977537456730656 0 -0.0016741816859177003 0.013015678662666513 0 -0.0025322983145489903 0.01254386601444816 0 -0.0014685606089089968 0.011956975970567427 0 -0.0018000103725881729 0.01259405788338817 0 -0.00059513522707777401 0.011422634131153724 0 -0.00084228525890760382 0.012315514726416586 0 0.00083503305464195665 0.011569895737478079 0 -0.0014685606089089968 0.011956975970567427 0 -0.00059513522707777401 0.011422634131153724 0 -0.00084228525890760382 0.012315514726416586 0 -0.0014685606089089968 0.011956975970567427 0 -0.00084228525890760382 0.012315514726416586 0 -0.0018000103725881729 0.01259405788338817 0 -0.0015850048654415156 0.010821749935106163 0 -0.0014685606089089968 0.011956975970567427 0 -0.00059513522707777401 0.011422634131153724 0 -0.00084228525890760382 0.012315514726416586 0 0.00083503305464195665 0.011569895737478079 0 -0.00055731031636768041 0.01307689079776787 0 -0.00059513522707777401 0.011422634131153724 0 0.00083503305464195665 0.011569895737478079 0 5.4241368408463483e-05 0.010351591706173001 0 0.0022989150230355573 0.011219329027583809 0 0.0020434251213829239 0.0098793859816942303 0 0.0035568255136458359 0.011939244725864667 0 0.003758114208736158 0.0093387222952226265 0 0.0018363924423148294 0.0087153359487533253 0 0.00083503305464195665 0.011569895737478079 0 5.4241368408463483e-05 0.010351591706173001 0 0.0018363924423148294 0.0087153359487533253 0 -0.0022807158091374797 0.012010329472216892 0 -0.0023841037550098726 0.011885088600733675 0 -0.0018954202970408454 0.011361788436583751 0 -0.0008462393944223466 0.012343223627079855 0 -0.00035792837921020548 0.012910251169089705 0 -0.0015850048654415156 0.010821749935106163 0 5.4241368408463483e-05 0.010351591706173001 0 -0.00019643320063235164 0.0087522332784162084 0 -0.0013602322714484224 0.012977537456730656 0 -0.00035792837921020548 0.012910251169089705 0 -0.0030857753270522249 0.012428868907642009 0 -0.0030999649207176768 0.012434080627939161 0 -0.0030597873454989116 0.01242776561086807 0 -0.0015850048654415156 0.010821749935106163 0 -0.00059513522707777401 0.011422634131153724 0 5.4241368408463483e-05 0.010351591706173001 0 0.0066470743124902362 0.011755770552858874 0 0.0056233076035658233 0.013186040139274413 0 0.0073422050115761949 0.013372986333515722 0 0.0081961100396751828 0.011894169235617747 0 0.0066470743124902362 0.011755770552858874 0 0.0073422050115761949 0.013372986333515722 0 0.0081961100396751828 0.011894169235617747 0 0.0078690977620213716 0.010247970736730618 0 0.0066470743124902362 0.011755770552858874 0 0.0035568255136458359 0.011939244725864667 0 0.0066470743124902362 0.011755770552858874 0 0.0056233076035658233 0.013186040139274413 0 0.0035568255136458359 0.011939244725864667 0 0.0066470743124902362 0.011755770552858874 0 0.0055875509523801029 0.010026237186240499 0 0.0035568255136458359 0.011939244725864667 0 0.0055875509523801029 0.010026237186240499 0 0.003758114208736158 0.0093387222952226265 0 0.0078690977620213716 0.010247970736730618 0 0.0066470743124902362 0.011755770552858874 0 0.0055875509523801029 0.010026237186240499 0 0.0078690977620213716 0.010247970736730618 0 0.0055875509523801029 0.010026237186240499 0 0.0068038940659258711 0.0085359844683593686 0 0.0068038940659258711 0.0085359844683593686 0 0.0048715118850190409 0.0081646976575514476 0 0.0062747694826389413 0.0070692547434877025 0 0.0055875509523801029 0.010026237186240499 0 0.0048715118850190409 0.0081646976575514476 0 0.003758114208736158 0.0093387222952226265 0 0.0055875509523801029 0.010026237186240499 0 0.0068038940659258711 0.0085359844683593686 0 0.0048715118850190409 0.0081646976575514476 0 0.0048715118850190409 0.0081646976575514476 0 0.003758114208736158 0.0093387222952226265 0 0.0029583459037123873 0.0075634609397344258 0 0.0048715118850190409 0.0081646976575514476 0 0.0049418670402453279 0.006237103638660057 0 0.0029583459037123873 0.0075634609397344258 0 0.0049418670402453279 0.006237103638660057 0 0.0029583459037123873 0.0075634609397344258 0 0.0032308147018328508 0.0057907337658890017 0 0.0048715118850190409 0.0081646976575514476 0 0.0049418670402453279 0.006237103638660057 0 0.0062747694826389413 0.0070692547434877025 0 0.008104220754094121 0.0067844441689162019 0 0.0079116478280900904 0.0046124758508856454 0 0.0065656017275656309 0.0056557167717513424 0 0.0049418670402453279 0.006237103638660057 0 0.0062747694826389413 0.0070692547434877025 0 0.0065656017275656309 0.0056557167717513424 0 0.008104220754094121 0.0067844441689162019 0 0.0062747694826389413 0.0070692547434877025 0 0.0065656017275656309 0.0056557167717513424 0 0.008104220754094121 0.0067844441689162019 0 0.0068038940659258711 0.0085359844683593686 0 0.0062747694826389413 0.0070692547434877025 0 -0.00035792837921020548 0.012910251169089705 0 -0.0013604371694435032 0.013035561607265097 0 -0.003082111145936818 0.012413614052252915 0 -0.0030597873454989116 0.01242776561086807 0 -0.003070593363440152 0.012399870786143226 0 -0.003082111145936818 0.012413614052252915 0 -0.0030857753270522249 0.012428868907642009 0 -0.0030597873454989116 0.01242776561086807 0 5.4241368408463483e-05 0.010351591706173001 0 -0.00019643320063235164 0.0087522332784162084 0 0.0018363924423148294 0.0087153359487533253 0 -0.00019643320063235164 0.0087522332784162084 0 0.0029583459037123873 0.0075634609397344258 0 0.0032308147018328508 0.0057907337658890017 0 -0.00019643320063235164 0.0087522332784162084 0 0.0018363924423148294 0.0087153359487533253 0 0.0029583459037123873 0.0075634609397344258 0 0.003758114208736158 0.0093387222952226265 0 0.0018363924423148294 0.0087153359487533253 0 0.0029583459037123873 0.0075634609397344258 0 -0.00035792837921020548 0.012910251169089705 0 0.0045962406324769273 0.016647783141727275 0 -0.0029703487185652427 0.012673092354606419 0 -0.002940657244442221 0.0125838774338004 0 -0.0029003877730571451 0.01255718033475821 0 -0.002940657244442221 0.0125838774338004 0 -0.0029003877730571451 0.01255718033475821 0 -0.0029132895121155972 0.012465832269081503 0 -0.0030183267500475744 0.012419704777609415 0 -0.0030274214425084333 0.012405654042946872 0 -0.0029870696364289124 0.012430347448968497 0 -0.0030597873454989116 0.01242776561086807 0 -0.0030183267500475744 0.012419704777609415 0 -0.003070593363440152 0.012399870786143226 0 -0.003070593363440152 0.012399870786143226 0 -0.0030274214425084333 0.012405654042946872 0 -0.0031070446383204917 0.012336929740919478 0 -0.0030183267500475744 0.012419704777609415 0 -0.003070593363440152 0.012399870786143226 0 -0.0030274214425084333 0.012405654042946872 0 -0.0030274214425084333 0.012405654042946872 0 -0.0029730057582613924 0.012419275218840977 0 -0.0031070446383204917 0.012336929740919478 0 0.0023928720056325338 0.036923132175187903 0 0.00045451863504064881 0.038091650352213534 0 -0.0030274214425084333 0.012405654042946872 0 -0.0029870696364289124 0.012430347448968497 0 -0.0029730057582613924 0.012419275218840977 0 -0.0030183267500475744 0.012419704777609415 0 -0.0029870696364289124 0.012430347448968497 0 -0.0029132895121155972 0.012465832269081503 0 -0.0013604371694435032 0.013035561607265097 0 -0.0016236493187036154 0.013012279060872534 0 -0.0029870696364289124 0.012430347448968497 0 -0.0029132895121155972 0.012465832269081503 0 -0.0029730057582613924 0.012419275218840977 0 0.0074291306818089521 0.064345144361750831 0 0.0085989913548107661 0.062462421699293572 0 0.006907951486580465 0.061543037055162945 0 0.0074291306818089521 0.064345144361750831 0 0.0052802519295959294 0.062937997398929052 0 0.004334437353589066 0.064747858214075513 0 0.0074291306818089521 0.064345144361750831 0 0.0052802519295959294 0.062937997398929052 0 0.006907951486580465 0.061543037055162945 0 0.0079116478280900904 0.0046124758508856454 0 0.0065656017275656309 0.0056557167717513424 0 0.0059522483300271795 0.0032760705491901975 0 0.0049418670402453279 0.006237103638660057 0 0.0065656017275656309 0.0056557167717513424 0 0.0059522483300271795 0.0032760705491901975 0 0.0045962406324769273 0.016647783141727275 0 0.0057877060756064561 0.034528315045814321 0 0.0049418670402453279 0.006237103638660057 0 0.0032308147018328508 0.0057907337658890017 0 0.0059522483300271795 0.0032760705491901975 0 -0.0029132895121155972 0.012465832269081503 0 -0.0029730057582613924 0.012419275218840977 0 -0.0027432764158740472 0.012462404199263834 0 -0.0029003877730571451 0.01255718033475821 0 -0.0029132895121155972 0.012465832269081503 0 -0.0027432764158740472 0.012462404199263834 0 0.0023928720056325338 0.036923132175187903 0 0.0057877060756064561 0.034528315045814321 0 0.010485579872946038 0.063959182080085164 0 0.0085989913548107661 0.062462421699293572 0 0.010024532280516186 0.061442014883515958 0 0.0074291306818089521 0.064345144361750831 0 0.010485579872946038 0.063959182080085164 0 0.0085989913548107661 0.062462421699293572 0 0.010846811277529381 0.035058565749872581 0 0.0057877060756064561 0.034528315045814321 0 0.0028972311807551531 0.047295997167815386 0 0.0057877060756064561 0.034528315045814321 0 0.012847958239380031 0.061784160966832528 0 0.013131272918882237 0.062120629473129137 0 0.012153954324973281 0.062724988107463991 0 0.012847958239380031 0.061784160966832528 0 0.010485579872946038 0.063959182080085164 0 0.011361043085805031 0.061986682379038191 0 0.010485579872946038 0.063959182080085164 0 0.011361043085805031 0.061986682379038191 0 0.010024532280516186 0.061442014883515958 0 0.011940601342135289 0.060942752209777032 0 0.011361043085805031 0.061986682379038191 0 0.01104015245831348 0.060982593510818188 0 0.012257096768427535 0.06140120015717053 0 0.011940601342135289 0.060942752209777032 0 0.011361043085805031 0.061986682379038191 0 0.012257096768427535 0.06140120015717053 0 0.012847958239380031 0.061784160966832528 0 0.011361043085805031 0.061986682379038191 0 0.011361043085805031 0.061986682379038191 0 0.01104015245831348 0.060982593510818188 0 0.010024532280516186 0.061442014883515958 0 0.0085989913548107661 0.062462421699293572 0 0.010024532280516186 0.061442014883515958 0 0.0089170550858142916 0.060125465118439622 0 0.0085778952116200066 0.058649732371773788 0 0.0089170550858142916 0.060125465118439622 0 0.0095599396987413234 0.059158152693910164 0 0.0089170550858142916 0.060125465118439622 0 0.0095599396987413234 0.059158152693910164 0 0.01039095543087791 0.059979836331160621 0 0.010422020050887734 0.058852245180435726 0 0.0095599396987413234 0.059158152693910164 0 0.01039095543087791 0.059979836331160621 0 0.010024532280516186 0.061442014883515958 0 0.0089170550858142916 0.060125465118439622 0 0.01039095543087791 0.059979836331160621 0 0.01104015245831348 0.060982593510818188 0 0.01039095543087791 0.059979836331160621 0 0.011550697578235222 0.060148683693537153 0 0.01104015245831348 0.060982593510818188 0 0.010024532280516186 0.061442014883515958 0 0.01039095543087791 0.059979836331160621 0 0.01039095543087791 0.059979836331160621 0 0.011347795539699499 0.059208454698781762 0 0.011550697578235222 0.060148683693537153 0 0.010422020050887734 0.058852245180435726 0 0.01039095543087791 0.059979836331160621 0 0.011347795539699499 0.059208454698781762 0 0.012209099204217913 0.059589003626067498 0 0.012233828920943775 0.058885232216183025 0 0.011347795539699499 0.059208454698781762 0 0.012209099204217913 0.059589003626067498 0 0.011347795539699499 0.059208454698781762 0 0.011550697578235222 0.060148683693537153 0 0.012209099204217913 0.059589003626067498 0 0.01229190214559381 0.060288675098030951 0 0.011550697578235222 0.060148683693537153 0 0.01229190214559381 0.060288675098030951 0 0.011940601342135289 0.060942752209777032 0 0.011550697578235222 0.060148683693537153 0 0.011940601342135289 0.060942752209777032 0 0.01104015245831348 0.060982593510818188 0 0.011550697578235222 0.060148683693537153 0 0.006907951486580465 0.061543037055162945 0 0.0053532191006407876 0.059631764116614867 0 0.0050073612126719852 0.061294282624023991 0 0.0052802519295959294 0.062937997398929052 0 0.006907951486580465 0.061543037055162945 0 0.0050073612126719852 0.061294282624023991 0 0.0085989913548107661 0.062462421699293572 0 0.0089170550858142916 0.060125465118439622 0 0.006907951486580465 0.061543037055162945 0 0.0089170550858142916 0.060125465118439622 0 0.006907951486580465 0.061543037055162945 0 0.0072832229853294342 0.05930773410201251 0 0.0085778952116200066 0.058649732371773788 0 0.0089170550858142916 0.060125465118439622 0 0.0072832229853294342 0.05930773410201251 0 0.006907951486580465 0.061543037055162945 0 0.0072832229853294342 0.05930773410201251 0 0.0053532191006407876 0.059631764116614867 0 0.0064301983671538132 0.05827157017750563 0 0.0072832229853294342 0.05930773410201251 0 0.0053532191006407876 0.059631764116614867 0 0.0032075743608731386 0.057949491818811344 0 0.0034057683695059566 0.059046072989195453 0 0.0034507206408484455 0.058528219272129457 0 0.0053532191006407876 0.059631764116614867 0 0.0037767753651700743 0.060774573887654657 0 0.0053532191006407876 0.059631764116614867 0 0.0050073612126719852 0.061294282624023991 0 0.0037767753651700743 0.060774573887654657 0 0.0050073612126719852 0.061294282624023991 0 0.0037767753651700743 0.060774573887654657 0 0.0036857010275610103 0.061639176511530343 0 0.0037767753651700743 0.060774573887654657 0 0.0036857010275610103 0.061639176511530343 0 0.0023235770826647399 0.06102539500309196 0 0.0052802519295959294 0.062937997398929052 0 0.0050073612126719852 0.061294282624023991 0 0.0036857010275610103 0.061639176511530343 0 0.0036857010275610103 0.061639176511530343 0 0.0023235770826647399 0.06102539500309196 0 0.0023422293874003665 0.063264081554544174 0 0.0037767753651700743 0.060774573887654657 0 0.0023235770826647399 0.06102539500309196 0 0.002309249384525789 0.059812587492916569 0 0.0023235770826647399 0.06102539500309196 0 0.002309249384525789 0.059812587492916569 0 0.00084798237320844239 0.060720138648652063 0 0.0031780094911880159 0.058092004326589175 0 0.0037767753651700743 0.060774573887654657 0 0.002309249384525789 0.059812587492916569 0 0.0031780094911880159 0.058092004326589175 0 0.002309249384525789 0.059812587492916569 0 0.00085299687254630373 0.059026340924916015 0 0.00085299687254630373 0.059026340924916015 0 -0.0012971693905886198 0.059160075668840746 0 0.00084798237320844239 0.060720138648652063 0 0.002309249384525789 0.059812587492916569 0 0.00085299687254630373 0.059026340924916015 0 0.00084798237320844239 0.060720138648652063 0 -0.0033995184503437369 0.060272037229847482 0 -0.0012971693905886198 0.059160075668840746 0 -0.0012420396116573093 0.061101606404756217 0 -0.0012971693905886198 0.059160075668840746 0 -0.0012420396116573093 0.061101606404756217 0 0.00084798237320844239 0.060720138648652063 0 -0.0012420396116573093 0.061101606404756217 0 0.00084798237320844239 0.060720138648652063 0 0.00076000291684593844 0.06240358173880297 0 0.0023235770826647399 0.06102539500309196 0 0.00084798237320844239 0.060720138648652063 0 0.00076000291684593844 0.06240358173880297 0 0.00076000291684593844 0.06240358173880297 0 -0.0012699923456987137 0.063237842119720278 0 0.0011092320791077856 0.06498332744438183 0 -0.0030958089336858875 0.061821227653417653 0 -0.0012420396116573093 0.061101606404756217 0 -0.0012699923456987137 0.063237842119720278 0 -0.0012420396116573093 0.061101606404756217 0 0.00076000291684593844 0.06240358173880297 0 -0.0012699923456987137 0.063237842119720278 0 -0.0043963644348683226 0.040214378118496277 0 -0.0018887985499227401 0.03900028105651588 0 -0.0020626819469390079 0.06546257180817093 0 -0.0012699923456987137 0.063237842119720278 0 0.0011092320791077856 0.06498332744438183 0 -0.0031645816326692942 0.012348490863154376 0 -0.0032919931275478841 0.01227119853059032 0 -0.0031070446383204917 0.012336929740919478 0 0.0013051367778346564 0.065154903214382734 0 0.004334437353589066 0.064747858214075513 0 0.0025025688535028185 0.063450262804674029 0 -0.0018887985499227401 0.03900028105651588 0 0.00045451863504064881 0.038091650352213534 0 -0.0018887985499227401 0.03900028105651588 0 -0.0038488202321136163 0.051579319526836545 0 0.0052802519295959294 0.062937997398929052 0 0.004334437353589066 0.064747858214075513 0 0.0039245320727796457 0.063170064822892585 0 0.004334437353589066 0.064747858214075513 0 0.0039245320727796457 0.063170064822892585 0 0.0025025688535028185 0.063450262804674029 0 0.0036857010275610103 0.061639176511530343 0 0.0039245320727796457 0.063170064822892585 0 0.0025025688535028185 0.063450262804674029 0 0.0052802519295959294 0.062937997398929052 0 0.0036857010275610103 0.061639176511530343 0 0.0039245320727796457 0.063170064822892585 0 0.0023235770826647399 0.06102539500309196 0 0.00076000291684593844 0.06240358173880297 0 0.0023422293874003665 0.063264081554544174 0 -0.0036471882852959457 0.054200865896233553 0 -0.0038488202321136163 0.051579319526836545 0 0.00076000291684593844 0.06240358173880297 0 0.0011092320791077856 0.06498332744438183 0 0.0023422293874003665 0.063264081554544174 0 -0.066856844448882055 0.051841997311178639 0 -0.065634121868645437 0.056257903950870103 0 -0.065611242087253385 0.054317290135495577 0 -0.065612195384146352 0.052105312652004451 0 -0.066205082212269395 0.053548657160694346 0 -0.065634121868645437 0.056257903950870103 0 -0.066257672197423179 0.051318448637958855 0 -0.066562345475220192 0.052851399682930324 0 -0.065612195384146352 0.052105312652004451 0 -0.066205082212269395 0.053548657160694346 0 -0.067495773729088604 0.051282721794912535 0 -0.066856844448882055 0.051841997311178639 0 -0.065617404245299604 0.051789345206425523 0 -0.065611242087253385 0.054317290135495577 0 -0.064998857244036493 0.052679386676848801 0 -0.065617404245299604 0.051789345206425523 0 -0.064999630207794951 0.049126612077329858 0 -0.064998857244036493 0.052679386676848801 0 -0.065617404245299604 0.051789345206425523 0 -0.065611242087253385 0.054317290135495577 0 -0.066856844448882055 0.051841997311178639 0 -0.065617404245299604 0.051789345206425523 0 -0.065902896705070158 0.05034695737923852 0 -0.066257672197423179 0.051318448637958855 0 -0.065675264538693504 0.048565537505600512 0 -0.065617404245299604 0.051789345206425523 0 -0.065902896705070158 0.05034695737923852 0 -0.064999630207794951 0.049126612077329858 0 -0.066856844448882055 0.051841997311178639 0 -0.065902896705070158 0.05034695737923852 0 -0.066216968350427036 0.048428692736163667 0 -0.065902896705070158 0.05034695737923852 0 -0.064999630207794951 0.049126612077329858 0 -0.066216968350427036 0.048428692736163667 0 -0.065612195384146352 0.052105312652004451 0 -0.066229897666329321 0.049408551143993604 0 -0.066663312931099686 0.050451098724324274 0 -0.065612195384146352 0.052105312652004451 0 -0.066229897666329321 0.049408551143993604 0 -0.065030067069286365 0.048351035739621087 0 -0.066663312931099686 0.050451098724324274 0 -0.067534805184072372 0.049309345851249672 0 -0.067495773729088604 0.051282721794912535 0 -0.065612195384146352 0.052105312652004451 0 -0.066663312931099686 0.050451098724324274 0 -0.067495773729088604 0.051282721794912535 0 -0.066229897666329321 0.049408551143993604 0 -0.066663312931099686 0.050451098724324274 0 -0.067534805184072372 0.049309345851249672 0 -0.067534805184072372 0.049309345851249672 0 -0.069022679939800838 0.050883137734684079 0 -0.069751324004530726 0.048907755106484499 0 -0.067534805184072372 0.049309345851249672 0 -0.069022679939800838 0.050883137734684079 0 -0.067495773729088604 0.051282721794912535 0 -0.070984377451175473 0.050608214393354223 0 -0.072549602188615545 0.048123410744357525 0 -0.069751324004530726 0.048907755106484499 0 -0.069022679939800838 0.050883137734684079 0 -0.070984377451175473 0.050608214393354223 0 -0.069751324004530726 0.048907755106484499 0 -0.069022679939800838 0.050883137734684079 0 -0.070984377451175473 0.050608214393354223 0 -0.069724315424389324 0.052730881249962648 0 -0.069724315424389324 0.052730881249962648 0 -0.070756467656790112 0.053985400616103692 0 -0.071946435487808671 0.05270069730623414 0 -0.070984377451175473 0.050608214393354223 0 -0.069724315424389324 0.052730881249962648 0 -0.071946435487808671 0.05270069730623414 0 -0.069724315424389324 0.052730881249962648 0 -0.068290408284770315 0.052814340272553176 0 -0.069444145553075876 0.055448242880752702 0 -0.066205082212269395 0.053548657160694346 0 -0.068290408284770315 0.052814340272553176 0 -0.069444145553075876 0.055448242880752702 0 -0.069022679939800838 0.050883137734684079 0 -0.067495773729088604 0.051282721794912535 0 -0.068290408284770315 0.052814340272553176 0 -0.066205082212269395 0.053548657160694346 0 -0.067495773729088604 0.051282721794912535 0 -0.068290408284770315 0.052814340272553176 0 -0.069022679939800838 0.050883137734684079 0 -0.069724315424389324 0.052730881249962648 0 -0.068290408284770315 0.052814340272553176 0 -0.066205082212269395 0.053548657160694346 0 -0.06528809958028825 0.057892466593964277 0 -0.065634121868645437 0.056257903950870103 0 -0.064720488449245078 0.056156514416454119 0 -0.065126132996482733 0.05733932582965396 0 -0.06528809958028825 0.057892466593964277 0 -0.064904467341252686 0.058092530618047547 0 -0.065634121868645437 0.056257903950870103 0 -0.069444145553075876 0.055448242880752702 0 -0.072024815012288537 0.057403257347202148 0 -0.071900840431611338 0.055049083984369487 0 -0.069724315424389324 0.052730881249962648 0 -0.069444145553075876 0.055448242880752702 0 -0.070756467656790112 0.053985400616103692 0 -0.070756467656790112 0.053985400616103692 0 -0.071900840431611338 0.055049083984369487 0 -0.071946435487808671 0.05270069730623414 0 -0.069444145553075876 0.055448242880752702 0 -0.070756467656790112 0.053985400616103692 0 -0.071900840431611338 0.055049083984369487 0 -0.06528809958028825 0.057892466593964277 0 -0.064005336279171501 0.059429198444303957 0 -0.062578462196528281 0.060944869973773165 0 -0.065126132996482733 0.05733932582965396 0 -0.065030270803996065 0.059421609002353021 0 -0.064005336279171501 0.059429198444303957 0 -0.06277207698449104 0.060498944884781261 0 -0.062578462196528281 0.060944869973773165 0 -0.064005336279171501 0.059429198444303957 0 -0.064904467341252686 0.058092530618047547 0 -0.064024273826667616 0.059469064698884098 0 -0.064904467341252686 0.058092530618047547 0 -0.065090750270426503 0.057338846798160037 0 -0.064024273826667616 0.059469064698884098 0 -0.06528809958028825 0.057892466593964277 0 -0.064005336279171501 0.059429198444303957 0 -0.064904467341252686 0.058092530618047547 0 -0.064904467341252686 0.058092530618047547 0 -0.065090750270426503 0.057338846798160037 0 -0.065634121868645437 0.056257903950870103 0 -0.065090750270426503 0.057338846798160037 0 -0.065634121868645437 0.056257903950870103 0 -0.065611242087253385 0.054317290135495577 0 -0.064998857244036493 0.052679386676848801 0 -0.065611242087253385 0.054317290135495577 0 -0.064998483016214498 0.056232790724478961 0 -0.065090750270426503 0.057338846798160037 0 -0.065611242087253385 0.054317290135495577 0 -0.064998483016214498 0.056232790724478961 0 -0.065090750270426503 0.057338846798160037 0 -0.064998483016214498 0.056232790724478961 0 -0.06456757697729211 0.059194067044180447 0 -0.064998483016214498 0.056232790724478961 0 -0.06456757697729211 0.059194067044180447 0 -0.064997927892968557 0.059777103977911632 0 -0.065090750270426503 0.057338846798160037 0 -0.06456757697729211 0.059194067044180447 0 -0.064024273826667616 0.059469064698884098 0 -0.06456757697729211 0.059194067044180447 0 -0.063297194055382575 0.059779425884519628 0 -0.063201069259287174 0.060028707741448334 0 -0.064997273691818222 0.059782855702019126 0 -0.063514133682663232 0.060814307242730091 0 -0.06456757697729211 0.059194067044180447 0 -0.064997927892968557 0.059777103977911632 0 -0.063297194055382575 0.059779425884519628 0 -0.064994947396785047 0.064996587990205593 0 -0.063112213041149751 0.063737949444296033 0 -0.058078690819517644 0.064992830075385574 0 -0.064998450989902257 0.059790068926482261 0 -0.064994947396785047 0.064996587990205593 0 -0.063112213041149751 0.063737949444296033 0 -0.05996508933542144 0.063294659954124505 0 -0.058078690819517644 0.064992830075385574 0 -0.061801752952957964 0.061384660195571102 0 -0.058064214289435652 0.064997840787500621 0 -0.058489848085262773 0.06382003207412619 0 -0.063112213041149751 0.063737949444296033 0 -0.05996508933542144 0.063294659954124505 0 -0.058078690819517644 0.064992830075385574 0 -0.063514133682663232 0.060814307242730091 0 -0.062810111310723463 0.061353957306092846 0 -0.063297194055382575 0.059779425884519628 0 -0.05996508933542144 0.063294659954124505 0 -0.061625746721718812 0.060912510938217167 0 -0.061625746721718812 0.060912510938217167 0 -0.061335366870300403 0.061198750646146736 0 -0.061801752952957964 0.061384660195571102 0 -0.05996508933542144 0.063294659954124505 0 -0.061625746721718812 0.060912510938217167 0 -0.061801752952957964 0.061384660195571102 0 -0.061625746721718812 0.060912510938217167 0 -0.062184028947318538 0.06066385664156778 0 -0.061335366870300403 0.061198750646146736 0 -0.061625746721718812 0.060912510938217167 0 -0.062184028947318538 0.06066385664156778 0 -0.063201069259287174 0.060028707741448334 0 -0.062184028947318538 0.06066385664156778 0 -0.061088718212431337 0.061353897133883561 0 -0.061335366870300403 0.061198750646146736 0 -0.063297194055382575 0.059779425884519628 0 -0.061625746721718812 0.060912510938217167 0 -0.063201069259287174 0.060028707741448334 0 -0.062184028947318538 0.06066385664156778 0 -0.063201069259287174 0.060028707741448334 0 -0.064024273826667616 0.059469064698884098 0 -0.06456757697729211 0.059194067044180447 0 -0.063201069259287174 0.060028707741448334 0 -0.064024273826667616 0.059469064698884098 0 -0.064005336279171501 0.059429198444303957 0 -0.064024273826667616 0.059469064698884098 0 -0.06277207698449104 0.060498944884781261 0 -0.062184028947318538 0.06066385664156778 0 -0.064024273826667616 0.059469064698884098 0 -0.06277207698449104 0.060498944884781261 0 -0.06277207698449104 0.060498944884781261 0 -0.061088718212431337 0.061353897133883561 0 -0.062578462196528281 0.060944869973773165 0 -0.062184028947318538 0.06066385664156778 0 -0.06277207698449104 0.060498944884781261 0 -0.061088718212431337 0.061353897133883561 0 -0.063589883947127057 0.061526296423347296 0 -0.065030270803996065 0.059421609002353021 0 -0.061088718212431337 0.061353897133883561 0 -0.0584649932468903 0.062341055701401679 0 -0.062578462196528281 0.060944869973773165 0 -0.061088718212431337 0.061353897133883561 0 -0.0584649932468903 0.062341055701401679 0 -0.058326711471782623 0.062091171435884364 0 -0.074364451446078325 0.05931914724785492 0 -0.075087752810670538 0.057772479823157918 0 -0.072024815012288537 0.057403257347202148 0 -0.074364451446078325 0.05931914724785492 0 -0.07562308114743127 0.059325341318320714 0 -0.075087752810670538 0.057772479823157918 0 -0.0584649932468903 0.062341055701401679 0 -0.057361207022275512 0.063078629048630958 0 -0.056625213303525872 0.063766812119758348 0 -0.063589883947127057 0.061526296423347296 0 -0.058965256729980896 0.062639362025322415 0 -0.074364451446078325 0.05931914724785492 0 -0.07562308114743127 0.059325341318320714 0 -0.076571012025744428 0.061209255017364621 0 -0.0584649932468903 0.062341055701401679 0 -0.058326711471782623 0.062091171435884364 0 -0.057361207022275512 0.063078629048630958 0 -0.058326711471782623 0.062091171435884364 0 -0.057361207022275512 0.063078629048630958 0 -0.056914540664470235 0.06370802353585342 0 -0.057361207022275512 0.063078629048630958 0 -0.056104351294983687 0.064440335552262001 0 -0.056625213303525872 0.063766812119758348 0 -0.058326711471782623 0.062091171435884364 0 -0.055545285981699048 0.065313264203896479 0 -0.056914540664470235 0.06370802353585342 0 -0.058326711471782623 0.062091171435884364 0 -0.061335366870300403 0.061198750646146736 0 -0.061801752952957964 0.061384660195571102 0 -0.058444186678046947 0.06359798277082096 0 -0.058489848085262773 0.06382003207412619 0 -0.061088718212431337 0.061353897133883561 0 -0.058326711471782623 0.062091171435884364 0 -0.061335366870300403 0.061198750646146736 0 -0.055545285981699048 0.065313264203896479 0 -0.056104351294983687 0.064440335552262001 0 -0.055261431589985352 0.065360750883778171 0 -0.055545285981699048 0.065313264203896479 0 -0.056914540664470235 0.06370802353585342 0 -0.056104351294983687 0.064440335552262001 0 -0.057361207022275512 0.063078629048630958 0 -0.056914540664470235 0.06370802353585342 0 -0.056104351294983687 0.064440335552262001 0 -0.056104351294983687 0.064440335552262001 0 -0.054569159506082703 0.065238596780134425 0 -0.054909998875989026 0.064920556923899655 0 -0.056104351294983687 0.064440335552262001 0 -0.054569159506082703 0.065238596780134425 0 -0.055261431589985352 0.065360750883778171 0 -0.054569159506082703 0.065238596780134425 0 -0.054783469720811578 0.06499860002163374 0 -0.051508055639800425 0.064999270420944458 0 -0.054569159506082703 0.065238596780134425 0 -0.054783469720811578 0.06499860002163374 0 -0.055261431589985352 0.065360750883778171 0 -0.058060657674467914 0.065000107589067421 0 -0.055545285981699048 0.065313264203896479 0 -0.055261431589985352 0.065360750883778171 0 -0.058060657674467914 0.065000107589067421 0 -0.054783469720811578 0.06499860002163374 0 -0.055261431589985352 0.065360750883778171 0 -0.049581189817781583 0.066129734577910132 0 -0.051500898848832688 0.064999565717398622 0 -0.047912643717170814 0.065000270013961095 0 -0.049581189817781583 0.066129734577910132 0 -0.050087256347696674 0.067836269166410598 0 -0.048484286239163524 0.06633567409484542 0 -0.051511429490060913 0.064998099820338912 0 -0.055005901552075909 0.064208874616458855 0 -0.054569159506082703 0.065238596780134425 0 -0.051508055639800425 0.064999270420944458 0 -0.054909998875989026 0.064920556923899655 0 -0.049581189817781583 0.066129734577910132 0 -0.051500898848832688 0.064999565717398622 0 -0.05155958595897616 0.067059453772369687 0 -0.055005901552075909 0.064208874616458855 0 -0.058965256729980896 0.062639362025322415 0 -0.056104351294983687 0.064440335552262001 0 -0.054909998875989026 0.064920556923899655 0 -0.056625213303525872 0.063766812119758348 0 -0.05155958595897616 0.067059453772369687 0 -0.050087256347696674 0.067836269166410598 0 -0.051696488731116153 0.069181926531193649 0 -0.05535072387094743 0.062840151945875916 0 -0.058965256729980896 0.062639362025322415 0 -0.049581189817781583 0.066129734577910132 0 -0.05155958595897616 0.067059453772369687 0 -0.050087256347696674 0.067836269166410598 0 -0.048889589345494193 0.066818416469412362 0 -0.048589217049798593 0.066883555068280309 0 -0.048484286239163524 0.06633567409484542 0 -0.05535072387094743 0.062840151945875916 0 -0.054183946758440335 0.062853256632656562 0 -0.048708406280357677 0.066989739112900709 0 -0.048550480669008633 0.067107577689233339 0 -0.048589217049798593 0.066883555068280309 0 -0.048889589345494193 0.066818416469412362 0 -0.048708406280357677 0.066989739112900709 0 -0.048589217049798593 0.066883555068280309 0 -0.048708406280357677 0.066989739112900709 0 -0.048815856699762315 0.0671324220535095 0 -0.048550480669008633 0.067107577689233339 0 -0.048889589345494193 0.066818416469412362 0 -0.048708406280357677 0.066989739112900709 0 -0.048815856699762315 0.0671324220535095 0 -0.048889589345494193 0.066818416469412362 0 -0.048815856699762315 0.0671324220535095 0 -0.049108551892559374 0.067046930782186764 0 -0.048815856699762315 0.0671324220535095 0 -0.048958688947068216 0.067243344018319218 0 -0.048833004596175934 0.067290477390576531 0 -0.048815856699762315 0.0671324220535095 0 -0.048833004596175934 0.067290477390576531 0 -0.048629273453960474 0.067343174585411392 0 -0.048815856699762315 0.0671324220535095 0 -0.048629273453960474 0.067343174585411392 0 -0.048550480669008633 0.067107577689233339 0 -0.07562308114743127 0.059325341318320714 0 -0.076571012025744428 0.061209255017364621 0 -0.076469724606600259 0.058976569794010586 0 -0.049108551892559374 0.067046930782186764 0 -0.048958688947068216 0.067243344018319218 0 -0.049099256281629929 0.0673621168495524 0 -0.058965256729980896 0.062639362025322415 0 -0.061267084440482886 0.06293673099448982 0 -0.048815856699762315 0.0671324220535095 0 -0.049108551892559374 0.067046930782186764 0 -0.048958688947068216 0.067243344018319218 0 -0.048958688947068216 0.067243344018319218 0 -0.049099256281629929 0.0673621168495524 0 -0.048923638744162182 0.067381710526962332 0 -0.049099256281629929 0.0673621168495524 0 -0.048923638744162182 0.067381710526962332 0 -0.049020591005098431 0.067471543422448668 0 -0.07562308114743127 0.059325341318320714 0 -0.076469724606600259 0.058976569794010586 0 -0.075087752810670538 0.057772479823157918 0 -0.048833004596175934 0.067290477390576531 0 -0.048800497659157484 0.067386494668863706 0 -0.048629273453960474 0.067343174585411392 0 -0.048958688947068216 0.067243344018319218 0 -0.048833004596175934 0.067290477390576531 0 -0.048923638744162182 0.067381710526962332 0 -0.048833004596175934 0.067290477390576531 0 -0.048923638744162182 0.067381710526962332 0 -0.048800497659157484 0.067386494668863706 0 -0.048923638744162182 0.067381710526962332 0 -0.048866623276404945 0.06745721475482612 0 -0.048886402960824422 0.067546004712825472 0 -0.056730803122208087 0.063378771878487047 0 -0.057686181609617103 0.061362721967099347 0 -0.048923638744162182 0.067381710526962332 0 -0.048866623276404945 0.06745721475482612 0 -0.048800497659157484 0.067386494668863706 0 -0.048800497659157484 0.067386494668863706 0 -0.048726630798421912 0.067468903451109272 0 -0.048629273453960474 0.067343174585411392 0 -0.048866623276404945 0.06745721475482612 0 -0.048800497659157484 0.067386494668863706 0 -0.048726630798421912 0.067468903451109272 0 -0.051283005200817022 0.062929055003093523 0 -0.051988223142432281 0.062179466276227849 0 -0.048866623276404945 0.06745721475482612 0 -0.048804032825435016 0.067515562356519537 0 -0.048886402960824422 0.067546004712825472 0 -0.048866623276404945 0.06745721475482612 0 -0.048726630798421912 0.067468903451109272 0 -0.048713641773804064 0.067589147065036256 0 -0.048726630798421912 0.067468903451109272 0 -0.048713641773804064 0.067589147065036256 0 -0.048642210800505334 0.06757221518238081 0 -0.051988223142432281 0.062179466276227849 0 -0.057686181609617103 0.061362721967099347 0 -0.048923638744162182 0.067381710526962332 0 -0.048948215975326774 0.067548137561631749 0 -0.049020591005098431 0.067471543422448668 0 -0.07842437139955602 0.056853670176859224 0 -0.078689160161770522 0.054892048206834403 0 -0.077673832855553279 0.055723045208047543 0 -0.057686181609617103 0.061362721967099347 0 -0.058377955896843442 0.057881631267350443 0 -0.054185990382550911 0.062333589512381486 0 -0.055272844883933706 0.061159032936694759 0 -0.054519723025550887 0.059666817146231454 0 -0.055901674374783404 0.062630981028622454 0 -0.054185990382550911 0.062333589512381486 0 -0.055272844883933706 0.061159032936694759 0 -0.055901674374783404 0.062630981028622454 0 -0.055272844883933706 0.061159032936694759 0 -0.05684102756058771 0.061787440542638294 0 -0.05374366815245455 0.057809041136639434 0 -0.051204487867926272 0.061165648167811906 0 -0.055272844883933706 0.061159032936694759 0 -0.055451715140875525 0.058637167002386893 0 -0.05684102756058771 0.061787440542638294 0 -0.055272844883933706 0.061159032936694759 0 -0.054519723025550887 0.059666817146231454 0 -0.055451715140875525 0.058637167002386893 0 -0.078689160161770522 0.054892048206834403 0 -0.07747593315838873 0.053926256933081569 0 -0.077673832855553279 0.055723045208047543 0 -0.054519723025550887 0.059666817146231454 0 -0.055017579039125471 0.058540200820671781 0 -0.054855879160764502 0.056999354710737957 0 -0.078689160161770522 0.054892048206834403 0 -0.07747593315838873 0.053926256933081569 0 -0.078927831252878111 0.052934181591590558 0 -0.058377955896843442 0.057881631267350443 0 -0.057318579890322151 0.055603902578078956 0 -0.048577645256904604 0.054029582621179482 0 -0.048808152838215012 0.054650145475608224 0 -0.047919807826060104 0.053885952313388163 0 -0.053759196388274193 0.057813648962522494 0 -0.05374366815245455 0.057809041136639434 0 -0.054519723025550887 0.059666817146231454 0 -0.055017579039125471 0.058540200820671781 0 -0.055451715140875525 0.058637167002386893 0 -0.07747593315838873 0.053926256933081569 0 -0.076598612555361559 0.055045728202065117 0 -0.075906711313540515 0.053164116264427595 0 -0.077673832855553279 0.055723045208047543 0 -0.076598612555361559 0.055045728202065117 0 -0.076655065314257129 0.056540107217158506 0 -0.07747593315838873 0.053926256933081569 0 -0.077673832855553279 0.055723045208047543 0 -0.076598612555361559 0.055045728202065117 0 -0.063776414252459362 0.061546203760024766 0 -0.063099585277691772 0.062845915298024288 0 -0.061267084440482886 0.06293673099448982 0 -0.063099585277691772 0.062845915298024288 0 -0.049099256281629929 0.0673621168495524 0 -0.049115244258813501 0.06757873696768929 0 -0.049020591005098431 0.067471543422448668 0 -0.076469724606600259 0.058976569794010586 0 -0.076360806497715261 0.056717075062361275 0 -0.075087752810670538 0.057772479823157918 0 -0.07842437139955602 0.056853670176859224 0 -0.077673832855553279 0.055723045208047543 0 -0.076655065314257129 0.056540107217158506 0 -0.057686181609617103 0.061362721967099347 0 -0.063099585277691772 0.062845915298024288 0 -0.048948215975326774 0.067548137561631749 0 -0.049115244258813501 0.06757873696768929 0 -0.049020591005098431 0.067471543422448668 0 -0.075087752810670538 0.057772479823157918 0 -0.074258354450485342 0.056282082764443013 0 -0.072024815012288537 0.057403257347202148 0 -0.076360806497715261 0.056717075062361275 0 -0.075087752810670538 0.057772479823157918 0 -0.074258354450485342 0.056282082764443013 0 -0.076598612555361559 0.055045728202065117 0 -0.076688602810821307 0.056686694222448743 0 -0.074258354450485342 0.056282082764443013 0 -0.063099585277691772 0.062845915298024288 0 -0.067354992586556944 0.062553151382173267 0 -0.074258354450485342 0.056282082764443013 0 -0.072024815012288537 0.057403257347202148 0 -0.071900840431611338 0.055049083984369487 0 -0.074258354450485342 0.056282082764443013 0 -0.071900840431611338 0.055049083984369487 0 -0.073850383888361168 0.05395674011738661 0 -0.071900840431611338 0.055049083984369487 0 -0.073850383888361168 0.05395674011738661 0 -0.071946435487808671 0.05270069730623414 0 -0.074258354450485342 0.056282082764443013 0 -0.073850383888361168 0.05395674011738661 0 -0.07515673459275668 0.054607403044034247 0 -0.076598612555361559 0.055045728202065117 0 -0.074258354450485342 0.056282082764443013 0 -0.07515673459275668 0.054607403044034247 0 -0.076598612555361559 0.055045728202065117 0 -0.07515673459275668 0.054607403044034247 0 -0.075906711313540515 0.053164116264427595 0 -0.073850383888361168 0.05395674011738661 0 -0.07515673459275668 0.054607403044034247 0 -0.075906711313540515 0.053164116264427595 0 -0.073850383888361168 0.05395674011738661 0 -0.075906711313540515 0.053164116264427595 0 -0.074048295239769676 0.051889264881642611 0 -0.073850383888361168 0.05395674011738661 0 -0.074048295239769676 0.051889264881642611 0 -0.071946435487808671 0.05270069730623414 0 -0.074048295239769676 0.051889264881642611 0 -0.071946435487808671 0.05270069730623414 0 -0.072789305652173647 0.05050144352697486 0 -0.072789305652173647 0.05050144352697486 0 -0.075428746997579926 0.049485766166837974 0 -0.072549602188615545 0.048123410744357525 0 -0.070984377451175473 0.050608214393354223 0 -0.072789305652173647 0.05050144352697486 0 -0.072549602188615545 0.048123410744357525 0 -0.070984377451175473 0.050608214393354223 0 -0.071946435487808671 0.05270069730623414 0 -0.072789305652173647 0.05050144352697486 0 -0.075906711313540515 0.053164116264427595 0 -0.074048295239769676 0.051889264881642611 0 -0.075428746997579926 0.049485766166837974 0 -0.074048295239769676 0.051889264881642611 0 -0.072789305652173647 0.05050144352697486 0 -0.075428746997579926 0.049485766166837974 0 -0.074260938950788655 0.051162285743025573 0 -0.073584939517361614 0.04959609503936091 0 -0.075214795696690012 0.050054472290032841 0 -0.077949579311757902 0.05027494874694996 0 -0.077045259392828691 0.051828202759531129 0 -0.075906711313540515 0.053164116264427595 0 -0.075214795696690012 0.050054472290032841 0 -0.077045259392828691 0.051828202759531129 0 -0.056631197454497163 0.052596360703893341 0 -0.057318579890322151 0.055603902578078956 0 -0.063283312150922172 0.051950712390949672 0 -0.057318579890322151 0.055603902578078956 0 -0.061356243767246195 0.050899459801067942 0 -0.060069757838997817 0.050511653648596402 0 -0.061051426302134774 0.053251900479581706 0 -0.077949579311757902 0.05027494874694996 0 -0.078927831252878111 0.052934181591590558 0 -0.077045259392828691 0.051828202759531129 0 -0.048657404646281134 0.055861944433738119 0 -0.048808152838215012 0.054650145475608224 0 -0.047753615061805046 0.05519237906655821 0 -0.055017579039125471 0.058540200820671781 0 -0.055452983035960947 0.05863639331410693 0 -0.054855879160764502 0.056999354710737957 0 -0.05374366815245455 0.057809041136639434 0 -0.057318579890322151 0.055603902578078956 0 -0.07747593315838873 0.053926256933081569 0 -0.075906711313540515 0.053164116264427595 0 -0.077045259392828691 0.051828202759531129 0 -0.07747593315838873 0.053926256933081569 0 -0.078927831252878111 0.052934181591590558 0 -0.077045259392828691 0.051828202759531129 0 -0.046404060029611831 0.055174969227823271 0 -0.046869356753514509 0.054704730301870445 0 -0.046902037490828462 0.055360429364062387 0 -0.046404060029611831 0.055174969227823271 0 -0.046869356753514509 0.054704730301870445 0 -0.045940822579284828 0.054667691696382845 0 -0.046869356753514509 0.054704730301870445 0 -0.045940822579284828 0.054667691696382845 0 -0.046933681670330241 0.053806866418155852 0 -0.046869356753514509 0.054704730301870445 0 -0.047304156399711438 0.054460596890801877 0 -0.046943578281233286 0.053857517132503592 0 -0.049753578925569059 0.0565818075891854 0 -0.050588830696148973 0.058496660304844711 0 -0.047304156399711438 0.054460596890801877 0 -0.047621774465154872 0.055253818842436561 0 -0.047740645525807104 0.054028787176553496 0 -0.048808152838215012 0.054650145475608224 0 -0.047753615061805046 0.05519237906655821 0 -0.047919807826060104 0.053885952313388163 0 -0.046869356753514509 0.054704730301870445 0 -0.047621774465154872 0.055253818842436561 0 -0.046902037490828462 0.055360429364062387 0 -0.046869356753514509 0.054704730301870445 0 -0.047304156399711438 0.054460596890801877 0 -0.047621774465154872 0.055253818842436561 0 -0.047621774465154872 0.055253818842436561 0 -0.047146272409687578 0.055944916892673426 0 -0.046902037490828462 0.055360429364062387 0 -0.047621774465154872 0.055253818842436561 0 -0.047146272409687578 0.055944916892673426 0 -0.047550878984324828 0.056552127986369993 0 -0.049753578925569059 0.0565818075891854 0 -0.049452546816491104 0.056462936001386348 0 -0.048657404646281134 0.055861944433738119 0 -0.047753615061805046 0.05519237906655821 0 -0.047550878984324828 0.056552127986369993 0 -0.047146272409687578 0.055944916892673426 0 -0.046472218161285064 0.055817351035819092 0 -0.046999588952817611 0.056695043266316213 0 -0.046472218161285064 0.055817351035819092 0 -0.045552616107680764 0.056243005492613435 0 -0.046999588952817611 0.056695043266316213 0 -0.047146272409687578 0.055944916892673426 0 -0.046902037490828462 0.055360429364062387 0 -0.046472218161285064 0.055817351035819092 0 -0.046404060029611831 0.055174969227823271 0 -0.046902037490828462 0.055360429364062387 0 -0.046472218161285064 0.055817351035819092 0 -0.046404060029611831 0.055174969227823271 0 -0.046472218161285064 0.055817351035819092 0 -0.045859610971732093 0.055478449968837662 0 -0.046472218161285064 0.055817351035819092 0 -0.045552616107680764 0.056243005492613435 0 -0.045859610971732093 0.055478449968837662 0 -0.045552616107680764 0.056243005492613435 0 -0.045859610971732093 0.055478449968837662 0 -0.044972134204192923 0.055556053488980996 0 -0.045934483151687695 0.052226159514410543 0 -0.045546814662231823 0.052754088698362671 0 -0.044448560226179323 0.05556017528176458 0 -0.044644032217388781 0.055658292178288167 0 -0.043974540719956899 0.054116752045569455 0 -0.045552616107680764 0.056243005492613435 0 -0.044448560226179323 0.05556017528176458 0 -0.044972134204192923 0.055556053488980996 0 -0.044448560226179323 0.05556017528176458 0 -0.044600281953150918 0.055410421392145165 0 -0.044644032217388781 0.055658292178288167 0 -0.044448560226179323 0.05556017528176458 0 -0.044972134204192923 0.055556053488980996 0 -0.044600281953150918 0.055410421392145165 0 -0.044972134204192923 0.055556053488980996 0 -0.044600281953150918 0.055410421392145165 0 -0.045061109241483925 0.05521728953924547 0 -0.044600281953150918 0.055410421392145165 0 -0.045061109241483925 0.05521728953924547 0 -0.044591277921561312 0.055044200908222436 0 -0.045061109241483925 0.05521728953924547 0 -0.044591277921561312 0.055044200908222436 0 -0.045560248265731289 0.054704394472306433 0 -0.045859610971732093 0.055478449968837662 0 -0.044972134204192923 0.055556053488980996 0 -0.045940822579284828 0.054667691696382845 0 -0.046404060029611831 0.055174969227823271 0 -0.045859610971732093 0.055478449968837662 0 -0.045940822579284828 0.054667691696382845 0 -0.044972134204192923 0.055556053488980996 0 -0.045061109241483925 0.05521728953924547 0 -0.045904987654541554 0.055176182650557383 0 -0.047451658352906621 0.057607565285749424 0 -0.047799799773271021 0.058007070075809054 0 -0.045061109241483925 0.05521728953924547 0 -0.045904987654541554 0.055176182650557383 0 -0.045560248265731289 0.054704394472306433 0 -0.045560248265731289 0.054704394472306433 0 -0.04535827184023284 0.053869272791156345 0 -0.046892331553685059 0.054372128698027454 0 -0.044544574723779026 0.062023622468016952 0 -0.048046151229973195 0.060121032866394607 0 -0.044591277921561312 0.055044200908222436 0 -0.045560248265731289 0.054704394472306433 0 -0.04535827184023284 0.053869272791156345 0 -0.044591277921561312 0.055044200908222436 0 -0.04535827184023284 0.053869272791156345 0 -0.042784904737993498 0.052953904665680319 0 -0.044544574723779026 0.062023622468016952 0 -0.041168578674546687 0.06248246301343665 0 -0.04316516149505837 0.074788732733323468 0 -0.041189543800615964 0.072073593478222606 0 -0.039608639433838369 0.074070339231756169 0 -0.04316516149505837 0.074788732733323468 0 -0.045581933314578132 0.074136581981884511 0 -0.044151700613369364 0.072249216989730289 0 -0.04316516149505837 0.074788732733323468 0 -0.044151700613369364 0.072249216989730289 0 -0.041189543800615964 0.072073593478222606 0 -0.045581933314578132 0.074136581981884511 0 -0.047134230405400976 0.072736773744921199 0 -0.044151700613369364 0.072249216989730289 0 -0.045581933314578132 0.074136581981884511 0 -0.046663977873128364 0.075510483771366987 0 -0.047134230405400976 0.072736773744921199 0 -0.048046151229973195 0.060121032866394607 0 -0.04875618978316705 0.06496987814803501 0 -0.04875618978316705 0.06496987814803501 0 -0.047327179268894452 0.066166187945854868 0 -0.045904987654541554 0.055176182650557383 0 -0.045560248265731289 0.054704394472306433 0 -0.046892331553685059 0.054372128698027454 0 -0.04316516149505837 0.074788732733323468 0 -0.045581933314578132 0.074136581981884511 0 -0.046663977873128364 0.075510483771366987 0 -0.048032774232972343 0.058687907775070755 0 -0.048046151229973195 0.060121032866394607 0 -0.047799799773271021 0.058007070075809054 0 -0.048046151229973195 0.060121032866394607 0 -0.051231663336541611 0.059931148072461873 0 -0.051067645323725555 0.059893982700968906 0 -0.051046843294493362 0.060104403491721373 0 -0.050588830696148973 0.058496660304844711 0 -0.051204487867926272 0.061165648167811906 0 -0.051261929458138344 0.057129718862860744 0 -0.052605159370933179 0.057428020947213075 0 -0.052358667277157586 0.059617430692419378 0 -0.05374366815245455 0.057809041136639434 0 -0.050588830696148973 0.058496660304844711 0 -0.047304156399711438 0.054460596890801877 0 -0.046943578281233286 0.053857517132503592 0 -0.047740645525807104 0.054028787176553496 0 -0.048046151229973195 0.060121032866394607 0 -0.050588830696148973 0.058496660304844711 0 -0.048046151229973195 0.060121032866394607 0 -0.051204487867926272 0.061165648167811906 0 -0.048354441896257323 0.061916804075843837 0 -0.048353446646485949 0.061933813562376885 0 -0.048356284427095768 0.061939605907697919 0 -0.048350763832132319 0.061932085450346279 0 -0.048353446646485949 0.061933813562376885 0 -0.048351282465049293 0.061934708280958303 0 -0.051988223142432281 0.062179466276227849 0 -0.051204487867926272 0.061165648167811906 0 -0.04994225858465564 0.062483835769830964 0 -0.049405455853743507 0.062960671520162131 0 -0.04943776820484462 0.062673948297901599 0 -0.051204487867926272 0.061165648167811906 0 -0.050955509124706935 0.062130810658424913 0 -0.048354441896257323 0.061916804075843837 0 -0.048350763832132319 0.061932085450346279 0 -0.048353446646485949 0.061933813562376885 0 -0.04875618978316705 0.06496987814803501 0 -0.050733148891556112 0.063037838293185974 0 -0.048353446646485949 0.061933813562376885 0 -0.048356284427095768 0.061939605907697919 0 -0.048351315099299221 0.061937012831107328 0 -0.051988223142432281 0.062179466276227849 0 -0.050733148891556112 0.063037838293185974 0 -0.04994225858465564 0.062483835769830964 0 -0.049468416725496851 0.062401698240692346 0 -0.04943776820484462 0.062673948297901599 0 -0.050733148891556112 0.063037838293185974 0 -0.050955509124706935 0.062130810658424913 0 -0.048353446646485949 0.061933813562376885 0 -0.048351315099299221 0.061937012831107328 0 -0.048351282465049293 0.061934708280958303 0 -0.048726630798421912 0.067468903451109272 0 -0.048642210800505334 0.06757221518238081 0 -0.048629273453960474 0.067343174585411392 0 -0.050733148891556112 0.063037838293185974 0 -0.050428011463280999 0.064437954706312112 0 -0.048609441323556206 0.067593477610249017 0 -0.048629273453960474 0.067343174585411392 0 -0.048423163531028122 0.067255891902199494 0 -0.04875618978316705 0.06496987814803501 0 -0.049207501230304374 0.066311902533917846 0 -0.050457401122654455 0.063679594277681995 0 -0.049525711479908148 0.063516743700145567 0 -0.050256130169047772 0.065230945571507964 0 -0.050733148891556112 0.063037838293185974 0 -0.049207501230304374 0.066311902533917846 0 -0.047149111799502236 0.072746902530786736 0 -0.046194740944976283 0.071288044130529638 0 -0.047485582461540443 0.070134466693811265 0 -0.046194740944976283 0.071288044130529638 0 -0.045468181324895322 0.069909996294953938 0 -0.044151700613369364 0.072249216989730289 0 -0.047149111799502236 0.072746902530786736 0 -0.046194740944976283 0.071288044130529638 0 -0.044151700613369364 0.072249216989730289 0 -0.046194740944976283 0.071288044130529638 0 -0.045468181324895322 0.069909996294953938 0 -0.047485582461540443 0.070134466693811265 0 -0.045468181324895322 0.069909996294953938 0 -0.046854639999105226 0.068424493371743972 0 -0.047485582461540443 0.070134466693811265 0 -0.045468181324895322 0.069909996294953938 0 -0.046854639999105226 0.068424493371743972 0 -0.045203045218607817 0.068084037247797019 0 -0.049207501230304374 0.066311902533917846 0 -0.048384270923553838 0.066410256191692218 0 -0.046854639999105226 0.068424493371743972 0 -0.047475181199008419 0.070105025791104975 0 -0.047826382035046126 0.067402158688401381 0 -0.048423163531028122 0.067255891902199494 0 -0.048550480669008633 0.067107577689233339 0 -0.04829744766078635 0.066949022288414359 0 -0.048629273453960474 0.067343174585411392 0 -0.048423163531028122 0.067255891902199494 0 -0.048550480669008633 0.067107577689233339 0 -0.049164982698757242 0.066790527745976658 0 -0.049207501230304374 0.066311902533917846 0 -0.048550480669008633 0.067107577689233339 0 -0.048589217049798593 0.066883555068280309 0 -0.04829744766078635 0.066949022288414359 0 -0.047826382035046126 0.067402158688401381 0 -0.046012685639425933 0.066575072679775027 0 -0.04817935922872571 0.064676376401259367 0 -0.048589217049798593 0.066883555068280309 0 -0.04829744766078635 0.066949022288414359 0 -0.048484286239163524 0.06633567409484542 0 -0.046854639999105226 0.068424493371743972 0 -0.047826382035046126 0.067402158688401381 0 -0.046012685639425933 0.066575072679775027 0 -0.046854639999105226 0.068424493371743972 0 -0.045203045218607817 0.068084037247797019 0 -0.046012685639425933 0.066575072679775027 0 -0.045203045218607817 0.068084037247797019 0 -0.046012685639425933 0.066575072679775027 0 -0.044031512354970284 0.066490617361925353 0 -0.046012685639425933 0.066575072679775027 0 -0.045464893156936415 0.064371375977822082 0 -0.044031512354970284 0.066490617361925353 0 -0.045188218368409784 0.06538235264547114 0 -0.04525642711850527 0.064999961018903082 0 -0.047823431247701081 0.065678029995245704 0 -0.046012685639425933 0.066575072679775027 0 -0.045464893156936415 0.064371375977822082 0 -0.04817935922872571 0.064676376401259367 0 -0.046377106171204281 0.065814261402751456 0 -0.047788257464386669 0.065454613065559719 0 -0.04525642711850527 0.064999961018903082 0 -0.047911727461193494 0.065000016615449754 0 -0.047823431247701081 0.065678029995245704 0 -0.04829744766078635 0.066949022288414359 0 -0.047932415141057214 0.065684775656191796 0 -0.048484286239163524 0.06633567409484542 0 -0.048384270923553838 0.066410256191692218 0 -0.047788257464386669 0.065454613065559719 0 -0.049581189817781583 0.066129734577910132 0 -0.047912643717170814 0.065000270013961095 0 -0.047932415141057214 0.065684775656191796 0 -0.047910859100611644 0.065002097231389847 0 -0.047788257464386669 0.065454613065559719 0 -0.049581189817781583 0.066129734577910132 0 -0.047932415141057214 0.065684775656191796 0 -0.048484286239163524 0.06633567409484542 0 -0.046844518687834832 0.066677497997808075 0 -0.043481353154437088 0.068260853704319391 0 -0.042744802341894823 0.064066110259450484 0 -0.044031512354970284 0.066490617361925353 0 -0.041257748941093686 0.066799691000062236 0 -0.041721766732105543 0.064999956121807451 0 -0.041027262817752617 0.067633276861177538 0 -0.039982161465117926 0.066349425589078623 0 -0.041721766732105543 0.064999956121807451 0 -0.04253117702227513 0.065091860371790669 0 -0.041027262817752617 0.067633276861177538 0 -0.04172530982240491 0.06501069652239802 0 -0.046844518687834832 0.066677497997808075 0 -0.046377106171204281 0.065814261402751456 0 -0.046844518687834832 0.066677497997808075 0 -0.045464893156936415 0.064371375977822082 0 -0.042744802341894823 0.064066110259450484 0 -0.044031512354970284 0.066490617361925353 0 -0.045188218368409784 0.06538235264547114 0 -0.04525642711850527 0.064999961018903082 0 -0.042551493216294797 0.064907761105427467 0 -0.045203045218607817 0.068084037247797019 0 -0.044031512354970284 0.066490617361925353 0 -0.043643525908001884 0.069025494117208305 0 -0.044031512354970284 0.066490617361925353 0 -0.041257748941093686 0.066799691000062236 0 -0.043643525908001884 0.069025494117208305 0 -0.041257748941093686 0.066799691000062236 0 -0.041775216471288526 0.069845419819781651 0 -0.039751248931670341 0.069558720567037088 0 -0.041257748941093686 0.066799691000062236 0 -0.041775216471288526 0.069845419819781651 0 -0.043643525908001884 0.069025494117208305 0 -0.045468181324895322 0.069909996294953938 0 -0.045203045218607817 0.068084037247797019 0 -0.043643525908001884 0.069025494117208305 0 -0.045468181324895322 0.069909996294953938 0 -0.043643525908001884 0.069025494117208305 0 -0.044151700613369364 0.072249216989730289 0 -0.041775216471288526 0.069845419819781651 0 -0.043643525908001884 0.069025494117208305 0 -0.044151700613369364 0.072249216989730289 0 -0.041775216471288526 0.069845419819781651 0 -0.044151700613369364 0.072249216989730289 0 -0.041189543800615964 0.072073593478222606 0 -0.041775216471288526 0.069845419819781651 0 -0.041189543800615964 0.072073593478222606 0 -0.039751248931670341 0.069558720567037088 0 -0.04041623173219689 0.071143710881793776 0 -0.041328627409938173 0.070082589741102236 0 -0.041189543800615964 0.072073593478222606 0 -0.038245618357095182 0.072413964610190423 0 -0.039751248931670341 0.069558720567037088 0 -0.038245618357095182 0.072413964610190423 0 -0.036104854635169818 0.071657191051164984 0 -0.036246595040519913 0.073334258330149921 0 -0.038245618357095182 0.072413964610190423 0 -0.036842922343495003 0.070201242025265786 0 -0.036104854635169818 0.071657191051164984 0 -0.038245618357095182 0.072413964610190423 0 -0.036842922343495003 0.070201242025265786 0 -0.039563915141325734 0.07007226984145111 0 -0.036842922343495003 0.070201242025265786 0 -0.039563915141325734 0.07007226984145111 0 -0.038710785576420596 0.06774250263896589 0 -0.043481353154437088 0.068260853704319391 0 -0.041328627409938173 0.070082589741102236 0 -0.041027262817752617 0.067633276861177538 0 -0.038710785576420596 0.06774250263896589 0 -0.039982161465117926 0.066349425589078623 0 -0.041027262817752617 0.067633276861177538 0 -0.039563915141325734 0.07007226984145111 0 -0.038710785576420596 0.06774250263896589 0 -0.036842922343495003 0.070201242025265786 0 -0.038710785576420596 0.06774250263896589 0 -0.03632290801399863 0.067358612779190127 0 -0.038480549449377434 0.064999955112467575 0 -0.035239110336656457 0.064999939888728653 0 -0.03632290801399863 0.067358612779190127 0 -0.038710785576420596 0.06774250263896589 0 -0.038480549449377434 0.064999955112467575 0 -0.03632290801399863 0.067358612779190127 0 -0.038710785576420596 0.06774250263896589 0 -0.038480549449377434 0.064999955112467575 0 -0.039982161465117926 0.066349425589078623 0 -0.041721766732105543 0.064999956121807451 0 -0.038480549449377434 0.064999955112467575 0 -0.039982161465117926 0.066349425589078623 0 -0.032087790094945515 0.067258951677540132 0 -0.031998032379308365 0.064999925282326593 0 -0.033940654498501262 0.066672899162857666 0 -0.031998032379308365 0.064999925282326593 0 -0.033940654498501262 0.066672899162857666 0 -0.035239110336656457 0.064999939888728653 0 -0.033940654498501262 0.066672899162857666 0 -0.035239110336656457 0.064999939888728653 0 -0.03632290801399863 0.067358612779190127 0 -0.033940654498501262 0.066672899162857666 0 -0.03632290801399863 0.067358612779190127 0 -0.034027672144919557 0.068717645929598947 0 -0.036842922343495003 0.070201242025265786 0 -0.03632290801399863 0.067358612779190127 0 -0.034027672144919557 0.068717645929598947 0 -0.032087790094945515 0.067258951677540132 0 -0.033940654498501262 0.066672899162857666 0 -0.034027672144919557 0.068717645929598947 0 -0.031247670592107705 0.070198877383143218 0 -0.034027672144919557 0.068717645929598947 0 -0.034415601073861324 0.071368194923789013 0 -0.036842922343495003 0.070201242025265786 0 -0.034027672144919557 0.068717645929598947 0 -0.034415601073861324 0.071368194923789013 0 -0.036842922343495003 0.070201242025265786 0 -0.036104854635169818 0.071657191051164984 0 -0.034415601073861324 0.071368194923789013 0 -0.036104854635169818 0.071657191051164984 0 -0.034415601073861324 0.071368194923789013 0 -0.036246595040519913 0.073334258330149921 0 -0.030965656688987212 0.069496017612123415 0 -0.032680306858467893 0.070288821067064855 0 -0.034415601073861324 0.071368194923789013 0 -0.033033346714134909 0.07262088957155588 0 -0.036246595040519913 0.073334258330149921 0 -0.031023930959224049 0.06998250232426631 0 -0.034415601073861324 0.071368194923789013 0 -0.033033346714134909 0.07262088957155588 0 -0.034633568256216558 0.050905259630448542 0 -0.035019053785732147 0.055079558399891544 0 -0.037334681969973339 0.053860714348604503 0 -0.035019053785732147 0.055079558399891544 0 -0.037334681969973339 0.053860714348604503 0 -0.03827410877128213 0.057427697997289862 0 -0.037334681969973339 0.053860714348604503 0 -0.039623264822949221 0.054061320450769938 0 -0.03827410877128213 0.057427697997289862 0 -0.037334681969973339 0.053860714348604503 0 -0.039048125223828237 0.051917340218238447 0 -0.039623264822949221 0.054061320450769938 0 -0.033820131377921302 0.061747458836605602 0 -0.03758849755852664 0.062252593610451712 0 -0.034633568256216558 0.050905259630448542 0 -0.037334681969973339 0.053860714348604503 0 -0.039048125223828237 0.051917340218238447 0 -0.038245618357095182 0.072413964610190423 0 -0.036246595040519913 0.073334258330149921 0 -0.039608639433838369 0.074070339231756169 0 -0.039048125223828237 0.051917340218238447 0 -0.042784904737993498 0.052953904665680319 0 -0.039623264822949221 0.054061320450769938 0 -0.03758849755852664 0.062252593610451712 0 -0.041168578674546687 0.06248246301343665 0 -0.041189543800615964 0.072073593478222606 0 -0.038245618357095182 0.072413964610190423 0 -0.039608639433838369 0.074070339231756169 0 -0.044591277921561312 0.055044200908222436 0 -0.042784904737993498 0.052953904665680319 0 -0.041464084214587534 0.055935553688076074 0 -0.039286872917163713 0.054321266563471825 0 -0.038714389693787321 0.053749801557340132 0 -0.042784904737993498 0.052953904665680319 0 -0.039623264822949221 0.054061320450769938 0 -0.041464084214587534 0.055935553688076074 0 -0.039623264822949221 0.054061320450769938 0 -0.041832357541133749 0.056759300281302529 0 -0.03827410877128213 0.057427697997289862 0 -0.033167302854962825 0.050792300220225448 0 -0.033109091896449387 0.051083213368709801 0 -0.03281214601610382 0.050864283779391666 0 -0.038714389693787321 0.053749801557340132 0 -0.035730334729811151 0.05396160943615376 0 -0.044600281953150918 0.055410421392145165 0 -0.044591277921561312 0.055044200908222436 0 -0.044151053963195373 0.055239984059160273 0 -0.038714389693787321 0.053749801557340132 0 -0.038996292604321164 0.05294418527746117 0 -0.041771735004200804 0.053735073607382021 0 -0.038714389693787321 0.053749801557340132 0 -0.044600281953150918 0.055410421392145165 0 -0.044151053963195373 0.055239984059160273 0 -0.044644032217388781 0.055658292178288167 0 -0.033426124575971279 0.0510664961011306 0 -0.033109091896449387 0.051083213368709801 0 -0.03337181667777616 0.051412220203633799 0 -0.033167302854962825 0.050792300220225448 0 -0.033426124575971279 0.0510664961011306 0 -0.033109091896449387 0.051083213368709801 0 -0.033109091896449387 0.051083213368709801 0 -0.032884366698441053 0.051091800285919066 0 -0.03281214601610382 0.050864283779391666 0 -0.033109091896449387 0.051083213368709801 0 -0.032884366698441053 0.051091800285919066 0 -0.032910340745144033 0.051322366635878088 0 -0.032884366698441053 0.051091800285919066 0 -0.032705789449361547 0.051100050115761166 0 -0.032910340745144033 0.051322366635878088 0 -0.032705789449361547 0.051100050115761166 0 -0.032444471882206082 0.051258563551199579 0 -0.032910340745144033 0.051322366635878088 0 -0.032884366698441053 0.051091800285919066 0 -0.032705789449361547 0.051100050115761166 0 -0.03281214601610382 0.050864283779391666 0 -0.032705789449361547 0.051100050115761166 0 -0.032453217950481381 0.050936958885095328 0 -0.032444471882206082 0.051258563551199579 0 -0.033138028949444856 0.054044646645252659 0 -0.035730334729811151 0.05396160943615376 0 -0.035019053785732147 0.055079558399891544 0 -0.034761341927655641 0.058100521717337608 0 -0.03827410877128213 0.057427697997289862 0 -0.032705789449361547 0.051100050115761166 0 -0.032453217950481381 0.050936958885095328 0 -0.03281214601610382 0.050864283779391666 0 -0.032074541708508632 0.051637719195522173 0 -0.032241335407072011 0.05214601983964897 0 -0.032540653143312559 0.051939898077584611 0 -0.032074541708508632 0.051637719195522173 0 -0.032241335407072011 0.05214601983964897 0 -0.031734252484917465 0.052060515896914593 0 -0.031734252484917465 0.052060515896914593 0 -0.031280342709883793 0.051781561099936139 0 -0.031411881070043626 0.05228678456942544 0 -0.030766790292463264 0.052414291571089559 0 -0.031280342709883793 0.051781561099936139 0 -0.031411881070043626 0.05228678456942544 0 -0.032074541708508632 0.051637719195522173 0 -0.031734252484917465 0.052060515896914593 0 -0.031280342709883793 0.051781561099936139 0 -0.031286416014722152 0.05196469949873312 0 -0.031011567886634023 0.052060635184854417 0 -0.032074541708508632 0.051637719195522173 0 -0.031280342709883793 0.051781561099936139 0 -0.031197067197576586 0.051000742563118033 0 -0.031011567886634023 0.052060635184854417 0 -0.032329753315203331 0.051760665031831458 0 -0.032074541708508632 0.051637719195522173 0 -0.031240685973755795 0.051015432585250514 0 -0.032293552088737951 0.051178121711628055 0 -0.032329753315203331 0.051760665031831458 0 -0.032820304448090212 0.051704036491620094 0 -0.033109091896449387 0.051083213368709801 0 -0.032910340745144033 0.051322366635878088 0 -0.03337181667777616 0.051412220203633799 0 -0.032074541708508632 0.051637719195522173 0 -0.032293552088737951 0.051178121711628055 0 -0.032701024902084437 0.051618511739843817 0 -0.032293552088737951 0.051178121711628055 0 -0.03337181667777616 0.051412220203633799 0 -0.032701024902084437 0.051618511739843817 0 -0.03337181667777616 0.051412220203633799 0 -0.033111366295958761 0.051730289929225792 0 -0.032701024902084437 0.051618511739843817 0 -0.03337181667777616 0.051412220203633799 0 -0.033111366295958761 0.051730289929225792 0 -0.033542047741897695 0.051682984589037459 0 -0.033111366295958761 0.051730289929225792 0 -0.033420384158442916 0.051946435929827547 0 -0.033542047741897695 0.051682984589037459 0 -0.033111366295958761 0.051730289929225792 0 -0.033145494445409568 0.052031250039383581 0 -0.032839020402226721 0.051854453052366946 0 -0.033145494445409568 0.052031250039383581 0 -0.032806347153104966 0.052091434238818894 0 -0.032930317570226866 0.052336352091099742 0 -0.033145494445409568 0.052031250039383581 0 -0.032839020402226721 0.051854453052366946 0 -0.032806347153104966 0.052091434238818894 0 -0.033145494445409568 0.052031250039383581 0 -0.033310925370444111 0.052121924804863148 0 -0.033205064075783802 0.052306731855673687 0 -0.033111366295958761 0.051730289929225792 0 -0.033145494445409568 0.052031250039383581 0 -0.033420384158442916 0.051946435929827547 0 -0.033145494445409568 0.052031250039383581 0 -0.033310925370444111 0.052121924804863148 0 -0.033420384158442916 0.051946435929827547 0 -0.033310925370444111 0.052121924804863148 0 -0.033420384158442916 0.051946435929827547 0 -0.033471720224017801 0.052204806789420702 0 -0.032074541708508632 0.051637719195522173 0 -0.032701024902084437 0.051618511739843817 0 -0.032540653143312559 0.051939898077584611 0 -0.033111366295958761 0.051730289929225792 0 -0.032701024902084437 0.051618511739843817 0 -0.032839020402226721 0.051854453052366946 0 -0.032701024902084437 0.051618511739843817 0 -0.032839020402226721 0.051854453052366946 0 -0.032540653143312559 0.051939898077584611 0 -0.032839020402226721 0.051854453052366946 0 -0.032806347153104966 0.052091434238818894 0 -0.032540653143312559 0.051939898077584611 0 -0.032806347153104966 0.052091434238818894 0 -0.032540653143312559 0.051939898077584611 0 -0.032578141652895493 0.052287152329920018 0 -0.032241335407072011 0.05214601983964897 0 -0.032540653143312559 0.051939898077584611 0 -0.032578141652895493 0.052287152329920018 0 -0.032241335407072011 0.05214601983964897 0 -0.032578141652895493 0.052287152329920018 0 -0.032206630804785925 0.052593609524223033 0 -0.032578141652895493 0.052287152329920018 0 -0.032750307600788793 0.052594105744598142 0 -0.032930317570226866 0.052336352091099742 0 -0.032806347153104966 0.052091434238818894 0 -0.032578141652895493 0.052287152329920018 0 -0.032930317570226866 0.052336352091099742 0 -0.032750307600788793 0.052594105744598142 0 -0.032469148972966468 0.052899462558882414 0 -0.032206630804785925 0.052593609524223033 0 -0.032578141652895493 0.052287152329920018 0 -0.032750307600788793 0.052594105744598142 0 -0.032206630804785925 0.052593609524223033 0 -0.033351088755337113 0.052401769878648537 0 -0.033471720224017801 0.052204806789420702 0 -0.033582841409315112 0.052479336652902012 0 -0.033351088755337113 0.052401769878648537 0 -0.033471720224017801 0.052204806789420702 0 -0.033205064075783802 0.052306731855673687 0 -0.033310925370444111 0.052121924804863148 0 -0.033471720224017801 0.052204806789420702 0 -0.033205064075783802 0.052306731855673687 0 -0.033351088755337113 0.052401769878648537 0 -0.033205064075783802 0.052306731855673687 0 -0.033231324683828042 0.052520951916425342 0 -0.033205064075783802 0.052306731855673687 0 -0.032930317570226866 0.052336352091099742 0 -0.033231324683828042 0.052520951916425342 0 -0.033145494445409568 0.052031250039383581 0 -0.033205064075783802 0.052306731855673687 0 -0.032930317570226866 0.052336352091099742 0 -0.032750307600788793 0.052594105744598142 0 -0.033231324683828042 0.052520951916425342 0 -0.033141387775824989 0.052939843174515798 0 -0.032750307600788793 0.052594105744598142 0 -0.032930317570226866 0.052336352091099742 0 -0.033231324683828042 0.052520951916425342 0 -0.033351088755337113 0.052401769878648537 0 -0.033231324683828042 0.052520951916425342 0 -0.033582841409315112 0.052479336652902012 0 -0.033231324683828042 0.052520951916425342 0 -0.033141387775824989 0.052939843174515798 0 -0.033658917673164278 0.052572166832547812 0 -0.035180210675988643 0.029278471718594382 0 -0.036042048933020543 0.029771356043818 0 -0.036099478469320399 0.028668402426970319 0 -0.035180210675988643 0.029278471718594382 0 -0.034280491340667837 0.029895975346292934 0 -0.035286144280232197 0.030427965972079234 0 -0.035180210675988643 0.029278471718594382 0 -0.035286144280232197 0.030427965972079234 0 -0.036042048933020543 0.029771356043818 0 -0.034062063560280652 0.041838794975119185 0 -0.036574684028053306 0.04479054056391199 0 -0.032750307600788793 0.052594105744598142 0 -0.033141387775824989 0.052939843174515798 0 -0.032469148972966468 0.052899462558882414 0 -0.033141387775824989 0.052939843174515798 0 -0.032469148972966468 0.052899462558882414 0 -0.032607849701899325 0.053299796424799949 0 -0.034062063560280652 0.041838794975119185 0 -0.031173432107607743 0.039306301118873357 0 -0.031173432107607743 0.039306301118873357 0 -0.029333473808441184 0.044720725016144283 0 -0.032469148972966468 0.052899462558882414 0 -0.032607849701899325 0.053299796424799949 0 -0.032070906787655264 0.053025343170812235 0 -0.027125514234810837 0.038619549598790298 0 -0.026678759660503551 0.038390049931558805 0 -0.026810349467470788 0.038883052033219984 0 -0.032070906787655264 0.053025343170812235 0 -0.032206630804785925 0.052593609524223033 0 -0.031531531190314897 0.052747360870184827 0 -0.027580266304352744 0.038859420190529612 0 -0.027125514234810837 0.038619549598790298 0 -0.027171888967922619 0.039128341974608925 0 -0.029333473808441184 0.044720725016144283 0 -0.026921172412558064 0.049611106122650295 0 -0.032469148972966468 0.052899462558882414 0 -0.032070906787655264 0.053025343170812235 0 -0.032206630804785925 0.052593609524223033 0 -0.032206630804785925 0.052593609524223033 0 -0.031786911752211884 0.052384989495060506 0 -0.031531531190314897 0.052747360870184827 0 -0.032241335407072011 0.05214601983964897 0 -0.031734252484917465 0.052060515896914593 0 -0.031786911752211884 0.052384989495060506 0 -0.032241335407072011 0.05214601983964897 0 -0.032206630804785925 0.052593609524223033 0 -0.031786911752211884 0.052384989495060506 0 -0.030766790292463264 0.052414291571089559 0 -0.031411881070043626 0.05228678456942544 0 -0.031494997337859675 0.052802714685918663 0 -0.024011563082168487 0.053790374409321384 0 -0.026921172412558064 0.049611106122650295 0 -0.031734252484917465 0.052060515896914593 0 -0.031786911752211884 0.052384989495060506 0 -0.031411881070043626 0.05228678456942544 0 -0.031786911752211884 0.052384989495060506 0 -0.031411881070043626 0.05228678456942544 0 -0.031494997337859675 0.052802714685918663 0 -0.027228406871401923 0.04974464429234584 0 -0.026921172412558064 0.049611106122650295 0 -0.022824758023310236 0.045664100792140831 0 -0.026921172412558064 0.049611106122650295 0 -0.026313768756100208 0.03889312218589535 0 -0.026678759660503551 0.038390049931558805 0 -0.026810349467470788 0.038883052033219984 0 -0.017703415414296771 0.061023853121116231 0 -0.018872621335693243 0.063974718148734885 0 -0.021534253354457387 0.06011500358167518 0 -0.026313768756100208 0.03889312218589535 0 -0.026810349467470788 0.038883052033219984 0 -0.026766866209727441 0.039389546394783592 0 -0.033153826716879595 0.030394513112433713 0 -0.032184225875974366 0.031053115373622122 0 -0.033945969667117666 0.030998544279899062 0 -0.026810349467470788 0.038883052033219984 0 -0.027171888967922619 0.039128341974608925 0 -0.026766866209727441 0.039389546394783592 0 -0.027125514234810837 0.038619549598790298 0 -0.026810349467470788 0.038883052033219984 0 -0.027171888967922619 0.039128341974608925 0 -0.030214814398105225 0.035260583368485476 0 -0.029132004965764558 0.031406900701397983 0 -0.031606265088297593 0.0092022857024095916 0 -0.032225440106511197 0.010227189445719207 0 -0.03288933208675935 0.0094625374540342339 0 -0.029132004965764558 0.031406900701397983 0 -0.031474538222111319 0.031297289571282284 0 -0.032204180974494748 0.03099684271539906 0 -0.033945969667117666 0.030998544279899062 0 -0.033599394215413095 0.031739498797886033 0 -0.031615373237529644 0.031390541019958501 0 -0.032204180974494748 0.03099684271539906 0 -0.033599394215413095 0.031739498797886033 0 -0.02988958266261452 0.027150775678621761 0 -0.032747642876603783 0.023256753441052998 0 -0.022580260215016277 0.034168271164325401 0 -0.029132004965764558 0.031406900701397983 0 -0.023277452318756549 0.031800217595667035 0 -0.028546851008010389 0.033207487850197621 0 -0.030832408078661749 0.03165227892689973 0 -0.02988958266261452 0.027150775678621761 0 -0.029132004965764558 0.031406900701397983 0 -0.031606265088297593 0.0092022857024095916 0 -0.031452202257044259 0.010028718597203987 0 -0.032225440106511197 0.010227189445719207 0 -0.031452202257044259 0.010028718597203987 0 -0.032225440106511197 0.010227189445719207 0 -0.031514243179257585 0.010765840297851178 0 -0.032225440106511197 0.010227189445719207 0 -0.033274231224456878 0.010515428040806971 0 -0.03288933208675935 0.0094625374540342339 0 -0.035982262750970488 0.014073141696653255 0 -0.034531597275854468 0.012776497236016239 0 -0.032225440106511197 0.010227189445719207 0 -0.033274231224456878 0.010515428040806971 0 -0.032427540674849327 0.011336676450355224 0 -0.032225440106511197 0.010227189445719207 0 -0.031514243179257585 0.010765840297851178 0 -0.032427540674849327 0.011336676450355224 0 -0.035089394645812948 0.0090560417260533571 0 -0.037345438964874501 0.0095169753147806343 0 -0.035914619700632207 0.011167553632843269 0 -0.033274231224456878 0.010515428040806971 0 -0.0341293853962319 0.0097064576624220737 0 -0.03288933208675935 0.0094625374540342339 0 -0.035982262750970488 0.014073141696653255 0 -0.035223606177502052 0.021068309274895385 0 -0.035089394645812948 0.0090560417260533571 0 -0.036588782745319494 0.0076646730982716125 0 -0.037345438964874501 0.0095169753147806343 0 -0.035516458050439466 0.03202550778028937 0 -0.033945969667117666 0.030998544279899062 0 -0.035286144280232197 0.030427965972079234 0 -0.035516458050439466 0.03202550778028937 0 -0.033945969667117666 0.030998544279899062 0 -0.033599394215413095 0.031739498797886033 0 -0.035223606177502052 0.021068309274895385 0 -0.032747642876603783 0.023256753441052998 0 -0.034104866790223204 0.029768486650549826 0 -0.033945969667117666 0.030998544279899062 0 -0.035286144280232197 0.030427965972079234 0 -0.034104866790223204 0.029768486650549826 0 -0.033153826716879595 0.030394513112433713 0 -0.033945969667117666 0.030998544279899062 0 -0.031173432107607743 0.039306301118873357 0 -0.030214814398105225 0.035260583368485476 0 -0.031173432107607743 0.039306301118873357 0 -0.031379532434908902 0.038041632123078525 0 -0.035286144280232197 0.030427965972079234 0 -0.036788920360125231 0.030717290340835972 0 -0.036042048933020543 0.029771356043818 0 -0.036788920360125231 0.030717290340835972 0 -0.03704653265127112 0.029819330525770866 0 -0.036042048933020543 0.029771356043818 0 -0.041891786715142737 0.044546293842747428 0 -0.041705127238386437 0.047014111416318109 0 -0.043840204404740159 0.047075941849565407 0 -0.042395363968751015 0.035269848012837925 0 -0.039517486723195411 0.039544441377219616 0 -0.036788920360125231 0.030717290340835972 0 -0.037912071127692785 0.030904785610413148 0 -0.03704653265127112 0.029819330525770866 0 -0.036788920360125231 0.030717290340835972 0 -0.037127533744902491 0.031983740547800621 0 -0.037912071127692785 0.030904785610413148 0 -0.037127533744902491 0.031983740547800621 0 -0.037912071127692785 0.030904785610413148 0 -0.03805378543953554 0.031694567136523209 0 -0.035516458050439466 0.03202550778028937 0 -0.035286144280232197 0.030427965972079234 0 -0.036788920360125231 0.030717290340835972 0 -0.035223606177502052 0.021068309274895385 0 -0.033710159182967568 0.025184299365532268 0 -0.035751669248841787 0.031723566326467077 0 -0.036788920360125231 0.030717290340835972 0 -0.037127533744902491 0.031983740547800621 0 -0.036588782745319494 0.0076646730982716125 0 -0.038551805577117487 0.0080278085322825054 0 -0.037345438964874501 0.0095169753147806343 0 -0.035223606177502052 0.021068309274895385 0 -0.038623171942620424 0.022461132584996098 0 -0.038551805577117487 0.0080278085322825054 0 -0.037345438964874501 0.0095169753147806343 0 -0.03945496164761101 0.0098554888049628732 0 -0.043231663850822569 0.0073664680491071586 0 -0.044732775398086295 0.0081397688888126436 0 -0.044117603971659702 0.0067321538163218992 0 -0.043231663850822569 0.0073664680491071586 0 -0.044732775398086295 0.0081397688888126436 0 -0.04325775849142733 0.0088711914894212922 0 -0.044298326415665029 0.015636076450289096 0 -0.045193971245244907 0.025625037203167063 0 -0.043231663850822569 0.0073664680491071586 0 -0.04120464939754892 0.0082438359160955221 0 -0.04325775849142733 0.0088711914894212922 0 -0.043231663850822569 0.0073664680491071586 0 -0.04120464939754892 0.0082438359160955221 0 -0.042714770818145419 0.0060976918892568094 0 -0.038623171942620424 0.022461132584996098 0 -0.045193971245244907 0.025625037203167063 0 -0.037127533744902491 0.031983740547800621 0 -0.038565812668061569 0.03222841269326563 0 -0.03805378543953554 0.031694567136523209 0 -0.038551805577117487 0.0080278085322825054 0 -0.03945496164761101 0.0098554888049628732 0 -0.04049544758442488 0.0083937566257490086 0 -0.038565812668061569 0.03222841269326563 0 -0.038768719403803269 0.031932722495719615 0 -0.03805378543953554 0.031694567136523209 0 -0.045193971245244907 0.025625037203167063 0 -0.046010291643182086 0.029319561802960265 0 -0.051077365028479496 0.030362029514501343 0 -0.050251352654065225 0.029321749241324555 0 -0.049785292390808929 0.03224024370439834 0 -0.048576394325851237 0.028311108423361715 0 -0.049630467961806257 0.034072557543693739 0 -0.07135975798538155 0.039599672240580412 0 -0.071285202974574385 0.040003334240140992 0 -0.071171985144635797 0.039821735973171617 0 -0.044829631026335949 0.024740596004166199 0 -0.045468481828588307 0.023818146164868614 0 -0.046423653574105245 0.025012088282047939 0 -0.046010291643182086 0.029319561802960265 0 -0.048576394325851237 0.028311108423361715 0 -0.043231663850822569 0.0073664680491071586 0 -0.042714770818145419 0.0060976918892568094 0 -0.043723886098801346 0.0062584435640977718 0 -0.043231663850822569 0.0073664680491071586 0 -0.043723886098801346 0.0062584435640977718 0 -0.044117603971659702 0.0067321538163218992 0 -0.045193971245244907 0.025625037203167063 0 -0.048576394325851237 0.028311108423361715 0 -0.048576394325851237 0.028311108423361715 0 -0.048109181858803411 0.027540727949371818 0 -0.07135975798538155 0.039599672240580412 0 -0.071171985144635797 0.039821735973171617 0 -0.071089817529813873 0.039722880445193717 0 -0.071285202974574385 0.040003334240140992 0 -0.071160794238535691 0.03995856279108554 0 -0.071171985144635797 0.039821735973171617 0 -0.046010291643182086 0.029319561802960265 0 -0.049630467961806257 0.034072557543693739 0 -0.071175913852367878 0.04012245262817659 0 -0.071285202974574385 0.040003334240140992 0 -0.071160794238535691 0.03995856279108554 0 -0.050348078045751324 0.033834762079887143 0 -0.049630467961806257 0.034072557543693739 0 -0.046010291643182086 0.029319561802960265 0 -0.042395363968751015 0.035269848012837925 0 -0.038768719403803269 0.031932722495719615 0 -0.037912071127692785 0.030904785610413148 0 -0.03805378543953554 0.031694567136523209 0 -0.038772347727237505 0.0436405520035189 0 -0.041891786715142737 0.044546293842747428 0 -0.03992756161821371 0.045544669484197151 0 -0.039905434750810258 0.0419860131337449 0 -0.038772347727237505 0.0436405520035189 0 -0.041891786715142737 0.044546293842747428 0 -0.041891786715142737 0.044546293842747428 0 -0.03992756161821371 0.045544669484197151 0 -0.041705127238386437 0.047014111416318109 0 -0.049630467961806257 0.034072557543693739 0 -0.052465121305579794 0.041838502117615708 0 -0.038772347727237505 0.0436405520035189 0 -0.03992756161821371 0.045544669484197151 0 -0.038358166795336268 0.047091343654782181 0 -0.071175913852367878 0.04012245262817659 0 -0.071175458800924213 0.040116160038499146 0 -0.071132953547031114 0.040139151046622641 0 -0.03992756161821371 0.045544669484197151 0 -0.038358166795336268 0.047091343654782181 0 -0.040281156749990631 0.048570720655533868 0 -0.038358166795336268 0.047091343654782181 0 -0.040281156749990631 0.048570720655533868 0 -0.037995519782495289 0.050499645751900434 0 -0.052465121305579794 0.041838502117615708 0 -0.054501012615682153 0.045193865190912466 0 -0.039875797224506404 0.050595244403380986 0 -0.040281156749990631 0.048570720655533868 0 -0.037995519782495289 0.050499645751900434 0 -0.039875797224506404 0.050595244403380986 0 -0.039310258374609386 0.051973732204386711 0 -0.037995519782495289 0.050499645751900434 0 -0.041204791264373146 0.050427288661090551 0 -0.040281156749990631 0.048570720655533868 0 -0.042573622044464736 0.049314892342273084 0 -0.041204791264373146 0.050427288661090551 0 -0.042573622044464736 0.049314892342273084 0 -0.042232671408483101 0.051028482922043129 0 -0.041204791264373146 0.050427288661090551 0 -0.040637563381445661 0.05151363563497232 0 -0.041499143162536056 0.051462397078015538 0 -0.041204791264373146 0.050427288661090551 0 -0.042232671408483101 0.051028482922043129 0 -0.041499143162536056 0.051462397078015538 0 -0.039875797224506404 0.050595244403380986 0 -0.041204791264373146 0.050427288661090551 0 -0.040637563381445661 0.05151363563497232 0 -0.039875797224506404 0.050595244403380986 0 -0.041204791264373146 0.050427288661090551 0 -0.040281156749990631 0.048570720655533868 0 -0.041705127238386437 0.047014111416318109 0 -0.040281156749990631 0.048570720655533868 0 -0.042573622044464736 0.049314892342273084 0 -0.03992756161821371 0.045544669484197151 0 -0.041705127238386437 0.047014111416318109 0 -0.040281156749990631 0.048570720655533868 0 -0.043840204404740159 0.047075941849565407 0 -0.045811784178220599 0.049581682505055048 0 -0.042573622044464736 0.049314892342273084 0 -0.041705127238386437 0.047014111416318109 0 -0.043840204404740159 0.047075941849565407 0 -0.042573622044464736 0.049314892342273084 0 -0.039517486723195411 0.039544441377219616 0 -0.036574684028053306 0.04479054056391199 0 -0.03704653265127112 0.029819330525770866 0 -0.036042048933020543 0.029771356043818 0 -0.036099478469320399 0.028668402426970319 0 -0.033582841409315112 0.052479336652902012 0 -0.033654187183047489 0.052566287080197491 0 -0.033771320882055582 0.052017020728588229 0 -0.033654187183047489 0.052566287080197491 0 -0.034406983181099339 0.052037232821149415 0 -0.033771320882055582 0.052017020728588229 0 -0.033231324683828042 0.052520951916425342 0 -0.033582841409315112 0.052479336652902012 0 -0.033658917673164278 0.052572166832547812 0 -0.036595386681115186 0.044866173256019153 0 -0.036574684028053306 0.04479054056391199 0 -0.033471720224017801 0.052204806789420702 0 -0.033582841409315112 0.052479336652902012 0 -0.033771320882055582 0.052017020728588229 0 -0.036574684028053306 0.04479054056391199 0 -0.039016032739758094 0.049785621259414742 0 -0.045811784178220599 0.049581682505055048 0 -0.042573622044464736 0.049314892342273084 0 -0.042773991889137983 0.051679800822697727 0 -0.042573622044464736 0.049314892342273084 0 -0.042232671408483101 0.051028482922043129 0 -0.042773991889137983 0.051679800822697727 0 -0.034406983181099339 0.052037232821149415 0 -0.033771320882055582 0.052017020728588229 0 -0.033861217312426924 0.051437459603367118 0 -0.042232671408483101 0.051028482922043129 0 -0.042132622341799111 0.052127187412188476 0 -0.042752978415526173 0.051720772832731375 0 -0.04258576338952335 0.051844827877507868 0 -0.042556891376977539 0.053185550457008082 0 -0.043974540719956899 0.054116752045569455 0 -0.039016032739758094 0.049785621259414742 0 -0.039170267415606475 0.051858313660864665 0 -0.039154081231689154 0.049914384167445716 0 -0.039016032739758094 0.049785621259414742 0 -0.039081257678698758 0.049784021588555175 0 -0.039016032739758094 0.049785621259414742 0 -0.042132622341799111 0.052127187412188476 0 -0.042556891376977539 0.053185550457008082 0 -0.041604425339394971 0.052985658417224211 0 -0.042132622341799111 0.052127187412188476 0 -0.04258576338952335 0.051844827877507868 0 -0.042556891376977539 0.053185550457008082 0 -0.033771320882055582 0.052017020728588229 0 -0.033542047741897695 0.051682984589037459 0 -0.033861217312426924 0.051437459603367118 0 -0.033420384158442916 0.051946435929827547 0 -0.033471720224017801 0.052204806789420702 0 -0.033771320882055582 0.052017020728588229 0 -0.033420384158442916 0.051946435929827547 0 -0.033771320882055582 0.052017020728588229 0 -0.033542047741897695 0.051682984589037459 0 -0.033426124575971279 0.0510664961011306 0 -0.03337181667777616 0.051412220203633799 0 -0.033861217312426924 0.051437459603367118 0 -0.03337181667777616 0.051412220203633799 0 -0.033542047741897695 0.051682984589037459 0 -0.033861217312426924 0.051437459603367118 0 -0.042854949035384012 0.055069376400042384 0 -0.044448560226179323 0.05556017528176458 0 -0.043974540719956899 0.054116752045569455 0 -0.038996292604321164 0.05294418527746117 0 -0.039170267415606475 0.051858313660864665 0 -0.042556891376977539 0.053185550457008082 0 -0.042966493780755941 0.054106813223174025 0 -0.04192614389435935 0.053918692269825451 0 -0.042556891376977539 0.053185550457008082 0 -0.04192614389435935 0.053918692269825451 0 -0.041604425339394971 0.052985658417224211 0 -0.042556891376977539 0.053185550457008082 0 -0.043974540719956899 0.054116752045569455 0 -0.042966493780755941 0.054106813223174025 0 -0.042854949035384012 0.055069376400042384 0 -0.043974540719956899 0.054116752045569455 0 -0.042966493780755941 0.054106813223174025 0 -0.042854949035384012 0.055069376400042384 0 -0.042966493780755941 0.054106813223174025 0 -0.04192614389435935 0.053918692269825451 0 -0.042854949035384012 0.055069376400042384 0 -0.04192614389435935 0.053918692269825451 0 -0.04040280282229923 0.054511608396024036 0 -0.045934483151687695 0.052226159514410543 0 -0.048107780284051063 0.050643191710827457 0 -0.04192614389435935 0.053918692269825451 0 -0.040921660684379586 0.05357786931668726 0 -0.041604425339394971 0.052985658417224211 0 -0.04192614389435935 0.053918692269825451 0 -0.040921660684379586 0.05357786931668726 0 -0.04040280282229923 0.054511608396024036 0 -0.040245207870596211 0.053605855751045879 0 -0.040921660684379586 0.05357786931668726 0 -0.040510829333584596 0.052784417006638787 0 -0.040245207870596211 0.053605855751045879 0 -0.040921660684379586 0.05357786931668726 0 -0.04040280282229923 0.054511608396024036 0 -0.048107780284051063 0.050643191710827457 0 -0.056514772054183912 0.048391808556331725 0 -0.046999588952817611 0.056695043266316213 0 -0.047550878984324828 0.056552127986369993 0 -0.048500291478302045 0.057123788714037282 0 -0.04040280282229923 0.054511608396024036 0 -0.039325381673309852 0.053448465950566348 0 -0.037681067195383423 0.053758765493489104 0 -0.048657404646281134 0.055861944433738119 0 -0.047550878984324828 0.056552127986369993 0 -0.048500291478302045 0.057123788714037282 0 -0.047146272409687578 0.055944916892673426 0 -0.046999588952817611 0.056695043266316213 0 -0.047550878984324828 0.056552127986369993 0 -0.040245207870596211 0.053605855751045879 0 -0.039325381673309852 0.053448465950566348 0 -0.040510829333584596 0.052784417006638787 0 -0.040245207870596211 0.053605855751045879 0 -0.04040280282229923 0.054511608396024036 0 -0.039325381673309852 0.053448465950566348 0 -0.039325381673309852 0.053448465950566348 0 -0.039310258374609386 0.051973732204386711 0 -0.040510829333584596 0.052784417006638787 0 -0.039310258374609386 0.051973732204386711 0 -0.037681067195383423 0.053758765493489104 0 -0.037995519782495289 0.050499645751900434 0 -0.039325381673309852 0.053448465950566348 0 -0.039310258374609386 0.051973732204386711 0 -0.037681067195383423 0.053758765493489104 0 -0.039875797224506404 0.050595244403380986 0 -0.039310258374609386 0.051973732204386711 0 -0.040637563381445661 0.05151363563497232 0 -0.039310258374609386 0.051973732204386711 0 -0.040637563381445661 0.05151363563497232 0 -0.040510829333584596 0.052784417006638787 0 -0.040637563381445661 0.05151363563497232 0 -0.041312602190968079 0.052200115340792004 0 -0.040510829333584596 0.052784417006638787 0 -0.040637563381445661 0.05151363563497232 0 -0.041499143162536056 0.051462397078015538 0 -0.041312602190968079 0.052200115340792004 0 -0.042232671408483101 0.051028482922043129 0 -0.042132622341799111 0.052127187412188476 0 -0.041499143162536056 0.051462397078015538 0 -0.042132622341799111 0.052127187412188476 0 -0.041499143162536056 0.051462397078015538 0 -0.041312602190968079 0.052200115340792004 0 -0.041312602190968079 0.052200115340792004 0 -0.041604425339394971 0.052985658417224211 0 -0.040510829333584596 0.052784417006638787 0 -0.042132622341799111 0.052127187412188476 0 -0.041312602190968079 0.052200115340792004 0 -0.041604425339394971 0.052985658417224211 0 -0.040921660684379586 0.05357786931668726 0 -0.041604425339394971 0.052985658417224211 0 -0.040510829333584596 0.052784417006638787 0 -0.06648055747718272 0.048105594676599674 0 -0.068416218671547832 0.043889464162652603 0 -0.071191258572284533 0.040041153561375505 0 -0.071123417981506606 0.040042205374223205 0 -0.071135474168326246 0.04007416406899475 0 -0.056514772054183912 0.048391808556331725 0 -0.054501012615682153 0.045193865190912466 0 -0.061356243767246195 0.050899459801067942 0 -0.060069757838997817 0.050511653648596402 0 -0.061650199000966625 0.048557658233765379 0 -0.060069757838997817 0.050511653648596402 0 -0.059092026364570664 0.047788624909482352 0 -0.061650199000966625 0.048557658233765379 0 -0.06648055747718272 0.048105594676599674 0 -0.056514772054183912 0.048391808556331725 0 -0.056631197454497163 0.052596360703893341 0 -0.056514772054183912 0.048391808556331725 0 -0.075214795696690012 0.050054472290032841 0 -0.077949579311757902 0.05027494874694996 0 -0.076967831500458508 0.047616641843825226 0 -0.063283312150922172 0.051950712390949672 0 -0.06648055747718272 0.048105594676599674 0 -0.075428746997579926 0.049485766166837974 0 -0.072549602188615545 0.048123410744357525 0 -0.07473997689094565 0.045783054020178411 0 -0.075214795696690012 0.050054472290032841 0 -0.076967831500458508 0.047616641843825226 0 -0.074558422836911789 0.04689402472335618 0 -0.073584939517361614 0.04959609503936091 0 -0.071709198212043745 0.046807835923534248 0 -0.072549602188615545 0.048123410744357525 0 -0.07473997689094565 0.045783054020178411 0 -0.070612991717622767 0.044551881447085447 0 -0.071709198212043745 0.046807835923534248 0 -0.07144369869983451 0.046197497041956151 0 -0.073251922915066325 0.044060728989090345 0 -0.072107347356843668 0.043706571861339569 0 -0.072810834900682506 0.042800329024780454 0 -0.06648055747718272 0.048105594676599674 0 -0.071709198212043745 0.046807835923534248 0 -0.072107347356843668 0.043706571861339569 0 -0.071874884489424237 0.042422585340597348 0 -0.072810834900682506 0.042800329024780454 0 -0.071709198212043745 0.046807835923534248 0 -0.071580621008828962 0.043984579777164426 0 -0.071874884489424237 0.042422585340597348 0 -0.072369650519533271 0.041564719030987525 0 -0.072810834900682506 0.042800329024780454 0 -0.07294000638849589 0.045105491814752964 0 -0.072544819554148349 0.043218641419999919 0 -0.070612991717622767 0.044551881447085447 0 -0.072544819554148349 0.043218641419999919 0 -0.071022182780675638 0.04241215212267168 0 -0.070612991717622767 0.044551881447085447 0 -0.072544819554148349 0.043218641419999919 0 -0.071698861774551079 0.041198454930374211 0 -0.071022182780675638 0.04241215212267168 0 -0.071580621008828962 0.043984579777164426 0 -0.071502733409857119 0.043004246405902363 0 -0.071698861774551079 0.041198454930374211 0 -0.070811210952994863 0.040912305481677812 0 -0.071022182780675638 0.04241215212267168 0 -0.071376328613762668 0.040101617300092256 0 -0.071261815970585923 0.040096895618933787 0 -0.071247648836286551 0.040062523794597169 0 -0.071874884489424237 0.042422585340597348 0 -0.072369650519533271 0.041564719030987525 0 -0.071698861774551079 0.041198454930374211 0 -0.069465728854776129 0.042250536288118708 0 -0.068416218671547832 0.043889464162652603 0 -0.071376328613762668 0.040101617300092256 0 -0.071261815970585923 0.040096895618933787 0 -0.0712927534728338 0.040171938424368038 0 -0.071203179818150261 0.040124094143938131 0 -0.071261815970585923 0.040096895618933787 0 -0.0712927534728338 0.040171938424368038 0 -0.071203179818150261 0.040124094143938131 0 -0.071261815970585923 0.040096895618933787 0 -0.071198125541979296 0.040080661733334896 0 -0.071191258572284533 0.040041153561375505 0 -0.071198125541979296 0.040080661733334896 0 -0.071247648836286551 0.040062523794597169 0 -0.071261815970585923 0.040096895618933787 0 -0.071198125541979296 0.040080661733334896 0 -0.071247648836286551 0.040062523794597169 0 -0.071191258572284533 0.040041153561375505 0 -0.071198125541979296 0.040080661733334896 0 -0.071135474168326246 0.04007416406899475 0 -0.071132953547031114 0.040139151046622641 0 -0.071198125541979296 0.040080661733334896 0 -0.071135474168326246 0.04007416406899475 0 -0.071132953547031114 0.040139151046622641 0 -0.071203179818150261 0.040124094143938131 0 -0.071198125541979296 0.040080661733334896 0 -0.071175913852367878 0.04012245262817659 0 -0.071132953547031114 0.040139151046622641 0 -0.071156246568822107 0.0401519926272099 0 -0.071132953547031114 0.040139151046622641 0 -0.071203179818150261 0.040124094143938131 0 -0.071156246568822107 0.0401519926272099 0 -0.071203179818150261 0.040124094143938131 0 -0.071156246568822107 0.0401519926272099 0 -0.071210325857059331 0.040157227301853476 0 -0.071156246568822107 0.0401519926272099 0 -0.071139553933668012 0.040169129923013254 0 -0.071210325857059331 0.040157227301853476 0 -0.071175913852367878 0.04012245262817659 0 -0.071156246568822107 0.0401519926272099 0 -0.071139553933668012 0.040169129923013254 0 -0.071203179818150261 0.040124094143938131 0 -0.0712927534728338 0.040171938424368038 0 -0.071210325857059331 0.040157227301853476 0 -0.0712927534728338 0.040171938424368038 0 -0.071210325857059331 0.040157227301853476 0 -0.071325640564143977 0.040243423194813416 0 -0.071139553933668012 0.040169129923013254 0 -0.071210325857059331 0.040157227301853476 0 -0.071325640564143977 0.040243423194813416 0 -0.0712927534728338 0.040171938424368038 0 -0.071325640564143977 0.040243423194813416 0 -0.071397585975414929 0.040295536937637204 0 -0.071325640564143977 0.040243423194813416 0 -0.071378353457321936 0.04025747886727811 0 -0.071343211730843334 0.040229323008532721 0 -0.071325640564143977 0.040243423194813416 0 -0.071378353457321936 0.04025747886727811 0 -0.071397585975414929 0.040295536937637204 0 -0.071325640564143977 0.040243423194813416 0 -0.071302090201776067 0.040234858241336768 0 -0.071343211730843334 0.040229323008532721 0 -0.071139553933668012 0.040169129923013254 0 -0.071325640564143977 0.040243423194813416 0 -0.071302090201776067 0.040234858241336768 0 -0.071302090201776067 0.040234858241336768 0 -0.071358866552272623 0.040261618655798644 0 -0.071343211730843334 0.040229323008532721 0 -0.071378353457321936 0.04025747886727811 0 -0.071343211730843334 0.040229323008532721 0 -0.071386188390878194 0.040172757361839249 0 -0.071139553933668012 0.040169129923013254 0 -0.071302090201776067 0.040234858241336768 0 -0.071358866552272623 0.040261618655798644 0 -0.071139553933668012 0.040169129923013254 0 -0.070855181757036964 0.039842036775346812 0 -0.071092417829768773 0.039993022421791036 0 -0.06445336259773643 0.036881480512067855 0 -0.063214229008582701 0.034760567065174289 0 -0.071175913852367878 0.04012245262817659 0 -0.071139553933668012 0.040169129923013254 0 -0.071092417829768773 0.039993022421791036 0 -0.071175913852367878 0.04012245262817659 0 -0.071092417829768773 0.039993022421791036 0 -0.071160794238535691 0.03995856279108554 0 -0.070855181757036964 0.039842036775346812 0 -0.071042339192544407 0.039839679889712494 0 -0.071092417829768773 0.039993022421791036 0 -0.071042339192544407 0.039839679889712494 0 -0.071092417829768773 0.039993022421791036 0 -0.071160794238535691 0.03995856279108554 0 -0.071042339192544407 0.039839679889712494 0 -0.071160794238535691 0.03995856279108554 0 -0.071171985144635797 0.039821735973171617 0 -0.048576394325851237 0.028311108423361715 0 -0.058739501560731808 0.026243801151268158 0 -0.07135975798538155 0.039599672240580412 0 -0.071089817529813873 0.039722880445193717 0 -0.070975507949855285 0.039613212810969051 0 -0.07135975798538155 0.039599672240580412 0 -0.070975507949855285 0.039613212810969051 0 -0.070733376720495095 0.039454701450102485 0 -0.043721715644115637 0.0062515108567439319 0 -0.044117603971659702 0.0067321538163218992 0 -0.047203535554246015 0.0067769820036208302 0 -0.071042339192544407 0.039839679889712494 0 -0.071171985144635797 0.039821735973171617 0 -0.071089817529813873 0.039722880445193717 0 -0.070975507949855285 0.039613212810969051 0 -0.070928163854091536 0.039710338404274521 0 -0.070733376720495095 0.039454701450102485 0 -0.070855181757036964 0.039842036775346812 0 -0.071042339192544407 0.039839679889712494 0 -0.070928163854091536 0.039710338404274521 0 -0.071089817529813873 0.039722880445193717 0 -0.070975507949855285 0.039613212810969051 0 -0.070928163854091536 0.039710338404274521 0 -0.071042339192544407 0.039839679889712494 0 -0.071089817529813873 0.039722880445193717 0 -0.070928163854091536 0.039710338404274521 0 -0.070855181757036964 0.039842036775346812 0 -0.070928163854091536 0.039710338404274521 0 -0.070733376720495095 0.039454701450102485 0 -0.071358866552272623 0.040261618655798644 0 -0.071321496516302693 0.04014425156097931 0 -0.071308114761511693 0.039852890924126097 0 -0.071358866552272623 0.040261618655798644 0 -0.071343211730843334 0.040229323008532721 0 -0.071321496516302693 0.04014425156097931 0 -0.063214229008582701 0.034760567065174289 0 -0.058739501560731808 0.026243801151268158 0 -0.071343211730843334 0.040229323008532721 0 -0.071321496516302693 0.04014425156097931 0 -0.071363204625970414 0.040143510717714999 0 -0.071343211730843334 0.040229323008532721 0 -0.071363204625970414 0.040143510717714999 0 -0.071386188390878194 0.040172757361839249 0 -0.071363204625970414 0.040143510717714999 0 -0.07140584159038979 0.04003849878648999 0 -0.071386188390878194 0.040172757361839249 0 -0.071321496516302693 0.04014425156097931 0 -0.071363204625970414 0.040143510717714999 0 -0.07140584159038979 0.04003849878648999 0 -0.071321496516302693 0.04014425156097931 0 -0.071308114761511693 0.039852890924126097 0 -0.070945313358616729 0.039767823216482742 0 -0.065561686462829907 0.032007325689250028 0 -0.061761191875408288 0.027847559551396228 0 -0.047203535554246015 0.0067769820036208302 0 -0.04609772403171461 0.0089080646470152194 0 -0.048022983598975159 0.0093546249498778194 0 -0.047584242344204913 0.0061469993779376614 0 -0.049330307082693758 0.0079754905629628812 0 -0.048342904168700768 0.0089624837014554114 0 -0.058739501560731808 0.026243801151268158 0 -0.052795564904122703 0.013311886096637984 0 -0.058739501560731808 0.026243801151268158 0 -0.061761191875408288 0.027847559551396228 0 -0.047584242344204913 0.0061469993779376614 0 -0.049330307082693758 0.0079754905629628812 0 -0.049066069485240685 0.0063807374743593999 0 -0.044732775398086295 0.0081397688888126436 0 -0.047203535554246015 0.0067769820036208302 0 -0.04609772403171461 0.0089080646470152194 0 -0.044732775398086295 0.0081397688888126436 0 -0.044117603971659702 0.0067321538163218992 0 -0.047203535554246015 0.0067769820036208302 0 -0.065751813121736627 0.029715166857045044 0 -0.066900066872791999 0.029890540370554344 0 -0.071233966492369252 0.039848303188875417 0 -0.071069428549343214 0.039995483479787403 0 -0.070850233973233923 0.039680689100202809 0 -0.063558977043228201 0.028607767533229064 0 -0.06457505104950681 0.028778464593099913 0 -0.063719841637967109 0.02962818558125296 0 -0.066900066872791999 0.029890540370554344 0 -0.06217071835970376 0.024766839192202818 0 -0.065751813121736627 0.029715166857045044 0 -0.061761191875408288 0.027847559551396228 0 -0.063558977043228201 0.028607767533229064 0 -0.062543229768876163 0.028439053760393847 0 -0.063719841637967109 0.02962818558125296 0 -0.061761191875408288 0.027847559551396228 0 -0.06217071835970376 0.024766839192202818 0 -0.049330307082693758 0.0079754905629628812 0 -0.049066069485240685 0.0063807374743593999 0 -0.051922198312385134 0.0090862047125730636 0 -0.071233966492369252 0.039848303188875417 0 -0.07140584159038979 0.04003849878648999 0 -0.071332593778703116 0.040089411600719563 0 -0.07140584159038979 0.04003849878648999 0 -0.071386188390878194 0.040172757361839249 0 -0.071332593778703116 0.040089411600719563 0 -0.071386188390878194 0.040172757361839249 0 -0.071332593778703116 0.040089411600719563 0 -0.071433464836162294 0.040281315263915395 0 -0.071332593778703116 0.040089411600719563 0 -0.071069428549343214 0.039995483479787403 0 -0.071278725425368769 0.040220098975786468 0 -0.071233966492369252 0.039848303188875417 0 -0.071332593778703116 0.040089411600719563 0 -0.071069428549343214 0.039995483479787403 0 -0.071069428549343214 0.039995483479787403 0 -0.071278725425368769 0.040220098975786468 0 -0.070951906600851447 0.040252884922940831 0 -0.071278725425368769 0.040220098975786468 0 -0.071129382403726377 0.040494669404026996 0 -0.070951906600851447 0.040252884922940831 0 -0.071278725425368769 0.040220098975786468 0 -0.071129382403726377 0.040494669404026996 0 -0.071584169613804219 0.040419915049333885 0 -0.071378353457321936 0.04025747886727811 0 -0.071386188390878194 0.040172757361839249 0 -0.071433464836162294 0.040281315263915395 0 -0.071332593778703116 0.040089411600719563 0 -0.071278725425368769 0.040220098975786468 0 -0.071433464836162294 0.040281315263915395 0 -0.071278725425368769 0.040220098975786468 0 -0.071433464836162294 0.040281315263915395 0 -0.071584169613804219 0.040419915049333885 0 -0.071433464836162294 0.040281315263915395 0 -0.071584169613804219 0.040419915049333885 0 -0.071397585975414929 0.040295536937637204 0 -0.071378353457321936 0.04025747886727811 0 -0.071433464836162294 0.040281315263915395 0 -0.071397585975414929 0.040295536937637204 0 -0.071376328613762668 0.040101617300092256 0 -0.071584169613804219 0.040419915049333885 0 -0.071397585975414929 0.040295536937637204 0 -0.072369650519533271 0.041564719030987525 0 -0.071584169613804219 0.040419915049333885 0 -0.071698861774551079 0.041198454930374211 0 -0.069465728854776129 0.042250536288118708 0 -0.069764785329458553 0.041763175871810151 0 -0.071376328613762668 0.040101617300092256 0 -0.0712927534728338 0.040171938424368038 0 -0.071397585975414929 0.040295536937637204 0 -0.071129382403726377 0.040494669404026996 0 -0.071698861774551079 0.041198454930374211 0 -0.070811210952994863 0.040912305481677812 0 -0.071129382403726377 0.040494669404026996 0 -0.071584169613804219 0.040419915049333885 0 -0.071698861774551079 0.041198454930374211 0 -0.071129382403726377 0.040494669404026996 0 -0.070811210952994863 0.040912305481677812 0 -0.070558244658381383 0.04053940159167671 0 -0.069624795476781229 0.040339071334717501 0 -0.068717344438366856 0.040176761733453241 0 -0.070811210952994863 0.040912305481677812 0 -0.070232835201115354 0.040811644831196404 0 -0.070558244658381383 0.04053940159167671 0 -0.070811210952994863 0.040912305481677812 0 -0.068472002172495203 0.040539679394221304 0 -0.069319036683755914 0.04247038810758421 0 -0.070232835201115354 0.040811644831196404 0 -0.070558244658381383 0.04053940159167671 0 -0.070011416930745002 0.040386384341807094 0 -0.070558244658381383 0.04053940159167671 0 -0.070440666837025073 0.039997326627941233 0 -0.070011416930745002 0.040386384341807094 0 -0.070558244658381383 0.04053940159167671 0 -0.070951906600851447 0.040252884922940831 0 -0.070440666837025073 0.039997326627941233 0 -0.071129382403726377 0.040494669404026996 0 -0.070558244658381383 0.04053940159167671 0 -0.070951906600851447 0.040252884922940831 0 -0.071069428549343214 0.039995483479787403 0 -0.070951906600851447 0.040252884922940831 0 -0.070440666837025073 0.039997326627941233 0 -0.071069428549343214 0.039995483479787403 0 -0.070440666837025073 0.039997326627941233 0 -0.070850233973233923 0.039680689100202809 0 -0.067493091620393686 0.03444042795739008 0 -0.066900066872791999 0.029890540370554344 0 -0.067493091620393686 0.03444042795739008 0 -0.067308036936104751 0.037303155807148526 0 -0.070332812237898612 0.035489751473434208 0 -0.069536338392166247 0.033024873896030947 0 -0.072294657775303292 0.033489985910804619 0 -0.070332812237898612 0.035489751473434208 0 -0.069536338392166247 0.033024873896030947 0 -0.067421519971858149 0.03489625442045538 0 -0.068808697214123679 0.030659540758226619 0 -0.066900066872791999 0.029890540370554344 0 -0.069536338392166247 0.033024873896030947 0 -0.072211569832775824 0.033432869143784912 0 -0.071602732242835088 0.03161604856234948 0 -0.064999945102446374 0.03260415121293328 0 -0.067421519971858149 0.03489625442045538 0 -0.067379408351957382 0.032059817983572006 0 -0.064999945102446374 0.03260415121293328 0 -0.067421519971858149 0.03489625442045538 0 -0.064999991098271398 0.036017584573217139 0 -0.069536338392166247 0.033024873896030947 0 -0.067421519971858149 0.03489625442045538 0 -0.067379408351957382 0.032059817983572006 0 -0.070332812237898612 0.035489751473434208 0 -0.067421519971858149 0.03489625442045538 0 -0.068379807024639375 0.037493248433416705 0 -0.067421519971858149 0.03489625442045538 0 -0.064999991098271398 0.036017584573217139 0 -0.06642508618233102 0.03746875107986166 0 -0.064999991098271398 0.036017584573217139 0 -0.06642508618233102 0.03746875107986166 0 -0.064999983532816261 0.039430986254120552 0 -0.067421519971858149 0.03489625442045538 0 -0.06642508618233102 0.03746875107986166 0 -0.068379807024639375 0.037493248433416705 0 -0.06642508618233102 0.03746875107986166 0 -0.068379807024639375 0.037493248433416705 0 -0.066420166267327385 0.039493023710324413 0 -0.067308036936104751 0.037303155807148526 0 -0.066197758895574721 0.039691568645572578 0 -0.068717344438366856 0.040176761733453241 0 -0.066197758895574721 0.039691568645572578 0 -0.068472002172495203 0.040539679394221304 0 -0.066089695555033467 0.040207906793227638 0 -0.066361016316015667 0.04146008746566493 0 -0.070232835201115354 0.040811644831196404 0 -0.070011416930745002 0.040386384341807094 0 -0.069608576349147577 0.040777612886305541 0 -0.065002716378432981 0.039432050159047403 0 -0.066197758895574721 0.039691568645572578 0 -0.06642508618233102 0.03746875107986166 0 -0.064999983532816261 0.039430986254120552 0 -0.066420166267327385 0.039493023710324413 0 -0.066089695555033467 0.040207906793227638 0 -0.064999635662341168 0.040943926233433778 0 -0.066361016316015667 0.04146008746566493 0 -0.064999998097066039 0.03943103568039754 0 -0.066427907040932085 0.039504837630570715 0 -0.064999998860867797 0.04094253057902273 0 -0.066197758895574721 0.039691568645572578 0 -0.065001832845411528 0.040940569257914061 0 -0.066361016316015667 0.04146008746566493 0 -0.065000087832109199 0.043258522402729281 0 -0.067211338833809989 0.042610708845321879 0 -0.064999635662341168 0.040943926233433778 0 -0.066361016316015667 0.04146008746566493 0 -0.065000087832109199 0.043258522402729281 0 -0.065000087832109199 0.043258522402729281 0 -0.06648061602890952 0.044516066401130261 0 -0.067211338833809989 0.042610708845321879 0 -0.065000087832109199 0.043258522402729281 0 -0.06648061602890952 0.044516066401130261 0 -0.064998328477953962 0.045574262180125384 0 -0.06648061602890952 0.044516066401130261 0 -0.067211338833809989 0.042610708845321879 0 -0.06814188731469091 0.043786841029656409 0 -0.06648061602890952 0.044516066401130261 0 -0.06814188731469091 0.043786841029656409 0 -0.067985707369700096 0.045762759448366365 0 -0.068472002172495203 0.040539679394221304 0 -0.066361016316015667 0.04146008746566493 0 -0.067211338833809989 0.042610708845321879 0 -0.068472002172495203 0.040539679394221304 0 -0.067211338833809989 0.042610708845321879 0 -0.069319036683755914 0.04247038810758421 0 -0.070811210952994863 0.040912305481677812 0 -0.069319036683755914 0.04247038810758421 0 -0.071022182780675638 0.04241215212267168 0 -0.069319036683755914 0.04247038810758421 0 -0.071022182780675638 0.04241215212267168 0 -0.070612991717622767 0.044551881447085447 0 -0.069319036683755914 0.04247038810758421 0 -0.070612991717622767 0.044551881447085447 0 -0.06814188731469091 0.043786841029656409 0 -0.067211338833809989 0.042610708845321879 0 -0.069319036683755914 0.04247038810758421 0 -0.06814188731469091 0.043786841029656409 0 -0.067985707369700096 0.045762759448366365 0 -0.070136258194044815 0.046936050611025834 0 -0.068485056144422018 0.047659071439761676 0 -0.070612991717622767 0.044551881447085447 0 -0.067985707369700096 0.045762759448366365 0 -0.070136258194044815 0.046936050611025834 0 -0.070612991717622767 0.044551881447085447 0 -0.06814188731469091 0.043786841029656409 0 -0.067985707369700096 0.045762759448366365 0 -0.072549602188615545 0.048123410744357525 0 -0.070612991717622767 0.044551881447085447 0 -0.070136258194044815 0.046936050611025834 0 -0.072549602188615545 0.048123410744357525 0 -0.070136258194044815 0.046936050611025834 0 -0.069751324004530726 0.048907755106484499 0 -0.067534805184072372 0.049309345851249672 0 -0.069751324004530726 0.048907755106484499 0 -0.068485056144422018 0.047659071439761676 0 -0.070136258194044815 0.046936050611025834 0 -0.069751324004530726 0.048907755106484499 0 -0.068485056144422018 0.047659071439761676 0 -0.066742235267816696 0.047553134394804901 0 -0.065030067069286365 0.048351035739621087 0 -0.066099914330602125 0.046254509440093933 0 -0.067534805184072372 0.049309345851249672 0 -0.068485056144422018 0.047659071439761676 0 -0.066742235267816696 0.047553134394804901 0 -0.066229897666329321 0.049408551143993604 0 -0.067534805184072372 0.049309345851249672 0 -0.066742235267816696 0.047553134394804901 0 -0.067985707369700096 0.045762759448366365 0 -0.068485056144422018 0.047659071439761676 0 -0.066742235267816696 0.047553134394804901 0 -0.066229897666329321 0.049408551143993604 0 -0.066742235267816696 0.047553134394804901 0 -0.065030067069286365 0.048351035739621087 0 -0.065030067069286365 0.048351035739621087 0 -0.064998328477953962 0.045574262180125384 0 -0.066099914330602125 0.046254509440093933 0 -0.064999630207794951 0.049126612077329858 0 -0.066216968350427036 0.048428692736163667 0 -0.065000144948786212 0.045574377036245839 0 -0.065675264538693504 0.048565537505600512 0 -0.065000186928204112 0.0455781144911937 0 -0.06648061602890952 0.044516066401130261 0 -0.064998328477953962 0.045574262180125384 0 -0.066099914330602125 0.046254509440093933 0 -0.06648061602890952 0.044516066401130261 0 -0.067985707369700096 0.045762759448366365 0 -0.066099914330602125 0.046254509440093933 0 -0.067985707369700096 0.045762759448366365 0 -0.066742235267816696 0.047553134394804901 0 -0.066099914330602125 0.046254509440093933 0 -0.067232904146825326 0.018414507786262312 0 -0.068087239059573229 0.019074847649398284 0 -0.06842538812579213 0.0178736703832869 0 -0.067232904146825326 0.018414507786262312 0 -0.068087239059573229 0.019074847649398284 0 -0.066711443576431592 0.01985377108390116 0 -0.068087239059573229 0.019074847649398284 0 -0.06842538812579213 0.0178736703832869 0 -0.069404124157191285 0.018669976085063166 0 -0.068087239059573229 0.019074847649398284 0 -0.069404124157191285 0.018669976085063166 0 -0.068343732820299444 0.020450567728373205 0 -0.068087239059573229 0.019074847649398284 0 -0.066711443576431592 0.01985377108390116 0 -0.068343732820299444 0.020450567728373205 0 -0.067232904146825326 0.018414507786262312 0 -0.066711443576431592 0.01985377108390116 0 -0.064999953303255947 0.017944937037766669 0 -0.066711443576431592 0.01985377108390116 0 -0.064999953303255947 0.017944937037766669 0 -0.064999937345982986 0.021620282251785583 0 -0.067232904146825326 0.018414507786262312 0 -0.064999953303255947 0.017944937037766669 0 -0.067802030340090996 0.016746314794311764 0 -0.064999953303255947 0.017944937037766669 0 -0.067802030340090996 0.016746314794311764 0 -0.06687904945521099 0.015086864615441798 0 -0.067232904146825326 0.018414507786262312 0 -0.067802030340090996 0.016746314794311764 0 -0.06842538812579213 0.0178736703832869 0 -0.067802030340090996 0.016746314794311764 0 -0.06842538812579213 0.0178736703832869 0 -0.069377201417395978 0.016964414485489784 0 -0.067802030340090996 0.016746314794311764 0 -0.069377201417395978 0.016964414485489784 0 -0.068877443564196741 0.015297515388658716 0 -0.069377201417395978 0.016964414485489784 0 -0.07074415860552323 0.017460873163627134 0 -0.070500085698124784 0.015651153436232246 0 -0.069377201417395978 0.016964414485489784 0 -0.07074415860552323 0.017460873163627134 0 -0.069404124157191285 0.018669976085063166 0 -0.06842538812579213 0.0178736703832869 0 -0.069377201417395978 0.016964414485489784 0 -0.069404124157191285 0.018669976085063166 0 -0.07074415860552323 0.017460873163627134 0 -0.072728100141578697 0.01785485384148602 0 -0.072287458309936284 0.016123287335130375 0 -0.07074415860552323 0.017460873163627134 0 -0.072287458309936284 0.016123287335130375 0 -0.070500085698124784 0.015651153436232246 0 -0.062238717985188374 0.020350830489158356 0 -0.062702094844854353 0.018607443741729304 0 -0.07074415860552323 0.017460873163627134 0 -0.070186625831263019 0.019280770661941601 0 -0.072728100141578697 0.01785485384148602 0 -0.05817220749484759 0.019581297963503948 0 -0.057973391160270824 0.019673770993172326 0 -0.058023904478724415 0.019898129630223575 0 -0.058364760567486525 0.019733102309272586 0 -0.05817220749484759 0.019581297963503948 0 -0.058023904478724415 0.019898129630223575 0 -0.062238717985188374 0.020350830489158356 0 -0.05850513134031235 0.01989952166496298 0 -0.062769634551352274 0.020558650371203691 0 -0.062238717985188374 0.020350830489158356 0 -0.07074415860552323 0.017460873163627134 0 -0.069404124157191285 0.018669976085063166 0 -0.070186625831263019 0.019280770661941601 0 -0.069404124157191285 0.018669976085063166 0 -0.070271911878656612 0.019380332417329494 0 -0.068343732820299444 0.020450567728373205 0 -0.057520071086586161 0.027480673588595593 0 -0.059334457586310382 0.025435917244941653 0 -0.061236765646608772 0.025561271720728636 0 -0.062238717985188374 0.020350830489158356 0 -0.063503680731702594 0.021333660484203546 0 -0.058165346192174977 0.024988352574321523 0 -0.055873838751783041 0.023794301635543226 0 -0.060418332055379026 0.023706281746916722 0 -0.055873838751783041 0.023794301635543226 0 -0.058230060302681713 0.020719194351751985 0 -0.060229443998280577 0.023724745977128075 0 -0.059638750357115369 0.022737533441293169 0 -0.061236451861600566 0.022565249429562791 0 -0.059334457586310382 0.025435917244941653 0 -0.058165346192174977 0.024988352574321523 0 -0.060418332055379026 0.023706281746916722 0 -0.057520071086586161 0.027480673588595593 0 -0.059334457586310382 0.025435917244941653 0 -0.058165346192174977 0.024988352574321523 0 -0.057520071086586161 0.027480673588595593 0 -0.058165346192174977 0.024988352574321523 0 -0.054612086092110858 0.02513650906342001 0 -0.054612086092110858 0.02513650906342001 0 -0.055873838751783041 0.023794301635543226 0 -0.051713623402960721 0.022785153842731089 0 -0.058165346192174977 0.024988352574321523 0 -0.054612086092110858 0.02513650906342001 0 -0.055873838751783041 0.023794301635543226 0 -0.05850513134031235 0.01989952166496298 0 -0.055241143641647047 0.018998532530760052 0 -0.055873838751783041 0.023794301635543226 0 -0.055977509718021422 0.017252797822838412 0 -0.051713623402960721 0.022785153842731089 0 -0.055123560095863104 0.018911733851927345 0 -0.055241143641647047 0.018998532530760052 0 -0.055977509718021422 0.017252797822838412 0 -0.053237480489476068 0.017883676195936171 0 -0.053010193717552806 0.020578270384388392 0 -0.055873838751783041 0.023794301635543226 0 -0.058230060302681713 0.020719194351751985 0 -0.055977509718021422 0.017252797822838412 0 -0.058230060302681713 0.020719194351751985 0 -0.060427572351763832 0.02081630150007974 0 -0.060229443998280577 0.023724745977128075 0 -0.058230060302681713 0.020719194351751985 0 -0.058955200411793453 0.018117132751699325 0 -0.055977509718021422 0.017252797822838412 0 -0.058230060302681713 0.020719194351751985 0 -0.060427572351763832 0.02081630150007974 0 -0.058955200411793453 0.018117132751699325 0 -0.060427572351763832 0.02081630150007974 0 -0.062090828878468271 0.017934664157804831 0 -0.058955200411793453 0.018117132751699325 0 -0.062646036231465668 0.021637287564638761 0 -0.060427572351763832 0.02081630150007974 0 -0.062090828878468271 0.017934664157804831 0 -0.062646036231465668 0.021637287564638761 0 -0.060427572351763832 0.02081630150007974 0 -0.060229443998280577 0.023724745977128075 0 -0.061236451861600566 0.022565249429562791 0 -0.06417315554427741 0.0220368843538069 0 -0.060418332055379026 0.023706281746916722 0 -0.061236765646608772 0.025561271720728636 0 -0.064956486743999661 0.023635552419980093 0 -0.062646036231465668 0.021637287564638761 0 -0.060229443998280577 0.023724745977128075 0 -0.064368171236119542 0.023558940472663211 0 -0.066711443576431592 0.01985377108390116 0 -0.068343732820299444 0.020450567728373205 0 -0.066427825452367695 0.02153837808050145 0 -0.063503680731702594 0.021333660484203546 0 -0.06417315554427741 0.0220368843538069 0 -0.059334457586310382 0.025435917244941653 0 -0.060418332055379026 0.023706281746916722 0 -0.061236765646608772 0.025561271720728636 0 -0.066711443576431592 0.01985377108390116 0 -0.066427825452367695 0.02153837808050145 0 -0.064999937345982986 0.021620282251785583 0 -0.06417315554427741 0.0220368843538069 0 -0.064997792800417634 0.022362239378560623 0 -0.066469373107511068 0.021598657447404097 0 -0.064999993645498771 0.021620499434356615 0 -0.065000002570364632 0.022363915618954944 0 -0.06417315554427741 0.0220368843538069 0 -0.06499853197985625 0.021622240552491723 0 -0.064368171236119542 0.023558940472663211 0 -0.065314562883089955 0.022499766805492965 0 -0.06500075321810829 0.022363421825390181 0 -0.065314562883089955 0.022499766805492965 0 -0.06500075321810829 0.022363421825390181 0 -0.064999486338046406 0.025777291211660145 0 -0.062646036231465668 0.021637287564638761 0 -0.065314562883089955 0.022499766805492965 0 -0.062090828878468271 0.017934664157804831 0 -0.064546883260926641 0.022050498241947328 0 -0.064199281291901777 0.021837317710658062 0 -0.062646036231465668 0.021637287564638761 0 -0.064368171236119542 0.023558940472663211 0 -0.065314562883089955 0.022499766805492965 0 -0.065314562883089955 0.022499766805492965 0 -0.064999486338046406 0.025777291211660145 0 -0.067774257750128894 0.024863933716298105 0 -0.064999486338046406 0.025777291211660145 0 -0.067774257750128894 0.024863933716298105 0 -0.067520888188763964 0.027580942122915772 0 -0.064199281291901777 0.021837317710658062 0 -0.063416296712650144 0.021694896341778354 0 -0.067774257750128894 0.024863933716298105 0 -0.067520888188763964 0.027580942122915772 0 -0.069927698143489023 0.027104560055134883 0 -0.064999486338046406 0.025777291211660145 0 -0.067520888188763964 0.027580942122915772 0 -0.065000110744514852 0.029190776012788675 0 -0.065000110744514852 0.029190776012788675 0 -0.067979534117419124 0.029747146393106948 0 -0.067379408351957382 0.032059817983572006 0 -0.067520888188763964 0.027580942122915772 0 -0.065000110744514852 0.029190776012788675 0 -0.067979534117419124 0.029747146393106948 0 -0.067520888188763964 0.027580942122915772 0 -0.067979534117419124 0.029747146393106948 0 -0.069857573388682315 0.029017121773242335 0 -0.069536338392166247 0.033024873896030947 0 -0.067379408351957382 0.032059817983572006 0 -0.07008205340692189 0.030822305456226232 0 -0.067979534117419124 0.029747146393106948 0 -0.067379408351957382 0.032059817983572006 0 -0.07008205340692189 0.030822305456226232 0 -0.064999945102446374 0.03260415121293328 0 -0.065000110744514852 0.029190776012788675 0 -0.067379408351957382 0.032059817983572006 0 -0.071602732242835088 0.03161604856234948 0 -0.072037357244109729 0.0293187041436807 0 -0.074124554551498703 0.031485323887941029 0 -0.071602732242835088 0.03161604856234948 0 -0.07008205340692189 0.030822305456226232 0 -0.072037357244109729 0.0293187041436807 0 -0.072211569832775824 0.033432869143784912 0 -0.071602732242835088 0.03161604856234948 0 -0.074124554551498703 0.031485323887941029 0 -0.069536338392166247 0.033024873896030947 0 -0.071602732242835088 0.03161604856234948 0 -0.07008205340692189 0.030822305456226232 0 -0.067979534117419124 0.029747146393106948 0 -0.07008205340692189 0.030822305456226232 0 -0.069857573388682315 0.029017121773242335 0 -0.07008205340692189 0.030822305456226232 0 -0.069857573388682315 0.029017121773242335 0 -0.072037357244109729 0.0293187041436807 0 -0.069857573388682315 0.029017121773242335 0 -0.072037357244109729 0.0293187041436807 0 -0.069927698143489023 0.027104560055134883 0 -0.054786556949063148 0.011389156639273999 0 -0.054939390356436885 0.014365416252581429 0 -0.053344523731664567 0.013241896272240808 0 -0.054786556949063148 0.011389156639273999 0 -0.054939390356436885 0.014365416252581429 0 -0.058091249926649643 0.014152925812223128 0 -0.062550618364191693 0.02228281256056738 0 -0.063416296712650144 0.021694896341778354 0 -0.067520888188763964 0.027580942122915772 0 -0.069857573388682315 0.029017121773242335 0 -0.069927698143489023 0.027104560055134883 0 -0.062090828878468271 0.017934664157804831 0 -0.058091249926649643 0.014152925812223128 0 -0.058955200411793453 0.018117132751699325 0 -0.058091249926649643 0.014152925812223128 0 -0.058955200411793453 0.018117132751699325 0 -0.055977509718021422 0.017252797822838412 0 -0.054939390356436885 0.014365416252581429 0 -0.055977509718021422 0.017252797822838412 0 -0.053237480489476068 0.017883676195936171 0 -0.054939390356436885 0.014365416252581429 0 -0.058091249926649643 0.014152925812223128 0 -0.055977509718021422 0.017252797822838412 0 -0.051579899240245121 0.016891478006774065 0 -0.052143072837555426 0.014821804532123204 0 -0.053237480489476068 0.017883676195936171 0 -0.054939390356436885 0.014365416252581429 0 -0.052143072837555426 0.014821804532123204 0 -0.053237480489476068 0.017883676195936171 0 -0.051579899240245121 0.016891478006774065 0 -0.050342044185169438 0.015896276173105885 0 -0.052143072837555426 0.014821804532123204 0 -0.050342044185169438 0.015896276173105885 0 -0.048046399311114596 0.015839835245889243 0 -0.050506875254813656 0.018490232500023303 0 -0.050890794286789109 0.016665417797073478 0 -0.052061124324561399 0.017351800449082758 0 -0.051579899240245121 0.016891478006774065 0 -0.050342044185169438 0.015896276173105885 0 -0.050506875254813656 0.018490232500023303 0 -0.050342044185169438 0.015896276173105885 0 -0.050181573975447064 0.014211808944958623 0 -0.052143072837555426 0.014821804532123204 0 -0.050342044185169438 0.015896276173105885 0 -0.050181573975447064 0.014211808944958623 0 -0.048046399311114596 0.015839835245889243 0 -0.050181573975447064 0.014211808944958623 0 -0.051562624810990436 0.012377504911285907 0 -0.048971841142004445 0.012121445048506176 0 -0.050181573975447064 0.014211808944958623 0 -0.048971841142004445 0.012121445048506176 0 -0.048046399311114596 0.015839835245889243 0 -0.054939390356436885 0.014365416252581429 0 -0.052143072837555426 0.014821804532123204 0 -0.053344523731664567 0.013241896272240808 0 -0.050181573975447064 0.014211808944958623 0 -0.052143072837555426 0.014821804532123204 0 -0.051562624810990436 0.012377504911285907 0 -0.052143072837555426 0.014821804532123204 0 -0.053344523731664567 0.013241896272240808 0 -0.051562624810990436 0.012377504911285907 0 -0.062550618364191693 0.02228281256056738 0 -0.06217071835970376 0.024766839192202818 0 -0.054786556949063148 0.011389156639273999 0 -0.052036884213349351 0.010630018932495553 0 -0.052017149573062603 0.0089726955303978898 0 -0.054786556949063148 0.011389156639273999 0 -0.053344523731664567 0.013241896272240808 0 -0.051562624810990436 0.012377504911285907 0 -0.054786556949063148 0.011389156639273999 0 -0.052036884213349351 0.010630018932495553 0 -0.051562624810990436 0.012377504911285907 0 -0.052036884213349351 0.010630018932495553 0 -0.051562624810990436 0.012377504911285907 0 -0.050476872437162763 0.010850270548781285 0 -0.052036884213349351 0.010630018932495553 0 -0.050476872437162763 0.010850270548781285 0 -0.051428312000766738 0.0095765347555441995 0 -0.051562624810990436 0.012377504911285907 0 -0.048971841142004445 0.012121445048506176 0 -0.050476872437162763 0.010850270548781285 0 -0.048971841142004445 0.012121445048506176 0 -0.050476872437162763 0.010850270548781285 0 -0.049848384987791768 0.0093315108639382 0 -0.049330307082693758 0.0079754905629628812 0 -0.049848384987791768 0.0093315108639382 0 -0.051922198312385134 0.0090862047125730636 0 -0.049848384987791768 0.0093315108639382 0 -0.051922198312385134 0.0090862047125730636 0 -0.051428312000766738 0.0095765347555441995 0 -0.048971841142004445 0.012121445048506176 0 -0.049848384987791768 0.0093315108639382 0 -0.048342904168700768 0.0089624837014554114 0 -0.050476872437162763 0.010850270548781285 0 -0.049848384987791768 0.0093315108639382 0 -0.051428312000766738 0.0095765347555441995 0 -0.049330307082693758 0.0079754905629628812 0 -0.049848384987791768 0.0093315108639382 0 -0.048342904168700768 0.0089624837014554114 0 -0.052036884213349351 0.010630018932495553 0 -0.052017149573062603 0.0089726955303978898 0 -0.051428312000766738 0.0095765347555441995 0 -0.06217071835970376 0.024766839192202818 0 -0.062131150175043677 0.024508286831240136 0 -0.044732775398086295 0.0081397688888126436 0 -0.04609772403171461 0.0089080646470152194 0 -0.044554356023458294 0.010136455039341597 0 -0.046366343474754823 0.010238862077844822 0 -0.04609772403171461 0.0089080646470152194 0 -0.044554356023458294 0.010136455039341597 0 -0.046366343474754823 0.010238862077844822 0 -0.04609772403171461 0.0089080646470152194 0 -0.048022983598975159 0.0093546249498778194 0 -0.051727725282235022 0.011853464800995483 0 -0.052795564904122703 0.013311886096637984 0 -0.048971841142004445 0.012121445048506176 0 -0.046366343474754823 0.010238862077844822 0 -0.045346773470183933 0.011948401134466049 0 -0.048971841142004445 0.012121445048506176 0 -0.046366343474754823 0.010238862077844822 0 -0.048022983598975159 0.0093546249498778194 0 -0.046366343474754823 0.010238862077844822 0 -0.045346773470183933 0.011948401134466049 0 -0.044554356023458294 0.010136455039341597 0 -0.045346773470183933 0.011948401134466049 0 -0.046276012035784693 0.014267042485571538 0 -0.043903707698513941 0.014939814950931584 0 -0.048971841142004445 0.012121445048506176 0 -0.045346773470183933 0.011948401134466049 0 -0.046276012035784693 0.014267042485571538 0 -0.048971841142004445 0.012121445048506176 0 -0.046276012035784693 0.014267042485571538 0 -0.048046399311114596 0.015839835245889243 0 -0.046276012035784693 0.014267042485571538 0 -0.048046399311114596 0.015839835245889243 0 -0.045812694323946357 0.01628619744341377 0 -0.046276012035784693 0.014267042485571538 0 -0.045812694323946357 0.01628619744341377 0 -0.043903707698513941 0.014939814950931584 0 -0.045812694323946357 0.01628619744341377 0 -0.045995415757483803 0.018718592806171809 0 -0.047338186702017421 0.017411019765305426 0 -0.045812694323946357 0.01628619744341377 0 -0.045995415757483803 0.018718592806171809 0 -0.044455744965833634 0.01751550695855494 0 -0.045995415757483803 0.018718592806171809 0 -0.047930009306079865 0.018677958797169502 0 -0.047014694521848713 0.020564955137729685 0 -0.045995415757483803 0.018718592806171809 0 -0.047930009306079865 0.018677958797169502 0 -0.047338186702017421 0.017411019765305426 0 -0.048046399311114596 0.015839835245889243 0 -0.047338186702017421 0.017411019765305426 0 -0.048391743218178081 0.017298485503972585 0 -0.048046399311114596 0.015839835245889243 0 -0.045812694323946357 0.01628619744341377 0 -0.047338186702017421 0.017411019765305426 0 -0.047930009306079865 0.018677958797169502 0 -0.047338186702017421 0.017411019765305426 0 -0.048391743218178081 0.017298485503972585 0 -0.048046399311114596 0.015839835245889243 0 -0.049322617710450219 0.016908421290857917 0 -0.048391743218178081 0.017298485503972585 0 -0.049322617710450219 0.016908421290857917 0 -0.049338982583561432 0.017803442237844282 0 -0.048391743218178081 0.017298485503972585 0 -0.051579899240245121 0.016891478006774065 0 -0.050506875254813656 0.018490232500023303 0 -0.053237480489476068 0.017883676195936171 0 -0.050506875254813656 0.018490232500023303 0 -0.053237480489476068 0.017883676195936171 0 -0.053010193717552806 0.020578270384388392 0 -0.052061124324561399 0.017351800449082758 0 -0.055241143641647047 0.018998532530760052 0 -0.049322617710450219 0.016908421290857917 0 -0.049338982583561432 0.017803442237844282 0 -0.05075828174320237 0.018048137051328298 0 -0.05817220749484759 0.019581297963503948 0 -0.057983780021825873 0.019432888082344939 0 -0.057973391160270824 0.019673770993172326 0 -0.057983780021825873 0.019432888082344939 0 -0.057714201414428193 0.019782413414793823 0 -0.057973391160270824 0.019673770993172326 0 -0.055241143641647047 0.018998532530760052 0 -0.053450669197327147 0.019933302763837722 0 -0.049338982583561432 0.017803442237844282 0 -0.05075828174320237 0.018048137051328298 0 -0.049138441208917125 0.02017810786712074 0 -0.052528129257430591 0.019270805752286284 0 -0.053450669197327147 0.019933302763837722 0 -0.047930009306079865 0.018677958797169502 0 -0.049338982583561432 0.017803442237844282 0 -0.049152503491237343 0.020347816824601839 0 -0.047930009306079865 0.018677958797169502 0 -0.049338982583561432 0.017803442237844282 0 -0.048391743218178081 0.017298485503972585 0 -0.057714201414428193 0.019782413414793823 0 -0.057973391160270824 0.019673770993172326 0 -0.058023904478724415 0.019898129630223575 0 -0.062702094844854353 0.018607443741729304 0 -0.057197757013409165 0.019085339923422224 0 -0.057714201414428193 0.019782413414793823 0 -0.058023904478724415 0.019898129630223575 0 -0.057687582889633007 0.020062206219954141 0 -0.072728100141578697 0.01785485384148602 0 -0.075210673859101837 0.016489314714029681 0 -0.072287458309936284 0.016123287335130375 0 -0.049292997265749761 0.020278234961332121 0 -0.049092647426488799 0.022282114044030254 0 -0.047658317767399663 0.022418889275297223 0 -0.053450669197327147 0.019933302763837722 0 -0.051203813817380345 0.021758213564506943 0 -0.053450669197327147 0.019933302763837722 0 -0.057197757013409165 0.019085339923422224 0 -0.049152503491237343 0.020347816824601839 0 -0.047658317767399663 0.022418889275297223 0 -0.047014694521848713 0.020564955137729685 0 -0.047658317767399663 0.022418889275297223 0 -0.046151372676740188 0.022239091400967904 0 -0.047014694521848713 0.020564955137729685 0 -0.045066335053717321 0.020995358666528338 0 -0.046151372676740188 0.022239091400967904 0 -0.044424490887487934 0.023162861744015578 0 -0.045066335053717321 0.020995358666528338 0 -0.046151372676740188 0.022239091400967904 0 -0.047014694521848713 0.020564955137729685 0 -0.045995415757483803 0.018718592806171809 0 -0.045066335053717321 0.020995358666528338 0 -0.043675134635378497 0.019146169469952679 0 -0.045995415757483803 0.018718592806171809 0 -0.045066335053717321 0.020995358666528338 0 -0.047014694521848713 0.020564955137729685 0 -0.047930009306079865 0.018677958797169502 0 -0.049152503491237343 0.020347816824601839 0 -0.047014694521848713 0.020564955137729685 0 -0.043045096097611153 0.021298720615356804 0 -0.040810251674978898 0.021593676523670256 0 -0.040827502850519864 0.019343577694487378 0 -0.043045096097611153 0.021298720615356804 0 -0.040827502850519864 0.019343577694487378 0 -0.043675134635378497 0.019146169469952679 0 -0.045066335053717321 0.020995358666528338 0 -0.043045096097611153 0.021298720615356804 0 -0.043675134635378497 0.019146169469952679 0 -0.045066335053717321 0.020995358666528338 0 -0.043045096097611153 0.021298720615356804 0 -0.044424490887487934 0.023162861744015578 0 -0.043045096097611153 0.021298720615356804 0 -0.040810251674978898 0.021593676523670256 0 -0.042180159661674481 0.023461814725115673 0 -0.040810251674978898 0.021593676523670256 0 -0.038647002850340326 0.022414982890332499 0 -0.040298453585348677 0.023428187455789659 0 -0.040810251674978898 0.021593676523670256 0 -0.038647002850340326 0.022414982890332499 0 -0.037958772906153557 0.01958190575398408 0 -0.038647002850340326 0.022414982890332499 0 -0.037958772906153557 0.01958190575398408 0 -0.036738981697186916 0.021744868376940684 0 -0.040810251674978898 0.021593676523670256 0 -0.037958772906153557 0.01958190575398408 0 -0.040827502850519864 0.019343577694487378 0 -0.040827502850519864 0.019343577694487378 0 -0.0389693495630428 0.017167499047335975 0 -0.042213950455999648 0.016640205300037434 0 -0.037958772906153557 0.01958190575398408 0 -0.0389693495630428 0.017167499047335975 0 -0.035832518606815404 0.01726343049938488 0 -0.037958772906153557 0.01958190575398408 0 -0.040827502850519864 0.019343577694487378 0 -0.0389693495630428 0.017167499047335975 0 -0.0389693495630428 0.017167499047335975 0 -0.039732011828558809 0.014863790497657205 0 -0.036514772038273642 0.014348299252534941 0 -0.0389693495630428 0.017167499047335975 0 -0.042213950455999648 0.016640205300037434 0 -0.039732011828558809 0.014863790497657205 0 -0.040827502850519864 0.019343577694487378 0 -0.042542283157121795 0.017200911347640228 0 -0.043675134635378497 0.019146169469952679 0 -0.041709331782543005 0.018005112869773757 0 -0.04245985813644447 0.016765798587498392 0 -0.042542283157121795 0.017200911347640228 0 -0.043675134635378497 0.019146169469952679 0 -0.044455744965833634 0.01751550695855494 0 -0.045995415757483803 0.018718592806171809 0 -0.043675134635378497 0.019146169469952679 0 -0.044455744965833634 0.01751550695855494 0 -0.045812694323946357 0.01628619744341377 0 -0.044455744965833634 0.01751550695855494 0 -0.043903707698513941 0.014939814950931584 0 -0.042542283157121795 0.017200911347640228 0 -0.044455744965833634 0.01751550695855494 0 -0.043903707698513941 0.014939814950931584 0 -0.04245985813644447 0.016765798587498392 0 -0.04371074472448834 0.014685293213194938 0 -0.042213950455999648 0.016640205300037434 0 -0.041686048144228723 0.01398213500779741 0 -0.039732011828558809 0.014863790497657205 0 -0.042213950455999648 0.016640205300037434 0 -0.043692589589741482 0.014235814461549392 0 -0.041686048144228723 0.01398213500779741 0 -0.043692589589741482 0.014235814461549392 0 -0.041686048144228723 0.01398213500779741 0 -0.042413100806345083 0.011500049842304003 0 -0.041686048144228723 0.01398213500779741 0 -0.042413100806345083 0.011500049842304003 0 -0.040358141419643459 0.012672537142097063 0 -0.044476269717672129 0.013401428417951699 0 -0.04371074472448834 0.014685293213194938 0 -0.045346773470183933 0.011948401134466049 0 -0.043692589589741482 0.014235814461549392 0 -0.042413100806345083 0.011500049842304003 0 -0.045346773470183933 0.011948401134466049 0 -0.042413100806345083 0.011500049842304003 0 -0.044554356023458294 0.010136455039341597 0 -0.04120464939754892 0.0082438359160955221 0 -0.042413100806345083 0.011500049842304003 0 -0.04325775849142733 0.0088711914894212922 0 -0.042413100806345083 0.011500049842304003 0 -0.04325775849142733 0.0088711914894212922 0 -0.044554356023458294 0.010136455039341597 0 -0.044732775398086295 0.0081397688888126436 0 -0.04325775849142733 0.0088711914894212922 0 -0.044554356023458294 0.010136455039341597 0 -0.037345438964874501 0.0095169753147806343 0 -0.038423726574757566 0.011336313482979218 0 -0.035914619700632207 0.011167553632843269 0 -0.04120464939754892 0.0082438359160955221 0 -0.042413100806345083 0.011500049842304003 0 -0.039719861294790097 0.010327174840523567 0 -0.044298326415665029 0.015636076450289096 0 -0.041795668872967137 0.013571383812028003 0 -0.037345438964874501 0.0095169753147806343 0 -0.03945496164761101 0.0098554888049628732 0 -0.038423726574757566 0.011336313482979218 0 -0.039719861294790097 0.010327174840523567 0 -0.038197026126166433 0.012300775826465573 0 -0.040358141419643459 0.012672537142097063 0 -0.042413100806345083 0.011500049842304003 0 -0.039719861294790097 0.010327174840523567 0 -0.040358141419643459 0.012672537142097063 0 -0.038423726574757566 0.011336313482979218 0 -0.037407280762596383 0.012841657038348929 0 -0.035914619700632207 0.011167553632843269 0 -0.041795668872967137 0.013571383812028003 0 -0.039797664070064687 0.013814262902612501 0 -0.038197026126166433 0.012300775826465573 0 -0.040358141419643459 0.012672537142097063 0 -0.039732011828558809 0.014863790497657205 0 -0.041686048144228723 0.01398213500779741 0 -0.040358141419643459 0.012672537142097063 0 -0.039732011828558809 0.014863790497657205 0 -0.038197026126166433 0.012300775826465573 0 -0.039732011828558809 0.014863790497657205 0 -0.036514772038273642 0.014348299252534941 0 -0.036514772038273642 0.014348299252534941 0 -0.033696953634329924 0.013766210530429831 0 -0.034495862524585821 0.015414236707725393 0 -0.036514772038273642 0.014348299252534941 0 -0.035463320411449034 0.012801217701182047 0 -0.033696953634329924 0.013766210530429831 0 -0.037407280762596383 0.012841657038348929 0 -0.036514772038273642 0.014348299252534941 0 -0.035463320411449034 0.012801217701182047 0 -0.039797664070064687 0.013814262902612501 0 -0.038923543029209973 0.014304758934072275 0 -0.037407280762596383 0.012841657038348929 0 -0.035463320411449034 0.012801217701182047 0 -0.035914619700632207 0.011167553632843269 0 -0.035463320411449034 0.012801217701182047 0 -0.035914619700632207 0.011167553632843269 0 -0.033641073642743179 0.012283274389448436 0 -0.035089394645812948 0.0090560417260533571 0 -0.035914619700632207 0.011167553632843269 0 -0.033490132693239826 0.010487784661873721 0 -0.035914619700632207 0.011167553632843269 0 -0.033490132693239826 0.010487784661873721 0 -0.033641073642743179 0.012283274389448436 0 -0.031514243179257585 0.010765840297851178 0 -0.031548499427952133 0.011465764485434191 0 -0.032427540674849327 0.011336676450355224 0 -0.031548499427952133 0.011465764485434191 0 -0.032427540674849327 0.011336676450355224 0 -0.03177570819926915 0.012155320845531658 0 -0.034531597275854468 0.012776497236016239 0 -0.033715011275502485 0.012823790836776162 0 -0.033490132693239826 0.010487784661873721 0 -0.033641073642743179 0.012283274389448436 0 -0.03177570819926915 0.012155320845531658 0 -0.033641073642743179 0.012283274389448436 0 -0.03177570819926915 0.012155320845531658 0 -0.031501090603403434 0.0132179377495543 0 -0.033696953634329924 0.013766210530429831 0 -0.032229607731590053 0.014604070820456574 0 -0.031537069208822904 0.013017543125359883 0 -0.032389817649539361 0.013409859305542711 0 -0.031451820886965555 0.013133572305669961 0 -0.033641073642743179 0.012283274389448436 0 -0.033696953634329924 0.013766210530429831 0 -0.031501090603403434 0.0132179377495543 0 -0.035463320411449034 0.012801217701182047 0 -0.033641073642743179 0.012283274389448436 0 -0.033696953634329924 0.013766210530429831 0 -0.033696953634329924 0.013766210530429831 0 -0.032229607731590053 0.014604070820456574 0 -0.034495862524585821 0.015414236707725393 0 -0.032229607731590053 0.014604070820456574 0 -0.032811684336512444 0.016912133553313693 0 -0.030417031754455388 0.014899078846838935 0 -0.032229607731590053 0.014604070820456574 0 -0.032811684336512444 0.016912133553313693 0 -0.034495862524585821 0.015414236707725393 0 -0.032811684336512444 0.016912133553313693 0 -0.035832518606815404 0.01726343049938488 0 -0.034368581762316976 0.018765294972060722 0 -0.032811684336512444 0.016912133553313693 0 -0.034495862524585821 0.015414236707725393 0 -0.035832518606815404 0.01726343049938488 0 -0.036514772038273642 0.014348299252534941 0 -0.034495862524585821 0.015414236707725393 0 -0.035832518606815404 0.01726343049938488 0 -0.0389693495630428 0.017167499047335975 0 -0.036514772038273642 0.014348299252534941 0 -0.035832518606815404 0.01726343049938488 0 -0.035829427106458721 0.018462771977539399 0 -0.035717802976724354 0.019188207250328458 0 -0.037958772906153557 0.01958190575398408 0 -0.035832518606815404 0.01726343049938488 0 -0.0342583888976669 0.0205738732396046 0 -0.037958772906153557 0.01958190575398408 0 -0.0342583888976669 0.0205738732396046 0 -0.036738981697186916 0.021744868376940684 0 -0.038647002850340326 0.022414982890332499 0 -0.036738981697186916 0.021744868376940684 0 -0.037217226364932812 0.023442011543582914 0 -0.0342583888976669 0.0205738732396046 0 -0.036738981697186916 0.021744868376940684 0 -0.035457757829245283 0.023087535557158968 0 -0.0342583888976669 0.0205738732396046 0 -0.034107777845709203 0.02315006881943547 0 -0.035457757829245283 0.023087535557158968 0 -0.0342583888976669 0.0205738732396046 0 -0.032699433781765749 0.023630915179436364 0 -0.034107777845709203 0.02315006881943547 0 -0.035717802976724354 0.019188207250328458 0 -0.038573009837618126 0.016003990908955056 0 -0.032204812994246934 0.019438627282270544 0 -0.032943853536605804 0.018631261222326057 0 -0.033139231038997505 0.020501395297297293 0 -0.034368581762316976 0.018765294972060722 0 -0.032943853536605804 0.018631261222326057 0 -0.033139231038997505 0.020501395297297293 0 -0.032204812994246934 0.019438627282270544 0 -0.031701928037805624 0.018336380367414251 0 -0.032943853536605804 0.018631261222326057 0 -0.032204812994246934 0.019438627282270544 0 -0.031701928037805624 0.018336380367414251 0 -0.031254067855321012 0.019509426544115815 0 -0.032811684336512444 0.016912133553313693 0 -0.031701928037805624 0.018336380367414251 0 -0.032943853536605804 0.018631261222326057 0 -0.032811684336512444 0.016912133553313693 0 -0.034368581762316976 0.018765294972060722 0 -0.032943853536605804 0.018631261222326057 0 -0.033488304323023299 0.018677827674260707 0 -0.03322466395977193 0.018936831945832192 0 -0.033467993918575474 0.019832455223310969 0 -0.03300141257279994 0.019289900793466101 0 -0.033157304139166441 0.018572167081933644 0 -0.032154954721329586 0.019816401382504921 0 -0.033055566254874054 0.018159105789852553 0 -0.033157304139166441 0.018572167081933644 0 -0.032154954721329586 0.019816401382504921 0 -0.03300141257279994 0.019289900793466101 0 -0.033467993918575474 0.019832455223310969 0 -0.032154954721329586 0.019816401382504921 0 -0.03322466395977193 0.018936831945832192 0 -0.03300141257279994 0.019289900793466101 0 -0.033157304139166441 0.018572167081933644 0 -0.042446362338552375 0.012176470521927654 0 -0.042168164751101612 0.012181809728827826 0 -0.033488304323023299 0.018677827674260707 0 -0.03322466395977193 0.018936831945832192 0 -0.033157304139166441 0.018572167081933644 0 -0.03322466395977193 0.018936831945832192 0 -0.03300141257279994 0.019289900793466101 0 -0.033467993918575474 0.019832455223310969 0 -0.038573009837618126 0.016003990908955056 0 -0.034088691289717421 0.02036349309999411 0 -0.031610894132874989 0.020167774900361497 0 -0.032574216242512041 0.019953078508081867 0 -0.031895981539448004 0.02108826051402304 0 -0.031610894132874989 0.020167774900361497 0 -0.031948875194879073 0.019782357885908874 0 -0.032574216242512041 0.019953078508081867 0 -0.032204812994246934 0.019438627282270544 0 -0.031948875194879073 0.019782357885908874 0 -0.031254067855321012 0.019509426544115815 0 -0.031610894132874989 0.020167774900361497 0 -0.031948875194879073 0.019782357885908874 0 -0.031254067855321012 0.019509426544115815 0 -0.032204812994246934 0.019438627282270544 0 -0.031948875194879073 0.019782357885908874 0 -0.032574216242512041 0.019953078508081867 0 -0.037677904030273567 0.016176952659341458 0 -0.038573009837618126 0.016003990908955056 0 -0.033428294022825406 0.024481719422440183 0 -0.032699433781765749 0.023630915179436364 0 -0.034107777845709203 0.02315006881943547 0 -0.033504934985577522 0.018671995741988145 0 -0.033055566254874054 0.018159105789852553 0 -0.033157304139166441 0.018572167081933644 0 -0.042446362338552375 0.012176470521927654 0 -0.038573009837618126 0.016003990908955056 0 -0.033428294022825406 0.024481719422440183 0 -0.035457757829245283 0.023087535557158968 0 -0.036610991122608745 0.025444942298398596 0 -0.033428294022825406 0.024481719422440183 0 -0.034107777845709203 0.02315006881943547 0 -0.035457757829245283 0.023087535557158968 0 -0.035457757829245283 0.023087535557158968 0 -0.037217226364932812 0.023442011543582914 0 -0.036610991122608745 0.025444942298398596 0 -0.036738981697186916 0.021744868376940684 0 -0.035457757829245283 0.023087535557158968 0 -0.037217226364932812 0.023442011543582914 0 -0.037217226364932812 0.023442011543582914 0 -0.036610991122608745 0.025444942298398596 0 -0.038616899031853016 0.024515921767880765 0 -0.033488304323023299 0.018677827674260707 0 -0.034668592508623607 0.020091211459652637 0 -0.033467993918575474 0.019832455223310969 0 -0.061648439564166026 -0.0039441553202665177 0 -0.062447585357164999 -0.0037736140431857404 0 -0.062209390706847889 -0.0034642930181013635 0 -0.042446362338552375 0.012176470521927654 0 -0.048523927898033538 0.011613004927191282 0 -0.042446362338552375 0.012176470521927654 0 -0.048110274337159052 0.0088226916468194892 0 -0.034668592508623607 0.020091211459652637 0 -0.033990541112985953 0.020722977091935386 0 -0.033467993918575474 0.019832455223310969 0 -0.034668592508623607 0.020091211459652637 0 -0.034964121867062804 0.021181985950671514 0 -0.034582053424799593 0.020832823856086629 0 -0.034668592508623607 0.020091211459652637 0 -0.033990541112985953 0.020722977091935386 0 -0.034582053424799593 0.020832823856086629 0 -0.062209390706847889 -0.0034642930181013635 0 -0.062666873706986967 -0.0034960805080547987 0 -0.062627669354222232 -0.0033669801571162318 0 -0.048110274337159052 0.0088226916468194892 0 -0.054023552966209865 0.0063133132499968801 0 -0.062447585357164999 -0.0037736140431857404 0 -0.062209390706847889 -0.0034642930181013635 0 -0.062666873706986967 -0.0034960805080547987 0 -0.062209390706847889 -0.0034642930181013635 0 -0.062627669354222232 -0.0033669801571162318 0 -0.062717826164571513 -0.0031625288393777201 0 -0.062209390706847889 -0.0034642930181013635 0 -0.06271964141517633 -0.003131944905957037 0 -0.062717826164571513 -0.0031625288393777201 0 -0.034668592508623607 0.020091211459652637 0 -0.034964121867062804 0.021181985950671514 0 -0.035830857768632693 0.021454389243461085 0 -0.034964121867062804 0.021181985950671514 0 -0.034832455707181381 0.021751670328846649 0 -0.035263106262341623 0.021758539699683301 0 -0.034964121867062804 0.021181985950671514 0 -0.035263106262341623 0.021758539699683301 0 -0.035830857768632693 0.021454389243461085 0 -0.054023552966209865 0.0063133132499968801 0 -0.054033549542109892 0.0062762860715590858 0 -0.033990541112985953 0.020722977091935386 0 -0.034475496464777065 0.021325950004565958 0 -0.03369766672756918 0.021554830078821585 0 -0.033990541112985953 0.020722977091935386 0 -0.034582053424799593 0.020832823856086629 0 -0.034475496464777065 0.021325950004565958 0 -0.034964121867062804 0.021181985950671514 0 -0.034582053424799593 0.020832823856086629 0 -0.034475496464777065 0.021325950004565958 0 -0.034832455707181381 0.021751670328846649 0 -0.034475496464777065 0.021325950004565958 0 -0.034352859220513669 0.022061354402083153 0 -0.034964121867062804 0.021181985950671514 0 -0.034832455707181381 0.021751670328846649 0 -0.034475496464777065 0.021325950004565958 0 -0.034475496464777065 0.021325950004565958 0 -0.03369766672756918 0.021554830078821585 0 -0.034352859220513669 0.022061354402083153 0 -0.033990541112985953 0.020722977091935386 0 -0.03289491898221835 0.020900089380958994 0 -0.03369766672756918 0.021554830078821585 0 -0.03289491898221835 0.020900089380958994 0 -0.03369766672756918 0.021554830078821585 0 -0.032722472140377476 0.022094459693396223 0 -0.033990541112985953 0.020722977091935386 0 -0.03289491898221835 0.020900089380958994 0 -0.033467993918575474 0.019832455223310969 0 -0.03289491898221835 0.020900089380958994 0 -0.033467993918575474 0.019832455223310969 0 -0.032154954721329586 0.019816401382504921 0 -0.034088691289717421 0.02036349309999411 0 -0.032291458647263474 0.021995616126633626 0 -0.03289491898221835 0.020900089380958994 0 -0.032154954721329586 0.019816401382504921 0 -0.031277101738876829 0.02150142735876634 0 -0.03289491898221835 0.020900089380958994 0 -0.032722472140377476 0.022094459693396223 0 -0.031277101738876829 0.02150142735876634 0 -0.031855315589596526 0.023010838600682076 0 -0.032722472140377476 0.022094459693396223 0 -0.031277101738876829 0.02150142735876634 0 -0.031855315589596526 0.023010838600682076 0 -0.032722472140377476 0.022094459693396223 0 -0.033011345108150382 0.023313743147594306 0 -0.033593385505429715 0.02238363584012543 0 -0.032722472140377476 0.022094459693396223 0 -0.033011345108150382 0.023313743147594306 0 -0.033593385505429715 0.02238363584012543 0 -0.033011345108150382 0.023313743147594306 0 -0.034309936996399004 0.023102064457552075 0 -0.03369766672756918 0.021554830078821585 0 -0.033593385505429715 0.02238363584012543 0 -0.032722472140377476 0.022094459693396223 0 -0.033011345108150382 0.023313743147594306 0 -0.032011941478690478 0.024173337556071272 0 -0.03300021118392045 0.024370739515562026 0 -0.033011345108150382 0.023313743147594306 0 -0.03300021118392045 0.024370739515562026 0 -0.033762693720001097 0.023999573691853696 0 -0.031855315589596526 0.023010838600682076 0 -0.033011345108150382 0.023313743147594306 0 -0.032011941478690478 0.024173337556071272 0 -0.031855315589596526 0.023010838600682076 0 -0.032011941478690478 0.024173337556071272 0 -0.03116869224296584 0.023944136769200923 0 -0.032011941478690478 0.024173337556071272 0 -0.032215717632848098 0.024707954904886687 0 -0.031180734393013616 0.024468154975851374 0 -0.034242581055697371 0.013532398655614643 0 -0.033317917933611343 0.015252654118326743 0 -0.032011941478690478 0.024173337556071272 0 -0.03300021118392045 0.024370739515562026 0 -0.032392928367058711 0.025096914159567184 0 -0.034697549194734334 0.015943037606016175 0 -0.034242581055697371 0.013532398655614643 0 -0.03300021118392045 0.024370739515562026 0 -0.033985007303329075 0.025268136450891533 0 -0.033762693720001097 0.023999573691853696 0 -0.03300021118392045 0.024370739515562026 0 -0.032392928367058711 0.025096914159567184 0 -0.033985007303329075 0.025268136450891533 0 -0.027440982348846 -0.0044307271120729401 0 -0.023518422192212021 -0.0082315330828016051 0 -0.029773289235694816 -0.0074932702289394236 0 -0.034242581055697371 0.013532398655614643 0 -0.03543479634066872 0.0092700691695599344 0 -0.030907889145771864 0.022721994517266395 0 -0.030670726939308342 0.024044372336552895 0 -0.030139758232841072 0.021353873546412733 0 -0.027440982348846 -0.0044307271120729401 0 -0.023518422192212021 -0.0082315330828016051 0 -0.026075890222774095 -0.001043704326825166 0 -0.034242581055697371 0.013532398655614643 0 -0.03090290692379264 0.011119148228399326 0 -0.03114485852222762 0.023761955066487043 0 -0.030670726939308342 0.024044372336552895 0 -0.031180734393013616 0.024468154975851374 0 -0.030907889145771864 0.022721994517266395 0 -0.03114485852222762 0.023761955066487043 0 -0.031305391280809551 0.022445160169293186 0 -0.030907889145771864 0.022721994517266395 0 -0.03114485852222762 0.023761955066487043 0 -0.030670726939308342 0.024044372336552895 0 -0.036253380672865293 -0.0066663275611200156 0 -0.029773289235694816 -0.0074932702289394236 0 -0.033014815661949824 -0.0029364456619645905 0 -0.044552004327912988 0.0059971233339751184 0 -0.03543479634066872 0.0092700691695599344 0 -0.029773289235694816 -0.0074932702289394236 0 -0.02986982120510712 -0.0033684089569255339 0 -0.033014815661949824 -0.0029364456619645905 0 -0.027440982348846 -0.0044307271120729401 0 -0.029773289235694816 -0.0074932702289394236 0 -0.02986982120510712 -0.0033684089569255339 0 -0.035532757215208779 0.025424798349121213 0 -0.033985007303329075 0.025268136450891533 0 -0.034653123029751397 0.024248487080324826 0 -0.033985007303329075 0.025268136450891533 0 -0.033762693720001097 0.023999573691853696 0 -0.034653123029751397 0.024248487080324826 0 -0.035532757215208779 0.025424798349121213 0 -0.034653123029751397 0.024248487080324826 0 -0.035667006115136922 0.023450685466621293 0 -0.044552004327912988 0.0059971233339751184 0 -0.048949698072876226 0.0091516223406229499 0 -0.034653123029751397 0.024248487080324826 0 -0.035667006115136922 0.023450685466621293 0 -0.034309936996399004 0.023102064457552075 0 -0.035667006115136922 0.023450685466621293 0 -0.034309936996399004 0.023102064457552075 0 -0.0351050901749256 0.022424310505184376 0 -0.033762693720001097 0.023999573691853696 0 -0.034653123029751397 0.024248487080324826 0 -0.034309936996399004 0.023102064457552075 0 -0.033011345108150382 0.023313743147594306 0 -0.033762693720001097 0.023999573691853696 0 -0.034309936996399004 0.023102064457552075 0 -0.033593385505429715 0.02238363584012543 0 -0.034309936996399004 0.023102064457552075 0 -0.034352859220513669 0.022061354402083153 0 -0.034309936996399004 0.023102064457552075 0 -0.034352859220513669 0.022061354402083153 0 -0.0351050901749256 0.022424310505184376 0 -0.034832455707181381 0.021751670328846649 0 -0.034352859220513669 0.022061354402083153 0 -0.0351050901749256 0.022424310505184376 0 -0.03369766672756918 0.021554830078821585 0 -0.033593385505429715 0.02238363584012543 0 -0.034352859220513669 0.022061354402083153 0 -0.054023552966209865 0.0063133132499968801 0 -0.048949698072876226 0.0091516223406229499 0 -0.035830857768632693 0.021454389243461085 0 -0.035667006115136922 0.023450685466621293 0 -0.0351050901749256 0.022424310505184376 0 -0.034832455707181381 0.021751670328846649 0 -0.035263106262341623 0.021758539699683301 0 -0.0351050901749256 0.022424310505184376 0 -0.035263106262341623 0.021758539699683301 0 -0.035830857768632693 0.021454389243461085 0 -0.0351050901749256 0.022424310505184376 0 -0.061494447264485823 -0.0047166237798496472 0 -0.061369913610740338 -0.0029118983742783553 0 -0.062274443223324295 -0.0038545289420690819 0 -0.054023552966209865 0.0063133132499968801 0 -0.05629663396497718 0.0029253059152571687 0 -0.063250907748595625 -0.0031205293876419454 0 -0.063386317400754344 -0.0031378915251668426 0 -0.063351246561369104 -0.0031892757946380239 0 -0.063021454374459815 -0.003030506575984528 0 -0.063250907748595625 -0.0031205293876419454 0 -0.063013005146278472 -0.003186995911593252 0 -0.063021454374459815 -0.003030506575984528 0 -0.063250907748595625 -0.0031205293876419454 0 -0.063271981860717613 -0.0030663815612695933 0 -0.063021454374459815 -0.003030506575984528 0 -0.063271981860717613 -0.0030663815612695933 0 -0.063154781042557326 -0.0029388954727429593 0 -0.063250907748595625 -0.0031205293876419454 0 -0.063271981860717613 -0.0030663815612695933 0 -0.063448748361485258 -0.0031060516828267009 0 -0.063271981860717613 -0.0030663815612695933 0 -0.063154781042557326 -0.0029388954727429593 0 -0.063566240404163837 -0.0030883384765479894 0 -0.062274443223324295 -0.0038545289420690819 0 -0.063154781042557326 -0.0029388954727429593 0 -0.062276652807769832 -0.0029512455746948923 0 -0.05629663396497718 0.0029253059152571687 0 -0.057148278522445667 0.0020846646715066649 0 -0.063154781042557326 -0.0029388954727429593 0 -0.062276652807769832 -0.0029512455746948923 0 -0.063157025297185476 -0.0022152700058494235 0 -0.063154781042557326 -0.0029388954727429593 0 -0.063157025297185476 -0.0022152700058494235 0 -0.06364589685704744 -0.0027155391041708658 0 -0.061369913610740338 -0.0029118983742783553 0 -0.062274443223324295 -0.0038545289420690819 0 -0.062276652807769832 -0.0029512455746948923 0 -0.061369913610740338 -0.0029118983742783553 0 -0.062276652807769832 -0.0029512455746948923 0 -0.062118712385618967 -0.0020380386275690161 0 -0.061185814325487031 -0.0011142101068901129 0 -0.061369913610740338 -0.0029118983742783553 0 -0.062118712385618967 -0.0020380386275690161 0 -0.062118712385618967 -0.0020380386275690161 0 -0.063157025297185476 -0.0022152700058494235 0 -0.062753222013665774 -0.00083823429333818511 0 -0.062276652807769832 -0.0029512455746948923 0 -0.062118712385618967 -0.0020380386275690161 0 -0.063157025297185476 -0.0022152700058494235 0 -0.062753222013665774 -0.00083823429333818511 0 -0.064146917552868304 -0.0010332231371410242 0 -0.063812018186432395 0.0011285556549408223 0 -0.063157025297185476 -0.0022152700058494235 0 -0.062753222013665774 -0.00083823429333818511 0 -0.064146917552868304 -0.0010332231371410242 0 -0.058272408322645991 -0.001449200120484 0 -0.062753222013665774 -0.00083823429333818511 0 -0.060760401096661268 0.0014891635515086501 0 -0.044552004327912988 0.0059971233339751184 0 -0.055454311733034951 0.0051296947102692884 0 -0.061185814325487031 -0.0011142101068901129 0 -0.062118712385618967 -0.0020380386275690161 0 -0.062753222013665774 -0.00083823429333818511 0 -0.067843490924404476 -0.0016220631446543423 0 -0.070014756888138088 -0.0024015004091511808 0 -0.067568323032179189 0.00063590073003473547 0 -0.067843490924404476 -0.0016220631446543423 0 -0.065938460166741653 -0.0045090330714862873 0 -0.070014756888138088 -0.0024015004091511808 0 -0.070485529308607534 -0.00088126667567984727 0 -0.069695639693305084 -0.00021921866202932521 0 -0.064146917552868304 -0.0010332231371410242 0 -0.06451308808146182 -0.0019776055536629088 0 -0.065827539388803286 0.00011753973699363988 0 -0.065710254313016164 -0.0026183810933997891 0 -0.065716523003169824 -0.0015032544430529714 0 -0.067843490924404476 -0.0016220631446543423 0 -0.065938460166741653 -0.0045090330714862873 0 -0.065827539388803286 0.00011753973699363988 0 -0.063157025297185476 -0.0022152700058494235 0 -0.06451308808146182 -0.0019776055536629088 0 -0.06364589685704744 -0.0027155391041708658 0 -0.063157025297185476 -0.0022152700058494235 0 -0.064146917552868304 -0.0010332231371410242 0 -0.06451308808146182 -0.0019776055536629088 0 -0.065938460166741653 -0.0045090330714862873 0 -0.069218982067733831 -0.0071836467862438315 0 -0.070014756888138088 -0.0024015004091511808 0 -0.065938460166741653 -0.0045090330714862873 0 -0.069218982067733831 -0.0071836467862438315 0 -0.065835060106142415 -0.0088374663059987164 0 -0.064707354298436756 -0.00043650531851365253 0 -0.064358825901876457 -0.0013503165290291146 0 -0.065352362430450839 -0.0018579009550370438 0 -0.067504270444764994 -0.0023474566555514056 0 -0.065925007684443607 -0.003126272512639988 0 -0.064707354298436756 -0.00043650531851365253 0 -0.06342785533863167 -0.0010763311019146044 0 -0.064358825901876457 -0.0013503165290291146 0 -0.065710254313016164 -0.0026183810933997891 0 -0.065925007684443607 -0.003126272512639988 0 -0.06451308808146182 -0.0019776055536629088 0 -0.06364589685704744 -0.0027155391041708658 0 -0.063889293468891759 -0.0030511821510911113 0 -0.065925007684443607 -0.003126272512639988 0 -0.065819437366670813 -0.0031608196321756738 0 -0.063154781042557326 -0.0029388954727429593 0 -0.06364589685704744 -0.0027155391041708658 0 -0.063566240404163837 -0.0030883384765479894 0 -0.06364589685704744 -0.0027155391041708658 0 -0.063889293468891759 -0.0030511821510911113 0 -0.063566240404163837 -0.0030883384765479894 0 -0.063579710258970398 -0.0030665162774987974 0 -0.063448748361485258 -0.0031060516828267009 0 -0.063455771743409745 -0.0031354735412116191 0 -0.06342785533863167 -0.0010763311019146044 0 -0.063424217314518194 -0.0022466041930020208 0 -0.063817460505743759 -0.0016876486004650856 0 -0.065925007684443607 -0.003126272512639988 0 -0.065301066047165693 -0.0029186168710772665 0 -0.063579710258970398 -0.0030665162774987974 0 -0.063566240404163837 -0.0030883384765479894 0 -0.063448748361485258 -0.0031060516828267009 0 -0.063271981860717613 -0.0030663815612695933 0 -0.063566240404163837 -0.0030883384765479894 0 -0.063448748361485258 -0.0031060516828267009 0 -0.063424217314518194 -0.0022466041930020208 0 -0.063817460505743759 -0.0016876486004650856 0 -0.063794932347347413 -0.0021650738817424048 0 -0.063250907748595625 -0.0031205293876419454 0 -0.063448748361485258 -0.0031060516828267009 0 -0.063386317400754344 -0.0031378915251668426 0 -0.063448748361485258 -0.0031060516828267009 0 -0.063455771743409745 -0.0031354735412116191 0 -0.063386317400754344 -0.0031378915251668426 0 -0.064358825901876457 -0.0013503165290291146 0 -0.064169354077133561 -0.0018405654488460287 0 -0.064619946058847105 -0.0021136383269726388 0 -0.064358825901876457 -0.0013503165290291146 0 -0.064619946058847105 -0.0021136383269726388 0 -0.065352362430450839 -0.0018579009550370438 0 -0.06342785533863167 -0.0010763311019146044 0 -0.064358825901876457 -0.0013503165290291146 0 -0.063817460505743759 -0.0016876486004650856 0 -0.064358825901876457 -0.0013503165290291146 0 -0.063817460505743759 -0.0016876486004650856 0 -0.064169354077133561 -0.0018405654488460287 0 -0.064169354077133561 -0.0018405654488460287 0 -0.063794932347347413 -0.0021650738817424048 0 -0.064619946058847105 -0.0021136383269726388 0 -0.063817460505743759 -0.0016876486004650856 0 -0.064169354077133561 -0.0018405654488460287 0 -0.063794932347347413 -0.0021650738817424048 0 -0.063794932347347413 -0.0021650738817424048 0 -0.064619946058847105 -0.0021136383269726388 0 -0.065420894589691497 -0.0033463207620490995 0 -0.063794932347347413 -0.0021650738817424048 0 -0.063845310654425877 -0.0028786650617420883 0 -0.064933054225374889 -0.0031233343955254932 0 -0.063845310654425877 -0.0028786650617420883 0 -0.06357086919796559 -0.0034782845634141126 0 -0.064933054225374889 -0.0031233343955254932 0 -0.065204112153530225 0.0028556236084914207 0 -0.061472656556748939 0.0080309703880099247 0 -0.042863404058031775 0.027209392151082184 0 -0.0452301864870795 0.02661558002147979 0 -0.045925434689572345 0.028115111831200149 0 -0.054738687656179438 0.0097774464252858885 0 -0.061472656556748939 0.0080309703880099247 0 -0.043817833408614365 0.026156314737726689 0 -0.042863404058031775 0.027209392151082184 0 -0.0452301864870795 0.02661558002147979 0 -0.06357086919796559 -0.0034782845634141126 0 -0.063471071274142643 -0.0032232709094101152 0 -0.063230678517713537 -0.0033697866176885683 0 -0.042863404058031775 0.027209392151082184 0 -0.039781890711539314 0.026346832058284905 0 -0.042175024756685234 0.025986045200153764 0 -0.043817833408614365 0.026156314737726689 0 -0.042863404058031775 0.027209392151082184 0 -0.042175024756685234 0.025986045200153764 0 -0.063424217314518194 -0.0022466041930020208 0 -0.063845310654425877 -0.0028786650617420883 0 -0.063471071274142643 -0.0032232709094101152 0 -0.063471071274142643 -0.0032232709094101152 0 -0.063351246561369104 -0.0031892757946380239 0 -0.063230678517713537 -0.0033697866176885683 0 -0.063455771743409745 -0.0031354735412116191 0 -0.063471071274142643 -0.0032232709094101152 0 -0.063351246561369104 -0.0031892757946380239 0 -0.065301066047165693 -0.0029186168710772665 0 -0.065106189333220876 -0.0029679623176826308 0 -0.063845310654425877 -0.0028786650617420883 0 -0.06357086919796559 -0.0034782845634141126 0 -0.063471071274142643 -0.0032232709094101152 0 -0.063424217314518194 -0.0022466041930020208 0 -0.063794932347347413 -0.0021650738817424048 0 -0.063845310654425877 -0.0028786650617420883 0 -0.063455771743409745 -0.0031354735412116191 0 -0.063386317400754344 -0.0031378915251668426 0 -0.063351246561369104 -0.0031892757946380239 0 -0.063013005146278472 -0.003186995911593252 0 -0.06288652728521528 -0.0033437506480808433 0 -0.063230678517713537 -0.0033697866176885683 0 -0.063351246561369104 -0.0031892757946380239 0 -0.063013005146278472 -0.003186995911593252 0 -0.063230678517713537 -0.0033697866176885683 0 -0.063250907748595625 -0.0031205293876419454 0 -0.063351246561369104 -0.0031892757946380239 0 -0.063013005146278472 -0.003186995911593252 0 -0.062723707364766221 -0.0031426365868869209 0 -0.062717826164571513 -0.0031625288393777201 0 -0.063013005146278472 -0.003186995911593252 0 -0.062723707364766221 -0.0031426365868869209 0 -0.063021454374459815 -0.003030506575984528 0 -0.063013005146278472 -0.003186995911593252 0 -0.062627669354222232 -0.0033669801571162318 0 -0.062717826164571513 -0.0031625288393777201 0 -0.06288652728521528 -0.0033437506480808433 0 -0.062717826164571513 -0.0031625288393777201 0 -0.063013005146278472 -0.003186995911593252 0 -0.06288652728521528 -0.0033437506480808433 0 -0.062666873706986967 -0.0034960805080547987 0 -0.06288652728521528 -0.0033437506480808433 0 -0.063044040158981393 -0.0035846859186260292 0 -0.062447585357164999 -0.0037736140431857404 0 -0.062666873706986967 -0.0034960805080547987 0 -0.063044040158981393 -0.0035846859186260292 0 -0.062666873706986967 -0.0034960805080547987 0 -0.062627669354222232 -0.0033669801571162318 0 -0.06288652728521528 -0.0033437506480808433 0 -0.054738687656179438 0.0097774464252858885 0 -0.051556202718216183 0.010861934892194816 0 -0.06288652728521528 -0.0033437506480808433 0 -0.063044040158981393 -0.0035846859186260292 0 -0.063230678517713537 -0.0033697866176885683 0 -0.06357086919796559 -0.0034782845634141126 0 -0.063044040158981393 -0.0035846859186260292 0 -0.063230678517713537 -0.0033697866176885683 0 -0.039781890711539314 0.026346832058284905 0 -0.041094696868952306 0.024904007180411376 0 -0.042175024756685234 0.025986045200153764 0 -0.039781890711539314 0.026346832058284905 0 -0.041094696868952306 0.024904007180411376 0 -0.038616899031853016 0.024515921767880765 0 -0.048523927898033538 0.011613004927191282 0 -0.051556202718216183 0.010861934892194816 0 -0.036610991122608745 0.025444942298398596 0 -0.039781890711539314 0.026346832058284905 0 -0.038616899031853016 0.024515921767880765 0 -0.038647002850340326 0.022414982890332499 0 -0.037217226364932812 0.023442011543582914 0 -0.038616899031853016 0.024515921767880765 0 -0.038647002850340326 0.022414982890332499 0 -0.038616899031853016 0.024515921767880765 0 -0.040298453585348677 0.023428187455789659 0 -0.040810251674978898 0.021593676523670256 0 -0.040298453585348677 0.023428187455789659 0 -0.042180159661674481 0.023461814725115673 0 -0.041094696868952306 0.024904007180411376 0 -0.038616899031853016 0.024515921767880765 0 -0.040298453585348677 0.023428187455789659 0 -0.041094696868952306 0.024904007180411376 0 -0.040298453585348677 0.023428187455789659 0 -0.042180159661674481 0.023461814725115673 0 -0.042180159661674481 0.023461814725115673 0 -0.044424490887487934 0.023162861744015578 0 -0.043187686448701211 0.025072764317126357 0 -0.043045096097611153 0.021298720615356804 0 -0.042180159661674481 0.023461814725115673 0 -0.044424490887487934 0.023162861744015578 0 -0.044424490887487934 0.023162861744015578 0 -0.043187686448701211 0.025072764317126357 0 -0.044888518094027809 0.025369810585277503 0 -0.043817833408614365 0.026156314737726689 0 -0.044888518094027809 0.025369810585277503 0 -0.0452301864870795 0.02661558002147979 0 -0.043817833408614365 0.026156314737726689 0 -0.043187686448701211 0.025072764317126357 0 -0.044888518094027809 0.025369810585277503 0 -0.041094696868952306 0.024904007180411376 0 -0.043187686448701211 0.025072764317126357 0 -0.042175024756685234 0.025986045200153764 0 -0.043817833408614365 0.026156314737726689 0 -0.043187686448701211 0.025072764317126357 0 -0.042175024756685234 0.025986045200153764 0 -0.041094696868952306 0.024904007180411376 0 -0.042180159661674481 0.023461814725115673 0 -0.043187686448701211 0.025072764317126357 0 -0.047595721955463154 0.025264340216494135 0 -0.046317528001181808 0.023785753450033992 0 -0.048366265245865167 0.023886399652757802 0 -0.047595721955463154 0.025264340216494135 0 -0.046363802660767651 0.025948887919179667 0 -0.046317528001181808 0.023785753450033992 0 -0.047595721955463154 0.025264340216494135 0 -0.048366265245865167 0.023886399652757802 0 -0.049255332903602886 0.02566287050660488 0 -0.047595721955463154 0.025264340216494135 0 -0.049255332903602886 0.02566287050660488 0 -0.04755593432174262 0.026899709317949591 0 -0.047595721955463154 0.025264340216494135 0 -0.046363802660767651 0.025948887919179667 0 -0.04755593432174262 0.026899709317949591 0 -0.044888518094027809 0.025369810585277503 0 -0.046363802660767651 0.025948887919179667 0 -0.046317528001181808 0.023785753450033992 0 -0.044888518094027809 0.025369810585277503 0 -0.046363802660767651 0.025948887919179667 0 -0.0452301864870795 0.02661558002147979 0 -0.044424490887487934 0.023162861744015578 0 -0.044888518094027809 0.025369810585277503 0 -0.046317528001181808 0.023785753450033992 0 -0.046151372676740188 0.022239091400967904 0 -0.044424490887487934 0.023162861744015578 0 -0.046317528001181808 0.023785753450033992 0 -0.047658317767399663 0.022418889275297223 0 -0.046151372676740188 0.022239091400967904 0 -0.046317528001181808 0.023785753450033992 0 -0.057197757013409165 0.019085339923422224 0 -0.050095500459551245 0.022484899268407525 0 -0.049092647426488799 0.022282114044030254 0 -0.047658317767399663 0.022418889275297223 0 -0.046317528001181808 0.023785753450033992 0 -0.049623741510522436 0.022040180416619204 0 -0.046317528001181808 0.023785753450033992 0 -0.048366265245865167 0.023886399652757802 0 -0.049623741510522436 0.022040180416619204 0 -0.048366265245865167 0.023886399652757802 0 -0.049255332903602886 0.02566287050660488 0 -0.075210673859101837 0.016489314714029681 0 -0.073325310915514655 0.01474997150464775 0 -0.075473530967545277 0.013097394299334002 0 -0.057197757013409165 0.019085339923422224 0 -0.064016442392337045 0.016628983846535748 0 -0.075210673859101837 0.016489314714029681 0 -0.073325310915514655 0.01474997150464775 0 -0.072287458309936284 0.016123287335130375 0 -0.073325310915514655 0.01474997150464775 0 -0.074276650543227477 0.012731757053538909 0 -0.072749485835816877 0.012821844725324756 0 -0.073325310915514655 0.01474997150464775 0 -0.072749485835816877 0.012821844725324756 0 -0.072124915860427935 0.013595871988324447 0 -0.068923574192314679 0.013950024701756943 0 -0.064016442392337045 0.016628983846535748 0 -0.073325310915514655 0.01474997150464775 0 -0.074276650543227477 0.012731757053538909 0 -0.075732790509697542 0.012873097261518777 0 -0.074276650543227477 0.012731757053538909 0 -0.075732790509697542 0.012873097261518777 0 -0.075814941246327663 0.011936577559698175 0 -0.064016442392337045 0.016628983846535748 0 -0.064287085258162902 0.016223612463256896 0 -0.074276650543227477 0.012731757053538909 0 -0.075814941246327663 0.011936577559698175 0 -0.073804549773431011 0.01126022807441796 0 -0.075814941246327663 0.011936577559698175 0 -0.075994673704246007 0.011111059554257435 0 -0.073804549773431011 0.01126022807441796 0 -0.073719085753927424 0.011221376875343058 0 -0.075123341594316731 0.010625103129457966 0 -0.075994673704246007 0.011111059554257435 0 -0.073804549773431011 0.01126022807441796 0 -0.076846673985445674 0.0098353939614916411 0 -0.075724303792169143 0.01287612012463531 0 -0.075814941246327663 0.011936577559698175 0 -0.077522760902867083 0.01142228960214739 0 -0.074276650543227477 0.012731757053538909 0 -0.072749485835816877 0.012821844725324756 0 -0.073804549773431011 0.01126022807441796 0 -0.074168232496752792 0.010877180442688844 0 -0.072863532561855418 0.0100360367113241 0 -0.073755529205330753 0.0095630789864813038 0 -0.074168232496752792 0.010877180442688844 0 -0.072863532561855418 0.0100360367113241 0 -0.072380307659213147 0.011038121843944331 0 -0.072863532561855418 0.0100360367113241 0 -0.073755529205330753 0.0095630789864813038 0 -0.072929879498017838 0.0089854399277777552 0 -0.074168232496752792 0.010877180442688844 0 -0.073755529205330753 0.0095630789864813038 0 -0.074507757867121729 0.0097320854385795283 0 -0.074168232496752792 0.010877180442688844 0 -0.074507757867121729 0.0097320854385795283 0 -0.075389428861359215 0.0096800804474914664 0 -0.073755529205330753 0.0095630789864813038 0 -0.074345199539537929 0.0092893859857232728 0 -0.074173594580534297 0.008744727936559794 0 -0.073755529205330753 0.0095630789864813038 0 -0.074507757867121729 0.0097320854385795283 0 -0.074345199539537929 0.0092893859857232728 0 -0.074507757867121729 0.0097320854385795283 0 -0.074345199539537929 0.0092893859857232728 0 -0.074887359600507658 0.0091474097140388511 0 -0.0744669605994525 0.0088989797909796164 0 -0.074456431540945459 0.0084345993052224958 0 -0.074887359600507658 0.0091474097140388511 0 -0.074345199539537929 0.0092893859857232728 0 -0.0744669605994525 0.0088989797909796164 0 -0.074173594580534297 0.008744727936559794 0 -0.074345199539537929 0.0092893859857232728 0 -0.0744669605994525 0.0088989797909796164 0 -0.074887359600507658 0.0091474097140388511 0 -0.0744669605994525 0.0088989797909796164 0 -0.074456431540945459 0.0084345993052224958 0 -0.074173594580534297 0.008744727936559794 0 -0.070591967613981774 0.0032639843903590031 0 -0.070595082982355645 0.0033263183804116509 0 -0.074173594580534297 0.008744727936559794 0 -0.073545426470069425 0.0086469071087967777 0 -0.073911317525496817 0.0080796126858066076 0 -0.074557457131677538 0.0083024337954917746 0 -0.074173594580534297 0.008744727936559794 0 -0.073911317525496817 0.0080796126858066076 0 -0.070591967613981774 0.0032639843903590031 0 -0.070772271468912656 0.0033594860980153685 0 -0.073755529205330753 0.0095630789864813038 0 -0.074173594580534297 0.008744727936559794 0 -0.073545426470069425 0.0086469071087967777 0 -0.073755529205330753 0.0095630789864813038 0 -0.073545426470069425 0.0086469071087967777 0 -0.072929879498017838 0.0089854399277777552 0 -0.073545426470069425 0.0086469071087967777 0 -0.073082875190237401 0.0081160305353057474 0 -0.073911317525496817 0.0080796126858066076 0 -0.073545426470069425 0.0086469071087967777 0 -0.073082875190237401 0.0081160305353057474 0 -0.072929879498017838 0.0089854399277777552 0 -0.074456431540945459 0.0084345993052224958 0 -0.074887359600507658 0.0091474097140388511 0 -0.076729767881528882 0.0092427996296652135 0 -0.075389428861359215 0.0096800804474914664 0 -0.074887359600507658 0.0091474097140388511 0 -0.076729767881528882 0.0092427996296652135 0 -0.068272988662051795 -0.0024701991995109782 0 -0.066850335417720522 -0.0029085028231492908 0 -0.06714788456834872 -0.0021357127689258801 0 -0.070591967613981774 0.0032639843903590031 0 -0.068478034508409918 0.0056985250070697834 0 -0.074168232496752792 0.010877180442688844 0 -0.075389428861359215 0.0096800804474914664 0 -0.076846673985445674 0.0098353939614916411 0 -0.075389428861359215 0.0096800804474914664 0 -0.076729767881528882 0.0092427996296652135 0 -0.076846673985445674 0.0098353939614916411 0 -0.074507757867121729 0.0097320854385795283 0 -0.075389428861359215 0.0096800804474914664 0 -0.074887359600507658 0.0091474097140388511 0 -0.066850335417720522 -0.0029085028231492908 0 -0.065991372303908502 -0.0025327951245684662 0 -0.065420894589691497 -0.0033463207620490995 0 -0.076729767881528882 0.0092427996296652135 0 -0.076846673985445674 0.0098353939614916411 0 -0.0792504540824574 0.010020601512931835 0 -0.068478034508409918 0.0056985250070697834 0 -0.061472656556748939 0.0080309703880099247 0 -0.066850335417720522 -0.0029085028231492908 0 -0.065991372303908502 -0.0025327951245684662 0 -0.066342854591280781 -0.0020185543541129353 0 -0.076846673985445674 0.0098353939614916411 0 -0.077522760902867083 0.01142228960214739 0 -0.0792504540824574 0.010020601512931835 0 -0.075994673704246007 0.011111059554257435 0 -0.076846673985445674 0.0098353939614916411 0 -0.077522760902867083 0.01142228960214739 0 -0.064016442392337045 0.016628983846535748 0 -0.06182539417079113 0.01380691290968165 0 -0.075814941246327663 0.011936577559698175 0 -0.075994673704246007 0.011111059554257435 0 -0.077522760902867083 0.01142228960214739 0 -0.04755593432174262 0.026899709317949591 0 -0.0452301864870795 0.02661558002147979 0 -0.045925434689572345 0.028115111831200149 0 -0.046363802660767651 0.025948887919179667 0 -0.04755593432174262 0.026899709317949591 0 -0.0452301864870795 0.02661558002147979 0 -0.06182539417079113 0.01380691290968165 0 -0.061472656556748939 0.0080309703880099247 0 -0.065991372303908502 -0.0025327951245684662 0 -0.065420894589691497 -0.0033463207620490995 0 -0.065352362430450839 -0.0018579009550370438 0 -0.064619946058847105 -0.0021136383269726388 0 -0.065420894589691497 -0.0033463207620490995 0 -0.065352362430450839 -0.0018579009550370438 0 -0.065991372303908502 -0.0025327951245684662 0 -0.065352362430450839 -0.0018579009550370438 0 -0.066342854591280781 -0.0020185543541129353 0 -0.065352362430450839 -0.0018579009550370438 0 -0.066342854591280781 -0.0020185543541129353 0 -0.065962703534488756 -0.0010055174000824032 0 -0.066342854591280781 -0.0020185543541129353 0 -0.065962703534488756 -0.0010055174000824032 0 -0.067124861682067799 -0.0011451760345481184 0 -0.066850335417720522 -0.0029085028231492908 0 -0.066342854591280781 -0.0020185543541129353 0 -0.06714788456834872 -0.0021357127689258801 0 -0.066342854591280781 -0.0020185543541129353 0 -0.067124861682067799 -0.0011451760345481184 0 -0.06714788456834872 -0.0021357127689258801 0 -0.070621201893732791 -0.00039567699011378639 0 -0.071001179447756177 0.0015141331158251843 0 -0.065962703534488756 -0.0010055174000824032 0 -0.065981500914730068 0.00018964381643057419 0 -0.067124861682067799 -0.0011451760345481184 0 -0.064707354298436756 -0.00043650531851365253 0 -0.065352362430450839 -0.0018579009550370438 0 -0.065962703534488756 -0.0010055174000824032 0 -0.064707354298436756 -0.00043650531851365253 0 -0.065962703534488756 -0.0010055174000824032 0 -0.065981500914730068 0.00018964381643057419 0 -0.067504270444764994 -0.0023474566555514056 0 -0.070621201893732791 -0.00039567699011378639 0 -0.069218982067733831 -0.0071836467862438315 0 -0.072644876966963159 -0.0054873736478878157 0 -0.070014756888138088 -0.0024015004091511808 0 -0.070621201893732791 -0.00039567699011378639 0 -0.070485529308607534 -0.00088126667567984727 0 -0.070621201893732791 -0.00039567699011378639 0 -0.073362603945542143 0.00030471703504987297 0 -0.079249783065439061 0.0028577433143997773 0 -0.076310425443042257 0.0013949207873703154 0 -0.076914471135774737 0.0056107276659539823 0 -0.074005911936972549 -0.0014837017682511424 0 -0.074291839844463581 -0.0011660877401938744 0 -0.074267905250265484 -0.0010312751482203573 0 -0.073674234454848372 -0.00270410527958796 0 -0.074005911936972549 -0.0014837017682511424 0 -0.074291839844463581 -0.0011660877401938744 0 -0.073674234454848372 -0.00270410527958796 0 -0.074005911936972549 -0.0014837017682511424 0 -0.071657690378477079 -0.0020669397759622891 0 -0.074005911936972549 -0.0014837017682511424 0 -0.071657690378477079 -0.0020669397759622891 0 -0.071227906429810237 -3.9791511519348524e-05 0 -0.073358731555060022 0.00018187456472515263 0 -0.073362603945542143 0.00030471703504987297 0 -0.073134497476378804 -0.0001846018506979169 0 -0.076310425443042257 0.0013949207873703154 0 -0.074524867904980113 0.0030369725668654467 0 -0.073134497476378804 -0.0001846018506979169 0 -0.074291839844463581 -0.0011660877401938744 0 -0.074267905250265484 -0.0010312751482203573 0 -0.076310425443042257 0.0013949207873703154 0 -0.074524867904980113 0.0030369725668654467 0 -0.076914471135774737 0.0056107276659539823 0 -0.073134497476378804 -0.0001846018506979169 0 -0.074524867904980113 0.0030369725668654467 0 -0.072254770064253876 0.0030824632107795914 0 -0.074524867904980113 0.0030369725668654467 0 -0.073933059308137442 0.0050666855392923968 0 -0.072254770064253876 0.0030824632107795914 0 -0.073933059308137442 0.0050666855392923968 0 -0.072666372363342044 0.0061403513700213821 0 -0.072004773572437147 0.0048768356845989213 0 -0.074524867904980113 0.0030369725668654467 0 -0.073933059308137442 0.0050666855392923968 0 -0.076914471135774737 0.0056107276659539823 0 -0.073933059308137442 0.0050666855392923968 0 -0.076914471135774737 0.0056107276659539823 0 -0.074715029065743455 0.0066325442875132101 0 -0.068272988662051795 -0.0024701991995109782 0 -0.067124861682067799 -0.0011451760345481184 0 -0.06714788456834872 -0.0021357127689258801 0 -0.07460373899964895 0.0082884539214415909 0 -0.076914471135774737 0.0056107276659539823 0 -0.074715029065743455 0.0066325442875132101 0 -0.070591967613981774 0.0032639843903590031 0 -0.071001179447756177 0.0015141331158251843 0 -0.073607732435453974 0.0069158409891045868 0 -0.072390244983623578 0.0074119008759204255 0 -0.072666372363342044 0.0061403513700213821 0 -0.073933059308137442 0.0050666855392923968 0 -0.073607732435453974 0.0069158409891045868 0 -0.072666372363342044 0.0061403513700213821 0 -0.073933059308137442 0.0050666855392923968 0 -0.073607732435453974 0.0069158409891045868 0 -0.074715029065743455 0.0066325442875132101 0 -0.073607732435453974 0.0069158409891045868 0 -0.074715029065743455 0.0066325442875132101 0 -0.073911317525496817 0.0080796126858066076 0 -0.07460373899964895 0.0082884539214415909 0 -0.074715029065743455 0.0066325442875132101 0 -0.073911317525496817 0.0080796126858066076 0 -0.073082875190237401 0.0081160305353057474 0 -0.073607732435453974 0.0069158409891045868 0 -0.073911317525496817 0.0080796126858066076 0 -0.073082875190237401 0.0081160305353057474 0 -0.073607732435453974 0.0069158409891045868 0 -0.072390244983623578 0.0074119008759204255 0 -0.073082875190237401 0.0081160305353057474 0 -0.072390244983623578 0.0074119008759204255 0 -0.072256075594475819 0.0084584594086146124 0 -0.072390244983623578 0.0074119008759204255 0 -0.071232970581326494 0.0080340133268979094 0 -0.072256075594475819 0.0084584594086146124 0 -0.072390244983623578 0.0074119008759204255 0 -0.071232970581326494 0.0080340133268979094 0 -0.071424745298491632 0.0064065370081302711 0 -0.072390244983623578 0.0074119008759204255 0 -0.071424745298491632 0.0064065370081302711 0 -0.072666372363342044 0.0061403513700213821 0 -0.071232970581326494 0.0080340133268979094 0 -0.069608275599109579 0.0064179334806374177 0 -0.069276643514378636 0.0083055643324417439 0 -0.071232970581326494 0.0080340133268979094 0 -0.071424745298491632 0.0064065370081302711 0 -0.069608275599109579 0.0064179334806374177 0 -0.069608275599109579 0.0064179334806374177 0 -0.070076899741924242 0.0044568980998484671 0 -0.067641238796503481 0.0059010132558609957 0 -0.071424745298491632 0.0064065370081302711 0 -0.069608275599109579 0.0064179334806374177 0 -0.070076899741924242 0.0044568980998484671 0 -0.070076899741924242 0.0044568980998484671 0 -0.072004773572437147 0.0048768356845989213 0 -0.072254770064253876 0.0030824632107795914 0 -0.071424745298491632 0.0064065370081302711 0 -0.072666372363342044 0.0061403513700213821 0 -0.072004773572437147 0.0048768356845989213 0 -0.071424745298491632 0.0064065370081302711 0 -0.070076899741924242 0.0044568980998484671 0 -0.072004773572437147 0.0048768356845989213 0 -0.073933059308137442 0.0050666855392923968 0 -0.072004773572437147 0.0048768356845989213 0 -0.072254770064253876 0.0030824632107795914 0 -0.070076899741924242 0.0044568980998484671 0 -0.072254770064253876 0.0030824632107795914 0 -0.070405417203861925 0.0019271924752360715 0 -0.073134497476378804 -0.0001846018506979169 0 -0.072254770064253876 0.0030824632107795914 0 -0.070405417203861925 0.0019271924752360715 0 -0.070076899741924242 0.0044568980998484671 0 -0.070405417203861925 0.0019271924752360715 0 -0.067735239874523373 0.0028266263614317544 0 -0.070405417203861925 0.0019271924752360715 0 -0.06923042036607209 0.0005963298175578381 0 -0.070887122085703844 -0.0011034007455084035 0 -0.070405417203861925 0.0019271924752360715 0 -0.06923042036607209 0.0005963298175578381 0 -0.067735239874523373 0.0028266263614317544 0 -0.073134497476378804 -0.0001846018506979169 0 -0.070405417203861925 0.0019271924752360715 0 -0.070887122085703844 -0.0011034007455084035 0 -0.06923042036607209 0.0005963298175578381 0 -0.067735239874523373 0.0028266263614317544 0 -0.067700043330282747 -0.0013218985635304668 0 -0.067735239874523373 0.0028266263614317544 0 -0.064999880504909388 0.0027854338190840089 0 -0.067700043330282747 -0.0013218985635304668 0 -0.064999880504909388 0.0027854338190840089 0 -0.067700043330282747 -0.0013218985635304668 0 -0.064999889343977227 -0.0011187174016782666 0 -0.067735239874523373 0.0028266263614317544 0 -0.064999880504909388 0.0027854338190840089 0 -0.067641238796503481 0.0059010132558609957 0 -0.064999880504909388 0.0027854338190840089 0 -0.067641238796503481 0.0059010132558609957 0 -0.064999880246998279 0.0066897881716737545 0 -0.070076899741924242 0.0044568980998484671 0 -0.067735239874523373 0.0028266263614317544 0 -0.067641238796503481 0.0059010132558609957 0 -0.067641238796503481 0.0059010132558609957 0 -0.067104138832332252 0.0087848692733096811 0 -0.069276643514378636 0.0083055643324417439 0 -0.069608275599109579 0.0064179334806374177 0 -0.067641238796503481 0.0059010132558609957 0 -0.069276643514378636 0.0083055643324417439 0 -0.067641238796503481 0.0059010132558609957 0 -0.064999880246998279 0.0066897881716737545 0 -0.067104138832332252 0.0087848692733096811 0 -0.064999880246998279 0.0066897881716737545 0 -0.064999910211898493 0.010593750620944342 0 -0.067104138832332252 0.0087848692733096811 0 -0.064999910211898493 0.010593750620944342 0 -0.067859578454147376 0.011055271722980355 0 -0.067104138832332252 0.0087848692733096811 0 -0.064999952237791522 0.010594163217527952 0 -0.067918562534803703 0.011207745687909932 0 -0.066575711413924904 0.012938469036965595 0 -0.065002700090727894 0.010594526025068595 0 -0.067463388112616832 0.011054388231688672 0 -0.067859578454147376 0.011055271722980355 0 -0.068794448370417108 0.0097266860355973064 0 -0.067104138832332252 0.0087848692733096811 0 -0.068794448370417108 0.0097266860355973064 0 -0.067104138832332252 0.0087848692733096811 0 -0.069276643514378636 0.0083055643324417439 0 -0.069276643514378636 0.0083055643324417439 0 -0.070090075731128909 0.0096997759054348251 0 -0.070816988303556858 0.0090678200091795433 0 -0.071232970581326494 0.0080340133268979094 0 -0.069276643514378636 0.0083055643324417439 0 -0.070816988303556858 0.0090678200091795433 0 -0.070090075731128909 0.0096997759054348251 0 -0.070816988303556858 0.0090678200091795433 0 -0.071290204688916364 0.010510552100087346 0 -0.068794448370417108 0.0097266860355973064 0 -0.069276643514378636 0.0083055643324417439 0 -0.070090075731128909 0.0096997759054348251 0 -0.068794448370417108 0.0097266860355973064 0 -0.070090075731128909 0.0096997759054348251 0 -0.069978742346510414 0.010645924114922595 0 -0.072929879498017838 0.0089854399277777552 0 -0.072256075594475819 0.0084584594086146124 0 -0.07187278541615337 0.0094342469470104079 0 -0.073082875190237401 0.0081160305353057474 0 -0.072929879498017838 0.0089854399277777552 0 -0.072256075594475819 0.0084584594086146124 0 -0.071232970581326494 0.0080340133268979094 0 -0.072256075594475819 0.0084584594086146124 0 -0.07187278541615337 0.0094342469470104079 0 -0.071232970581326494 0.0080340133268979094 0 -0.070816988303556858 0.0090678200091795433 0 -0.07187278541615337 0.0094342469470104079 0 -0.070816988303556858 0.0090678200091795433 0 -0.07187278541615337 0.0094342469470104079 0 -0.071290204688916364 0.010510552100087346 0 -0.07187278541615337 0.0094342469470104079 0 -0.072089324073140185 0.010252134926012537 0 -0.071290204688916364 0.010510552100087346 0 -0.072863532561855418 0.0100360367113241 0 -0.072929879498017838 0.0089854399277777552 0 -0.07187278541615337 0.0094342469470104079 0 -0.072863532561855418 0.0100360367113241 0 -0.07187278541615337 0.0094342469470104079 0 -0.072089324073140185 0.010252134926012537 0 -0.072749485835816877 0.012821844725324756 0 -0.073804549773431011 0.01126022807441796 0 -0.070970631761675507 0.012558582673092483 0 -0.073719085753927424 0.011221376875343058 0 -0.071330408772187964 0.012241033375148876 0 -0.074168232496752792 0.010877180442688844 0 -0.072380307659213147 0.011038121843944331 0 -0.071183656709624302 0.012228865900674636 0 -0.072380307659213147 0.011038121843944331 0 -0.072089324073140185 0.010252134926012537 0 -0.071290204688916364 0.010510552100087346 0 -0.072863532561855418 0.0100360367113241 0 -0.072380307659213147 0.011038121843944331 0 -0.072089324073140185 0.010252134926012537 0 -0.072380307659213147 0.011038121843944331 0 -0.071290204688916364 0.010510552100087346 0 -0.071455965886598 0.011371762786101828 0 -0.071290204688916364 0.010510552100087346 0 -0.071099103399561589 0.011111960552172218 0 -0.071455965886598 0.011371762786101828 0 -0.072380307659213147 0.011038121843944331 0 -0.071455965886598 0.011371762786101828 0 -0.071183656709624302 0.012228865900674636 0 -0.071099103399561589 0.011111960552172218 0 -0.071455965886598 0.011371762786101828 0 -0.070826534933020352 0.011671664140986344 0 -0.071455965886598 0.011371762786101828 0 -0.070826534933020352 0.011671664140986344 0 -0.071183656709624302 0.012228865900674636 0 -0.067859578454147376 0.011055271722980355 0 -0.068794448370417108 0.0097266860355973064 0 -0.069978742346510414 0.010645924114922595 0 -0.067463388112616832 0.011054388231688672 0 -0.068819082323205966 0.011307780426984429 0 -0.067918562534803703 0.011207745687909932 0 -0.070826534933020352 0.011671664140986344 0 -0.06943714440411719 0.012200021904473918 0 -0.067859578454147376 0.011055271722980355 0 -0.069978742346510414 0.010645924114922595 0 -0.070826534933020352 0.011671664140986344 0 -0.071290204688916364 0.010510552100087346 0 -0.071099103399561589 0.011111960552172218 0 -0.069978742346510414 0.010645924114922595 0 -0.070090075731128909 0.0096997759054348251 0 -0.071290204688916364 0.010510552100087346 0 -0.069978742346510414 0.010645924114922595 0 -0.070826534933020352 0.011671664140986344 0 -0.06943714440411719 0.012200021904473918 0 -0.071183656709624302 0.012228865900674636 0 -0.071099103399561589 0.011111960552172218 0 -0.069978742346510414 0.010645924114922595 0 -0.070826534933020352 0.011671664140986344 0 -0.06943714440411719 0.012200021904473918 0 -0.071183656709624302 0.012228865900674636 0 -0.068159339814969147 0.013631757361560731 0 -0.071330408772187964 0.012241033375148876 0 -0.069910753895351008 0.012842084783484493 0 -0.070044291413220022 0.014217663408273667 0 -0.070970631761675507 0.012558582673092483 0 -0.068159339814969147 0.013631757361560731 0 -0.073325310915514655 0.01474997150464775 0 -0.071468692451083699 0.014280562423322214 0 -0.072124915860427935 0.013595871988324447 0 -0.072749485835816877 0.012821844725324756 0 -0.070970631761675507 0.012558582673092483 0 -0.072124915860427935 0.013595871988324447 0 -0.070044291413220022 0.014217663408273667 0 -0.070970631761675507 0.012558582673092483 0 -0.071468692451083699 0.014280562423322214 0 -0.070970631761675507 0.012558582673092483 0 -0.071468692451083699 0.014280562423322214 0 -0.072124915860427935 0.013595871988324447 0 -0.073325310915514655 0.01474997150464775 0 -0.071468692451083699 0.014280562423322214 0 -0.072287458309936284 0.016123287335130375 0 -0.071468692451083699 0.014280562423322214 0 -0.072287458309936284 0.016123287335130375 0 -0.070500085698124784 0.015651153436232246 0 -0.070044291413220022 0.014217663408273667 0 -0.068877443564196741 0.015297515388658716 0 -0.068159339814969147 0.013631757361560731 0 -0.070044291413220022 0.014217663408273667 0 -0.070500085698124784 0.015651153436232246 0 -0.068877443564196741 0.015297515388658716 0 -0.070044291413220022 0.014217663408273667 0 -0.071468692451083699 0.014280562423322214 0 -0.070500085698124784 0.015651153436232246 0 -0.069377201417395978 0.016964414485489784 0 -0.070500085698124784 0.015651153436232246 0 -0.068877443564196741 0.015297515388658716 0 -0.067802030340090996 0.016746314794311764 0 -0.068877443564196741 0.015297515388658716 0 -0.06687904945521099 0.015086864615441798 0 -0.068877443564196741 0.015297515388658716 0 -0.06687904945521099 0.015086864615441798 0 -0.068159339814969147 0.013631757361560731 0 -0.064999953303255947 0.017944937037766669 0 -0.064999937116192105 0.014269528058284089 0 -0.06687904945521099 0.015086864615441798 0 -0.064999937116192105 0.014269528058284089 0 -0.06687904945521099 0.015086864615441798 0 -0.066575711413924904 0.012938469036965595 0 -0.064999952237791522 0.010594163217527952 0 -0.064999937116192105 0.014269528058284089 0 -0.066575711413924904 0.012938469036965595 0 -0.067918562534803703 0.011207745687909932 0 -0.06943714440411719 0.012200021904473918 0 -0.068159339814969147 0.013631757361560731 0 -0.067918562534803703 0.011207745687909932 0 -0.066575711413924904 0.012938469036965595 0 -0.068159339814969147 0.013631757361560731 0 -0.06687904945521099 0.015086864615441798 0 -0.066575711413924904 0.012938469036965595 0 -0.068159339814969147 0.013631757361560731 0 -0.0028226009295474232 0.016980689701367187 0 -0.0027349836623030387 0.015439576673836809 0 -0.0042589210569781138 0.017245797870554174 0 -0.0044417115198274321 0.017256224842884374 0 -0.0031647445006214824 0.016603177462572387 0 -0.0044119218443208191 0.0185898135663526 0 -0.0034475824004113905 0.01644431662847436 0 -0.0043669631903755545 0.018039538716803898 0 -0.0028226009295474232 0.016980689701367187 0 -0.0022359221101872291 0.01600567705769685 0 -0.0027349836623030387 0.015439576673836809 0 -0.0028226009295474232 0.016980689701367187 0 -0.0013364021676373781 0.017086247489517137 0 -0.0022359221101872291 0.01600567705769685 0 -0.0022359221101872291 0.01600567705769685 0 -0.0021471532886628217 0.015491523578979973 0 -0.0027349836623030387 0.015439576673836809 0 -0.0022359221101872291 0.01600567705769685 0 -0.0021471532886628217 0.015491523578979973 0 -0.0014481615465102347 0.015586812050577152 0 -0.0021471532886628217 0.015491523578979973 0 -0.0027349836623030387 0.015439576673836809 0 -0.0021559705984674346 0.01495944316266387 0 -0.0021471532886628217 0.015491523578979973 0 -0.0014481615465102347 0.015586812050577152 0 -0.001807084399385863 0.015335664822462831 0 -0.0044417115198274321 0.017256224842884374 0 -0.003147565278097252 0.016108426279751197 0 -0.005827360957393851 0.01685883722566003 0 -0.0044417115198274321 0.017256224842884374 0 -0.003147565278097252 0.016108426279751197 0 -0.0031647445006214824 0.016603177462572387 0 -0.003147565278097252 0.016108426279751197 0 -0.005827360957393851 0.01685883722566003 0 -0.0058644564245798119 0.014913044537568322 0 -0.005827360957393851 0.01685883722566003 0 -0.0073666938090349385 0.017863786152669852 0 -0.0076792313342624458 0.016608696683608384 0 -0.005827360957393851 0.01685883722566003 0 -0.0058644564245798119 0.014913044537568322 0 -0.0076792313342624458 0.016608696683608384 0 -0.0073666938090349385 0.017863786152669852 0 -0.0056134627737358571 0.018107241238073078 0 -0.0067212478917674833 0.018749066136561528 0 -0.005827360957393851 0.01685883722566003 0 -0.0073666938090349385 0.017863786152669852 0 -0.0056134627737358571 0.018107241238073078 0 -0.0044417115198274321 0.017256224842884374 0 -0.005827360957393851 0.01685883722566003 0 -0.0056134627737358571 0.018107241238073078 0 -0.0044417115198274321 0.017256224842884374 0 -0.0056134627737358571 0.018107241238073078 0 -0.0044119218443208191 0.0185898135663526 0 -0.0056134627737358571 0.018107241238073078 0 -0.0055760913717532654 0.02035982512223658 0 -0.0044119218443208191 0.0185898135663526 0 -0.0056134627737358571 0.018107241238073078 0 -0.0067212478917674833 0.018749066136561528 0 -0.0055760913717532654 0.02035982512223658 0 -0.0053414932397796398 0.019756366072697165 0 -0.0043669631903755545 0.018039538716803898 0 -0.0067212478917674833 0.018749066136561528 0 -0.0068158721535500569 0.019842932804885281 0 -0.0086088052200068259 0.018633090105227956 0 -0.0067212478917674833 0.018749066136561528 0 -0.0068158721535500569 0.019842932804885281 0 -0.0055760913717532654 0.02035982512223658 0 -0.0068158721535500569 0.019842932804885281 0 -0.006939288731836574 0.020905427550050464 0 -0.0076191512374982001 0.020576495374833453 0 -0.0068158721535500569 0.019842932804885281 0 -0.006939288731836574 0.020905427550050464 0 -0.0055760913717532654 0.02035982512223658 0 -0.0057337452571598353 0.019761390217041316 0 -0.0044673068425095976 0.020501128663917366 0 -0.0036841305991268357 0.018988511179054732 0 -0.0044673068425095976 0.020501128663917366 0 -0.0036841305991268357 0.018988511179054732 0 -0.0031692727807794943 0.020715580356739902 0 -0.0028226009295474232 0.016980689701367187 0 -0.0036841305991268357 0.018988511179054732 0 -0.0042589210569781138 0.017245797870554174 0 -0.0057337452571598353 0.019761390217041316 0 -0.0036841305991268357 0.018988511179054732 0 -0.0042589210569781138 0.017245797870554174 0 -0.0028226009295474232 0.016980689701367187 0 -0.0036841305991268357 0.018988511179054732 0 -0.0022360177397505281 0.018233350440197096 0 -0.0013364021676373781 0.017086247489517137 0 -0.0022360177397505281 0.018233350440197096 0 -0.00058809908048215894 0.018316031641262984 0 -0.0028226009295474232 0.016980689701367187 0 -0.0013364021676373781 0.017086247489517137 0 -0.0022360177397505281 0.018233350440197096 0 -0.0036841305991268357 0.018988511179054732 0 -0.0022360177397505281 0.018233350440197096 0 -0.0020351563651573885 0.019599365879936964 0 -0.0022360177397505281 0.018233350440197096 0 -0.0020351563651573885 0.019599365879936964 0 -0.00058809908048215894 0.018316031641262984 0 -0.0036841305991268357 0.018988511179054732 0 -0.0020351563651573885 0.019599365879936964 0 -0.0031692727807794943 0.020715580356739902 0 -0.0020351563651573885 0.019599365879936964 0 -0.0031692727807794943 0.020715580356739902 0 -0.0014492417777974775 0.021295398664044198 0 -0.0020351563651573885 0.019599365879936964 0 -0.0014492417777974775 0.021295398664044198 0 -0.00024030570106137091 0.020352562987563882 0 -0.00024030570106137091 0.020352562987563882 0 -0.00022025464909523535 0.022255376533916186 0 0.0008937222386808842 0.021605390321603062 0 -0.0014492417777974775 0.021295398664044198 0 -0.00024030570106137091 0.020352562987563882 0 -0.00022025464909523535 0.022255376533916186 0 -0.0020351563651573885 0.019599365879936964 0 -0.00024030570106137091 0.020352562987563882 0 -0.00058809908048215894 0.018316031641262984 0 -0.00024030570106137091 0.020352562987563882 0 0.0019630565712258764 0.020657398131397001 0 0.0012260217550357649 0.018845677804733982 0 -0.00024030570106137091 0.020352562987563882 0 0.0019630565712258764 0.020657398131397001 0 0.0008937222386808842 0.021605390321603062 0 0.0019630565712258764 0.020657398131397001 0 0.0031963914495671823 0.019108632607468312 0 0.0045155468965174502 0.021849723735066204 0 0.0019630565712258764 0.020657398131397001 0 0.0045155468965174502 0.021849723735066204 0 0.0023209683184031017 0.022246662208898847 0 0.0019630565712258764 0.020657398131397001 0 0.0023209683184031017 0.022246662208898847 0 0.0008937222386808842 0.021605390321603062 0 0.0019630565712258764 0.020657398131397001 0 0.0031963914495671823 0.019108632607468312 0 0.0012260217550357649 0.018845677804733982 0 0.0031963914495671823 0.019108632607468312 0 0.0048668561412454226 0.017680553516094707 0 0.0014858688546352296 0.015904082229680691 0 0.0031963914495671823 0.019108632607468312 0 0.0012260217550357649 0.018845677804733982 0 0.0014858688546352296 0.015904082229680691 0 -0.0013364021676373781 0.017086247489517137 0 -0.00058809908048215894 0.018316031641262984 0 0.0014858688546352296 0.015904082229680691 0 -0.00058809908048215894 0.018316031641262984 0 0.0012260217550357649 0.018845677804733982 0 0.0014858688546352296 0.015904082229680691 0 -0.00024030570106137091 0.020352562987563882 0 -0.00058809908048215894 0.018316031641262984 0 0.0012260217550357649 0.018845677804733982 0 0.0091883166114089844 0.022078981696558399 0 0.0062654741473860904 0.020870389600541238 0 0.0045155468965174502 0.021849723735066204 0 0.0091883166114089844 0.022078981696558399 0 0.0078836509291898109 0.020622019774111398 0 0.0062654741473860904 0.020870389600541238 0 0.0091685760669793035 0.019833095793345749 0 0.0078836509291898109 0.020622019774111398 0 0.006937924045848678 0.019712996216994794 0 0.0091883166114089844 0.022078981696558399 0 0.0091685760669793035 0.019833095793345749 0 0.0078836509291898109 0.020622019774111398 0 0.0078836509291898109 0.020622019774111398 0 0.006937924045848678 0.019712996216994794 0 0.0062654741473860904 0.020870389600541238 0 0.0031963914495671823 0.019108632607468312 0 0.0051433031916708902 0.019523459490472884 0 0.0045155468965174502 0.021849723735066204 0 0.006937924045848678 0.019712996216994794 0 0.0051433031916708902 0.019523459490472884 0 0.0062654741473860904 0.020870389600541238 0 0.0051433031916708902 0.019523459490472884 0 0.0062654741473860904 0.020870389600541238 0 0.0045155468965174502 0.021849723735066204 0 0.0031963914495671823 0.019108632607468312 0 0.0051433031916708902 0.019523459490472884 0 0.0048668561412454226 0.017680553516094707 0 0.0048668561412454226 0.017680553516094707 0 0.0060703137796628498 0.017579963275122384 0 0.0062635439469946059 0.018443685984807313 0 0.0048668561412454226 0.017680553516094707 0 0.0060066314289210481 0.016480067907225546 0 0.0060651222889870409 0.016744011253755825 0 0.0048668561412454226 0.017680553516094707 0 0.0060703137796628498 0.017579963275122384 0 0.0060651222889870409 0.016744011253755825 0 0.0064505686770667337 0.017176207220761575 0 0.0060703137796628498 0.017579963275122384 0 0.0060651222889870409 0.016744011253755825 0 0.006937924045848678 0.019712996216994794 0 0.0051433031916708902 0.019523459490472884 0 0.0062635439469946059 0.018443685984807313 0 0.0051433031916708902 0.019523459490472884 0 0.0048668561412454226 0.017680553516094707 0 0.0062635439469946059 0.018443685984807313 0 0.0099999613468346963 0.017518586545002018 0 0.0091685760669793035 0.019833095793345749 0 0.0078716694257086207 0.018584422573509535 0 0.0088168955454754269 0.018409114185294052 0 0.004829171253008047 0.017804295913633934 0 0.0099999613468346963 0.017518586545002018 0 0.0071206883742709424 0.017625156382213514 0 0.0060281764866783232 0.016451388867847111 0 0.0099999613468346963 0.017518586545002018 0 0.0071206883742709424 0.017625156382213514 0 0.0078716694257086207 0.018584422573509535 0 0.006937924045848678 0.019712996216994794 0 0.0062635439469946059 0.018443685984807313 0 0.0078716694257086207 0.018584422573509535 0 0.0062635439469946059 0.018443685984807313 0 0.0071206883742709424 0.017625156382213514 0 0.0078716694257086207 0.018584422573509535 0 0.0060703137796628498 0.017579963275122384 0 0.0062635439469946059 0.018443685984807313 0 0.0071206883742709424 0.017625156382213514 0 0.0064505686770667337 0.017176207220761575 0 0.0071206883742709424 0.017625156382213514 0 0.0060281764866783232 0.016451388867847111 0 0.0064505686770667337 0.017176207220761575 0 0.0060703137796628498 0.017579963275122384 0 0.0071206883742709424 0.017625156382213514 0 0.0091685760669793035 0.019833095793345749 0 0.006937924045848678 0.019712996216994794 0 0.0078716694257086207 0.018584422573509535 0 0.01043160061979264 0.019354002639926936 0 0.0087691608987575456 0.017705308390532994 0 0.007305155683699719 0.018940505627117001 0 0.0087691608987575456 0.017705308390532994 0 0.007305155683699719 0.018940505627117001 0 0.0073949343051757863 0.017270327420558396 0 0.00039845080374585889 0.016725192896859562 0 -0.00017686790346461596 0.01614428934574327 0 0.00017085274912019969 0.015547212690202818 0 0.00039845080374585889 0.016725192896859562 0 -0.00017686790346461596 0.01614428934574327 0 -0.00087952345746114915 0.016466795771344571 0 0.0048668561412454226 0.017680553516094707 0 0.0060066314289210481 0.016480067907225546 0 0.0014858688546352296 0.015904082229680691 0 0.004829171253008047 0.017804295913633934 0 0.0038808683111743675 0.016005189293848237 0 0.0064505686770667337 0.017176207220761575 0 0.0060281764866783232 0.016451388867847111 0 0.0060651222889870409 0.016744011253755825 0 0.004829171253008047 0.017804295913633934 0 0.0048300157812347783 0.017800672552665354 0 0.007305155683699719 0.018940505627117001 0 0.0067825953496271491 0.016071534033506436 0 0.0073949343051757863 0.017270327420558396 0 -0.00017686790346461596 0.01614428934574327 0 0.00017085274912019969 0.015547212690202818 0 -0.00050886384657979934 0.015656087056196474 0 0.0067825953496271491 0.016071534033506436 0 0.0072259151293448433 0.016610223048696141 0 0.0072190418180556873 0.016021316242786687 0 0.0067825953496271491 0.016071534033506436 0 0.0073949343051757863 0.017270327420558396 0 0.0072259151293448433 0.016610223048696141 0 0.01063576532637411 0.016606635212428205 0 0.0087691608987575456 0.017705308390532994 0 0.0099002196117419835 0.015052065283441815 0 0.0093736001269179078 0.016708730104346141 0 0.0096191329152206673 0.016105850111174248 0 0.0087691608987575456 0.017705308390532994 0 0.0072190418180556873 0.016021316242786687 0 0.0089787204953396763 0.015088648986830391 0 0.0087691608987575456 0.017705308390532994 0 0.0072259151293448433 0.016610223048696141 0 0.0072190418180556873 0.016021316242786687 0 0.0087691608987575456 0.017705308390532994 0 0.0073949343051757863 0.017270327420558396 0 0.0072259151293448433 0.016610223048696141 0 -0.0022359221101872291 0.01600567705769685 0 -0.00087952345746114915 0.016466795771344571 0 -0.0014481615465102347 0.015586812050577152 0 -0.0013364021676373781 0.017086247489517137 0 -0.0022359221101872291 0.01600567705769685 0 0.0014858688546352296 0.015904082229680691 0 -0.00045279028675658089 0.01639843722365807 0 0.0010268460994892843 0.016741639546158513 0 0.004829171253008047 0.017804295913633934 0 0.0010268460994892843 0.016741639546158513 0 -0.00017686790346461596 0.01614428934574327 0 -0.00087952345746114915 0.016466795771344571 0 -0.00050886384657979934 0.015656087056196474 0 -0.00050886384657979934 0.015656087056196474 0 -0.0014481615465102347 0.015586812050577152 0 -0.0008730947178685433 0.01510154107367951 0 -0.00087952345746114915 0.016466795771344571 0 -0.00050886384657979934 0.015656087056196474 0 -0.0014481615465102347 0.015586812050577152 0 0.00017085274912019969 0.015547212690202818 0 -0.00050886384657979934 0.015656087056196474 0 -0.00033170029037233879 0.015083571126867087 0 -0.0015410856815795051 0.015063553703960095 0 -0.0012765409032374686 0.014553315451120574 0 -0.0021559705984674346 0.01495944316266387 0 -0.0014481615465102347 0.015586812050577152 0 -0.0015410856815795051 0.015063553703960095 0 -0.001807084399385863 0.015335664822462831 0 -0.0015410856815795051 0.015063553703960095 0 -0.0008730947178685433 0.01510154107367951 0 -0.0012765409032374686 0.014553315451120574 0 -0.0014481615465102347 0.015586812050577152 0 -0.0015410856815795051 0.015063553703960095 0 -0.0008730947178685433 0.01510154107367951 0 -0.00050886384657979934 0.015656087056196474 0 -0.0008730947178685433 0.01510154107367951 0 -0.00033170029037233879 0.015083571126867087 0 -0.0008730947178685433 0.01510154107367951 0 -0.00033170029037233879 0.015083571126867087 0 -0.00056225365059255018 0.014627996620698113 0 -0.00056225365059255018 0.014627996620698113 0 9.5774024733234701e-05 0.014482910614231716 0 -0.00056328985570072091 0.014005268538860057 0 -0.00033170029037233879 0.015083571126867087 0 -0.00056225365059255018 0.014627996620698113 0 9.5774024733234701e-05 0.014482910614231716 0 -0.00056225365059255018 0.014627996620698113 0 -0.0012765409032374686 0.014553315451120574 0 -0.00056328985570072091 0.014005268538860057 0 -0.0012765409032374686 0.014553315451120574 0 -0.0014099438593170703 0.013733770772260441 0 -0.0022128727613890831 0.014147374860920525 0 -0.0008730947178685433 0.01510154107367951 0 -0.00056225365059255018 0.014627996620698113 0 -0.0012765409032374686 0.014553315451120574 0 0.0072394718862185681 0.015510853496728401 0 0.0067955668450040132 0.015765885910404079 0 0.0071485876123575055 0.015921130703798993 0 0.0072190418180556873 0.016021316242786687 0 0.0067955668450040132 0.015765885910404079 0 0.0071485876123575055 0.015921130703798993 0 0.0090113371861363593 0.016284390771536521 0 0.0096191329152206673 0.016105850111174248 0 0.0038808683111743675 0.016005189293848237 0 0.0032582061036471235 0.014650308485323076 0 0.0067825953496271491 0.016071534033506436 0 0.0072190418180556873 0.016021316242786687 0 0.0067955668450040132 0.015765885910404079 0 0.0067825953496271491 0.016071534033506436 0 0.0067955668450040132 0.015765885910404079 0 0.0060800867309578526 0.015606194904780451 0 0.00017085274912019969 0.015547212690202818 0 -0.00033170029037233879 0.015083571126867087 0 9.5774024733234701e-05 0.014482910614231716 0 0.0067955668450040132 0.015765885910404079 0 0.0060800867309578526 0.015606194904780451 0 0.0068421250943701724 0.015326736809501003 0 0.0072394718862185681 0.015510853496728401 0 0.0067955668450040132 0.015765885910404079 0 0.0068421250943701724 0.015326736809501003 0 0.0074180412538451014 0.014896401172736939 0 0.0068421250943701724 0.015326736809501003 0 0.0066210207101211511 0.014715208148448946 0 0.0096401804885588669 0.014601567097564022 0 0.0086014952482145954 0.014488492125737929 0 0.0060800867309578526 0.015606194904780451 0 0.0068421250943701724 0.015326736809501003 0 0.0066210207101211511 0.014715208148448946 0 0.0032582061036471235 0.014650308485323076 0 0.0027528449369971382 0.013148212764248662 0 0.0060800867309578526 0.015606194904780451 0 0.0066210207101211511 0.014715208148448946 0 0.0049558648854846751 0.014316848363796727 0 0.0066210207101211511 0.014715208148448946 0 0.0056233076035658233 0.013186040139274413 0 0.0049558648854846751 0.014316848363796727 0 0.0035568255136458359 0.011939244725864667 0 0.0056233076035658233 0.013186040139274413 0 0.0049558648854846751 0.014316848363796727 0 0.0066210207101211511 0.014715208148448946 0 0.0056233076035658233 0.013186040139274413 0 0.0073422050115761949 0.013372986333515722 0 0.0084928172711682542 0.015221665287038236 0 0.0066210207101211511 0.014715208148448946 0 0.0073422050115761949 0.013372986333515722 0 -0.0012765409032374686 0.014553315451120574 0 -0.0014099438593170703 0.013733770772260441 0 -0.00056328985570072091 0.014005268538860057 0 -0.0014099438593170703 0.013733770772260441 0 -0.00056328985570072091 0.014005268538860057 0 -0.00055731031636768041 0.01307689079776787 0 -0.00056328985570072091 0.014005268538860057 0 0.00030360115960032717 0.013273453523938057 0 -0.00055731031636768041 0.01307689079776787 0 9.5774024733234701e-05 0.014482910614231716 0 -0.00056328985570072091 0.014005268538860057 0 0.00030360115960032717 0.013273453523938057 0 0.0022989150230355573 0.011219329027583809 0 0.0027528449369971382 0.013148212764248662 0 0.00083503305464195665 0.011569895737478079 0 0.00030360115960032717 0.013273453523938057 0 -0.00055731031636768041 0.01307689079776787 0 -0.00084228525890760382 0.012315514726416586 0 -0.00055731031636768041 0.01307689079776787 0 -0.001473314169642245 0.013029885964925932 0 -0.0014099438593170703 0.013733770772260441 0 -0.00055731031636768041 0.01307689079776787 0 -0.001473314169642245 0.013029885964925932 0 -0.00084228525890760382 0.012315514726416586 0 -0.001473314169642245 0.013029885964925932 0 -0.0018000103725881729 0.01259405788338817 0 -0.0014099438593170703 0.013733770772260441 0 -0.001473314169642245 0.013029885964925932 0 -0.0024685396638273373 0.013160504619131728 0 -0.001473314169642245 0.013029885964925932 0 -0.0018000103725881729 0.01259405788338817 0 -0.0024685396638273373 0.013160504619131728 0 -0.0025322983145489903 0.01254386601444816 0 -0.0024685396638273373 0.013160504619131728 0 -0.0028951244463260133 0.012694818284600878 0 -0.0025322983145489903 0.01254386601444816 0 -0.0018000103725881729 0.01259405788338817 0 -0.0024685396638273373 0.013160504619131728 0 -0.0024685396638273373 0.013160504619131728 0 -0.0032748658860740662 0.012913298979896161 0 -0.0029726367613807439 0.013664964357740519 0 -0.0031971361975423876 0.012626095738920089 0 -0.0032748658860740662 0.012913298979896161 0 -0.0028951244463260133 0.012694818284600878 0 -0.0024685396638273373 0.013160504619131728 0 -0.0032748658860740662 0.012913298979896161 0 -0.0028951244463260133 0.012694818284600878 0 -0.0014099438593170703 0.013733770772260441 0 -0.0024685396638273373 0.013160504619131728 0 -0.0022128727613890831 0.014147374860920525 0 -0.0024685396638273373 0.013160504619131728 0 -0.0029726367613807439 0.013664964357740519 0 -0.0022128727613890831 0.014147374860920525 0 -0.0012765409032374686 0.014553315451120574 0 -0.0022128727613890831 0.014147374860920525 0 -0.0021559705984674346 0.01495944316266387 0 -0.0022128727613890831 0.014147374860920525 0 -0.0031141669401269145 0.01482946914223348 0 -0.0021559705984674346 0.01495944316266387 0 -0.0029726367613807439 0.013664964357740519 0 -0.0022128727613890831 0.014147374860920525 0 -0.0031141669401269145 0.01482946914223348 0 -0.0029726367613807439 0.013664964357740519 0 -0.0031141669401269145 0.01482946914223348 0 -0.0037538711422692257 0.014226045937380166 0 -0.003147565278097252 0.016108426279751197 0 -0.0031141669401269145 0.01482946914223348 0 -0.0021559705984674346 0.01495944316266387 0 -0.003147565278097252 0.016108426279751197 0 -0.0031141669401269145 0.01482946914223348 0 -0.0042567419671553893 0.015320771822945155 0 -0.0034475824004113905 0.01644431662847436 0 -0.0030352255472919335 0.01572430237018909 0 -0.003147565278097252 0.016108426279751197 0 -0.0031647445006214824 0.016603177462572387 0 -0.0021559705984674346 0.01495944316266387 0 -0.0021471532886628217 0.015491523578979973 0 -0.001807084399385863 0.015335664822462831 0 -0.0021559705984674346 0.01495944316266387 0 -0.0015410856815795051 0.015063553703960095 0 -0.001807084399385863 0.015335664822462831 0 -0.0021559705984674346 0.01495944316266387 0 -0.0042567419671553893 0.015320771822945155 0 -0.0037538711422692257 0.014226045937380166 0 -0.0063577170250950985 0.014565410807577254 0 -0.0058644564245798119 0.014913044537568322 0 -0.0074758982650665051 0.015218279459063906 0 -0.0076792313342624458 0.016608696683608384 0 -0.0041435479700540189 0.01571130090398867 0 -0.0052239968972838677 0.015149637963568637 0 -0.0031141669401269145 0.01482946914223348 0 -0.0042567419671553893 0.015320771822945155 0 -0.0037538711422692257 0.014226045937380166 0 -0.0052239968972838677 0.015149637963568637 0 -0.0070672263114523468 0.014217997842045207 0 -0.0058644564245798119 0.014913044537568322 0 -0.0074758982650665051 0.015218279459063906 0 -0.0078936124083067837 0.014051954621458987 0 -0.0037538711422692257 0.014226045937380166 0 -0.0040778793312714169 0.013099034151874935 0 -0.0063577170250950985 0.014565410807577254 0 -0.0032748658860740662 0.012913298979896161 0 -0.0029726367613807439 0.013664964357740519 0 -0.0040778793312714169 0.013099034151874935 0 -0.0029726367613807439 0.013664964357740519 0 -0.0037538711422692257 0.014226045937380166 0 -0.0040778793312714169 0.013099034151874935 0 -0.0036095085013153568 0.01270500816989004 0 -0.0032748658860740662 0.012913298979896161 0 -0.0040778793312714169 0.013099034151874935 0 -0.0036095085013153568 0.01270500816989004 0 -0.0040778793312714169 0.013099034151874935 0 -0.0039604086268359914 0.012925509648485311 0 -0.0040778793312714169 0.013099034151874935 0 -0.0039604086268359914 0.012925509648485311 0 -0.0039062412101265893 0.012645473227318451 0 -0.0054451826409854529 0.015047285437104244 0 -0.0067714246539447107 0.015669472457004001 0 -0.003951557921151338 0.013150466210063815 0 -0.0039604086268359914 0.012925509648485311 0 -0.0039062412101265893 0.012645473227318451 0 -0.0040778793312714169 0.013099034151874935 0 -0.0068851374901616929 0.012134925635566613 0 -0.0063577170250950985 0.014565410807577254 0 -0.0068851374901616929 0.012134925635566613 0 -0.009470986786434224 0.013076854336642242 0 -0.0063577170250950985 0.014565410807577254 0 -0.0082650855021421041 0.013589889890726802 0 -0.0070672263114523468 0.014217997842045207 0 -0.003058668993717273 0.013284114823176423 0 -0.0039062412101265893 0.012645473227318451 0 -0.0020463115825528908 0.012638726887790113 0 -0.0068851374901616929 0.012134925635566613 0 -0.010113255091977722 0.011488678595674038 0 -0.009470986786434224 0.013076854336642242 0 -0.003058668993717273 0.013284114823176423 0 -0.003951557921151338 0.013150466210063815 0 -0.0039062412101265893 0.012645473227318451 0 -0.0067714246539447107 0.015669472457004001 0 -0.012650851994151269 0.018001440528014247 0 -0.017756628271331027 0.016881133780085673 0 -0.017771430161923674 0.016883294376060169 0 -0.017767361635977485 0.016882179733464644 0 -0.017756628271331027 0.016881133780085673 0 -0.017777959400765982 0.016877012703883226 0 -0.017771430161923674 0.016883294376060169 0 -0.012650851994151269 0.018001440528014247 0 -0.01654563819286645 0.019151106261935523 0 -0.017771430161923674 0.016883294376060169 0 -0.017770846292071363 0.01688117609191447 0 -0.017767361635977485 0.016882179733464644 0 -0.010113255091977722 0.011488678595674038 0 -0.010383016111395128 0.0135098884760902 0 -0.009470986786434224 0.013076854336642242 0 -0.010383016111395128 0.0135098884760902 0 -0.009470986786434224 0.013076854336642242 0 -0.0094214323885059865 0.014412723150296821 0 -0.012650851994151269 0.018001440528014247 0 -0.014618346263215417 0.015773095619397614 0 -0.010383016111395128 0.0135098884760902 0 -0.010728610888227417 0.014910948055969112 0 -0.0094214323885059865 0.014412723150296821 0 -0.010728610888227417 0.014910948055969112 0 -0.0094214323885059865 0.014412723150296821 0 -0.0096851532574100032 0.016662473241335976 0 -0.014618346263215417 0.015773095619397614 0 -0.017039526677005829 0.014923695986004744 0 -0.017770846292071363 0.01688117609191447 0 -0.017767361635977485 0.016882179733464644 0 -0.017767140007036906 0.016869458535592283 0 -0.020230222216191578 0.014489434068051128 0 -0.017039526677005829 0.014923695986004744 0 -0.027578518387597603 0.012726026435566352 0 -0.026998265547303505 0.013590067629654154 0 -0.027915240572587933 0.013466676459083568 0 -0.017039526677005829 0.014923695986004744 0 -0.021898761713814264 0.015073306553464557 0 -0.026998265547303505 0.013590067629654154 0 -0.028044481339327285 0.014234731188604854 0 -0.027300729070387504 0.014961326077395668 0 -0.026998265547303505 0.013590067629654154 0 -0.027915240572587933 0.013466676459083568 0 -0.028044481339327285 0.014234731188604854 0 -0.017039526677005829 0.014923695986004744 0 -0.012231354204252094 0.017128827609769002 0 -0.008423283339003218 0.015364511439326814 0 -0.0094214323885059865 0.014412723150296821 0 -0.0096851532574100032 0.016662473241335976 0 -0.0074758982650665051 0.015218279459063906 0 -0.008423283339003218 0.015364511439326814 0 -0.0076792313342624458 0.016608696683608384 0 -0.0074758982650665051 0.015218279459063906 0 -0.008423283339003218 0.015364511439326814 0 -0.0078936124083067837 0.014051954621458987 0 -0.009470986786434224 0.013076854336642242 0 -0.0078936124083067837 0.014051954621458987 0 -0.0094214323885059865 0.014412723150296821 0 -0.008423283339003218 0.015364511439326814 0 -0.0078936124083067837 0.014051954621458987 0 -0.0094214323885059865 0.014412723150296821 0 -0.030842163818240346 0.011917646794578057 0 -0.029963124825430294 0.012754365887910778 0 -0.031501090603403434 0.0132179377495543 0 -0.03177570819926915 0.012155320845531658 0 -0.030842163818240346 0.011917646794578057 0 -0.031501090603403434 0.0132179377495543 0 -0.031548499427952133 0.011465764485434191 0 -0.03177570819926915 0.012155320845531658 0 -0.030842163818240346 0.011917646794578057 0 -0.031548499427952133 0.011465764485434191 0 -0.030842163818240346 0.011917646794578057 0 -0.030989466905826324 0.011210660454343229 0 -0.031514243179257585 0.010765840297851178 0 -0.031548499427952133 0.011465764485434191 0 -0.030989466905826324 0.011210660454343229 0 -0.030546249998621999 0.011009911252437263 0 -0.030989466905826324 0.011210660454343229 0 -0.030508121441953993 0.011344452343790955 0 -0.030842163818240346 0.011917646794578057 0 -0.030989466905826324 0.011210660454343229 0 -0.030508121441953993 0.011344452343790955 0 -0.030842163818240346 0.011917646794578057 0 -0.030508121441953993 0.011344452343790955 0 -0.029998647649336498 0.011583345630302916 0 -0.030508121441953993 0.011344452343790955 0 -0.030171606755195157 0.01105533600033551 0 -0.029998647649336498 0.011583345630302916 0 -0.030546249998621999 0.011009911252437263 0 -0.030508121441953993 0.011344452343790955 0 -0.030171606755195157 0.01105533600033551 0 -0.030171606755195157 0.01105533600033551 0 -0.029790139530525627 0.011081825431551142 0 -0.029998647649336498 0.011583345630302916 0 -0.029790139530525627 0.011081825431551142 0 -0.029998647649336498 0.011583345630302916 0 -0.029255331239538943 0.011394031715844126 0 -0.029998647649336498 0.011583345630302916 0 -0.029963124825430294 0.012754365887910778 0 -0.029285620209556176 0.01197989733262789 0 -0.030842163818240346 0.011917646794578057 0 -0.029998647649336498 0.011583345630302916 0 -0.029963124825430294 0.012754365887910778 0 -0.029642698284692123 0.012589667278152437 0 -0.028324226235329441 0.012302698612564156 0 -0.028578577100662344 0.013199806864990126 0 -0.029963124825430294 0.012754365887910778 0 -0.029285620209556176 0.01197989733262789 0 -0.028324226235329441 0.012302698612564156 0 -0.030047365520863137 0.01273024736936703 0 -0.029276972326811312 0.012510924528354695 0 -0.029285620209556176 0.01197989733262789 0 -0.028760841757265863 0.011891295652169667 0 -0.028324226235329441 0.012302698612564156 0 -0.02119406382524194 0.018276188841775228 0 -0.021610193816351111 0.015278945123802552 0 -0.029998647649336498 0.011583345630302916 0 -0.029285620209556176 0.01197989733262789 0 -0.029255331239538943 0.011394031715844126 0 -0.029129965466190174 0.010762477321180257 0 -0.029255331239538943 0.011394031715844126 0 -0.028284171313713337 0.011749340194887714 0 -0.029562385484436633 0.01071942129708338 0 -0.029790139530525627 0.011081825431551142 0 -0.029255331239538943 0.011394031715844126 0 -0.029255331239538943 0.011394031715844126 0 -0.028760841757265863 0.011891295652169667 0 -0.028284171313713337 0.011749340194887714 0 -0.029285620209556176 0.01197989733262789 0 -0.029255331239538943 0.011394031715844126 0 -0.028760841757265863 0.011891295652169667 0 -0.017815307748672932 0.016876548727207993 0 -0.017777959400765982 0.016877012703883226 0 -0.0177903406863699 0.016885605163563681 0 -0.017777959400765982 0.016877012703883226 0 -0.017771430161923674 0.016883294376060169 0 -0.0177903406863699 0.016885605163563681 0 -0.020230222216191578 0.014489434068051128 0 -0.021610193816351111 0.015278945123802552 0 -0.027578518387597603 0.012726026435566352 0 -0.028284171313713337 0.011749340194887714 0 -0.028324226235329441 0.012302698612564156 0 -0.017771430161923674 0.016883294376060169 0 -0.017770846292071363 0.01688117609191447 0 -0.0177903406863699 0.016885605163563681 0 -0.028760841757265863 0.011891295652169667 0 -0.028284171313713337 0.011749340194887714 0 -0.028324226235329441 0.012302698612564156 0 -0.027578518387597603 0.012726026435566352 0 -0.028324226235329441 0.012302698612564156 0 -0.028103266251649633 0.012927982487805328 0 -0.028324226235329441 0.012302698612564156 0 -0.028103266251649633 0.012927982487805328 0 -0.028578577100662344 0.013199806864990126 0 -0.027578518387597603 0.012726026435566352 0 -0.028103266251649633 0.012927982487805328 0 -0.027915240572587933 0.013466676459083568 0 -0.028103266251649633 0.012927982487805328 0 -0.027915240572587933 0.013466676459083568 0 -0.028578577100662344 0.013199806864990126 0 -0.027915240572587933 0.013466676459083568 0 -0.028372081893860722 0.013880157842518366 0 -0.028578577100662344 0.013199806864990126 0 -0.027915240572587933 0.013466676459083568 0 -0.028044481339327285 0.014234731188604854 0 -0.028372081893860722 0.013880157842518366 0 -0.028044481339327285 0.014234731188604854 0 -0.028372081893860722 0.013880157842518366 0 -0.028280400844068951 0.014413121128475882 0 -0.028372081893860722 0.013880157842518366 0 -0.0292546992613258 0.013926767134835231 0 -0.028578577100662344 0.013199806864990126 0 -0.028372081893860722 0.013880157842518366 0 -0.0292546992613258 0.013926767134835231 0 -0.028280400844068951 0.014413121128475882 0 -0.0292546992613258 0.013926767134835231 0 -0.029360595128112916 0.014943910550358252 0 -0.028280400844068951 0.014413121128475882 0 -0.029642698284692123 0.012589667278152437 0 -0.0292546992613258 0.013926767134835231 0 -0.028578577100662344 0.013199806864990126 0 -0.029642698284692123 0.012589667278152437 0 -0.0292546992613258 0.013926767134835231 0 -0.030457673072162444 0.013680732980800074 0 -0.0292546992613258 0.013926767134835231 0 -0.030417031754455388 0.014899078846838935 0 -0.029360595128112916 0.014943910550358252 0 -0.0292546992613258 0.013926767134835231 0 -0.030457673072162444 0.013680732980800074 0 -0.030417031754455388 0.014899078846838935 0 -0.032229607731590053 0.014604070820456574 0 -0.030457673072162444 0.013680732980800074 0 -0.030417031754455388 0.014899078846838935 0 -0.032229607731590053 0.014604070820456574 0 -0.030457673072162444 0.013680732980800074 0 -0.031537069208822904 0.013017543125359883 0 -0.030047365520863137 0.01273024736936703 0 -0.031451820886965555 0.013133572305669961 0 -0.029642698284692123 0.012589667278152437 0 -0.030457673072162444 0.013680732980800074 0 -0.031537069208822904 0.013017543125359883 0 -0.032811684336512444 0.016912133553313693 0 -0.030417031754455388 0.014899078846838935 0 -0.030326805462518862 0.01719054517989985 0 -0.032811684336512444 0.016912133553313693 0 -0.031701928037805624 0.018336380367414251 0 -0.030326805462518862 0.01719054517989985 0 -0.030409070662021056 0.016057640038458987 0 -0.030359486219214745 0.016930070903615417 0 -0.030417031754455388 0.014899078846838935 0 -0.029360595128112916 0.014943910550358252 0 -0.030337045536328228 0.016424374903855479 0 -0.030337045536328228 0.016424374903855479 0 -0.029069155132268681 0.015979401802350562 0 -0.029029551129978341 0.017508389382952905 0 -0.029360595128112916 0.014943910550358252 0 -0.030337045536328228 0.016424374903855479 0 -0.029069155132268681 0.015979401802350562 0 -0.029069155132268681 0.015979401802350562 0 -0.027947419158430478 0.016699968984945437 0 -0.029029551129978341 0.017508389382952905 0 -0.029069155132268681 0.015979401802350562 0 -0.028280400844068951 0.014413121128475882 0 -0.027947419158430478 0.016699968984945437 0 -0.029360595128112916 0.014943910550358252 0 -0.029069155132268681 0.015979401802350562 0 -0.028280400844068951 0.014413121128475882 0 -0.028280400844068951 0.014413121128475882 0 -0.028045903593065136 0.013937234602659896 0 -0.028086245939201598 0.013531072997274953 0 -0.028044481339327285 0.014234731188604854 0 -0.028280400844068951 0.014413121128475882 0 -0.028045903593065136 0.013937234602659896 0 -0.028044481339327285 0.014234731188604854 0 -0.028045903593065136 0.013937234602659896 0 -0.028176632839262084 0.01387364975881517 0 -0.028045903593065136 0.013937234602659896 0 -0.027865861070319877 0.013630938158596697 0 -0.028176632839262084 0.01387364975881517 0 -0.028201850858220006 0.014822562473138257 0 -0.028039841232550745 0.015597976162652972 0 -0.028045903593065136 0.013937234602659896 0 -0.027865861070319877 0.013630938158596697 0 -0.028086245939201598 0.013531072997274953 0 -0.027865861070319877 0.013630938158596697 0 -0.028086245939201598 0.013531072997274953 0 -0.02737531975884561 0.013429087089233554 0 -0.028086245939201598 0.013531072997274953 0 -0.028001747929131841 0.016118768416245446 0 -0.02737531975884561 0.013429087089233554 0 -0.027947419158430478 0.016699968984945437 0 -0.027588365665556981 0.018669525413165456 0 -0.029029551129978341 0.017508389382952905 0 -0.028039841232550745 0.015597976162652972 0 -0.027645128822155095 0.017595091315456661 0 -0.027588365665556981 0.018669525413165456 0 -0.029029551129978341 0.017508389382952905 0 -0.029164100398789174 0.018968279456921554 0 -0.030337045536328228 0.016424374903855479 0 -0.029029551129978341 0.017508389382952905 0 -0.030265108441723358 0.018210759217008626 0 -0.030359486219214745 0.016930070903615417 0 -0.030283199877106724 0.018345877378960779 0 -0.029029551129978341 0.017508389382952905 0 -0.030265108441723358 0.018210759217008626 0 -0.029164100398789174 0.018968279456921554 0 -0.031701928037805624 0.018336380367414251 0 -0.030381469988610695 0.018940203141451967 0 -0.031254067855321012 0.019509426544115815 0 -0.031701928037805624 0.018336380367414251 0 -0.030326805462518862 0.01719054517989985 0 -0.030381469988610695 0.018940203141451967 0 -0.010981538139622615 0.015671228794794757 0 -0.011270865437590713 0.018021891007829277 0 -0.0091912665404772567 0.018272038978525293 0 -0.0076792313342624458 0.016608696683608384 0 -0.0096851532574100032 0.016662473241335976 0 -0.0086088052200068259 0.018633090105227956 0 -0.012231354204252094 0.017128827609769002 0 -0.0098313827249935648 0.018811844578144655 0 -0.0073666938090349385 0.017863786152669852 0 -0.0067212478917674833 0.018749066136561528 0 -0.0086088052200068259 0.018633090105227956 0 -0.0073666938090349385 0.017863786152669852 0 -0.0076792313342624458 0.016608696683608384 0 -0.0086088052200068259 0.018633090105227956 0 -0.008423283339003218 0.015364511439326814 0 -0.0076792313342624458 0.016608696683608384 0 -0.0096851532574100032 0.016662473241335976 0 -0.012802983767968601 0.013046487233089921 0 -0.010981538139622615 0.015671228794794757 0 -0.013418712724645466 0.015949194765734677 0 -0.023794313707216391 0.013946583964277023 0 -0.021898761713814264 0.015073306553464557 0 -0.027865861070319877 0.013630938158596697 0 -0.028176632839262084 0.01387364975881517 0 -0.02737531975884561 0.013429087089233554 0 -0.021898761713814264 0.015073306553464557 0 -0.022658485391695987 0.014657322237132715 0 -0.026843221634571424 0.010964594848496786 0 -0.02737531975884561 0.013429087089233554 0 -0.024384771991789091 0.013029541620930292 0 -0.010981538139622615 0.015671228794794757 0 -0.013418712724645466 0.015949194765734677 0 -0.011270865437590713 0.018021891007829277 0 -0.021898761713814264 0.015073306553464557 0 -0.018337608955237922 0.016232420265187873 0 -0.024384771991789091 0.013029541620930292 0 -0.02582005188638262 0.014741743310865116 0 -0.024008750637761107 0.014972793139260721 0 -0.02737531975884561 0.013429087089233554 0 -0.024384771991789091 0.013029541620930292 0 -0.02582005188638262 0.014741743310865116 0 -0.028001747929131841 0.016118768416245446 0 -0.02737531975884561 0.013429087089233554 0 -0.02582005188638262 0.014741743310865116 0 -0.028001747929131841 0.016118768416245446 0 -0.02582005188638262 0.014741743310865116 0 -0.025307810444575172 0.016620145069047163 0 -0.02582005188638262 0.014741743310865116 0 -0.024008750637761107 0.014972793139260721 0 -0.025307810444575172 0.016620145069047163 0 -0.024008750637761107 0.014972793139260721 0 -0.023332741513951635 0.016617045058630538 0 -0.025307810444575172 0.016620145069047163 0 -0.024008750637761107 0.014972793139260721 0 -0.021380061130106067 0.014489525317936756 0 -0.023332741513951635 0.016617045058630538 0 -0.018337608955237922 0.016232420265187873 0 -0.015181635445807211 0.017899810780249357 0 -0.011270865437590713 0.018021891007829277 0 -0.0091599814391497471 0.019936770422135444 0 -0.0091912665404772567 0.018272038978525293 0 -0.024384771991789091 0.013029541620930292 0 -0.024008750637761107 0.014972793139260721 0 -0.021380061130106067 0.014489525317936756 0 -0.0088248486845816428 0.019836707485111883 0 -0.0098313827249935648 0.018811844578144655 0 -0.0068158721535500569 0.019842932804885281 0 -0.0076191512374982001 0.020576495374833453 0 -0.0086088052200068259 0.018633090105227956 0 -0.015181635445807211 0.017899810780249357 0 -0.011983018296367576 0.020105379685430441 0 -0.0076191512374982001 0.020576495374833453 0 -0.0091599814391497471 0.019936770422135444 0 -0.0073690851325861791 0.021461382035592811 0 -0.0076191512374982001 0.020576495374833453 0 -0.0091599814391497471 0.019936770422135444 0 -0.0091912665404772567 0.018272038978525293 0 -0.021380061130106067 0.014489525317936756 0 -0.018962520331287515 0.017685106297375432 0 -0.021569499487396088 0.018145695866444028 0 -0.021380061130106067 0.014489525317936756 0 -0.018962520331287515 0.017685106297375432 0 -0.016210330982193141 0.016733331344244012 0 -0.018962520331287515 0.017685106297375432 0 -0.018571483088074523 0.020188648393131226 0 -0.021569499487396088 0.018145695866444028 0 -0.018962520331287515 0.017685106297375432 0 -0.018571483088074523 0.020188648393131226 0 -0.016097623907271517 0.019960745866496234 0 -0.018571483088074523 0.020188648393131226 0 -0.022132068685768492 0.021667576660369264 0 -0.014256566154028046 0.024178558754153479 0 -0.018571483088074523 0.020188648393131226 0 -0.021569499487396088 0.018145695866444028 0 -0.022132068685768492 0.021667576660369264 0 -0.024100960625429983 0.018992903504087059 0 -0.024517099316952146 0.021142027157567446 0 -0.022132068685768492 0.021667576660369264 0 -0.021569499487396088 0.018145695866444028 0 -0.024100960625429983 0.018992903504087059 0 -0.022132068685768492 0.021667576660369264 0 -0.021380061130106067 0.014489525317936756 0 -0.021569499487396088 0.018145695866444028 0 -0.023332741513951635 0.016617045058630538 0 -0.021569499487396088 0.018145695866444028 0 -0.023332741513951635 0.016617045058630538 0 -0.024100960625429983 0.018992903504087059 0 -0.025307810444575172 0.016620145069047163 0 -0.027172477490474203 0.019944264100530015 0 -0.024100960625429983 0.018992903504087059 0 -0.023332741513951635 0.016617045058630538 0 -0.025307810444575172 0.016620145069047163 0 -0.024100960625429983 0.018992903504087059 0 -0.028001747929131841 0.016118768416245446 0 -0.025307810444575172 0.016620145069047163 0 -0.027172477490474203 0.019944264100530015 0 -0.027172477490474203 0.019944264100530015 0 -0.024100960625429983 0.018992903504087059 0 -0.024517099316952146 0.021142027157567446 0 -0.024517099316952146 0.021142027157567446 0 -0.026399854974777114 0.022500012888732396 0 -0.024214660177063252 0.022309293285529296 0 -0.027172477490474203 0.019944264100530015 0 -0.024517099316952146 0.021142027157567446 0 -0.026399854974777114 0.022500012888732396 0 -0.027120950254574158 0.019955429323339331 0 -0.026794861160458056 0.021281171010223983 0 -0.026399854974777114 0.022500012888732396 0 -0.024214660177063252 0.022309293285529296 0 -0.02496207821326096 0.023405058675516961 0 -0.024214660177063252 0.022309293285529296 0 -0.023575437941381155 0.022850370415607998 0 -0.02496207821326096 0.023405058675516961 0 -0.024214660177063252 0.022309293285529296 0 -0.023575437941381155 0.022850370415607998 0 -0.023158267598022732 0.022325162862918135 0 -0.024214660177063252 0.022309293285529296 0 -0.023158267598022732 0.022325162862918135 0 -0.023219305345651729 0.021894216829912681 0 -0.023158267598022732 0.022325162862918135 0 -0.022524924409520301 0.02273107472287916 0 -0.022523683768645684 0.021965420348594222 0 -0.023575437941381155 0.022850370415607998 0 -0.023158267598022732 0.022325162862918135 0 -0.022524924409520301 0.02273107472287916 0 -0.023575437941381155 0.022850370415607998 0 -0.022524924409520301 0.02273107472287916 0 -0.024008161171942616 0.02368360565204174 0 -0.029367869435083203 0.014836508331749234 0 -0.028391077870519761 0.017183085931451739 0 -0.02155849396042181 0.020911997712872887 0 -0.022006435823966369 0.021595539445670539 0 -0.021961697759044028 0.021196334606133946 0 -0.02155849396042181 0.020911997712872887 0 -0.02188493800659631 0.020697195106125083 0 -0.021961697759044028 0.021196334606133946 0 -0.022006435823966369 0.021595539445670539 0 -0.022132068685768492 0.021667576660369264 0 -0.022025178029151833 0.021555032622959658 0 -0.022524924409520301 0.02273107472287916 0 -0.022523683768645684 0.021965420348594222 0 -0.022006435823966369 0.021595539445670539 0 -0.018280139682544376 0.018184409468974583 0 -0.015577550587630018 0.017113316368656428 0 -0.022523683768645684 0.021965420348594222 0 -0.022006435823966369 0.021595539445670539 0 -0.022132068685768492 0.021667576660369264 0 -0.024517099316952146 0.021142027157567446 0 -0.022132068685768492 0.021667576660369264 0 -0.023219305345651729 0.021894216829912681 0 -0.024517099316952146 0.021142027157567446 0 -0.024214660177063252 0.022309293285529296 0 -0.023219305345651729 0.021894216829912681 0 -0.023158267598022732 0.022325162862918135 0 -0.022523683768645684 0.021965420348594222 0 -0.023219305345651729 0.021894216829912681 0 -0.022523683768645684 0.021965420348594222 0 -0.022132068685768492 0.021667576660369264 0 -0.023219305345651729 0.021894216829912681 0 -0.031610894132874989 0.020167774900361497 0 -0.03020130044654748 0.020082188397650295 0 -0.030562902390545731 0.021121945041305556 0 -0.031610894132874989 0.020167774900361497 0 -0.031895981539448004 0.02108826051402304 0 -0.030562902390545731 0.021121945041305556 0 -0.030381469988610695 0.018940203141451967 0 -0.031254067855321012 0.019509426544115815 0 -0.03020130044654748 0.020082188397650295 0 -0.031610894132874989 0.020167774900361497 0 -0.031254067855321012 0.019509426544115815 0 -0.03020130044654748 0.020082188397650295 0 -0.030283199877106724 0.018345877378960779 0 -0.030234318775519936 0.019137613083093804 0 -0.030265108441723358 0.018210759217008626 0 -0.03020130044654748 0.020082188397650295 0 -0.029164100398789174 0.018968279456921554 0 -0.03020130044654748 0.020082188397650295 0 -0.028833714299409174 0.020351832746996198 0 -0.030562902390545731 0.021121945041305556 0 -0.03020130044654748 0.020082188397650295 0 -0.028833714299409174 0.020351832746996198 0 -0.029164100398789174 0.018968279456921554 0 -0.027588365665556981 0.018669525413165456 0 -0.028833714299409174 0.020351832746996198 0 -0.029164100398789174 0.018968279456921554 0 -0.027645128822155095 0.017595091315456661 0 -0.027120950254574158 0.019955429323339331 0 -0.027588365665556981 0.018669525413165456 0 -0.027132040635596887 0.020523993156890595 0 -0.028833714299409174 0.020351832746996198 0 -0.027132040635596887 0.020523993156890595 0 -0.026399854974777114 0.022500012888732396 0 -0.028962814823830573 0.021846810835114749 0 -0.026399854974777114 0.022500012888732396 0 -0.028962814823830573 0.021846810835114749 0 -0.027622629262483243 0.023203463113119355 0 -0.027132040635596887 0.020523993156890595 0 -0.028833714299409174 0.020351832746996198 0 -0.028962814823830573 0.021846810835114749 0 -0.028962814823830573 0.021846810835114749 0 -0.029463232084160691 0.023042210197185858 0 -0.027622629262483243 0.023203463113119355 0 -0.028833714299409174 0.020351832746996198 0 -0.028962814823830573 0.021846810835114749 0 -0.030562902390545731 0.021121945041305556 0 -0.028962814823830573 0.021846810835114749 0 -0.031154638944203381 0.022339104320402897 0 -0.030562902390545731 0.021121945041305556 0 -0.028962814823830573 0.021846810835114749 0 -0.031154638944203381 0.022339104320402897 0 -0.029463232084160691 0.023042210197185858 0 -0.031895981539448004 0.02108826051402304 0 -0.031154638944203381 0.022339104320402897 0 -0.030562902390545731 0.021121945041305556 0 -0.03116869224296584 0.023944136769200923 0 -0.030494487874509171 0.023375957743039188 0 -0.030443770273550004 0.024389829868629913 0 -0.031855315589596526 0.023010838600682076 0 -0.03116869224296584 0.023944136769200923 0 -0.030494487874509171 0.023375957743039188 0 -0.031855315589596526 0.023010838600682076 0 -0.031277101738876829 0.02150142735876634 0 -0.030494487874509171 0.023375957743039188 0 -0.032291458647263474 0.021995616126633626 0 -0.031658534214337647 0.022707688174723181 0 -0.031154638944203381 0.022339104320402897 0 -0.030494487874509171 0.023375957743039188 0 -0.029463232084160691 0.023042210197185858 0 -0.030494487874509171 0.023375957743039188 0 -0.02939149136102592 0.024065332529038665 0 -0.030443770273550004 0.024389829868629913 0 -0.030494487874509171 0.023375957743039188 0 -0.02939149136102592 0.024065332529038665 0 -0.029463232084160691 0.023042210197185858 0 -0.02939149136102592 0.024065332529038665 0 -0.029463232084160691 0.023042210197185858 0 -0.028401149068621966 0.023846177646825291 0 -0.02939149136102592 0.024065332529038665 0 -0.028401149068621966 0.023846177646825291 0 -0.0282166167048623 0.024585972406130314 0 -0.029463232084160691 0.023042210197185858 0 -0.027622629262483243 0.023203463113119355 0 -0.028401149068621966 0.023846177646825291 0 -0.027622629262483243 0.023203463113119355 0 -0.027290935087668167 0.024263403690943753 0 -0.028401149068621966 0.023846177646825291 0 -0.027290935087668167 0.024263403690943753 0 -0.0282166167048623 0.024585972406130314 0 -0.0268923506499265 0.025277862510006636 0 -0.027290935087668167 0.024263403690943753 0 -0.028401149068621966 0.023846177646825291 0 -0.0282166167048623 0.024585972406130314 0 -0.033788605381028139 0.020196339789349971 0 -0.035104135687560961 0.015898348560625945 0 -0.0282166167048623 0.024585972406130314 0 -0.029045230514775301 0.025269875903740885 0 -0.0268923506499265 0.025277862510006636 0 -0.037848805277676152 0.02317134481977241 0 -0.036578288744713618 0.0235162125541531 0 -0.038696460071301127 0.023990810819851667 0 -0.037848805277676152 0.02317134481977241 0 -0.037831644744565324 0.02216074207152045 0 -0.03900607787940355 0.023533372322818744 0 -0.037848805277676152 0.02317134481977241 0 -0.037831644744565324 0.02216074207152045 0 -0.036823739259334472 0.022562223497805203 0 -0.037831644744565324 0.02216074207152045 0 -0.036823739259334472 0.022562223497805203 0 -0.036461706639539293 0.021257471301401994 0 -0.037848805277676152 0.02317134481977241 0 -0.036823739259334472 0.022562223497805203 0 -0.036578288744713618 0.0235162125541531 0 -0.035715194489930033 0.022340156213802583 0 -0.036578288744713618 0.0235162125541531 0 -0.033960612805108169 0.022741251930743469 0 -0.036823739259334472 0.022562223497805203 0 -0.035715194489930033 0.022340156213802583 0 -0.036578288744713618 0.0235162125541531 0 -0.036823739259334472 0.022562223497805203 0 -0.035715194489930033 0.022340156213802583 0 -0.036461706639539293 0.021257471301401994 0 -0.02939149136102592 0.024065332529038665 0 -0.029045230514775301 0.025269875903740885 0 -0.030443770273550004 0.024389829868629913 0 -0.02939149136102592 0.024065332529038665 0 -0.0282166167048623 0.024585972406130314 0 -0.029045230514775301 0.025269875903740885 0 -0.029045230514775301 0.025269875903740885 0 -0.030443770273550004 0.024389829868629913 0 -0.030994648182974562 0.024786336722716188 0 -0.033788605381028139 0.020196339789349971 0 -0.032589335842095148 0.021568370032016362 0 -0.035715194489930033 0.022340156213802583 0 -0.033960612805108169 0.022741251930743469 0 -0.034843174868069919 0.02157447251744158 0 -0.033960612805108169 0.022741251930743469 0 -0.032459402559791566 0.022240310636408162 0 -0.031305391280809551 0.022445160169293186 0 -0.032589335842095148 0.021568370032016362 0 -0.031809153289259873 0.021675851951479669 0 -0.03114485852222762 0.023761955066487043 0 -0.030994648182974562 0.024786336722716188 0 -0.031180734393013616 0.024468154975851374 0 -0.03114485852222762 0.023761955066487043 0 -0.030994648182974562 0.024786336722716188 0 -0.031305391280809551 0.022445160169293186 0 -0.030443770273550004 0.024389829868629913 0 -0.030994648182974562 0.024786336722716188 0 -0.031180734393013616 0.024468154975851374 0 -0.032011941478690478 0.024173337556071272 0 -0.03116869224296584 0.023944136769200923 0 -0.031180734393013616 0.024468154975851374 0 -0.03116869224296584 0.023944136769200923 0 -0.030443770273550004 0.024389829868629913 0 -0.031180734393013616 0.024468154975851374 0 -0.053359193938636057 -0.027190874049671548 0 -0.053312850560541802 -0.029387586456190724 0 -0.054784388243690245 -0.030735723957463542 0 -0.053359193938636057 -0.027190874049671548 0 -0.053312850560541802 -0.029387586456190724 0 -0.052092163440402905 -0.02985007692237333 0 -0.05374428637928836 -0.026446969952629452 0 -0.052718211531653576 -0.027694671987355576 0 -0.052326246430987954 -0.029742451540466921 0 -0.0077291714895464372 -0.00048092245272267939 0 -0.0083980417609893238 -0.00073522856744014011 0 -0.0085773891908201873 -0.0024609181609374429 0 -0.030968011548632605 0.0012905625232235614 0 -0.034278909225794879 -0.014029031012033316 0 -0.030968011548632605 0.0012905625232235614 0 -0.021963128737218288 -0.015072857997779056 0 -0.030968011548632605 0.0012905625232235614 0 -0.035940553001581096 0.0051104175395610208 0 -0.023830336718791045 0.024315352396800848 0 -0.024620674643636771 0.024130179410728404 0 -0.024614662004728598 0.024885275254991377 0 -0.05374428637928836 -0.026446969952629452 0 -0.052718211531653576 -0.027694671987355576 0 -0.051974922944615129 -0.027994803893993472 0 -0.052718211531653576 -0.027694671987355576 0 -0.051997936829938335 -0.028030962303336127 0 -0.052326246430987954 -0.029742451540466921 0 -0.036127796275269228 0.0049037944285882946 0 -0.035940553001581096 0.0051104175395610208 0 -0.0091249598783907683 -0.001078849225613543 0 -0.0083980417609893238 -0.00073522856744014011 0 -0.0085773891908201873 -0.0024609181609374429 0 -0.0091249598783907683 -0.001078849225613543 0 -0.009349924798580463 -0.0018433325558803693 0 -0.0097049012833517329 -0.0013287077002192723 0 -0.0091249598783907683 -0.001078849225613543 0 -0.0089766091316115602 -0.00020012619234872878 0 -0.010028075820334112 -0.00025662665751266295 0 -0.0091249598783907683 -0.001078849225613543 0 -0.0083980417609893238 -0.00073522856744014011 0 -0.0089766091316115602 -0.00020012619234872878 0 -0.0077291714895464372 -0.00048092245272267939 0 -0.0083980417609893238 -0.00073522856744014011 0 -0.0089766091316115602 -0.00020012619234872878 0 -0.02155849396042181 0.020911997712872887 0 -0.021113027642754245 0.019750496446891953 0 -0.02188493800659631 0.020697195106125083 0 -0.030968011548632605 0.0012905625232235614 0 -0.02054704583384169 0.0066883535553914474 0 -0.0077291714895464372 -0.00048092245272267939 0 -0.0089766091316115602 -0.00020012619234872878 0 -0.0092736193240188121 0.0010552133200807414 0 -0.0089766091316115602 -0.00020012619234872878 0 -0.0092736193240188121 0.0010552133200807414 0 -0.010028075820334112 -0.00025662665751266295 0 -0.022524924409520301 0.02273107472287916 0 -0.023664908958837858 0.024490508087783136 0 -0.024008161171942616 0.02368360565204174 0 -0.029367869435083203 0.014836508331749234 0 -0.030968011548632605 0.0012905625232235614 0 -0.030968011548632605 0.0012905625232235614 0 -0.029503252418132786 0.0049444725906747583 0 -0.023830336718791045 0.024315352396800848 0 -0.024008161171942616 0.02368360565204174 0 -0.024620674643636771 0.024130179410728404 0 -0.023575437941381155 0.022850370415607998 0 -0.024008161171942616 0.02368360565204174 0 -0.02496207821326096 0.023405058675516961 0 -0.02496207821326096 0.023405058675516961 0 -0.026392418877077824 0.023748839461092051 0 -0.025399435931183541 0.024161951484235028 0 -0.024008161171942616 0.02368360565204174 0 -0.02496207821326096 0.023405058675516961 0 -0.024620674643636771 0.024130179410728404 0 -0.02496207821326096 0.023405058675516961 0 -0.024620674643636771 0.024130179410728404 0 -0.025399435931183541 0.024161951484235028 0 -0.026399854974777114 0.022500012888732396 0 -0.027622629262483243 0.023203463113119355 0 -0.026392418877077824 0.023748839461092051 0 -0.026399854974777114 0.022500012888732396 0 -0.02496207821326096 0.023405058675516961 0 -0.026392418877077824 0.023748839461092051 0 -0.027622629262483243 0.023203463113119355 0 -0.027290935087668167 0.024263403690943753 0 -0.026392418877077824 0.023748839461092051 0 -0.027290935087668167 0.024263403690943753 0 -0.026392418877077824 0.023748839461092051 0 -0.026120875757147596 0.024464008684307193 0 -0.026392418877077824 0.023748839461092051 0 -0.026120875757147596 0.024464008684307193 0 -0.025399435931183541 0.024161951484235028 0 -0.027290935087668167 0.024263403690943753 0 -0.026120875757147596 0.024464008684307193 0 -0.0268923506499265 0.025277862510006636 0 -0.026120875757147596 0.024464008684307193 0 -0.024614662004728598 0.024885275254991377 0 -0.0268923506499265 0.025277862510006636 0 -0.035940553001581096 0.0051104175395610208 0 -0.035104135687560961 0.015898348560625945 0 -0.026120875757147596 0.024464008684307193 0 -0.025399435931183541 0.024161951484235028 0 -0.024614662004728598 0.024885275254991377 0 -0.024620674643636771 0.024130179410728404 0 -0.025399435931183541 0.024161951484235028 0 -0.024614662004728598 0.024885275254991377 0 -0.048675582582903242 -0.031496518397674603 0 -0.050928319120596539 -0.032870640937758558 0 -0.052326246430987954 -0.029742451540466921 0 -0.035400728920993704 -0.018461693441769796 0 -0.034278909225794879 -0.014029031012033316 0 -0.035940553001581096 0.0051104175395610208 0 -0.039820813868840454 -0.00038780956342767368 0 -0.051997936829938335 -0.028030962303336127 0 -0.048675582582903242 -0.031496518397674603 0 -0.052326246430987954 -0.029742451540466921 0 -0.037848805277676152 0.02317134481977241 0 -0.03900607787940355 0.023533372322818744 0 -0.038696460071301127 0.023990810819851667 0 -0.039921359473759258 0.024317982773666019 0 -0.03900607787940355 0.023533372322818744 0 -0.038696460071301127 0.023990810819851667 0 -0.048675582582903242 -0.031496518397674603 0 -0.050928319120596539 -0.032870640937758558 0 -0.048627279828077449 -0.034964005445184708 0 -0.045683059156411736 -0.034769817433988132 0 -0.048675582582903242 -0.031496518397674603 0 -0.048627279828077449 -0.034964005445184708 0 -0.039861281893492383 -0.0049076645150852418 0 -0.039820813868840454 -0.00038780956342767368 0 -0.050928319120596539 -0.032870640937758558 0 -0.052172076955588183 -0.035017327524544034 0 -0.048627279828077449 -0.034964005445184708 0 -0.053129103292801794 -0.032014618103279442 0 -0.055547236902804956 -0.031903981105415716 0 -0.052172076955588183 -0.035017327524544034 0 -0.0042524389781541279 -0.021787881775420431 0 -0.0063342603567800105 -0.020056931644189743 0 -0.0048556111337506981 -0.019018539963686781 0 -0.050928319120596539 -0.032870640937758558 0 -0.053129103292801794 -0.032014618103279442 0 -0.052172076955588183 -0.035017327524544034 0 -0.017662487758772806 -0.014178574905798755 0 -0.024051867629943071 -0.021718995126596082 0 -0.053129103292801794 -0.032014618103279442 0 -0.053268867313769612 -0.030642856879526177 0 -0.052092163440402905 -0.02985007692237333 0 -0.050928319120596539 -0.032870640937758558 0 -0.053129103292801794 -0.032014618103279442 0 -0.052092163440402905 -0.02985007692237333 0 -0.053129103292801794 -0.032014618103279442 0 -0.053268867313769612 -0.030642856879526177 0 -0.055143268578703844 -0.030951312265808963 0 -0.053129103292801794 -0.032014618103279442 0 -0.055143268578703844 -0.030951312265808963 0 -0.055547236902804956 -0.031903981105415716 0 -0.028754339418542656 -0.02004812871050151 0 -0.021963128737218288 -0.015072857997779056 0 -0.053268867313769612 -0.030642856879526177 0 -0.053312850560541802 -0.029387586456190724 0 -0.055143268578703844 -0.030951312265808963 0 -0.053268867313769612 -0.030642856879526177 0 -0.053312850560541802 -0.029387586456190724 0 -0.052092163440402905 -0.02985007692237333 0 -0.009349924798580463 -0.0018433325558803693 0 -0.0089549415030623046 -0.0027862235735983958 0 -0.010383020171649321 -0.001558322714306523 0 -0.0091249598783907683 -0.001078849225613543 0 -0.009349924798580463 -0.0018433325558803693 0 -0.0085773891908201873 -0.0024609181609374429 0 -0.019402091784667761 -0.0096046524432115837 0 -0.020943209333374489 -0.013148364985606092 0 -0.022233300411044363 -0.012058950447405485 0 -0.021963128737218288 -0.015072857997779056 0 -0.017662487758772806 -0.014178574905798755 0 -0.021963128737218288 -0.015072857997779056 0 -0.017214399796489196 -0.013242644296975277 0 -0.017662487758772806 -0.014178574905798755 0 -0.017214399796489196 -0.013242644296975277 0 -0.009349924798580463 -0.0018433325558803693 0 -0.0085773891908201873 -0.0024609181609374429 0 -0.0089549415030623046 -0.0027862235735983958 0 -0.011586268111735952 -0.0099928540432077766 0 -0.011484372818992641 -0.010078581552144143 0 -0.010752534789724759 -0.0094585885942984355 0 -0.011586268111735952 -0.0099928540432077766 0 -0.010752534789724759 -0.0094585885942984355 0 -0.011032928139577678 -0.0087934215076400247 0 -0.017214399796489196 -0.013242644296975277 0 -0.004164678847795528 -0.0064955816693333408 0 -0.017662487758772806 -0.014178574905798755 0 -0.0072174847260857086 -0.012898482245989336 0 0.025874701275604796 0.0048238096635174026 0 0.02531012559008761 0.0047795740375238651 0 0.025393603675509527 0.0057468671890858027 0 -0.0084985285042264089 -0.0031154284921698066 0 -0.010013860016561177 -0.0044265276227108937 0 -0.009920183804516338 -0.0029068733475787418 0 0.02531012559008761 0.0047795740375238651 0 0.025008020781936147 0.0053349610480672013 0 0.024021394796184325 0.0042790209922101627 0 0.025874701275604796 0.0048238096635174026 0 0.02531012559008761 0.0047795740375238651 0 0.025151466278487605 0.0040752666418207998 0 0.02531012559008761 0.0047795740375238651 0 0.025008020781936147 0.0053349610480672013 0 0.025393603675509527 0.0057468671890858027 0 0.025008020781936147 0.0053349610480672013 0 0.025020897346460576 0.0057275457187012865 0 0.025393603675509527 0.0057468671890858027 0 -0.010013860016561177 -0.0044265276227108937 0 -0.011001058635303772 -0.0020006790107749981 0 -0.009920183804516338 -0.0029068733475787418 0 -0.0084985285042264089 -0.0031154284921698066 0 -0.009920183804516338 -0.0029068733475787418 0 -0.010383020171649321 -0.001558322714306523 0 -0.011001058635303772 -0.0020006790107749981 0 -0.009920183804516338 -0.0029068733475787418 0 -0.010383020171649321 -0.001558322714306523 0 -0.004164678847795528 -0.0064955816693333408 0 0.0011610205952523242 -0.0012238418068868898 0 -0.017214399796489196 -0.013242644296975277 0 -0.016300743573877924 -0.010853783687333262 0 0.024498427577463872 0.0050297680418095432 0 0.024794947194642022 0.0052821062910261424 0 0.024532289501713666 0.005468219179506649 0 0.024498427577463872 0.0050297680418095432 0 0.024794947194642022 0.0052821062910261424 0 0.024792569492290251 0.004919816141552018 0 0.025008020781936147 0.0053349610480672013 0 0.024794947194642022 0.0052821062910261424 0 0.024767284435767957 0.0050488497131971058 0 0.022377505493079243 0.0039081668093470098 0 0.019314810845206257 0.00073151957586444882 0 0.019934127903206193 0.0022778216665072814 0 0.019314810845206257 0.00073151957586444882 0 0.025020897346460576 0.0057275457187012865 0 0.024794947194642022 0.0052821062910261424 0 0.024823680136911181 0.0058817195080557308 0 0.025008020781936147 0.0053349610480672013 0 0.025020897346460576 0.0057275457187012865 0 0.024794947194642022 0.0052821062910261424 0 0.024532289501713666 0.005468219179506649 0 0.024588922838153754 0.0058578094231136477 0 0.024215674511164388 0.0056929855815281202 0 0.024532289501713666 0.005468219179506649 0 0.024588922838153754 0.0058578094231136477 0 0.024823680136911181 0.0058817195080557308 0 0.024794947194642022 0.0052821062910261424 0 0.024532289501713666 0.005468219179506649 0 0.024823680136911181 0.0058817195080557308 0 0.024583035344141291 0.006367155357998611 0 0.024823680136911181 0.0058817195080557308 0 0.024753721492648706 0.0063457033974461067 0 0.024583035344141291 0.006367155357998611 0 0.024588922838153754 0.0058578094231136477 0 0.024215674511164388 0.0056929855815281202 0 0.024583035344141291 0.006367155357998611 0 0.024588922838153754 0.0058578094231136477 0 0.024823680136911181 0.0058817195080557308 0 0.025020897346460576 0.0057275457187012865 0 0.024823680136911181 0.0058817195080557308 0 0.025030414910131516 0.0062445215598130651 0 0.024823680136911181 0.0058817195080557308 0 0.024753721492648706 0.0063457033974461067 0 0.025030414910131516 0.0062445215598130651 0 0.024753721492648706 0.0063457033974461067 0 0.025030414910131516 0.0062445215598130651 0 0.024754454220767084 0.0064212455297629365 0 0.024583035344141291 0.006367155357998611 0 0.024753721492648706 0.0063457033974461067 0 0.024670154490244876 0.0063527850039525767 0 -0.010383020171649321 -0.001558322714306523 0 -0.01178016441704241 3.7875223697055595e-05 0 -0.010028075820334112 -0.00025662665751266295 0 -0.0091249598783907683 -0.001078849225613543 0 -0.0097049012833517329 -0.0013287077002192723 0 -0.010028075820334112 -0.00025662665751266295 0 -0.009349924798580463 -0.0018433325558803693 0 -0.0097049012833517329 -0.0013287077002192723 0 -0.010383020171649321 -0.001558322714306523 0 -0.0097049012833517329 -0.0013287077002192723 0 -0.010383020171649321 -0.001558322714306523 0 -0.010028075820334112 -0.00025662665751266295 0 0.025020897346460576 0.0057275457187012865 0 0.025393603675509527 0.0057468671890858027 0 0.025030414910131516 0.0062445215598130651 0 0.0011610205952523242 -0.0012238418068868898 0 0.003635148416084432 0.0018245033105906416 0 -0.011001058635303772 -0.0020006790107749981 0 -0.010383020171649321 -0.001558322714306523 0 -0.01178016441704241 3.7875223697055595e-05 0 0.003635148416084432 0.0018245033105906416 0 0.0044784187059326774 0.0043951187413492753 0 -0.01178016441704241 3.7875223697055595e-05 0 -0.010857542551482488 0.0010818252802060296 0 -0.012554007558465051 0.0019850618506652091 0 -0.0092736193240188121 0.0010552133200807414 0 -0.010857542551482488 0.0010818252802060296 0 -0.010028075820334112 -0.00025662665751266295 0 -0.01178016441704241 3.7875223697055595e-05 0 -0.010857542551482488 0.0010818252802060296 0 -0.010028075820334112 -0.00025662665751266295 0 -0.0092736193240188121 0.0010552133200807414 0 -0.010857542551482488 0.0010818252802060296 0 -0.010775536380274613 0.0024787582670285375 0 -0.02054704583384169 0.0066883535553914474 0 -0.015101822853068518 0.011129756713892165 0 -0.02188493800659631 0.020697195106125083 0 -0.021961697759044028 0.021196334606133946 0 -0.022198810652179119 0.021323895002094428 0 -0.022006435823966369 0.021595539445670539 0 -0.021961697759044028 0.021196334606133946 0 -0.022061363916197525 0.021430195582815788 0 -0.022061363916197525 0.021430195582815788 0 -0.022198810652179119 0.021323895002094428 0 -0.022025178029151833 0.021555032622959658 0 -0.021961697759044028 0.021196334606133946 0 -0.022061363916197525 0.021430195582815788 0 -0.022198810652179119 0.021323895002094428 0 -0.022006435823966369 0.021595539445670539 0 -0.022061363916197525 0.021430195582815788 0 -0.022025178029151833 0.021555032622959658 0 -0.010775536380274613 0.0024787582670285375 0 -0.012554007558465051 0.0019850618506652091 0 -0.012255416614189173 0.0038809027062756268 0 -0.022198810652179119 0.021323895002094428 0 -0.022341408473850809 0.021524077815398661 0 -0.022025178029151833 0.021555032622959658 0 -0.015101822853068518 0.011129756713892165 0 -0.006530882830328974 0.013001309800327461 0 -0.010857542551482488 0.0010818252802060296 0 -0.010775536380274613 0.0024787582670285375 0 -0.012554007558465051 0.0019850618506652091 0 0.024753721492648706 0.0063457033974461067 0 0.024754454220767084 0.0064212455297629365 0 0.024670154490244876 0.0063527850039525767 0 0.024754454220767084 0.0064212455297629365 0 0.024670154490244876 0.0063527850039525767 0 0.024695431621784291 0.0063790735373947657 0 0.024670154490244876 0.0063527850039525767 0 0.024695431621784291 0.0063790735373947657 0 0.024770253071853168 0.0063207602786561181 0 0.024695431621784291 0.0063790735373947657 0 0.024681628671926113 0.0064078703279362367 0 0.024674421716595445 0.0063923074996987553 0 0.024754454220767084 0.0064212455297629365 0 0.024695431621784291 0.0063790735373947657 0 0.024681628671926113 0.0064078703279362367 0 -0.012554007558465051 0.0019850618506652091 0 -0.012255416614189173 0.0038809027062756268 0 -0.01332998684375007 0.0039126952236126248 0 0.0044784187059326774 0.0043951187413492753 0 0.0036599023982172973 0.0089551857937972667 0 0.0018687857992711258 0.010755154177208983 0 0.003144777554573543 0.009898916801343598 0 0.0033942883143157723 0.0094225727635618151 0 0.0018687857992711258 0.010755154177208983 0 0.002763676234414513 0.010738890250231789 0 0.003144777554573543 0.009898916801343598 0 -0.006530882830328974 0.013001309800327461 0 0.0036599023982172973 0.0089551857937972667 0 -0.0049970918049548922 0.024088396533949667 0 -0.0027324634600403232 0.021710413900052135 0 -0.0051739054232497021 0.021914415210429198 0 -0.006530882830328974 0.013001309800327461 0 0.0030440327790916028 0.015452534966980134 0 0.0036599023982172973 0.0089551857937972667 0 0.01095524669420005 0.011945690282410229 0 0.0027912926127732765 0.010725685244359979 0 0.0039387336539659775 0.010707476316623523 0 0.003144777554573543 0.009898916801343598 0 -0.00099048961818303644 0.026095883685772529 0 -0.0022995866682865799 0.023078555202789675 0 -0.00054801600863265342 0.024107781340776069 0 0.0039387336539659775 0.010707476316623523 0 0.003144777554573543 0.009898916801343598 0 0.0033942883143157723 0.0094225727635618151 0 0.01095524669420005 0.011945690282410229 0 0.0030440327790916028 0.015452534966980134 0 0.0036599023982172973 0.0089551857937972667 0 0.0035195465792101535 0.0092617367190766606 0 -0.0010042077813118412 0.023272929242347067 0 -0.0019490160005811497 0.022745517446741532 0 -0.0022995866682865799 0.023078555202789675 0 -0.0010042077813118412 0.023272929242347067 0 -0.0022995866682865799 0.023078555202789675 0 -0.00054801600863265342 0.024107781340776069 0 -0.0010042077813118412 0.023272929242347067 0 -0.0019490160005811497 0.022745517446741532 0 -0.001151994353842663 0.022396793110078323 0 0.0029561336466887821 0.015542044398687659 0 0.0030440327790916028 0.015452534966980134 0 0.0028335259607109873 0.01639275399328928 0 0.0030440327790916028 0.015452534966980134 0 -0.0031692727807794943 0.020715580356739902 0 -0.0027324634600403232 0.021710413900052135 0 -0.0039004203936288118 0.021195217535009307 0 -0.0031692727807794943 0.020715580356739902 0 -0.0019490160005811497 0.022745517446741532 0 -0.002354962450544125 0.023111100105529393 0 -0.0031692727807794943 0.020715580356739902 0 -0.0014492417777974775 0.021295398664044198 0 -0.0019490160005811497 0.022745517446741532 0 -0.0014492417777974775 0.021295398664044198 0 -0.0019490160005811497 0.022745517446741532 0 -0.001151994353842663 0.022396793110078323 0 -0.0057337452571598353 0.019761390217041316 0 -0.0044673068425095976 0.020501128663917366 0 -0.0051739054232497021 0.021914415210429198 0 -0.0027324634600403232 0.021710413900052135 0 -0.0051739054232497021 0.021914415210429198 0 -0.0039004203936288118 0.021195217535009307 0 -0.0044673068425095976 0.020501128663917366 0 -0.0051739054232497021 0.021914415210429198 0 -0.0039004203936288118 0.021195217535009307 0 -0.0044673068425095976 0.020501128663917366 0 -0.0031692727807794943 0.020715580356739902 0 -0.0039004203936288118 0.021195217535009307 0 -0.006939288731836574 0.020905427550050464 0 -0.0055760913717532654 0.02035982512223658 0 -0.0071812580464043806 0.021940443837546088 0 -0.0057337452571598353 0.019761390217041316 0 -0.0051739054232497021 0.021914415210429198 0 -0.0071812580464043806 0.021940443837546088 0 -0.0053414932397796398 0.019756366072697165 0 -0.0058703331295832792 0.020694722706663889 0 -0.0051739054232497021 0.021914415210429198 0 -0.0071812580464043806 0.021940443837546088 0 -0.0065622454621052937 0.022311794099923784 0 -0.006939288731836574 0.020905427550050464 0 -0.0071812580464043806 0.021940443837546088 0 -0.0073690851325861791 0.021461382035592811 0 -0.006939288731836574 0.020905427550050464 0 -0.0076191512374982001 0.020576495374833453 0 -0.0073690851325861791 0.021461382035592811 0 -0.018962520331287515 0.017685106297375432 0 -0.016210330982193141 0.016733331344244012 0 -0.016097623907271517 0.019960745866496234 0 -0.013568279772912015 0.020945650039135705 0 -0.014256566154028046 0.024178558754153479 0 -0.0077147876355364671 0.023133212590569482 0 -0.0071812580464043806 0.021940443837546088 0 -0.0073690851325861791 0.021461382035592811 0 -0.0077147876355364671 0.023133212590569482 0 -0.016210330982193141 0.016733331344244012 0 -0.013568279772912015 0.020945650039135705 0 -0.0077147876355364671 0.023133212590569482 0 -0.011983018296367576 0.020105379685430441 0 -0.0099513611756497488 0.021806201704267628 0 -0.016210330982193141 0.016733331344244012 0 -0.013568279772912015 0.020945650039135705 0 -0.016097623907271517 0.019960745866496234 0 -0.018571483088074523 0.020188648393131226 0 -0.016097623907271517 0.019960745866496234 0 -0.014256566154028046 0.024178558754153479 0 -0.013568279772912015 0.020945650039135705 0 -0.016097623907271517 0.019960745866496234 0 -0.014256566154028046 0.024178558754153479 0 -0.0049970918049548922 0.024088396533949667 0 -0.0051739054232497021 0.021914415210429198 0 -0.0065622454621052937 0.022311794099923784 0 -0.006530882830328974 0.013001309800327461 0 -0.015577550587630018 0.017113316368656428 0 -0.0049970918049548922 0.024088396533949667 0 -0.014256566154028046 0.024178558754153479 0 -0.0077147876355364671 0.023133212590569482 0 -0.0049970918049548922 0.024088396533949667 0 -0.0077147876355364671 0.023133212590569482 0 -0.0065622454621052937 0.022311794099923784 0 -0.0071812580464043806 0.021940443837546088 0 -0.0077147876355364671 0.023133212590569482 0 -0.0065622454621052937 0.022311794099923784 0 0.025267800655596941 0.012327341727916358 0 0.024502313873203334 0.011767746942425095 0 0.025096735619372357 0.013884867194557882 0 0.025267800655596941 0.012327341727916358 0 0.025096735619372357 0.013884867194557882 0 0.025952989485127715 0.012274349476861644 0 0.0060963521186150329 0.023494489715096756 0 0.0032996207621396757 0.023297285884871607 0 0.0035890810522392373 0.025176759158795664 0 0.013640996037795883 0.017677082666342086 0 0.013583068737316862 0.015874028955056865 0 0.025267800655596941 0.012327341727916358 0 0.025952989485127715 0.012274349476861644 0 0.025381914107031927 0.011542922696603132 0 0.025267800655596941 0.012327341727916358 0 0.024502313873203334 0.011767746942425095 0 0.025381914107031927 0.011542922696603132 0 0.023167188122906971 0.012466709040561323 0 0.024502313873203334 0.011767746942425095 0 0.023532487145100655 0.01096633267022783 0 0.023167188122906971 0.012466709040561323 0 0.024502313873203334 0.011767746942425095 0 0.025096735619372357 0.013884867194557882 0 0.012534603037196633 0.019445854009276987 0 0.0081849402202803928 0.020076654262396642 0 0.008579417004779915 0.021782388797921531 0 0.0060963521186150329 0.023494489715096756 0 0.0045155468965174502 0.021849723735066204 0 0.012534603037196633 0.019445854009276987 0 0.013640996037795883 0.017677082666342086 0 0.022524464963120144 0.017022998922245951 0 0.023167188122906971 0.012466709040561323 0 0.025096735619372357 0.013884867194557882 0 0.0060963521186150329 0.023494489715096756 0 0.0045155468965174502 0.021849723735066204 0 0.0032996207621396757 0.023297285884871607 0 0.0045155468965174502 0.021849723735066204 0 0.0023209683184031017 0.022246662208898847 0 0.0032996207621396757 0.023297285884871607 0 0.0023209683184031017 0.022246662208898847 0 0.0008937222386808842 0.021605390321603062 0 0.0012597413332589521 0.023038103731310721 0 0.0032996207621396757 0.023297285884871607 0 0.0012597413332589521 0.023038103731310721 0 0.0023496883393084151 0.02440139020619829 0 0.0023209683184031017 0.022246662208898847 0 0.0032996207621396757 0.023297285884871607 0 0.0012597413332589521 0.023038103731310721 0 -0.0014492417777974775 0.021295398664044198 0 -0.001151994353842663 0.022396793110078323 0 -0.00022025464909523535 0.022255376533916186 0 -0.00022025464909523535 0.022255376533916186 0 0.0008937222386808842 0.021605390321603062 0 0.0012597413332589521 0.023038103731310721 0 0.0012597413332589521 0.023038103731310721 0 0.00022176321351292269 0.023408453944874265 0 0.00092953993372898351 0.02455699073902649 0 -0.00022025464909523535 0.022255376533916186 0 0.0012597413332589521 0.023038103731310721 0 0.00022176321351292269 0.023408453944874265 0 -0.0010042077813118412 0.023272929242347067 0 -0.00022025464909523535 0.022255376533916186 0 0.00022176321351292269 0.023408453944874265 0 -0.0010042077813118412 0.023272929242347067 0 0.00022176321351292269 0.023408453944874265 0 -0.00054801600863265342 0.024107781340776069 0 -0.0010042077813118412 0.023272929242347067 0 -0.001151994353842663 0.022396793110078323 0 -0.00022025464909523535 0.022255376533916186 0 -0.00099048961818303644 0.026095883685772529 0 0.00092953993372898351 0.02455699073902649 0 0.0023053563533726325 0.026067485287374223 0 0.01095524669420005 0.011945690282410229 0 0.013603980763076175 0.014473553103628214 0 0.00022176321351292269 0.023408453944874265 0 -0.00054801600863265342 0.024107781340776069 0 0.00092953993372898351 0.02455699073902649 0 -0.00099048961818303644 0.026095883685772529 0 -0.00054801600863265342 0.024107781340776069 0 0.00092953993372898351 0.02455699073902649 0 0.0032996207621396757 0.023297285884871607 0 0.0023496883393084151 0.02440139020619829 0 0.0035890810522392373 0.025176759158795664 0 0.00092953993372898351 0.02455699073902649 0 0.0023496883393084151 0.02440139020619829 0 0.0023053563533726325 0.026067485287374223 0 0.0012597413332589521 0.023038103731310721 0 0.00092953993372898351 0.02455699073902649 0 0.0023496883393084151 0.02440139020619829 0 0.026310002885305946 0.011804120832900021 0 0.025952989485127715 0.012274349476861644 0 0.026021425041248544 0.011376604666167757 0 0.0023496883393084151 0.02440139020619829 0 0.0023053563533726325 0.026067485287374223 0 0.0035890810522392373 0.025176759158795664 0 0.013603980763076175 0.014473553103628214 0 0.013583068737316862 0.015874028955056865 0 0.025952989485127715 0.012274349476861644 0 0.026021425041248544 0.011376604666167757 0 0.025381914107031927 0.011542922696603132 0 0.026021425041248544 0.011376604666167757 0 0.025670433835132546 0.01087949145808694 0 0.025381914107031927 0.011542922696603132 0 0.026021425041248544 0.011376604666167757 0 0.026342358616361299 0.010812571097342768 0 0.026719413350695734 0.011432425293476045 0 0.026310002885305946 0.011804120832900021 0 0.026021425041248544 0.011376604666167757 0 0.026719413350695734 0.011432425293476045 0 0.013603980763076175 0.014473553103628214 0 0.015178663643442596 0.013619384818794497 0 0.026021425041248544 0.011376604666167757 0 0.026342358616361299 0.010812571097342768 0 0.025670433835132546 0.01087949145808694 0 0.027513529358021354 0.011774877539394074 0 0.026719413350695734 0.011432425293476045 0 0.026928557605481379 0.010350133077434183 0 0.027513529358021354 0.011774877539394074 0 0.02619365679730901 0.011796366652376659 0 0.026719413350695734 0.011432425293476045 0 0.01095524669420005 0.011945690282410229 0 0.018507175774041398 0.010804327775223936 0 0.024695431621784291 0.0063790735373947657 0 0.024674421716595445 0.0063923074996987553 0 0.024770253071853168 0.0063207602786561181 0 0.026342358616361299 0.010812571097342768 0 0.026719413350695734 0.011432425293476045 0 0.026928557605481379 0.010350133077434183 0 0.026342358616361299 0.010812571097342768 0 0.026928557605481379 0.010350133077434183 0 0.025878509417130987 0.0099164746136515946 0 0.026928557605481379 0.010350133077434183 0 0.025878509417130987 0.0099164746136515946 0 0.0262184734829129 0.0089243005978523766 0 0.026342358616361299 0.010812571097342768 0 0.025670433835132546 0.01087949145808694 0 0.025878509417130987 0.0099164746136515946 0 0.025670433835132546 0.01087949145808694 0 0.025878509417130987 0.0099164746136515946 0 0.025211904777003965 0.010119411624705105 0 0.025211904777003965 0.010119411624705105 0 0.02451015197749876 0.010456384000233444 0 0.024806148485085736 0.009277937461408885 0 0.025878509417130987 0.0099164746136515946 0 0.025211904777003965 0.010119411624705105 0 0.024806148485085736 0.009277937461408885 0 0.025670433835132546 0.01087949145808694 0 0.025211904777003965 0.010119411624705105 0 0.02451015197749876 0.010456384000233444 0 0.025670433835132546 0.01087949145808694 0 0.025381914107031927 0.011542922696603132 0 0.02451015197749876 0.010456384000233444 0 0.024502313873203334 0.011767746942425095 0 0.025381914107031927 0.011542922696603132 0 0.02451015197749876 0.010456384000233444 0 0.024502313873203334 0.011767746942425095 0 0.023532487145100655 0.01096633267022783 0 0.02451015197749876 0.010456384000233444 0 0.02451015197749876 0.010456384000233444 0 0.023653454129092265 0.0098440621362332961 0 0.024806148485085736 0.009277937461408885 0 0.023532487145100655 0.01096633267022783 0 0.02451015197749876 0.010456384000233444 0 0.023653454129092265 0.0098440621362332961 0 0.023651740792232506 0.0087989121608865444 0 0.023653454129092265 0.0098440621362332961 0 0.024806148485085736 0.009277937461408885 0 0.024806148485085736 0.009277937461408885 0 0.025186188570100725 0.0084162745881602875 0 0.0262184734829129 0.0089243005978523766 0 0.024806148485085736 0.009277937461408885 0 0.024504616586324243 0.0080439359838202582 0 0.025186188570100725 0.0084162745881602875 0 0.024504616586324243 0.0080439359838202582 0 0.025186188570100725 0.0084162745881602875 0 0.025354907169321511 0.0074608888312779464 0 0.023651740792232506 0.0087989121608865444 0 0.024806148485085736 0.009277937461408885 0 0.024504616586324243 0.0080439359838202582 0 0.023651740792232506 0.0087989121608865444 0 0.023352671230475665 0.0079483621970737311 0 0.024504616586324243 0.0080439359838202582 0 0.024670154490244876 0.0063527850039525767 0 0.024770253071853168 0.0063207602786561181 0 0.025083738449751796 0.0065195367672509314 0 0.024583035344141291 0.006367155357998611 0 0.024670154490244876 0.0063527850039525767 0 0.025083738449751796 0.0065195367672509314 0 0.018507175774041398 0.010804327775223936 0 0.021534103035958801 0.0095142883734706633 0 0.025878509417130987 0.0099164746136515946 0 0.024806148485085736 0.009277937461408885 0 0.0262184734829129 0.0089243005978523766 0 0.021534103035958801 0.0095142883734706633 0 0.022321701965394996 0.0090143746561993088 0 0.025186188570100725 0.0084162745881602875 0 0.0262184734829129 0.0089243005978523766 0 0.025354907169321511 0.0074608888312779464 0 0.025083738449751796 0.0065195367672509314 0 0.024958028607557255 0.007234118762910388 0 0.025354907169321511 0.0074608888312779464 0 0.024778632189451179 0.0062686153905492622 0 0.024755777329240662 0.0061548183205929032 0 0.024583035344141291 0.006367155357998611 0 0.025083738449751796 0.0065195367672509314 0 0.024958028607557255 0.007234118762910388 0 0.024215674511164388 0.0056929855815281202 0 0.024072365531343211 0.0052919284183471421 0 0.024308273282768245 0.0052331825321386581 0 0.024532289501713666 0.005468219179506649 0 0.024215674511164388 0.0056929855815281202 0 0.024308273282768245 0.0052331825321386581 0 0.024755777329240662 0.0061548183205929032 0 0.024627943597025373 0.0057085184163707262 0 0.025354907169321511 0.0074608888312779464 0 0.025369838534613772 0.0072146212040809267 0 0.024847664065248135 0.0074360215307279123 0 0.024958028607557255 0.007234118762910388 0 0.025354907169321511 0.0074608888312779464 0 0.025369838534613772 0.0072146212040809267 0 0.024627943597025373 0.0057085184163707262 0 0.024244538140464931 0.0047229690743404336 0 0.024072365531343211 0.0052919284183471421 0 0.024204398330820422 0.0050273585645542801 0 0.02405149503244574 0.0046293195389393365 0 0.024072365531343211 0.0052919284183471421 0 0.024204398330820422 0.0050273585645542801 0 0.024308273282768245 0.0052331825321386581 0 0.024498427577463872 0.0050297680418095432 0 0.024532289501713666 0.005468219179506649 0 0.024308273282768245 0.0052331825321386581 0 0.024204398330820422 0.0050273585645542801 0 0.024308273282768245 0.0052331825321386581 0 0.024320230412639473 0.0049085936833522577 0 0.024498427577463872 0.0050297680418095432 0 0.024308273282768245 0.0052331825321386581 0 0.024320230412639473 0.0049085936833522577 0 0.023352671230475665 0.0079483621970737311 0 0.024504616586324243 0.0080439359838202582 0 0.0242639359763006 0.0073096956780268887 0 0.024504616586324243 0.0080439359838202582 0 0.025354907169321511 0.0074608888312779464 0 0.024847664065248135 0.0074360215307279123 0 0.024504616586324243 0.0080439359838202582 0 0.0242639359763006 0.0073096956780268887 0 0.024847664065248135 0.0074360215307279123 0 0.025369838534613772 0.0072146212040809267 0 0.024847664065248135 0.0074360215307279123 0 0.024804251817346721 0.0070037264777984259 0 0.0242639359763006 0.0073096956780268887 0 0.024847664065248135 0.0074360215307279123 0 0.024804251817346721 0.0070037264777984259 0 0.025369838534613772 0.0072146212040809267 0 0.024804251817346721 0.0070037264777984259 0 0.024870634967238309 0.0063201450634044736 0 0.023604633374842761 0.0070588075853326082 0 0.0242639359763006 0.0073096956780268887 0 0.024217845125090995 0.0065954653684541197 0 0.023604633374842761 0.0070588075853326082 0 0.024217845125090995 0.0065954653684541197 0 0.023511487710432023 0.0063131282725802434 0 0.0242639359763006 0.0073096956780268887 0 0.024804251817346721 0.0070037264777984259 0 0.024217845125090995 0.0065954653684541197 0 0.024217845125090995 0.0065954653684541197 0 0.024870634967238309 0.0063201450634044736 0 0.024209348674138528 0.005471294686551542 0 0.024217845125090995 0.0065954653684541197 0 0.024209348674138528 0.005471294686551542 0 0.023511487710432023 0.0063131282725802434 0 0.024804251817346721 0.0070037264777984259 0 0.024217845125090995 0.0065954653684541197 0 0.024870634967238309 0.0063201450634044736 0 0.023190532288505386 0.0043890850710130236 0 0.023372931657510372 0.0025791304281068271 0 0.024110769741468412 0.0035025333076744332 0 0.023372931657510372 0.0025791304281068271 0 0.021603932820451002 0.0024635293628149329 0 0.022719751864742323 0.0010946826119820571 0 0.023190532288505386 0.0043890850710130236 0 0.023372931657510372 0.0025791304281068271 0 0.021603932820451002 0.0024635293628149329 0 0.024244538140464931 0.0047229690743404336 0 0.023758932998188671 0.0031937707561002161 0 0.023758932998188671 0.0031937707561002161 0 0.023172838744934761 0.0051025819417241493 0 0.019633210182391996 -0.0014344098577526246 0 0.021834205265767109 -0.00033506184237032768 0 0.024498427577463872 0.0050297680418095432 0 0.024487292687703475 0.0047298790749564466 0 0.024320230412639473 0.0049085936833522577 0 0.024487292687703475 0.0047298790749564466 0 0.024320230412639473 0.0049085936833522577 0 0.02405149503244574 0.0046293195389393365 0 0.027041641182190771 0.0036209448864900663 0 0.02405149503244574 0.0046293195389393365 0 0.025219228914023999 0.003387903686665483 0 0.024072365531343211 0.0052919284183471421 0 0.023190532288505386 0.0043890850710130236 0 0.02405149503244574 0.0046293195389393365 0 0.024204398330820422 0.0050273585645542801 0 0.024320230412639473 0.0049085936833522577 0 0.02405149503244574 0.0046293195389393365 0 0.02405149503244574 0.0046293195389393365 0 0.024110769741468412 0.0035025333076744332 0 0.025219228914023999 0.003387903686665483 0 0.023190532288505386 0.0043890850710130236 0 0.02405149503244574 0.0046293195389393365 0 0.024110769741468412 0.0035025333076744332 0 0.023372931657510372 0.0025791304281068271 0 0.024110769741468412 0.0035025333076744332 0 0.024669085253203105 0.0024039499661938444 0 0.023372931657510372 0.0025791304281068271 0 0.024669085253203105 0.0024039499661938444 0 0.024354709535141631 0.0010829347835939781 0 0.024110769741468412 0.0035025333076744332 0 0.024669085253203105 0.0024039499661938444 0 0.025219228914023999 0.003387903686665483 0 0.024669085253203105 0.0024039499661938444 0 0.025219228914023999 0.003387903686665483 0 0.026226560690969552 0.0028282331757310064 0 0.027041641182190771 0.0036209448864900663 0 0.025219228914023999 0.003387903686665483 0 0.026226560690969552 0.0028282331757310064 0 0.027041641182190771 0.0036209448864900663 0 0.026226560690969552 0.0028282331757310064 0 0.026778521400007953 0.0018845026613558342 0 0.019633210182391996 -0.0014344098577526246 0 0.018760157377639329 -0.003509770875397604 0 0.026226560690969552 0.0028282331757310064 0 0.026778521400007953 0.0018845026613558342 0 0.025465813309938169 0.0016599593467012505 0 0.024669085253203105 0.0024039499661938444 0 0.026226560690969552 0.0028282331757310064 0 0.025465813309938169 0.0016599593467012505 0 0.026778521400007953 0.0018845026613558342 0 0.025465813309938169 0.0016599593467012505 0 0.025363508178569392 0.00015438827840767158 0 0.018760157377639329 -0.003509770875397604 0 0.016478472297525876 -0.0079241826262466137 0 0.017250284140206473 -0.0064254824718861184 0 0.017260830083623863 -0.0063793906903719987 0 0.017218858452442535 -0.0064332461516457681 0 0.015581483775601666 -0.011222496781970039 0 0.017892392538546999 -0.0084780884362473941 0 0.015960002630892232 -0.0083443611910144454 0 0.018760157377639329 -0.003509770875397604 0 0.020419580318217188 -0.0032506907224586637 0 0.024354709535141631 0.0010829347835939781 0 0.025363508178569392 0.00015438827840767158 0 0.024037967284424276 -0.00024521564505732414 0 0.025465813309938169 0.0016599593467012505 0 0.024354709535141631 0.0010829347835939781 0 0.025363508178569392 0.00015438827840767158 0 0.024669085253203105 0.0024039499661938444 0 0.025465813309938169 0.0016599593467012505 0 0.024354709535141631 0.0010829347835939781 0 0.018776536432640156 -0.0058922623056450376 0 0.017892392538546999 -0.0084780884362473941 0 0.020354643046060515 -0.0055882142001549848 0 0.020419580318217188 -0.0032506907224586637 0 0.021429297306342722 -0.0028226352430439174 0 0.025363508178569392 0.00015438827840767158 0 0.024037967284424276 -0.00024521564505732414 0 0.0242656520425233 -0.0011649218559771344 0 0.019166749902519847 -0.0055010031299943416 0 0.016794235206318443 -0.0075534171849784733 0 0.017271519760595048 -0.0040371257161128625 0 0.016478472297525876 -0.0079241826262466137 0 0.01659171030464383 -0.0063766670143748988 0 0.018583807990881527 -0.0060430755332624717 0 0.016478472297525876 -0.0079241826262466137 0 0.018776536432640156 -0.0058922623056450376 0 0.017892392538546999 -0.0084780884362473941 0 0.015960002630892232 -0.0083443611910144454 0 0.014529814267462604 -0.01608228963774417 0 0.015557622113687605 -0.0094461914164176881 0 0.012137579304426027 -0.012583528119436313 0 0.023617589344887207 0.00022945810562785172 0 0.023793925988953395 0.00020524783717752542 0 0.023673274416037168 -0.00037399846601006111 0 0.023617589344887207 0.00022945810562785172 0 0.023469687447142697 2.0892100736144147e-05 0 0.023615118030703722 0.00051696306040920949 0 0.023758932998188671 0.0031937707561002161 0 0.023475565443311364 0.0025124502829279864 0 0.023631699603091697 0.00035235066299804511 0 0.023617589344887207 0.00022945810562785172 0 0.023615118030703722 0.00051696306040920949 0 0.023631699603091697 0.00035235066299804511 0 0.023617589344887207 0.00022945810562785172 0 0.023793925988953395 0.00020524783717752542 0 0.023758932998188671 0.0031937707561002161 0 0.024038056284472593 0.0020874204101000099 0 0.023372931657510372 0.0025791304281068271 0 0.024354709535141631 0.0010829347835939781 0 0.022719751864742323 0.0010946826119820571 0 0.024038056284472593 0.0020874204101000099 0 0.024195813553033959 0.0016583019522289726 0 0.024354709535141631 0.0010829347835939781 0 0.022719751864742323 0.0010946826119820571 0 0.024037967284424276 -0.00024521564505732414 0 0.023793925988953395 0.00020524783717752542 0 0.023673274416037168 -0.00037399846601006111 0 0.024037967284424276 -0.00024521564505732414 0 0.024037967284424276 -0.00024521564505732414 0 0.02372059492778902 -0.0010148494861729905 0 0.0242656520425233 -0.0011649218559771344 0 0.023673274416037168 -0.00037399846601006111 0 0.02372059492778902 -0.0010148494861729905 0 0.023411257875029741 -0.0012226519358034477 0 0.023673274416037168 -0.00037399846601006111 0 0.024037967284424276 -0.00024521564505732414 0 0.02372059492778902 -0.0010148494861729905 0 0.023427297565864105 -0.00058836357264804558 0 0.023183946949935984 -0.0019599044656873959 0 0.023046249371847686 -0.00017720297118647323 0 0.023673274416037168 -0.00037399846601006111 0 0.023427297565864105 -0.00058836357264804558 0 0.023411257875029741 -0.0012226519358034477 0 0.023617589344887207 0.00022945810562785172 0 0.023673274416037168 -0.00037399846601006111 0 0.023427297565864105 -0.00058836357264804558 0 0.023469687447142697 2.0892100736144147e-05 0 0.023427297565864105 -0.00058836357264804558 0 0.023046249371847686 -0.00017720297118647323 0 0.023617589344887207 0.00022945810562785172 0 0.023469687447142697 2.0892100736144147e-05 0 0.023427297565864105 -0.00058836357264804558 0 0.023183946949935984 -0.0019599044656873959 0 0.023411257875029741 -0.0012226519358034477 0 0.022799699275109865 -0.0020825745265989084 0 0.023427297565864105 -0.00058836357264804558 0 0.023183946949935984 -0.0019599044656873959 0 0.023411257875029741 -0.0012226519358034477 0 0.021742564928474477 -0.0030595624221653713 0 0.020129849787666489 -0.004680808111703425 0 0.024320858560226411 -0.0029046673377965747 0 0.025520526618581646 -0.0056358692849967753 0 0.023226121959754608 -0.0053136682266686818 0 0.023183946949935984 -0.0019599044656873959 0 0.022799699275109865 -0.0020825745265989084 0 0.0229164997978605 -0.00019564216558481501 0 0.021311908881003646 -0.0016111954790401651 0 0.022799699275109865 -0.0020825745265989084 0 0.0229164997978605 -0.00019564216558481501 0 0.021311908881003646 -0.0016111954790401651 0 0.022799699275109865 -0.0020825745265989084 0 0.021746086050651245 -0.0030124174822339245 0 0.021311908881003646 -0.0016111954790401651 0 0.021746086050651245 -0.0030124174822339245 0 0.020422802100940995 -0.0025283562189224421 0 0.022799699275109865 -0.0020825745265989084 0 0.021746086050651245 -0.0030124174822339245 0 0.020354643046060515 -0.0055882142001549848 0 0.02372059492778902 -0.0010148494861729905 0 0.023411257875029741 -0.0012226519358034477 0 0.022799699275109865 -0.0020825745265989084 0 0.02186433050890807 -0.0024885049796682336 0 0.021429297306342722 -0.0028226352430439174 0 0.02372059492778902 -0.0010148494861729905 0 0.022799699275109865 -0.0020825745265989084 0 0.0242656520425233 -0.0011649218559771344 0 0.018583807990881527 -0.0060430755332624717 0 0.019761978149989097 -0.0049885509992542449 0 0.019166749902519847 -0.0055010031299943416 0 0.021746086050651245 -0.0030124174822339245 0 0.019495892075901959 -0.0033994151872054541 0 0.018776536432640156 -0.0058922623056450376 0 0.021746086050651245 -0.0030124174822339245 0 0.020354643046060515 -0.0055882142001549848 0 0.019166749902519847 -0.0055010031299943416 0 0.019495892075901959 -0.0033994151872054541 0 0.017271519760595048 -0.0040371257161128625 0 0.017271519760595048 -0.0040371257161128625 0 0.019123776840815513 -0.0020400070621174903 0 0.017183793936060853 -0.0013179481917618004 0 0.01659171030464383 -0.0063766670143748988 0 0.016842530646614843 -0.0043190339691600368 0 0.015557622113687605 -0.0094461914164176881 0 0.017183793936060853 -0.0013179481917618004 0 0.011398613177785963 -0.0043775621873010156 0 0.019495892075901959 -0.0033994151872054541 0 0.017271519760595048 -0.0040371257161128625 0 0.019123776840815513 -0.0020400070621174903 0 0.019495892075901959 -0.0033994151872054541 0 0.020422802100940995 -0.0025283562189224421 0 0.019123776840815513 -0.0020400070621174903 0 0.021746086050651245 -0.0030124174822339245 0 0.019495892075901959 -0.0033994151872054541 0 0.020422802100940995 -0.0025283562189224421 0 0.021311908881003646 -0.0016111954790401651 0 0.019123776840815513 -0.0020400070621174903 0 0.020486695143456812 -0.00040723383563619225 0 0.021311908881003646 -0.0016111954790401651 0 0.020422802100940995 -0.0025283562189224421 0 0.019123776840815513 -0.0020400070621174903 0 0.020486695143456812 -0.00040723383563619225 0 0.018871473060750467 -0.00053650197714445367 0 0.019404297585925889 0.00092776101895507127 0 0.019123776840815513 -0.0020400070621174903 0 0.020486695143456812 -0.00040723383563619225 0 0.018871473060750467 -0.00053650197714445367 0 0.019123776840815513 -0.0020400070621174903 0 0.018871473060750467 -0.00053650197714445367 0 0.017183793936060853 -0.0013179481917618004 0 0.018871473060750467 -0.00053650197714445367 0 0.017956719636395981 0.00041182849495676485 0 0.017183793936060853 -0.0013179481917618004 0 0.017956719636395981 0.00041182849495676485 0 0.018141337074416248 0.0015340752422232529 0 0.019404297585925889 0.00092776101895507127 0 0.018871473060750467 -0.00053650197714445367 0 0.017956719636395981 0.00041182849495676485 0 0.019404297585925889 0.00092776101895507127 0 0.020486695143456812 -0.00040723383563619225 0 0.019404297585925889 0.00092776101895507127 0 0.020910834832383509 0.0011352719667527655 0 0.019404297585925889 0.00092776101895507127 0 0.019713241669905082 0.0021772812625280497 0 0.020910834832383509 0.0011352719667527655 0 0.015295210655232854 -0.00022479236247798369 0 0.014466204366253715 0.001826739161838317 0 0.011398613177785963 -0.0043775621873010156 0 0.015295210655232854 -0.00022479236247798369 0 0.017183793936060853 -0.0013179481917618004 0 0.011398613177785963 -0.0043775621873010156 0 0.015295210655232854 -0.00022479236247798369 0 0.017183793936060853 -0.0013179481917618004 0 0.016677200628794742 0.00051222104074273393 0 0.017956719636395981 0.00041182849495676485 0 0.017183793936060853 -0.0013179481917618004 0 0.016677200628794742 0.00051222104074273393 0 0.017956719636395981 0.00041182849495676485 0 0.017331523075557822 0.0014686179925017286 0 0.016677200628794742 0.00051222104074273393 0 0.017956719636395981 0.00041182849495676485 0 0.018141337074416248 0.0015340752422232529 0 0.017331523075557822 0.0014686179925017286 0 0.017331523075557822 0.0014686179925017286 0 0.016677200628794742 0.00051222104074273393 0 0.015880089088332036 0.0018269832997224688 0 0.015295210655232854 -0.00022479236247798369 0 0.016677200628794742 0.00051222104074273393 0 0.015880089088332036 0.0018269832997224688 0 0.015295210655232854 -0.00022479236247798369 0 0.015880089088332036 0.0018269832997224688 0 0.014466204366253715 0.001826739161838317 0 0.01254555132218273 -0.0024651188533737151 0 0.011279655736119802 -0.0060566885204619099 0 0.015880089088332036 0.0018269832997224688 0 0.014466204366253715 0.001826739161838317 0 0.016677989072662172 0.0068324768211425147 0 0.012022163726635253 -0.0010900772362983603 0 0.011177298668989732 0.0011766965292717977 0 0.013039255537891772 0.0021134230808572832 0 0.015880089088332036 0.0018269832997224688 0 0.01868202111816588 0.0037026868978154827 0 0.016677989072662172 0.0068324768211425147 0 0.014584974635439677 -0.0035612766230547974 0 0.013672963536521497 -0.0044451514656334914 0 0.017331523075557822 0.0014686179925017286 0 0.015880089088332036 0.0018269832997224688 0 0.018340795882804243 0.0027124815335283561 0 0.013672963536521497 -0.0044451514656334914 0 0.011279655736119802 -0.0060566885204619099 0 0.008558476731495037 -0.013269998181978831 0 0.0081693139712828381 -0.013544694731866489 0 0.0084517552660751463 -0.0136323635253004 0 0.019713241669905082 0.0021772812625280497 0 0.018337132191777496 0.0025418529236530419 0 0.021154239566786387 0.0042912286327944846 0 0.019713241669905082 0.0021772812625280497 0 0.020910834832383509 0.0011352719667527655 0 0.021154239566786387 0.0042912286327944846 0 0.013672963536521497 -0.0044451514656334914 0 0.016103395963180594 -0.0085853690941032103 0 0.018141337074416248 0.0015340752422232529 0 0.019404297585925889 0.00092776101895507127 0 0.018586686156797629 0.0022152235116488783 0 0.019713241669905082 0.0021772812625280497 0 0.018586686156797629 0.0022152235116488783 0 0.018337132191777496 0.0025418529236530419 0 0.019404297585925889 0.00092776101895507127 0 0.019713241669905082 0.0021772812625280497 0 0.018586686156797629 0.0022152235116488783 0 0.018141337074416248 0.0015340752422232529 0 0.017331523075557822 0.0014686179925017286 0 0.018340795882804243 0.0027124815335283561 0 0.018141337074416248 0.0015340752422232529 0 0.018586686156797629 0.0022152235116488783 0 0.018340795882804243 0.0027124815335283561 0 0.013671084872033057 -0.0044000156928235765 0 0.013672963536521497 -0.0044451514656334914 0 0.008558476731495037 -0.013269998181978831 0 0.0084517552660751463 -0.0136323635253004 0 0.008721629609749499 -0.013546339387076809 0 0.024481107507380449 -0.0075271278477273829 0 0.025520526618581646 -0.0056358692849967753 0 0.026742049926962028 -0.0083481193006170861 0 0.020129849787666489 -0.004680808111703425 0 0.016103395963180594 -0.0085853690941032103 0 0.0229164997978605 -0.00019564216558481501 0 0.020910834832383509 0.0011352719667527655 0 0.021154239566786387 0.0042912286327944846 0 0.024481107507380449 -0.0075271278477273829 0 0.025520526618581646 -0.0056358692849967753 0 0.023226121959754608 -0.0053136682266686818 0 0.021311908881003646 -0.0016111954790401651 0 0.020486695143456812 -0.00040723383563619225 0 0.0229164997978605 -0.00019564216558481501 0 0.020486695143456812 -0.00040723383563619225 0 0.0229164997978605 -0.00019564216558481501 0 0.020910834832383509 0.0011352719667527655 0 0.0023722520296677119 -0.0026151039391470602 0 0.004964813788676626 0.00061089398710154443 0 0.005351134699315618 -0.0034193755245022989 0 0.0023751656599956946 -0.0047605862526778472 0 -0.00059593242014091162 -0.00659482351428214 0 -0.0024207297663959211 -0.0018845171817141735 0 0.0002070079359096038 0.0012359086835538155 0 -0.0024207297663959211 -0.0018845171817141735 0 -0.001447762537205135 0.0050532578080790067 0 0.0023751656599956946 -0.0047605862526778472 0 0.0002070079359096038 0.0012359086835538155 0 -0.0024207297663959211 -0.0018845171817141735 0 0.0024032672224930571 -0.0043411318755615901 0 0.0014695821111322157 -0.0021043805020632554 0 0.0023722520296677119 -0.0026151039391470602 0 0.0002070079359096038 0.0012359086835538155 0 0.004964813788676626 0.00061089398710154443 0 0.004964813788676626 0.00061089398710154443 0 0.0079238590261031337 -0.0013180246201280525 0 0.009294104143752915 0.0022131189867230531 0 0.010309747373936192 -0.00032169849719963599 0 0.0079238590261031337 -0.0013180246201280525 0 0.009294104143752915 0.0022131189867230531 0 0.011177298668989732 0.0011766965292717977 0 0.010309747373936192 -0.00032169849719963599 0 0.009294104143752915 0.0022131189867230531 0 0.012022163726635253 -0.0010900772362983603 0 0.011177298668989732 0.0011766965292717977 0 0.010309747373936192 -0.00032169849719963599 0 0.01254555132218273 -0.0024651188533737151 0 0.012346613369407946 -0.0028064711421444287 0 0.010335371358785339 -0.0023182039221652929 0 0.0079238590261031337 -0.0013180246201280525 0 0.0079082773047526467 -0.004769096159778087 0 0.012022163726635253 -0.0010900772362983603 0 0.010335371358785339 -0.0023182039221652929 0 0.011398613177785963 -0.0043775621873010156 0 0.012022163726635253 -0.0010900772362983603 0 0.010309747373936192 -0.00032169849719963599 0 0.010335371358785339 -0.0023182039221652929 0 0.010309747373936192 -0.00032169849719963599 0 0.010335371358785339 -0.0023182039221652929 0 0.0079238590261031337 -0.0013180246201280525 0 0.004964813788676626 0.00061089398710154443 0 0.005351134699315618 -0.0034193755245022989 0 0.0079238590261031337 -0.0013180246201280525 0 0.005351134699315618 -0.0034193755245022989 0 0.0079238590261031337 -0.0013180246201280525 0 0.0079082773047526467 -0.004769096159778087 0 0.005351134699315618 -0.0034193755245022989 0 0.0079082773047526467 -0.004769096159778087 0 0.0040100255937319911 -0.0070417514001926565 0 0.0079082773047526467 -0.004769096159778087 0 0.009347266445845482 -0.0093522578147985508 0 0.0040100255937319911 -0.0070417514001926565 0 0.0079082773047526467 -0.004769096159778087 0 0.011398613177785963 -0.0043775621873010156 0 0.009347266445845482 -0.0093522578147985508 0 0.010335371358785339 -0.0023182039221652929 0 0.0079082773047526467 -0.004769096159778087 0 0.011398613177785963 -0.0043775621873010156 0 0.015557622113687605 -0.0094461914164176881 0 0.011398613177785963 -0.0043775621873010156 0 0.009347266445845482 -0.0093522578147985508 0 0.015557622113687605 -0.0094461914164176881 0 0.009347266445845482 -0.0093522578147985508 0 0.012137579304426027 -0.012583528119436313 0 0.009347266445845482 -0.0093522578147985508 0 0.0040100255937319911 -0.0070417514001926565 0 0.0059853723633466107 -0.012404466892894584 0 0.0022255752735217799 -0.012125959437298208 0 0.0030185650816545321 -0.014116983406056403 0 0.0056693169857545151 -0.014000457599250329 0 0.0040678943514936283 -0.008431819860386847 0 0.005742446370743187 -0.012495531492857277 0 0.0022255752735217799 -0.012125959437298208 0 0.0039971080480876954 -0.0099102163635044309 0 0.00037144636759560044 -0.0098024643946677641 0 0.0022255752735217799 -0.012125959437298208 0 0.0039971080480876954 -0.0099102163635044309 0 0.0056693169857545151 -0.014000457599250329 0 0.0022255752735217799 -0.012125959437298208 0 0.0014912683075577182 -0.013236038063226039 0 0.0030185650816545321 -0.014116983406056403 0 0.0023751656599956946 -0.0047605862526778472 0 0.0039971080480876954 -0.0099102163635044309 0 0.00037144636759560044 -0.0098024643946677641 0 0.0024032672224930571 -0.0043411318755615901 0 0.0040678943514936283 -0.008431819860386847 0 0.0023722520296677119 -0.0026151039391470602 0 0.005351134699315618 -0.0034193755245022989 0 0.0040100255937319911 -0.0070417514001926565 0 0.0023751656599956946 -0.0047605862526778472 0 -0.00059593242014091162 -0.00659482351428214 0 0.00037144636759560044 -0.0098024643946677641 0 -0.00059593242014091162 -0.00659482351428214 0 0.00037144636759560044 -0.0098024643946677641 0 -0.002951263096982141 -0.0096616104878004382 0 0.00037144636759560044 -0.0098024643946677641 0 -0.0014316645720819101 -0.011811679464396714 0 -0.002951263096982141 -0.0096616104878004382 0 0.00037144636759560044 -0.0098024643946677641 0 -0.0014316645720819101 -0.011811679464396714 0 0.00040089459981069899 -0.012429962332471895 0 0.0022255752735217799 -0.012125959437298208 0 0.00037144636759560044 -0.0098024643946677641 0 0.00040089459981069899 -0.012429962332471895 0 0.00040089459981069899 -0.012429962332471895 0 0.0014912683075577182 -0.013236038063226039 0 0.00028650003931992955 -0.014249724365910727 0 0.0022255752735217799 -0.012125959437298208 0 0.00040089459981069899 -0.012429962332471895 0 0.0014912683075577182 -0.013236038063226039 0 -0.0014316645720819101 -0.011811679464396714 0 0.00040089459981069899 -0.012429962332471895 0 0.00028650003931992955 -0.014249724365910727 0 -0.00092561677984662573 -0.014257620898388616 0 0.0028306719244926286 -0.016228040106710882 0 0.00066174442552842589 -0.016562303441948156 0 -1.3596414285757565e-05 -0.014791650712033132 0 0.0010951259675425146 -0.014254320691149236 0 0.00465407091640028 -0.016251748325604477 0 -0.00092561677984662573 -0.014257620898388616 0 -0.0010297666883213018 -0.015931213998712848 0 0.00066174442552842589 -0.016562303441948156 0 -0.00066333147749113677 -0.014555151462145829 0 0.0017986869168879315 -0.015375476694781747 0 -0.00092561677984662573 -0.014257620898388616 0 0.00465407091640028 -0.016251748325604477 0 0.0028306719244926286 -0.016228040106710882 0 0.00028650003931992955 -0.014249724365910727 0 0.0030185650816545321 -0.014116983406056403 0 0.0050458198444414334 -0.016066684709474515 0 0.0014912683075577182 -0.013236038063226039 0 0.00028650003931992955 -0.014249724365910727 0 0.0030185650816545321 -0.014116983406056403 0 0.0010951259675425146 -0.014254320691149236 0 0.00465407091640028 -0.016251748325604477 0 0.0050458198444414334 -0.016066684709474515 0 0.00027357100452813266 -0.014000651236507074 0 0.0022058027522820758 -0.014924504700223922 0 0.0030185650816545321 -0.014116983406056403 0 0.0056693169857545151 -0.014000457599250329 0 0.0050458198444414334 -0.016066684709474515 0 0.0028306719244926286 -0.016228040106710882 0 0.0022554217597675996 -0.019251276674846159 0 0.00066174442552842589 -0.016562303441948156 0 0.0028306719244926286 -0.016228040106710882 0 0.003813980630051163 -0.017730220175948049 0 0.0022554217597675996 -0.019251276674846159 0 0.00465407091640028 -0.016251748325604477 0 0.0028306719244926286 -0.016228040106710882 0 0.003986429990904752 -0.016799174595791225 0 0.004637381025935681 -0.016994662803504285 0 0.003813980630051163 -0.017730220175948049 0 0.0054906874301018337 -0.017638340755853958 0 0.00465407091640028 -0.016251748325604477 0 0.004637381025935681 -0.016994662803504285 0 0.0054745997333294667 -0.016975587585724209 0 0.00465407091640028 -0.016251748325604477 0 0.004637381025935681 -0.016994662803504285 0 0.003986429990904752 -0.016799174595791225 0 0.0028306719244926286 -0.016228040106710882 0 0.003986429990904752 -0.016799174595791225 0 0.003813980630051163 -0.017730220175948049 0 0.004637381025935681 -0.016994662803504285 0 0.003986429990904752 -0.016799174595791225 0 0.003813980630051163 -0.017730220175948049 0 0.003813980630051163 -0.017730220175948049 0 0.0054906874301018337 -0.017638340755853958 0 0.0051895927007633222 -0.018894084482767321 0 0.003813980630051163 -0.017730220175948049 0 0.0022554217597675996 -0.019251276674846159 0 0.0051895927007633222 -0.018894084482767321 0 0.0022554217597675996 -0.019251276674846159 0 0.00066174442552842589 -0.016562303441948156 0 -0.0019768089368209529 -0.017328235408704106 0 -0.0017050863759706847 -0.016912914880876401 0 -0.0028106512889184638 -0.017325243888409114 0 -0.0035365629390279475 -0.016216711529892805 0 0.0043116955648941557 -0.011276081965279563 0 -9.7710286080323166e-05 -0.012727699458724867 0 -0.0010297666883213018 -0.015931213998712848 0 0.00066174442552842589 -0.016562303441948156 0 -0.0019768089368209529 -0.017328235408704106 0 0.009347266445845482 -0.0093522578147985508 0 0.0090582748700970741 -0.0153655430166294 0 0.012137579304426027 -0.012583528119436313 0 0.011341955159974814 -0.01200268433864075 0 0.011714479849331275 -0.012691979642121765 0 0.014529814267462604 -0.01608228963774417 0 0.0090582748700970741 -0.0153655430166294 0 0.012137579304426027 -0.012583528119436313 0 0.0056693169857545151 -0.014000457599250329 0 0.0050458198444414334 -0.016066684709474515 0 0.0079463054210217373 -0.017814119268637171 0 0.0088163224573545064 -0.014680958307089048 0 0.0059853723633466107 -0.012404466892894584 0 0.0079463054210217373 -0.017814119268637171 0 0.005742446370743187 -0.012495531492857277 0 0.0066657560369235806 -0.014669446073075592 0 0.009347266445845482 -0.0093522578147985508 0 0.0088163224573545064 -0.014680958307089048 0 0.0059853723633466107 -0.012404466892894584 0 0.0088163224573545064 -0.014680958307089048 0 0.0079463054210217373 -0.017814119268637171 0 0.0081567679492969575 -0.020008410233987167 0 0.0054745997333294667 -0.016975587585724209 0 0.0054906874301018337 -0.017638340755853958 0 0.0079463054210217373 -0.017814119268637171 0 0.0050458198444414334 -0.016066684709474515 0 0.0054745997333294667 -0.016975587585724209 0 0.0079463054210217373 -0.017814119268637171 0 0.00465407091640028 -0.016251748325604477 0 0.0050458198444414334 -0.016066684709474515 0 0.0054745997333294667 -0.016975587585724209 0 0.004637381025935681 -0.016994662803504285 0 0.0054745997333294667 -0.016975587585724209 0 0.0054906874301018337 -0.017638340755853958 0 0.0054906874301018337 -0.017638340755853958 0 0.0051895927007633222 -0.018894084482767321 0 0.0065775478436011304 -0.018631236034440172 0 0.0051895927007633222 -0.018894084482767321 0 0.0065775478436011304 -0.018631236034440172 0 0.0066511667944602615 -0.019661974542316534 0 0.0054906874301018337 -0.017638340755853958 0 0.0065775478436011304 -0.018631236034440172 0 0.0079463054210217373 -0.017814119268637171 0 0.0065775478436011304 -0.018631236034440172 0 0.0079463054210217373 -0.017814119268637171 0 0.0081567679492969575 -0.020008410233987167 0 0.0065775478436011304 -0.018631236034440172 0 0.0081567679492969575 -0.020008410233987167 0 0.0066511667944602615 -0.019661974542316534 0 0.017260830083623863 -0.0063793906903719987 0 0.017218858452442535 -0.0064332461516457681 0 0.017185985048306148 -0.00642851576562298 0 0.014529814267462604 -0.01608228963774417 0 0.0090582748700970741 -0.0153655430166294 0 0.0086543459414982291 -0.021120542484623826 0 0.011714479849331275 -0.012691979642121765 0 0.013431804043128312 -0.0088305601597642586 0 0.016478472297525876 -0.0079241826262466137 0 0.013431804043128312 -0.0088305601597642586 0 0.019735849545865911 -0.0024506576076154174 0 0.019666438560952182 -0.0029840609746347685 0 0.020013872680778581 -0.0025591514374686242 0 0.019633210182391996 -0.0014344098577526246 0 0.018346743671583225 -0.0029779801800943894 0 0.018760157377639329 -0.003509770875397604 0 0.018346743671583225 -0.0029779801800943894 0 0.017250284140206473 -0.0064254824718861184 0 0.017215422656452914 -0.0064595693719053365 0 0.017218858452442535 -0.0064332461516457681 0 0.017218858452442535 -0.0064332461516457681 0 0.017183863802622382 -0.0064500721332277139 0 0.017185985048306148 -0.00642851576562298 0 0.017215422656452914 -0.0064595693719053365 0 0.017218858452442535 -0.0064332461516457681 0 0.017183863802622382 -0.0064500721332277139 0 0.018346743671583225 -0.0029779801800943894 0 0.015008344856196631 -0.0057484869674084942 0 0.012642981479591442 -0.0075921447254041711 0 0.0069998497730761455 -0.0058562465803223855 0 0.023920621754159297 0.0033710418804090746 0 0.024253046458807114 0.0032403858370685492 0 0.024285813246713216 0.0038085923879073013 0 0.015008344856196631 -0.0057484869674084942 0 0.012642981479591442 -0.0075921447254041711 0 0.016186096800352268 -0.0070070479127724633 0 0.016220173244127778 -0.0065336478799062321 0 0.015828073782562863 -0.0068692420540605358 0 0.015008344856196631 -0.0057484869674084942 0 0.013431804043128312 -0.0088305601597642586 0 0.0081567679492969575 -0.020008410233987167 0 0.0066511667944602615 -0.019661974542316534 0 0.0067228139928676642 -0.02111204034095903 0 0.013431804043128312 -0.0088305601597642586 0 0.012642981479591442 -0.0075921447254041711 0 0.0051895927007633222 -0.018894084482767321 0 0.0066511667944602615 -0.019661974542316534 0 0.0067228139928676642 -0.02111204034095903 0 0.024253046458807114 0.0032403858370685492 0 0.024285813246713216 0.0038085923879073013 0 0.025151466278487605 0.0040752666418207998 0 0.024021394796184325 0.0042790209922101627 0 0.024285813246713216 0.0038085923879073013 0 0.025151466278487605 0.0040752666418207998 0 0.015008344856196631 -0.0057484869674084942 0 0.019314810845206257 0.00073151957586444882 0 0.023920621754159297 0.0033710418804090746 0 0.024021394796184325 0.0042790209922101627 0 0.024285813246713216 0.0038085923879073013 0 0.020298347277719956 0.0007150168135093936 0 0.019633210182391996 -0.0014344098577526246 0 0.024498427577463872 0.0050297680418095432 0 0.024435433624381806 0.004722417148491977 0 0.024585130319074631 0.0048535827363073063 0 0.015418317141964732 -0.0036201852089841544 0 0.016151005079372515 -0.003905797638253937 0 0.016247463605143168 -0.0026066434421969202 0 0.024498427577463872 0.0050297680418095432 0 0.024792569492290251 0.004919816141552018 0 0.024585130319074631 0.0048535827363073063 0 0.024596817444544748 0.0046593485574118777 0 0.024792569492290251 0.004919816141552018 0 0.024585130319074631 0.0048535827363073063 0 0.018346743671583225 -0.0029779801800943894 0 0.019314810845206257 0.00073151957586444882 0 0.024435433624381806 0.004722417148491977 0 0.024596817444544748 0.0046593485574118777 0 0.024585130319074631 0.0048535827363073063 0 -0.0020652214982416839 -0.017967811133571966 0 -0.0028919652456574716 -0.018159789742020409 0 -0.0028106512889184638 -0.017325243888409114 0 -0.0028919652456574716 -0.018159789742020409 0 -0.0028106512889184638 -0.017325243888409114 0 -0.0040043998099668883 -0.017325761046084999 0 -0.0017050863759706847 -0.016912914880876401 0 -0.0020652214982416839 -0.017967811133571966 0 -0.0028106512889184638 -0.017325243888409114 0 0.0022554217597675996 -0.019251276674846159 0 0.0051895927007633222 -0.018894084482767321 0 0.0067228139928676642 -0.02111204034095903 0 0.0001173300077698551 -0.017581365691314594 0 -0.0012162983338939149 -0.01781988354446994 0 -0.0013307489743095496 -0.018803850419511589 0 0.0043116955648941557 -0.011276081965279563 0 0.012642981479591442 -0.0075921447254041711 0 -0.0017050863759706847 -0.016912914880876401 0 0.0001173300077698551 -0.017581365691314594 0 -0.0012162983338939149 -0.01781988354446994 0 -0.0017050863759706847 -0.016912914880876401 0 -0.0020652214982416839 -0.017967811133571966 0 -0.0012162983338939149 -0.01781988354446994 0 -0.0020652214982416839 -0.017967811133571966 0 -0.0012162983338939149 -0.01781988354446994 0 -0.0013307489743095496 -0.018803850419511589 0 0.02531012559008761 0.0047795740375238651 0 0.024021394796184325 0.0042790209922101627 0 0.025151466278487605 0.0040752666418207998 0 -0.0020652214982416839 -0.017967811133571966 0 -0.0013307489743095496 -0.018803850419511589 0 -0.0024257483981385184 -0.018760006387500888 0 -0.004164678847795528 -0.0064955816693333408 0 0.0069998497730761455 -0.0058562465803223855 0 -0.002738133047679329 -0.019959153946299112 0 -0.0013307489743095496 -0.018803850419511589 0 -0.0024257483981385184 -0.018760006387500888 0 -0.0020652214982416839 -0.017967811133571966 0 -0.0028919652456574716 -0.018159789742020409 0 -0.0024257483981385184 -0.018760006387500888 0 -0.0071943492653136218 -0.013443199263339372 0 -0.0072174847260857086 -0.012898482245989336 0 -0.0028919652456574716 -0.018159789742020409 0 -0.0024257483981385184 -0.018760006387500888 0 -0.0032021806964297275 -0.018887740840248753 0 -0.002738133047679329 -0.019959153946299112 0 -0.0024257483981385184 -0.018760006387500888 0 -0.0032021806964297275 -0.018887740840248753 0 -0.004164678847795528 -0.0064955816693333408 0 -0.0072174847260857086 -0.012898482245989336 0 -0.0042524389781541279 -0.021787881775420431 0 -0.0031641351245243468 -0.019382675123208855 0 -0.0048556111337506981 -0.019018539963686781 0 -0.0028919652456574716 -0.018159789742020409 0 -0.0032212491947741537 -0.018909753447903153 0 -0.0040043998099668883 -0.017325761046084999 0 -0.0072174847260857086 -0.012898482245989336 0 -0.0058374563456921923 -0.01557863665854118 0 -0.0031641351245243468 -0.019382675123208855 0 -0.0040043998099668883 -0.017325761046084999 0 -0.0048556111337506981 -0.019018539963686781 0 -0.0040043998099668883 -0.017325761046084999 0 -0.0059701001008707778 -0.017531816756340576 0 -0.0047356545084338486 -0.016610266966061368 0 -0.0040043998099668883 -0.017325761046084999 0 -0.0059701001008707778 -0.017531816756340576 0 -0.0048556111337506981 -0.019018539963686781 0 -0.0059701001008707778 -0.017531816756340576 0 -0.0063342603567800105 -0.020056931644189743 0 -0.0048556111337506981 -0.019018539963686781 0 -0.052172076955588183 -0.035017327524544034 0 -0.048627279828077449 -0.034964005445184708 0 -0.048885449095914107 -0.038188440062318689 0 -0.024051867629943071 -0.021718995126596082 0 -0.026566836862950513 -0.025794308491686246 0 -0.048627279828077449 -0.034964005445184708 0 -0.048885449095914107 -0.038188440062318689 0 -0.04573301668063004 -0.03809144427040774 0 -0.026566836862950513 -0.025794308491686246 0 -0.027672694210285634 -0.028244021185520694 0 -0.0059701001008707778 -0.017531816756340576 0 -0.0063342603567800105 -0.020056931644189743 0 -0.0085196194007499115 -0.018338604665592242 0 -0.0059701001008707778 -0.017531816756340576 0 -0.0085196194007499115 -0.018338604665592242 0 -0.0079837307805525181 -0.016330443583873668 0 -0.0059701001008707778 -0.017531816756340576 0 -0.0079837307805525181 -0.016330443583873668 0 -0.0054933006055808455 -0.015410598582440123 0 -0.0085196194007499115 -0.018338604665592242 0 -0.0079837307805525181 -0.016330443583873668 0 -0.010837060406578024 -0.016476583493343116 0 -0.0079837307805525181 -0.016330443583873668 0 -0.0091246454032929674 -0.014594347980006934 0 -0.010837060406578024 -0.016476583493343116 0 -0.0091246454032929674 -0.014594347980006934 0 -0.0073945746137795273 -0.014349564424994708 0 -0.0084801394421993668 -0.012223223843639041 0 -0.0079837307805525181 -0.016330443583873668 0 -0.0091246454032929674 -0.014594347980006934 0 -0.0073945746137795273 -0.014349564424994708 0 -0.0079837307805525181 -0.016330443583873668 0 -0.0073945746137795273 -0.014349564424994708 0 -0.0054933006055808455 -0.015410598582440123 0 -0.0054933006055808455 -0.015410598582440123 0 -0.0035559738462492218 -0.014584760813961999 0 -0.0054134253321698762 -0.013106029470005439 0 -0.0073945746137795273 -0.014349564424994708 0 -0.0054933006055808455 -0.015410598582440123 0 -0.0054134253321698762 -0.013106029470005439 0 -0.0054933006055808455 -0.015410598582440123 0 -0.0035559738462492218 -0.014584760813961999 0 -0.0023763602418201313 -0.015507410300090672 0 -1.3596414285757565e-05 -0.014791650712033132 0 0.0010951259675425146 -0.014254320691149236 0 -0.0026042577526688444 -0.012569981832463509 0 -0.00092561677984662573 -0.014257620898388616 0 -0.0035559738462492218 -0.014584760813961999 0 -0.0054134253321698762 -0.013106029470005439 0 -0.00066333147749113677 -0.014555151462145829 0 -0.0045538078625495682 -0.013287839942550369 0 -0.00092561677984662573 -0.014257620898388616 0 -0.0010297666883213018 -0.015931213998712848 0 -0.0023763602418201313 -0.015507410300090672 0 -0.00092561677984662573 -0.014257620898388616 0 -0.0035559738462492218 -0.014584760813961999 0 -0.0023763602418201313 -0.015507410300090672 0 -0.0018588038818994691 -0.012938987182982876 0 -9.7710286080323166e-05 -0.012727699458724867 0 -0.0054933006055808455 -0.015410598582440123 0 -0.0035365629390279475 -0.016216711529892805 0 -0.0047356545084338486 -0.016610266966061368 0 -0.0054933006055808455 -0.015410598582440123 0 -0.0023763602418201313 -0.015507410300090672 0 -0.0019768089368209529 -0.017328235408704106 0 -0.0010297666883213018 -0.015931213998712848 0 -0.0023763602418201313 -0.015507410300090672 0 -0.0019768089368209529 -0.017328235408704106 0 -0.0028106512889184638 -0.017325243888409114 0 -0.0040043998099668883 -0.017325761046084999 0 -0.0035365629390279475 -0.016216711529892805 0 -0.0040043998099668883 -0.017325761046084999 0 -0.0035365629390279475 -0.016216711529892805 0 -0.0047356545084338486 -0.016610266966061368 0 -0.0059701001008707778 -0.017531816756340576 0 -0.0054933006055808455 -0.015410598582440123 0 -0.0047356545084338486 -0.016610266966061368 0 -0.032897675018726771 0.017969513239550091 0 -0.031829369758476049 0.014999011649311588 0 -0.028432565737381253 0.014356540354731795 0 -0.032786433365965775 0.020280567595289213 0 -0.034387380732343951 0.020135940374755964 0 -0.032002251408711178 0.019333497058967315 0 -0.034387380732343951 0.020135940374755964 0 -0.032002251408711178 0.019333497058967315 0 -0.031958408071676388 0.018253455074432507 0 -0.034257645411336614 0.017554709977185754 0 -0.032258704342808031 0.014246336969925597 0 -0.032786433365965775 0.020280567595289213 0 -0.033666136551610173 0.021338573866074927 0 -0.034387380732343951 0.020135940374755964 0 -0.032786433365965775 0.020280567595289213 0 -0.032565257518008588 0.02092416159436003 0 -0.033666136551610173 0.021338573866074927 0 -0.032565257518008588 0.02092416159436003 0 -0.032459402559791566 0.022240310636408162 0 -0.033666136551610173 0.021338573866074927 0 -0.033960612805108169 0.022741251930743469 0 -0.032459402559791566 0.022240310636408162 0 -0.033666136551610173 0.021338573866074927 0 -0.033666136551610173 0.021338573866074927 0 -0.034843174868069919 0.02157447251744158 0 -0.034387380732343951 0.020135940374755964 0 -0.034843174868069919 0.02157447251744158 0 -0.034387380732343951 0.020135940374755964 0 -0.036461706639539293 0.021257471301401994 0 -0.033960612805108169 0.022741251930743469 0 -0.033666136551610173 0.021338573866074927 0 -0.034843174868069919 0.02157447251744158 0 -0.042779860742416256 -0.038018180027771457 0 -0.042821954021855339 -0.041253302575302693 0 -0.040042555412009954 -0.041279596669230957 0 -0.032897675018726771 0.017969513239550091 0 -0.035175878843938274 0.018888546707396616 0 -0.031829369758476049 0.014999011649311588 0 -0.038206084901822465 -0.0090239349435503741 0 -0.035872375916908755 -0.012987162095800874 0 -0.04573301668063004 -0.03809144427040774 0 -0.045701389776321079 -0.04133650838779912 0 -0.042821954021855339 -0.041253302575302693 0 -0.042779860742416256 -0.038018180027771457 0 -0.04573301668063004 -0.03809144427040774 0 -0.042821954021855339 -0.041253302575302693 0 -0.034257645411336614 0.017554709977185754 0 -0.035640314981020584 0.019080854570016931 0 -0.035715194489930033 0.022340156213802583 0 -0.034843174868069919 0.02157447251744158 0 -0.036461706639539293 0.021257471301401994 0 -0.039861281893492383 -0.0049076645150852418 0 -0.038206084901822465 -0.0090239349435503741 0 -0.037831644744565324 0.02216074207152045 0 -0.035175878843938274 0.018888546707396616 0 -0.036461706639539293 0.021257471301401994 0 -0.032897675018726771 0.017969513239550091 0 -0.035175878843938274 0.018888546707396616 0 -0.036461706639539293 0.021257471301401994 0 -0.045683059156411736 -0.034769817433988132 0 -0.042779860742416256 -0.038018180027771457 0 -0.04573301668063004 -0.03809144427040774 0 -0.045683059156411736 -0.034769817433988132 0 -0.048627279828077449 -0.034964005445184708 0 -0.04573301668063004 -0.03809144427040774 0 -0.048885449095914107 -0.038188440062318689 0 -0.04573301668063004 -0.03809144427040774 0 -0.045701389776321079 -0.04133650838779912 0 -0.0091246454032929674 -0.014594347980006934 0 -0.010837060406578024 -0.016476583493343116 0 -0.010935428766387083 -0.013594190257235093 0 -0.010837060406578024 -0.016476583493343116 0 -0.013128856757896074 -0.014517471173923317 0 -0.010935428766387083 -0.013594190257235093 0 -0.027672694210285634 -0.028244021185520694 0 -0.028498519223781014 -0.030168244252194359 0 -0.045701389776321079 -0.04133650838779912 0 -0.042624464391962394 -0.044402066317735377 0 -0.042821954021855339 -0.041253302575302693 0 -0.042624464391962394 -0.044402066317735377 0 -0.042821954021855339 -0.041253302575302693 0 -0.040042555412009954 -0.041279596669230957 0 -0.042624464391962394 -0.044402066317735377 0 -0.039614601744225167 -0.044714175650317302 0 -0.040042555412009954 -0.041279596669230957 0 -0.042624464391962394 -0.044402066317735377 0 -0.039614601744225167 -0.044714175650317302 0 -0.039696726185297009 -0.047203101019190875 0 -0.039614601744225167 -0.044714175650317302 0 -0.040042555412009954 -0.041279596669230957 0 -0.03770092551356552 -0.0444395198449581 0 -0.039614601744225167 -0.044714175650317302 0 -0.03770092551356552 -0.0444395198449581 0 -0.038230522612955058 -0.046084026643873094 0 -0.031829369758476049 0.014999011649311588 0 -0.028432565737381253 0.014356540354731795 0 -0.027847199203791296 0.010911547542557139 0 -0.035872375916908755 -0.012987162095800874 0 -0.033565751702436447 -0.016803067196993104 0 -0.015400268838361807 -0.012551799277248117 0 -0.014316946195547204 -0.010067223701782774 0 -0.017666247361005021 -0.010607475535486586 0 -0.029943252086545386 -0.03239114042997232 0 -0.033309050823386741 -0.036006685799129565 0 -0.039614601744225167 -0.044714175650317302 0 -0.039696726185297009 -0.047203101019190875 0 -0.038230522612955058 -0.046084026643873094 0 -0.039696726185297009 -0.047203101019190875 0 -0.038230522612955058 -0.046084026643873094 0 -0.038066685075071043 -0.047496397436025517 0 -0.028498519223781014 -0.030168244252194359 0 -0.029943252086545386 -0.03239114042997232 0 -0.013128856757896074 -0.014517471173923317 0 -0.015400268838361807 -0.012551799277248117 0 -0.013333797854460898 -0.012007826508794422 0 -0.015400268838361807 -0.012551799277248117 0 -0.013333797854460898 -0.012007826508794422 0 -0.014316946195547204 -0.010067223701782774 0 -0.011374814351355986 -0.010881799754763085 0 -0.012762789078624198 -0.0091611416235198272 0 -0.014316946195547204 -0.010067223701782774 0 -0.011079244014104138 -0.011123232965607735 0 -0.012687004832709049 -0.010578394856782844 0 -0.013333797854460898 -0.012007826508794422 0 -0.011395742337677308 -0.011192501237794021 0 -0.014316946195547204 -0.010067223701782774 0 -0.013333797854460898 -0.012007826508794422 0 -0.010935428766387083 -0.013594190257235093 0 -0.011395742337677308 -0.011192501237794021 0 -0.013128856757896074 -0.014517471173923317 0 -0.013333797854460898 -0.012007826508794422 0 -0.010935428766387083 -0.013594190257235093 0 -0.010935428766387083 -0.013594190257235093 0 -0.011395742337677308 -0.011192501237794021 0 -0.0084801394421993668 -0.012223223843639041 0 -0.011079244014104138 -0.011123232965607735 0 -0.0080838232270267537 -0.012129286301356288 0 -0.011374814351355986 -0.010881799754763085 0 -0.010164243477917159 -0.0088873754712514089 0 -0.0090435347777025211 -0.0097093394603789945 0 -0.011374814351355986 -0.010881799754763085 0 -0.010164243477917159 -0.0088873754712514089 0 -0.011473525551888557 -0.0089126435381461939 0 -0.010164243477917159 -0.0088873754712514089 0 -0.010994826073343747 -0.0080321098286843928 0 -0.011473525551888557 -0.0089126435381461939 0 -0.010164243477917159 -0.0088873754712514089 0 -0.0099110513974223803 -0.0076758454099778049 0 -0.010994826073343747 -0.0080321098286843928 0 -0.010164243477917159 -0.0088873754712514089 0 -0.0099110513974223803 -0.0076758454099778049 0 -0.0087673728530996524 -0.0083983714716801047 0 -0.022269610258802714 -0.015375880431845521 0 -0.02262222333795557 -0.015733973321917331 0 -0.0099110513974223803 -0.0076758454099778049 0 -0.010346338164294458 -0.0067765575148255883 0 -0.0090121553762055363 -0.0069112559764291787 0 -0.010487263307726565 -0.006966886060573667 0 -0.011354069428074539 -0.0071468965739643455 0 -0.011229896269223428 -0.0059005317670565291 0 -0.0099110513974223803 -0.0076758454099778049 0 -0.010487263307726565 -0.006966886060573667 0 -0.011354069428074539 -0.0071468965739643455 0 -0.0099110513974223803 -0.0076758454099778049 0 -0.011354069428074539 -0.0071468965739643455 0 -0.010994826073343747 -0.0080321098286843928 0 -0.011354069428074539 -0.0071468965739643455 0 -0.010994826073343747 -0.0080321098286843928 0 -0.012192213283158164 -0.0076896289837817206 0 -0.011354069428074539 -0.0071468965739643455 0 -0.012192213283158164 -0.0076896289837817206 0 -0.012370121728764855 -0.0064416265619402233 0 -0.012192213283158164 -0.0076896289837817206 0 -0.013743747104294162 -0.0063175824009550361 0 -0.012370121728764855 -0.0064416265619402233 0 -0.012192213283158164 -0.0076896289837817206 0 -0.012762789078624198 -0.0091611416235198272 0 -0.014101207707426478 -0.0080872466836770605 0 -0.011374814351355986 -0.010881799754763085 0 -0.011473525551888557 -0.0089126435381461939 0 -0.012762789078624198 -0.0091611416235198272 0 -0.010994826073343747 -0.0080321098286843928 0 -0.012192213283158164 -0.0076896289837817206 0 -0.011473525551888557 -0.0089126435381461939 0 -0.012192213283158164 -0.0076896289837817206 0 -0.011473525551888557 -0.0089126435381461939 0 -0.012762789078624198 -0.0091611416235198272 0 -0.012762789078624198 -0.0091611416235198272 0 -0.014316946195547204 -0.010067223701782774 0 -0.014101207707426478 -0.0080872466836770605 0 -0.012192213283158164 -0.0076896289837817206 0 -0.014101207707426478 -0.0080872466836770605 0 -0.013743747104294162 -0.0063175824009550361 0 -0.014101207707426478 -0.0080872466836770605 0 -0.013743747104294162 -0.0063175824009550361 0 -0.016669453683898831 -0.0076883484864379214 0 -0.014316946195547204 -0.010067223701782774 0 -0.017666247361005021 -0.010607475535486586 0 -0.016669453683898831 -0.0076883484864379214 0 -0.014316946195547204 -0.010067223701782774 0 -0.014101207707426478 -0.0080872466836770605 0 -0.016669453683898831 -0.0076883484864379214 0 -0.0049582322624566657 -0.009908620942188728 0 -0.0042561565761165907 -0.011846216969348853 0 -0.0067185728978150097 -0.010451346640769606 0 -0.0049582322624566657 -0.009908620942188728 0 -0.0067185728978150097 -0.010451346640769606 0 -0.0058191481668166505 -0.008802177768891771 0 -0.0049582322624566657 -0.009908620942188728 0 -0.002951263096982141 -0.0096616104878004382 0 -0.0045381447680752822 -0.0086485640441332137 0 -0.0049582322624566657 -0.009908620942188728 0 -0.002951263096982141 -0.0096616104878004382 0 -0.0042561565761165907 -0.011846216969348853 0 -0.0014316645720819101 -0.011811679464396714 0 0.00028650003931992955 -0.014249724365910727 0 -0.0042561565761165907 -0.011846216969348853 0 0.00027357100452813266 -0.014000651236507074 0 -0.0030141439956511587 -0.012406444297350666 0 -1.3596414285757565e-05 -0.014791650712033132 0 -0.0026042577526688444 -0.012569981832463509 0 -0.0042892874796619431 -0.01335829945682517 0 -0.0014316645720819101 -0.011811679464396714 0 -0.002951263096982141 -0.0096616104878004382 0 -0.0042561565761165907 -0.011846216969348853 0 -0.0030141439956511587 -0.012406444297350666 0 -0.0058368498742243135 -0.011040752931367347 0 -0.0026042577526688444 -0.012569981832463509 0 -0.0042892874796619431 -0.01335829945682517 0 -0.0059918669765298511 -0.011049189409551706 0 -0.0073945746137795273 -0.014349564424994708 0 -0.0054134253321698762 -0.013106029470005439 0 -0.0084801394421993668 -0.012223223843639041 0 -0.0042892874796619431 -0.01335829945682517 0 -0.0080932336618204769 -0.012014795494049237 0 -0.0059918669765298511 -0.011049189409551706 0 -0.0045538078625495682 -0.013287839942550369 0 -0.0080838232270267537 -0.012129286301356288 0 -0.0091246454032929674 -0.014594347980006934 0 -0.010935428766387083 -0.013594190257235093 0 -0.0084801394421993668 -0.012223223843639041 0 -0.0080932336618204769 -0.012014795494049237 0 -0.0090435347777025211 -0.0097093394603789945 0 -0.0059918669765298511 -0.011049189409551706 0 -0.011374814351355986 -0.010881799754763085 0 -0.0080932336618204769 -0.012014795494049237 0 -0.0090435347777025211 -0.0097093394603789945 0 -0.0090435347777025211 -0.0097093394603789945 0 -0.0067185728978150097 -0.010451346640769606 0 -0.0074334755488544967 -0.0086410179527066141 0 -0.0072379001511163324 -0.010376602448373073 0 -0.0058368498742243135 -0.011040752931367347 0 -0.0067185728978150097 -0.010451346640769606 0 -0.0074334755488544967 -0.0086410179527066141 0 -0.0058191481668166505 -0.008802177768891771 0 -0.0074334755488544967 -0.0086410179527066141 0 -0.0062876041146054549 -0.0077810201710143204 0 -0.0058191481668166505 -0.008802177768891771 0 -0.010164243477917159 -0.0088873754712514089 0 -0.0090435347777025211 -0.0097093394603789945 0 -0.0087673728530996524 -0.0083983714716801047 0 -0.0090435347777025211 -0.0097093394603789945 0 -0.0074334755488544967 -0.0086410179527066141 0 -0.0087673728530996524 -0.0083983714716801047 0 -0.0074334755488544967 -0.0086410179527066141 0 -0.0087673728530996524 -0.0083983714716801047 0 -0.0081692884806462782 -0.0074332684102567867 0 -0.0099110513974223803 -0.0076758454099778049 0 -0.0089618951755247485 -0.0075886560011315324 0 -0.0090121553762055363 -0.0069112559764291787 0 -0.0099110513974223803 -0.0076758454099778049 0 -0.0087673728530996524 -0.0083983714716801047 0 -0.0089618951755247485 -0.0075886560011315324 0 -0.0087673728530996524 -0.0083983714716801047 0 -0.0089618951755247485 -0.0075886560011315324 0 -0.0081692884806462782 -0.0074332684102567867 0 -0.0089618951755247485 -0.0075886560011315324 0 -0.0081692884806462782 -0.0074332684102567867 0 -0.0090121553762055363 -0.0069112559764291787 0 -0.0081692884806462782 -0.0074332684102567867 0 -0.0080535467002672868 -0.0065391829267150781 0 -0.0090121553762055363 -0.0069112559764291787 0 -0.0080535467002672868 -0.0065391829267150781 0 -0.0090121553762055363 -0.0069112559764291787 0 -0.008629027332808719 -0.0056732630412191197 0 -0.010346338164294458 -0.0067765575148255883 0 -0.0090121553762055363 -0.0069112559764291787 0 -0.008629027332808719 -0.0056732630412191197 0 -0.0074334755488544967 -0.0086410179527066141 0 -0.0081692884806462782 -0.0074332684102567867 0 -0.0070249766919335439 -0.0069665153638732357 0 -0.0074334755488544967 -0.0086410179527066141 0 -0.0062876041146054549 -0.0077810201710143204 0 -0.0070249766919335439 -0.0069665153638732357 0 -0.0062876041146054549 -0.0077810201710143204 0 -0.0070249766919335439 -0.0069665153638732357 0 -0.0060903242402772732 -0.0066514106888378314 0 -0.0081692884806462782 -0.0074332684102567867 0 -0.0080535467002672868 -0.0065391829267150781 0 -0.0070249766919335439 -0.0069665153638732357 0 -0.0080535467002672868 -0.0065391829267150781 0 -0.0070249766919335439 -0.0069665153638732357 0 -0.0072301235621784962 -0.0059557918079561432 0 -0.0070249766919335439 -0.0069665153638732357 0 -0.0060903242402772732 -0.0066514106888378314 0 -0.0072301235621784962 -0.0059557918079561432 0 -0.0060903242402772732 -0.0066514106888378314 0 -0.0049415443577207913 -0.0064096389375752297 0 -0.0051238753139555187 -0.0075809641432610939 0 -0.0062876041146054549 -0.0077810201710143204 0 -0.0060903242402772732 -0.0066514106888378314 0 -0.0051238753139555187 -0.0075809641432610939 0 -0.0062876041146054549 -0.0077810201710143204 0 -0.0051238753139555187 -0.0075809641432610939 0 -0.0058191481668166505 -0.008802177768891771 0 -0.0051238753139555187 -0.0075809641432610939 0 -0.0045381447680752822 -0.0086485640441332137 0 -0.0058191481668166505 -0.008802177768891771 0 -0.0049582322624566657 -0.009908620942188728 0 -0.0045381447680752822 -0.0086485640441332137 0 -0.0058191481668166505 -0.008802177768891771 0 -0.0047482436162901501 -0.0070007142379257415 0 -0.0052357788624271956 -0.0049084051435188568 0 -0.00059593242014091162 -0.00659482351428214 0 -0.002951263096982141 -0.0096616104878004382 0 -0.0024207297663959211 -0.0018845171817141735 0 -0.002951263096982141 -0.0096616104878004382 0 -0.0045381447680752822 -0.0086485640441332137 0 -0.0033936822213163857 -0.0074585125253190431 0 -0.0051238753139555187 -0.0075809641432610939 0 -0.0045381447680752822 -0.0086485640441332137 0 -0.0033936822213163857 -0.0074585125253190431 0 -0.0049415443577207913 -0.0064096389375752297 0 -0.0051238753139555187 -0.0075809641432610939 0 -0.0033936822213163857 -0.0074585125253190431 0 -0.0049415443577207913 -0.0064096389375752297 0 -0.0033936822213163857 -0.0074585125253190431 0 -0.0044186067183817372 -0.0054579687793156846 0 -0.0033936822213163857 -0.0074585125253190431 0 -0.0044186067183817372 -0.0054579687793156846 0 -0.0033075938768409845 -0.0049417693441239658 0 -0.0052357788624271956 -0.0049084051435188568 0 -0.0074496348896416044 -0.0037789595608520854 0 -0.0044186067183817372 -0.0054579687793156846 0 -0.0047528390302049826 -0.0041739520749597397 0 -0.0033075938768409845 -0.0049417693441239658 0 -0.0047528390302049826 -0.0041739520749597397 0 -0.0033075938768409845 -0.0049417693441239658 0 -0.0031497922382911141 -0.0024182517733973884 0 -0.0047528390302049826 -0.0041739520749597397 0 -0.0062573701485169244 -0.004017056187232841 0 -0.0053632833893309988 -0.0027531618040677417 0 -0.0047528390302049826 -0.0041739520749597397 0 -0.0062573701485169244 -0.004017056187232841 0 -0.0059803094422502005 -0.0052217006829669288 0 -0.0049415443577207913 -0.0064096389375752297 0 -0.0044186067183817372 -0.0054579687793156846 0 -0.0059803094422502005 -0.0052217006829669288 0 -0.0044186067183817372 -0.0054579687793156846 0 -0.0047528390302049826 -0.0041739520749597397 0 -0.0059803094422502005 -0.0052217006829669288 0 -0.0060903242402772732 -0.0066514106888378314 0 -0.0049415443577207913 -0.0064096389375752297 0 -0.0059803094422502005 -0.0052217006829669288 0 -0.0060903242402772732 -0.0066514106888378314 0 -0.0059803094422502005 -0.0052217006829669288 0 -0.0072301235621784962 -0.0059557918079561432 0 -0.0059803094422502005 -0.0052217006829669288 0 -0.0072301235621784962 -0.0059557918079561432 0 -0.0075525887809329648 -0.0048521087938813018 0 -0.0072301235621784962 -0.0059557918079561432 0 -0.0075525887809329648 -0.0048521087938813018 0 -0.008629027332808719 -0.0056732630412191197 0 -0.010346338164294458 -0.0067765575148255883 0 -0.008629027332808719 -0.0056732630412191197 0 -0.0088248699423755326 -0.0045795651353035703 0 -0.0080535467002672868 -0.0065391829267150781 0 -0.0072301235621784962 -0.0059557918079561432 0 -0.008629027332808719 -0.0056732630412191197 0 -0.0075525887809329648 -0.0048521087938813018 0 -0.008629027332808719 -0.0056732630412191197 0 -0.0087587805291733118 -0.0047193499076530702 0 -0.022719121521692719 -0.018380681926364377 0 -0.023084212237136897 -0.020369204197319354 0 -0.025334873787011086 -0.027529077583506263 0 -0.025057197564160628 -0.027109485754263921 0 -0.02539978147256583 -0.027164708030900528 0 -0.023084212237136897 -0.020369204197319354 0 -0.024573308718303183 -0.027350215916803703 0 -0.0075525887809329648 -0.0048521087938813018 0 -0.0087587805291733118 -0.0047193499076530702 0 -0.0076744361970777853 -0.0031012052001108343 0 -0.024842511877349299 -0.024306235567512737 0 -0.02476524195126114 -0.024758956656076324 0 -0.024541895268376478 -0.024478702480732077 0 -0.023084212237136897 -0.020369204197319354 0 -0.026597603768980568 -0.0295714635721325 0 -0.0062573701485169244 -0.004017056187232841 0 -0.0075525887809329648 -0.0048521087938813018 0 -0.0076744361970777853 -0.0031012052001108343 0 -0.0062573701485169244 -0.004017056187232841 0 -0.0059803094422502005 -0.0052217006829669288 0 -0.0075525887809329648 -0.0048521087938813018 0 -0.0062573701485169244 -0.004017056187232841 0 -0.0076744361970777853 -0.0031012052001108343 0 -0.0053632833893309988 -0.0027531618040677417 0 -0.032375024503442325 -0.038310966884541088 0 -0.034520432573139415 -0.041640865850102168 0 -0.035616632760339877 -0.038922643478244791 0 -0.024573308718303183 -0.027350215916803703 0 -0.019859826601243115 -0.022886689052217111 0 -0.024573308718303183 -0.027350215916803703 0 -0.033418372664095836 -0.04047005708043519 0 -0.035037203975922533 -0.042020040697365334 0 -0.034222926980492077 -0.041871019173863371 0 -0.034833759720886918 -0.042926239250166559 0 -0.026597603768980568 -0.0295714635721325 0 -0.029167570537117424 -0.039636533184495858 0 -0.034222926980492077 -0.041871019173863371 0 -0.034833759720886918 -0.042926239250166559 0 -0.034030495476508167 -0.043193975510827994 0 -0.024573308718303183 -0.027350215916803703 0 -0.026597603768980568 -0.0295714635721325 0 -0.034833759720886918 -0.042926239250166559 0 -0.034030495476508167 -0.043193975510827994 0 -0.034911435431961318 -0.044011401176433151 0 -0.035037203975922533 -0.042020040697365334 0 -0.034833759720886918 -0.042926239250166559 0 -0.03594503139009874 -0.043513686388861231 0 -0.034833759720886918 -0.042926239250166559 0 -0.03594503139009874 -0.043513686388861231 0 -0.034911435431961318 -0.044011401176433151 0 -0.034520432573139415 -0.041640865850102168 0 -0.037069148288608106 -0.041442215126363438 0 -0.035616632760339877 -0.038922643478244791 0 -0.037069148288608106 -0.041442215126363438 0 -0.038898797141157196 -0.043051853672405521 0 -0.03872510559990143 -0.039528248986660644 0 -0.019859826601243115 -0.022886689052217111 0 -0.014248174532789981 -0.019362331696676824 0 -0.0047528390302049826 -0.0041739520749597397 0 -0.0053632833893309988 -0.0027531618040677417 0 -0.0031497922382911141 -0.0024182517733973884 0 -0.037069148288608106 -0.041442215126363438 0 -0.035616632760339877 -0.038922643478244791 0 -0.03872510559990143 -0.039528248986660644 0 -0.024182095437908828 -0.029195083354123307 0 -0.022557459628571391 -0.035037714258961572 0 -0.024182095437908828 -0.029195083354123307 0 -0.027413643383961829 -0.030238580986212061 0 -0.015679244206743638 -0.0049859191760898598 0 -0.013743747104294162 -0.0063175824009550361 0 -0.016669453683898831 -0.0076883484864379214 0 -0.015679244206743638 -0.0049859191760898598 0 -0.013743747104294162 -0.0063175824009550361 0 -0.013563275801974937 -0.0049957697699450744 0 -0.013743747104294162 -0.0063175824009550361 0 -0.013563275801974937 -0.0049957697699450744 0 -0.012410910316097562 -0.0052825998091899544 0 -0.015679244206743638 -0.0049859191760898598 0 -0.013563275801974937 -0.0049957697699450744 0 -0.01482157247035332 -0.0024476136590889795 0 -0.013563275801974937 -0.0049957697699450744 0 -0.01274183153958423 -0.0041120702539130943 0 -0.01482157247035332 -0.0024476136590889795 0 -0.025810219048692316 -0.028363008195957433 0 -0.023456763107011221 -0.019095847857088233 0 -0.012395999675575059 -0.0040581711567289364 0 -0.012410910316097562 -0.0052825998091899544 0 -0.011229896269223428 -0.0059005317670565291 0 -0.01274183153958423 -0.0041120702539130943 0 -0.012395999675575059 -0.0040581711567289364 0 -0.012824827214830704 -0.004693937932960638 0 -0.025506560800704792 -0.028208284408389583 0 -0.025810219048692316 -0.028363008195957433 0 -0.012395999675575059 -0.0040581711567289364 0 -0.012824827214830704 -0.004693937932960638 0 -0.012410910316097562 -0.0052825998091899544 0 -0.013563275801974937 -0.0049957697699450744 0 -0.01274183153958423 -0.0041120702539130943 0 -0.012824827214830704 -0.004693937932960638 0 -0.013563275801974937 -0.0049957697699450744 0 -0.012824827214830704 -0.004693937932960638 0 -0.012410910316097562 -0.0052825998091899544 0 -0.013743747104294162 -0.0063175824009550361 0 -0.012410910316097562 -0.0052825998091899544 0 -0.012370121728764855 -0.0064416265619402233 0 -0.011354069428074539 -0.0071468965739643455 0 -0.012370121728764855 -0.0064416265619402233 0 -0.011229896269223428 -0.0059005317670565291 0 -0.012410910316097562 -0.0052825998091899544 0 -0.012370121728764855 -0.0064416265619402233 0 -0.011229896269223428 -0.0059005317670565291 0 -0.024441177936764813 -0.02366146404113402 0 -0.024255519392410451 -0.024018840498105931 0 -0.024524193638548408 -0.024194531336499975 0 -0.024441177936764813 -0.02366146404113402 0 -0.024842511877349299 -0.024306235567512737 0 -0.024524193638548408 -0.024194531336499975 0 -0.02262222333795557 -0.015733973321917331 0 -0.023084212237136897 -0.020369204197319354 0 -0.02262222333795557 -0.015733973321917331 0 -0.023456763107011221 -0.019095847857088233 0 -0.02476524195126114 -0.024758956656076324 0 -0.023947077634262879 -0.024621943295780005 0 -0.024541895268376478 -0.024478702480732077 0 -0.024842511877349299 -0.024306235567512737 0 -0.024524193638548408 -0.024194531336499975 0 -0.024541895268376478 -0.024478702480732077 0 -0.023947077634262879 -0.024621943295780005 0 -0.024524193638548408 -0.024194531336499975 0 -0.024541895268376478 -0.024478702480732077 0 -0.026597603768980568 -0.0295714635721325 0 -0.025810219048692316 -0.028363008195957433 0 -0.023947908223127902 -0.024631906236990606 0 -0.024255519392410451 -0.024018840498105931 0 -0.024524193638548408 -0.024194531336499975 0 -0.025810219048692316 -0.028363008195957433 0 -0.025856312426395561 -0.027335456432754104 0 -0.034194384142926394 -0.043387579278350401 0 -0.034069346032313028 -0.044197267417076268 0 -0.03343339399928575 -0.043939501111638683 0 -0.034194384142926394 -0.043387579278350401 0 -0.033192838171052425 -0.043218757311523109 0 -0.03343339399928575 -0.043939501111638683 0 -0.034069346032313028 -0.044197267417076268 0 -0.033396355534098428 -0.044542241900869903 0 -0.03343339399928575 -0.043939501111638683 0 -0.033396355534098428 -0.044542241900869903 0 -0.033028707585328256 -0.044362709065377523 0 -0.03343339399928575 -0.043939501111638683 0 -0.033028707585328256 -0.044362709065377523 0 -0.03343339399928575 -0.043939501111638683 0 -0.03285749684018649 -0.043909950734517089 0 -0.025810219048692316 -0.028363008195957433 0 -0.026761660052637713 -0.038348383620249227 0 -0.033192838171052425 -0.043218757311523109 0 -0.03343339399928575 -0.043939501111638683 0 -0.03285749684018649 -0.043909950734517089 0 -0.025810219048692316 -0.028363008195957433 0 -0.022557459628571391 -0.035037714258961572 0 -0.031217754264460738 -0.047544997905954914 0 -0.031636883039513133 -0.046894055604574734 0 -0.032264392696098029 -0.046949578914114519 0 -0.01274183153958423 -0.0041120702539130943 0 -0.012400441786261134 -0.0040621590057888686 0 -0.01482157247035332 -0.0024476136590889795 0 -0.031636883039513133 -0.046894055604574734 0 -0.032226748225127409 -0.046784434675565888 0 -0.032264392696098029 -0.046949578914114519 0 -0.033028707585328256 -0.044362709065377523 0 -0.03285749684018649 -0.043909950734517089 0 -0.032583747333088699 -0.044630678943747761 0 -0.031636883039513133 -0.046894055604574734 0 -0.032070168494096794 -0.046046121657791025 0 -0.032226748225127409 -0.046784434675565888 0 -0.026761660052637713 -0.038348383620249227 0 -0.028065544532065154 -0.041663058561007743 0 -0.022557459628571391 -0.035037714258961572 0 -0.026322275965228785 -0.037638307269407985 0 -0.032697986000395078 -0.046326076901038044 0 -0.032275378935939812 -0.047034356471784035 0 -0.033897596207084241 -0.046225397759872111 0 -0.032226748225127409 -0.046784434675565888 0 -0.032697986000395078 -0.046326076901038044 0 -0.032275378935939812 -0.047034356471784035 0 -0.032070168494096794 -0.046046121657791025 0 -0.032226748225127409 -0.046784434675565888 0 -0.032697986000395078 -0.046326076901038044 0 -0.033100118398286922 -0.049916373893325268 0 -0.032154099219815796 -0.047700495608879435 0 -0.033922943617984133 -0.048200649564743223 0 -0.022727088951571571 -0.03543360839690074 0 -0.022557459628571391 -0.035037714258961572 0 -0.032585809986855625 -0.045124959497083519 0 -0.032355239566654807 -0.045693062474322831 0 -0.032886647039564884 -0.044933867581041537 0 -0.032585809986855625 -0.045124959497083519 0 -0.03304156828079706 -0.045084352630569854 0 -0.032886647039564884 -0.044933867581041537 0 -0.032585809986855625 -0.045124959497083519 0 -0.03304156828079706 -0.045084352630569854 0 -0.033065853266602392 -0.045572237772643145 0 -0.032070168494096794 -0.046046121657791025 0 -0.032697986000395078 -0.046326076901038044 0 -0.033065853266602392 -0.045572237772643145 0 -0.028065544532065154 -0.041663058561007743 0 -0.028585659573144555 -0.04242757844288518 0 -0.032697986000395078 -0.046326076901038044 0 -0.033065853266602392 -0.045572237772643145 0 -0.033897596207084241 -0.046225397759872111 0 -0.032070168494096794 -0.046046121657791025 0 -0.032585809986855625 -0.045124959497083519 0 -0.033065853266602392 -0.045572237772643145 0 -0.032583747333088699 -0.044630678943747761 0 -0.032585809986855625 -0.045124959497083519 0 -0.032705749797682308 -0.045031119023182062 0 -0.033028707585328256 -0.044362709065377523 0 -0.032583747333088699 -0.044630678943747761 0 -0.033008774775702555 -0.044812551287811822 0 -0.032583747333088699 -0.044630678943747761 0 -0.032705749797682308 -0.045031119023182062 0 -0.033008774775702555 -0.044812551287811822 0 -0.032705749797682308 -0.045031119023182062 0 -0.032970374814628139 -0.045280374295072971 0 -0.033008774775702555 -0.044812551287811822 0 -0.032585809986855625 -0.045124959497083519 0 -0.03263756547181057 -0.045330820323351978 0 -0.032355239566654807 -0.045693062474322831 0 -0.032705749797682308 -0.045031119023182062 0 -0.03263756547181057 -0.045330820323351978 0 -0.032970374814628139 -0.045280374295072971 0 -0.032585809986855625 -0.045124959497083519 0 -0.032705749797682308 -0.045031119023182062 0 -0.03263756547181057 -0.045330820323351978 0 -0.03263756547181057 -0.045330820323351978 0 -0.032970374814628139 -0.045280374295072971 0 -0.032710060004662096 -0.045715992905602236 0 -0.033447646224218537 -0.045439039312816065 0 -0.032970374814628139 -0.045280374295072971 0 -0.033145735318563886 -0.045940270256353929 0 -0.032970374814628139 -0.045280374295072971 0 -0.033145735318563886 -0.045940270256353929 0 -0.032710060004662096 -0.045715992905602236 0 -0.033447646224218537 -0.045439039312816065 0 -0.032970374814628139 -0.045280374295072971 0 -0.033406962389296337 -0.045005286209977832 0 -0.032970374814628139 -0.045280374295072971 0 -0.033008774775702555 -0.044812551287811822 0 -0.033406962389296337 -0.045005286209977832 0 -0.033396355534098428 -0.044542241900869903 0 -0.033028707585328256 -0.044362709065377523 0 -0.033008774775702555 -0.044812551287811822 0 -0.033396355534098428 -0.044542241900869903 0 -0.033008774775702555 -0.044812551287811822 0 -0.033406962389296337 -0.045005286209977832 0 -0.033396355534098428 -0.044542241900869903 0 -0.033406962389296337 -0.045005286209977832 0 -0.033948260636576175 -0.044983352574768744 0 -0.029167570537117424 -0.039636533184495858 0 -0.030632363623941873 -0.043050941105424137 0 -0.034069346032313028 -0.044197267417076268 0 -0.033396355534098428 -0.044542241900869903 0 -0.033948260636576175 -0.044983352574768744 0 -0.033447646224218537 -0.045439039312816065 0 -0.033948260636576175 -0.044983352574768744 0 -0.033825075603528119 -0.045840205201365863 0 -0.030632363623941873 -0.043050941105424137 0 -0.031071059415504556 -0.044045713248293587 0 -0.033447646224218537 -0.045439039312816065 0 -0.033406962389296337 -0.045005286209977832 0 -0.033948260636576175 -0.044983352574768744 0 -0.033825075603528119 -0.045840205201365863 0 -0.033989622639687682 -0.0468891779998344 0 -0.033491223146525979 -0.046428978751887118 0 -0.033825075603528119 -0.045840205201365863 0 -0.033989622639687682 -0.0468891779998344 0 -0.034598059470043865 -0.046336345547298992 0 -0.034185868411389486 -0.047389931741568379 0 -0.033479864706351836 -0.047335977207554294 0 -0.034310980273829519 -0.047846502577078384 0 -0.032890683728848916 -0.047128505742193093 0 -0.033893957997598742 -0.048451044787084042 0 -0.033989622639687682 -0.0468891779998344 0 -0.032890683728848916 -0.047128505742193093 0 -0.033491223146525979 -0.046428978751887118 0 -0.032890683728848916 -0.047128505742193093 0 -0.032932658587310801 -0.04820159969753128 0 -0.033893957997598742 -0.048451044787084042 0 -0.032890683728848916 -0.047128505742193093 0 -0.033145735318563886 -0.045940270256353929 0 -0.032727819105816791 -0.046293250608452331 0 -0.033447646224218537 -0.045439039312816065 0 -0.033825075603528119 -0.045840205201365863 0 -0.033145735318563886 -0.045940270256353929 0 -0.033825075603528119 -0.045840205201365863 0 -0.033491223146525979 -0.046428978751887118 0 -0.033145735318563886 -0.045940270256353929 0 -0.032890683728848916 -0.047128505742193093 0 -0.033491223146525979 -0.046428978751887118 0 -0.033145735318563886 -0.045940270256353929 0 -0.033145735318563886 -0.045940270256353929 0 -0.032710060004662096 -0.045715992905602236 0 -0.032727819105816791 -0.046293250608452331 0 -0.032710060004662096 -0.045715992905602236 0 -0.032355239566654807 -0.045693062474322831 0 -0.03239722176916391 -0.046191659220436318 0 -0.03263756547181057 -0.045330820323351978 0 -0.032710060004662096 -0.045715992905602236 0 -0.032355239566654807 -0.045693062474322831 0 -0.03239722176916391 -0.046191659220436318 0 -0.032070181297368286 -0.046473908478733075 0 -0.032606497405077914 -0.04683679225959049 0 -0.03239722176916391 -0.046191659220436318 0 -0.032070181297368286 -0.046473908478733075 0 -0.031926303591119476 -0.045810626864744609 0 -0.032355239566654807 -0.045693062474322831 0 -0.03239722176916391 -0.046191659220436318 0 -0.031926303591119476 -0.045810626864744609 0 -0.03239722176916391 -0.046191659220436318 0 -0.032727819105816791 -0.046293250608452331 0 -0.032606497405077914 -0.04683679225959049 0 -0.032710060004662096 -0.045715992905602236 0 -0.03239722176916391 -0.046191659220436318 0 -0.032727819105816791 -0.046293250608452331 0 -0.032890683728848916 -0.047128505742193093 0 -0.032727819105816791 -0.046293250608452331 0 -0.032606497405077914 -0.04683679225959049 0 -0.032890683728848916 -0.047128505742193093 0 -0.032606497405077914 -0.04683679225959049 0 -0.032932658587310801 -0.04820159969753128 0 -0.03505916419067822 -0.046705776288406164 0 -0.034853740877805094 -0.047555620403923152 0 -0.034883833547493796 -0.0481993396563168 0 -0.032070181297368286 -0.046473908478733075 0 -0.032606497405077914 -0.04683679225959049 0 -0.032932658587310801 -0.04820159969753128 0 -0.033603141794335975 -0.04662907804580943 0 -0.033928337846153608 -0.047644630312227008 0 -0.034853740877805094 -0.047555620403923152 0 -0.034965735560345886 -0.046932468217014356 0 -0.034866725766238484 -0.047312244546933842 0 -0.03505916419067822 -0.046705776288406164 0 -0.034853740877805094 -0.047555620403923152 0 -0.034965735560345886 -0.046932468217014356 0 -0.03505916419067822 -0.046705776288406164 0 -0.035009136096032567 -0.046759099903253415 0 -0.035026627016257354 -0.046700248098737539 0 -0.035009136096032567 -0.046759099903253415 0 -0.035017318521046642 -0.046671488722157976 0 -0.035026627016257354 -0.046700248098737539 0 -0.035017318521046642 -0.046671488722157976 0 -0.034965735560345886 -0.046932468217014356 0 -0.034897578172030513 -0.047022193225916574 0 -0.035009136096032567 -0.046759099903253415 0 -0.035017318521046642 -0.046671488722157976 0 -0.034965735560345886 -0.046932468217014356 0 -0.03505916419067822 -0.046705776288406164 0 -0.035009136096032567 -0.046759099903253415 0 -0.034965735560345886 -0.046932468217014356 0 -0.034897578172030513 -0.047022193225916574 0 -0.034866725766238484 -0.047312244546933842 0 -0.034757778687237895 -0.047648510590489981 0 -0.034965735560345886 -0.046932468217014356 0 -0.034897578172030513 -0.047022193225916574 0 -0.034866725766238484 -0.047312244546933842 0 -0.034897578172030513 -0.047022193225916574 0 -0.03502728087123852 -0.046531860216459699 0 -0.034832766438420315 -0.047058380349222148 0 -0.035017318521046642 -0.046671488722157976 0 -0.034897578172030513 -0.047022193225916574 0 -0.03502728087123852 -0.046531860216459699 0 -0.035017318521046642 -0.046671488722157976 0 -0.035178232024309385 -0.046207397916838998 0 -0.03502728087123852 -0.046531860216459699 0 -0.035026627016257354 -0.046700248098737539 0 -0.03477310524876151 -0.04648405970318914 0 -0.03486368416331613 -0.046462024464844258 0 -0.03505916419067822 -0.046705776288406164 0 -0.035026627016257354 -0.046700248098737539 0 -0.03486368416331613 -0.046462024464844258 0 -0.033603141794335975 -0.04662907804580943 0 -0.033503228035864425 -0.045757550837806228 0 -0.033007344639052104 -0.045562297591107526 0 -0.033503228035864425 -0.045757550837806228 0 -0.032070181297368286 -0.046473908478733075 0 -0.031926303591119476 -0.045810626864744609 0 -0.030803787040935976 -0.044905285338888573 0 -0.035026627016257354 -0.046700248098737539 0 -0.035387295109200988 -0.045850380260831387 0 -0.035178232024309385 -0.046207397916838998 0 -0.035017318521046642 -0.046671488722157976 0 -0.035026627016257354 -0.046700248098737539 0 -0.035178232024309385 -0.046207397916838998 0 -0.035076704139952966 -0.046148921541410162 0 -0.035148155712877951 -0.046044426432843115 0 -0.032355239566654807 -0.045693062474322831 0 -0.031926303591119476 -0.045810626864744609 0 -0.030803787040935976 -0.044905285338888573 0 -0.036818049929693952 -0.044758832769067204 0 -0.035790271248097479 -0.044665643277694372 0 -0.036066397000863545 -0.046312524535631838 0 -0.036818049929693952 -0.044758832769067204 0 -0.037539938789099211 -0.046436520088620876 0 -0.038840833116179189 -0.045824822217705036 0 -0.036818049929693952 -0.044758832769067204 0 -0.038840833116179189 -0.045824822217705036 0 -0.038898797141157196 -0.043051853672405521 0 -0.037069148288608106 -0.041442215126363438 0 -0.036818049929693952 -0.044758832769067204 0 -0.038898797141157196 -0.043051853672405521 0 -0.033418372664095836 -0.04047005708043519 0 -0.035224959281695112 -0.043062653641940556 0 -0.034520432573139415 -0.041640865850102168 0 -0.037069148288608106 -0.041442215126363438 0 -0.036818049929693952 -0.044758832769067204 0 -0.03594503139009874 -0.043513686388861231 0 -0.036818049929693952 -0.044758832769067204 0 -0.035790271248097479 -0.044665643277694372 0 -0.03594503139009874 -0.043513686388861231 0 -0.034911435431961318 -0.044011401176433151 0 -0.035790271248097479 -0.044665643277694372 0 -0.034911435431961318 -0.044011401176433151 0 -0.0350176712051272 -0.04533070742247134 0 -0.035790271248097479 -0.044665643277694372 0 -0.033879391643902391 -0.044526336744437005 0 -0.034911435431961318 -0.044011401176433151 0 -0.0350176712051272 -0.04533070742247134 0 -0.034030495476508167 -0.043193975510827994 0 -0.033879391643902391 -0.044526336744437005 0 -0.034911435431961318 -0.044011401176433151 0 -0.033879391643902391 -0.044526336744437005 0 -0.033825075603528119 -0.045840205201365863 0 -0.0350176712051272 -0.04533070742247134 0 -0.0350176712051272 -0.04533070742247134 0 -0.035790271248097479 -0.044665643277694372 0 -0.036066397000863545 -0.046312524535631838 0 -0.034598059470043865 -0.046336345547298992 0 -0.035254484305308975 -0.047131959130766239 0 -0.036066397000863545 -0.046312524535631838 0 -0.0350176712051272 -0.04533070742247134 0 -0.034598059470043865 -0.046336345547298992 0 -0.036066397000863545 -0.046312524535631838 0 -0.033825075603528119 -0.045840205201365863 0 -0.0350176712051272 -0.04533070742247134 0 -0.034598059470043865 -0.046336345547298992 0 -0.034185868411389486 -0.047389931741568379 0 -0.035407057681910957 -0.047475085003717866 0 -0.034310980273829519 -0.047846502577078384 0 -0.03542131509967756 -0.047951307736610105 0 -0.034647063788163367 -0.048953667341500633 0 -0.033989622639687682 -0.0468891779998344 0 -0.034598059470043865 -0.046336345547298992 0 -0.035254484305308975 -0.047131959130766239 0 -0.035407057681910957 -0.047475085003717866 0 -0.036193728903347662 -0.04751776076578472 0 -0.03542131509967756 -0.047951307736610105 0 -0.036992359748947753 -0.047636318277429236 0 -0.036154549047642232 -0.048602523926507046 0 -0.036066397000863545 -0.046312524535631838 0 -0.03736356617264041 -0.047097978912573724 0 -0.036992359748947753 -0.047636318277429236 0 -0.035254484305308975 -0.047131959130766239 0 -0.036066397000863545 -0.046312524535631838 0 -0.036992359748947753 -0.047636318277429236 0 -0.036818049929693952 -0.044758832769067204 0 -0.036066397000863545 -0.046312524535631838 0 -0.037539938789099211 -0.046436520088620876 0 -0.037539938789099211 -0.046436520088620876 0 -0.037779904435908535 -0.04772923550132737 0 -0.038840833116179189 -0.045824822217705036 0 -0.036066397000863545 -0.046312524535631838 0 -0.037539938789099211 -0.046436520088620876 0 -0.03736356617264041 -0.047097978912573724 0 -0.037539938789099211 -0.046436520088620876 0 -0.03736356617264041 -0.047097978912573724 0 -0.037779904435908535 -0.04772923550132737 0 -0.03736356617264041 -0.047097978912573724 0 -0.036992359748947753 -0.047636318277429236 0 -0.037779904435908535 -0.04772923550132737 0 -0.020270162531036667 -0.043640499543949933 0 -0.019236212807089488 -0.042097811144963374 0 -0.019482717441085286 -0.045176413112991809 0 -0.037362945567687156 -0.048162992021380108 0 -0.038026684889467442 -0.047788124587698148 0 -0.038112312059433481 -0.048765454063206919 0 -0.025882168057435692 -0.043594107453066654 0 -0.026792525574662645 -0.045967028285117478 0 -0.019236212807089488 -0.042097811144963374 0 -0.020503079123710969 -0.042600132357599498 0 -0.020957953805045716 -0.041690502061332825 0 -0.020270162531036667 -0.043640499543949933 0 -0.019236212807089488 -0.042097811144963374 0 -0.020503079123710969 -0.042600132357599498 0 -0.017426572073584036 -0.045069837109909361 0 -0.017840229500475938 -0.044014528194142317 0 -0.018435897251773137 -0.045507130529852266 0 -0.015356172345548013 -0.039270889751534276 0 -0.016027279766127795 -0.04696697672078564 0 -0.017426572073584036 -0.045069837109909361 0 -0.018435897251773137 -0.045507130529852266 0 -0.017986803980305058 -0.046066886220067126 0 -0.019700235230018459 -0.044693424381293957 0 -0.020367648492678504 -0.048712608714896494 0 -0.020270162531036667 -0.043640499543949933 0 -0.021594698632177639 -0.042810589930044968 0 -0.020563708488078002 -0.04541685767460079 0 -0.019700235230018459 -0.044693424381293957 0 -0.024830221891423969 -0.046909199420445302 0 -0.020270162531036667 -0.043640499543949933 0 -0.020503079123710969 -0.042600132357599498 0 -0.021594698632177639 -0.042810589930044968 0 -0.020957953805045716 -0.041690502061332825 0 -0.021574374546302441 -0.042796361969827459 0 -0.022518340909507644 -0.040427007752588132 0 -0.020503079123710969 -0.042600132357599498 0 -0.020957953805045716 -0.041690502061332825 0 -0.021594698632177639 -0.042810589930044968 0 -0.019685387454325375 -0.044556957819307567 0 -0.019700235230018459 -0.044693424381293957 0 -0.019700235230018459 -0.044693424381293957 0 -0.015356172345548013 -0.039270889751534276 0 -0.020957953805045716 -0.041690502061332825 0 -0.022518340909507644 -0.040427007752588132 0 -0.020456980173148256 -0.039761884022147115 0 -0.025882168057435692 -0.043594107453066654 0 -0.024154343317184183 -0.039435925839637384 0 -0.019236212807089488 -0.042097811144963374 0 -0.018991357776920091 -0.039037439737230679 0 -0.020456980173148256 -0.039761884022147115 0 -0.037362945567687156 -0.048162992021380108 0 -0.038026684889467442 -0.047788124587698148 0 -0.037905349689174458 -0.046784100545497746 0 -0.029978205630313001 -0.044097607423408652 0 -0.024154343317184183 -0.039435925839637384 0 -0.019236212807089488 -0.042097811144963374 0 -0.020957953805045716 -0.041690502061332825 0 -0.020456980173148256 -0.039761884022147115 0 -0.019394592879729097 -0.037348427202575668 0 -0.022003266779452062 -0.031664129395113781 0 -0.018793307849950459 -0.029768894339171726 0 -0.024154343317184183 -0.039435925839637384 0 -0.015664560599614168 -0.029771503662979613 0 -0.024154343317184183 -0.039435925839637384 0 -0.021734363335038004 -0.034138326405520156 0 -0.018991357776920091 -0.039037439737230679 0 -0.020456980173148256 -0.039761884022147115 0 -0.020579418252638947 -0.035555318755446957 0 -0.022518340909507644 -0.040427007752588132 0 -0.020456980173148256 -0.039761884022147115 0 -0.020579418252638947 -0.035555318755446957 0 -0.0086216540039182523 -0.032940691621886634 0 -0.0066622977834517151 -0.028033593735156973 0 -0.010456659773076348 -0.02825444828268469 0 -0.015356172345548013 -0.039270889751534276 0 -0.015664560599614168 -0.029771503662979613 0 -0.01220550882233982 -0.021747612288543786 0 -0.011496462590767406 -0.019947577007117492 0 -0.012926841467117488 -0.020149239410350857 0 -0.0066622977834517151 -0.028033593735156973 0 -0.010456659773076348 -0.02825444828268469 0 -0.0078068971508102767 -0.025519567427108765 0 -0.015664560599614168 -0.029771503662979613 0 -0.01032626179700148 -0.022277461397515956 0 -0.022003266779452062 -0.031664129395113781 0 -0.018793307849950459 -0.029768894339171726 0 -0.020174061599945763 -0.027049549714462006 0 -0.015664560599614168 -0.029771503662979613 0 -0.015005914443730433 -0.024392875864121526 0 -0.0075879028296684699 -0.034940900640879242 0 -0.0069262209175171893 -0.035306250075684581 0 -0.007503239613619911 -0.036241505057723354 0 -0.0075879028296684699 -0.034940900640879242 0 -0.007503239613619911 -0.036241505057723354 0 -0.0081332033584558035 -0.035379938162382739 0 -0.0075879028296684699 -0.034940900640879242 0 -0.0069262209175171893 -0.035306250075684581 0 -0.0073085010569383544 -0.034278446115281795 0 -0.0085934540300867755 -0.031202759203259704 0 -0.002495392909383113 -0.020870427127940946 0 -0.010456659773076348 -0.02825444828268469 0 -0.0078068971508102767 -0.025519567427108765 0 -0.010668130829855883 -0.024376441230941258 0 -0.0065416975225603266 -0.036354409783359583 0 -0.0069262209175171893 -0.035306250075684581 0 -0.007503239613619911 -0.036241505057723354 0 -0.015356172345548013 -0.039270889751534276 0 -0.0085934540300867755 -0.031202759203259704 0 -0.0090687445555980399 -0.042759749456106028 0 -0.0048307901069192683 -0.03822291691776971 0 -0.0065416975225603266 -0.036354409783359583 0 -0.007503239613619911 -0.036241505057723354 0 -0.006852684419492547 -0.037120249369586099 0 -0.0090687445555980399 -0.042759749456106028 0 -0.016027279766127795 -0.04696697672078564 0 -0.0058821463641602215 -0.046578300044708913 0 -0.0049728457193093881 -0.047761776938914688 0 -0.0059462741253864014 -0.047835955630799801 0 -0.0058821463641602215 -0.046578300044708913 0 -0.0059462741253864014 -0.047835955630799801 0 -0.0069435000406377163 -0.047705304360367913 0 -0.0065516601553552174 -0.054359756881550675 0 -0.0039748118499826311 -0.051500363719925023 0 -0.00243141212873005 -0.059808130123506324 0 -0.0029797799822214341 -0.059966410361790144 0 -0.0028014746714456846 -0.058708571797459627 0 -0.0044889088172185019 -0.06083075476272292 0 -0.0044128721906504294 -0.06001480659425279 0 -0.0029797799822214341 -0.059966410361790144 0 -0.0028014746714456846 -0.058708571797459627 0 -0.0038384134260146981 -0.059054657494168536 0 -0.0028014746714456846 -0.058708571797459627 0 -0.0038384134260146981 -0.059054657494168536 0 -0.003509014977886445 -0.058229448716241229 0 -0.0058821463641602215 -0.046578300044708913 0 -0.0069435000406377163 -0.047705304360367913 0 -0.0073776949713431298 -0.046566308872008924 0 -0.0053748043420329015 -0.061139400940477234 0 -0.0060789182208571772 -0.063004193309017756 0 -0.0078772373405780038 -0.062185257982141515 0 -0.0053748043420329015 -0.061139400940477234 0 -0.004514673673196367 -0.063148329334038397 0 -0.0060789182208571772 -0.063004193309017756 0 -0.0015049098422758695 -0.062529009124370996 0 -0.0033006655088883164 -0.062392407858747966 0 -0.0033739113482069752 -0.060247056382861569 0 -0.0053748043420329015 -0.061139400940477234 0 -0.0033006655088883164 -0.062392407858747966 0 -0.004514673673196367 -0.063148329334038397 0 -0.0053748043420329015 -0.061139400940477234 0 -0.0033006655088883164 -0.062392407858747966 0 -0.0033739113482069752 -0.060247056382861569 0 -0.0038384134260146981 -0.059054657494168536 0 -0.0041237985516298726 -0.057781509885732378 0 -0.003509014977886445 -0.058229448716241229 0 -0.0044128721906504294 -0.06001480659425279 0 -0.0048766935382146808 -0.059233609202969585 0 -0.0033739113482069752 -0.060247056382861569 0 -0.0056020565582587615 -0.059569739109199403 0 -0.0053539793955822111 -0.05787111265295123 0 -0.0053748043420329015 -0.061139400940477234 0 -0.0056020565582587615 -0.059569739109199403 0 -0.0072881055042435007 -0.060191890281214723 0 -0.0053748043420329015 -0.061139400940477234 0 -0.0033739113482069752 -0.060247056382861569 0 -0.0056020565582587615 -0.059569739109199403 0 -0.0053539793955822111 -0.05787111265295123 0 -0.0041237985516298726 -0.057781509885732378 0 -0.0070816025497733477 -0.057332794440363093 0 -0.0041237985516298726 -0.057781509885732378 0 -0.004577148196643681 -0.057143319038868004 0 -0.0052376850437990431 -0.057315935425512249 0 -0.0040878482730756774 -0.054037047198758438 0 -0.0040951255409370328 -0.052657953585694008 0 -0.0056020565582587615 -0.059569739109199403 0 -0.0053539793955822111 -0.05787111265295123 0 -0.0068670401899436403 -0.058786952424026012 0 -0.0038384134260146981 -0.059054657494168536 0 -0.0053539793955822111 -0.05787111265295123 0 -0.0041237985516298726 -0.057781509885732378 0 -0.0041237985516298726 -0.057781509885732378 0 -0.0039644283849014318 -0.057152835830752757 0 -0.004577148196643681 -0.057143319038868004 0 -0.0041237985516298726 -0.057781509885732378 0 -0.003509014977886445 -0.058229448716241229 0 -0.0033070859394057415 -0.057385893580826748 0 -0.0041237985516298726 -0.057781509885732378 0 -0.0039644283849014318 -0.057152835830752757 0 -0.0033070859394057415 -0.057385893580826748 0 -0.0039644283849014318 -0.057152835830752757 0 -0.0033070859394057415 -0.057385893580826748 0 -0.0038076819146972665 -0.056344520845615628 0 -0.0039644283849014318 -0.057152835830752757 0 -0.004577148196643681 -0.057143319038868004 0 -0.0038076819146972665 -0.056344520845615628 0 -0.004577148196643681 -0.057143319038868004 0 -0.0052376850437990431 -0.057315935425512249 0 -0.0050783882802430558 -0.056662812118879725 0 -0.004577148196643681 -0.057143319038868004 0 -0.0038076819146972665 -0.056344520845615628 0 -0.0050783882802430558 -0.056662812118879725 0 -0.0058821463641602215 -0.046578300044708913 0 -0.0073776949713431298 -0.046566308872008924 0 -0.0067900853325605975 -0.045376239968844378 0 -0.0039748118499826311 -0.051500363719925023 0 -0.0013157569928964703 -0.047153599539248484 0 -0.0028014746714456846 -0.058708571797459627 0 -0.003509014977886445 -0.058229448716241229 0 -0.0033070859394057415 -0.057385893580826748 0 -0.0073776949713431298 -0.046566308872008924 0 -0.0067900853325605975 -0.045376239968844378 0 -0.0078080621918723914 -0.045413911781395713 0 -0.0078080621918723914 -0.045413911781395713 0 -0.0077021705789619395 -0.044170617603950225 0 -0.0082401008742244656 -0.044262045522357407 0 -0.0067900853325605975 -0.045376239968844378 0 -0.0078080621918723914 -0.045413911781395713 0 -0.0077021705789619395 -0.044170617603950225 0 -0.0048307901069192683 -0.03822291691776971 0 0.0012251384242559168 -0.032113129419358566 0 -0.0013157569928964703 -0.047153599539248484 0 0.0015844478976769103 -0.037009920704676416 0 -0.0081332033584558035 -0.035379938162382739 0 -0.0080398712356294574 -0.034422993586886254 0 -0.0087511628486340552 -0.034551808555041232 0 -0.0075879028296684699 -0.034940900640879242 0 -0.0081332033584558035 -0.035379938162382739 0 -0.0080398712356294574 -0.034422993586886254 0 -0.00020252813930507154 -0.026126306909429575 0 0.0012251384242559168 -0.032113129419358566 0 0.008252237607079509 -0.014299413142818025 0 0.0082463857125310482 -0.014348020971208899 0 0.008266941309241476 -0.014258535022242618 0 0.0012251384242559168 -0.032113129419358566 0 0.0015844478976769103 -0.037009920704676416 0 0.0082463857125310482 -0.014348020971208899 0 0.008266941309241476 -0.014258535022242618 0 0.0081192784554128122 -0.014240700705189584 0 0.008252237607079509 -0.014299413142818025 0 0.008266941309241476 -0.014258535022242618 0 0.0082524915035034046 -0.014270101601720221 0 0.008252237607079509 -0.014299413142818025 0 0.0082524915035034046 -0.014270101601720221 0 0.0082434353047343267 -0.014283671313336715 0 0.0082524915035034046 -0.014270101601720221 0 0.008256001740092684 -0.014265431305011098 0 0.0082434353047343267 -0.014283671313336715 0 0.012437292630803554 -0.027265922139563276 0 0.01243384598996738 -0.027270232919449192 0 0.012449766710714466 -0.027318451934582114 0 0.0015844478976769103 -0.037009920704676416 0 0.0031681743178267599 -0.041384499368816434 0 0.012418279785677907 -0.027282785690003992 0 0.012437292630803554 -0.027265922139563276 0 0.012449766710714466 -0.027318451934582114 0 0.012389059661681114 -0.027290670261810469 0 0.012423768963286987 -0.02727028609255254 0 0.012440706591586696 -0.02724844972601316 0 0.0012251384242559168 -0.032113129419358566 0 0.0081069075118795405 -0.02357035582934966 0 0.012423768963286987 -0.02727028609255254 0 0.012418279785677907 -0.027282785690003992 0 0.012437292630803554 -0.027265922139563276 0 0.0018855847998496197 -0.03591886750515854 0 0.0015844478976769103 -0.037009920704676416 0 0.012389059661681114 -0.027290670261810469 0 0.012423768963286987 -0.02727028609255254 0 0.012400647959398473 -0.027283785433683684 0 0.008266941309241476 -0.014258535022242618 0 0.0081192784554128122 -0.014240700705189584 0 0.0082460012608341245 -0.014054935765942609 0 0.012423768963286987 -0.02727028609255254 0 0.012440706591586696 -0.02724844972601316 0 0.012437292630803554 -0.027265922139563276 0 0.012440706591586696 -0.02724844972601316 0 0.012437292630803554 -0.027265922139563276 0 0.01243717243727171 -0.027226956103091299 0 0.012437292630803554 -0.027265922139563276 0 0.01243717243727171 -0.027226956103091299 0 0.012430475632989175 -0.02722836127212962 0 0.01243717243727171 -0.027226956103091299 0 0.012430475632989175 -0.02722836127212962 0 0.012432274876596063 -0.027206441938689985 0 0.012437292630803554 -0.027265922139563276 0 0.012430475632989175 -0.02722836127212962 0 0.01243384598996738 -0.027270232919449192 0 0.0081069075118795405 -0.02357035582934966 0 0.01520238658020932 -0.018448181521476641 0 0.01243717243727171 -0.027226956103091299 0 0.012440458269882994 -0.027176788160428476 0 0.012432274876596063 -0.027206441938689985 0 0.012440458269882994 -0.027176788160428476 0 0.012432274876596063 -0.027206441938689985 0 0.012414659819460761 -0.027203025718373228 0 0.012440706591586696 -0.02724844972601316 0 0.01243717243727171 -0.027226956103091299 0 0.012440458269882994 -0.027176788160428476 0 0.0081192784554128122 -0.014240700705189584 0 0.0078611769906642547 -0.013923882466389197 0 0.0081271136067717614 -0.013931150207865534 0 0.0081192784554128122 -0.014240700705189584 0 0.0081271136067717614 -0.013931150207865534 0 0.0082460012608341245 -0.014054935765942609 0 0.0081271136067717614 -0.013931150207865534 0 0.0082460012608341245 -0.014054935765942609 0 0.0082833851247819286 -0.013798161574592828 0 0.0081271136067717614 -0.013931150207865534 0 0.0082233393819875072 -0.013648888406954914 0 0.0082833851247819286 -0.013798161574592828 0 0.0078611769906642547 -0.013923882466389197 0 0.0081271136067717614 -0.013931150207865534 0 0.0082233393819875072 -0.013648888406954914 0 0.024239967923070878 -0.010048892048973166 0 0.026742049926962028 -0.0083481193006170861 0 0.025323119113940622 -0.0089758882173726594 0 0.01520238658020932 -0.018448181521476641 0 0.016103395963180594 -0.0085853690941032103 0 0.024481107507380449 -0.0075271278477273829 0 0.026742049926962028 -0.0083481193006170861 0 0.025323119113940622 -0.0089758882173726594 0 0.016103395963180594 -0.0085853690941032103 0 0.015803119831677478 -0.0089863611137348618 0 0.024481107507380449 -0.0075271278477273829 0 0.025323119113940622 -0.0089758882173726594 0 0.023880580313510921 -0.009490447491081808 0 0.019644100854076561 -0.016475945924963244 0 0.017070402955084857 -0.017893373264141754 0 0.024239967923070878 -0.010048892048973166 0 0.025323119113940622 -0.0089758882173726594 0 0.023810961765639075 -0.0095307305250449288 0 0.01520238658020932 -0.018448181521476641 0 0.017070402955084857 -0.017893373264141754 0 0.0082524915035034046 -0.014270101601720221 0 0.0082502850419526146 -0.014253095175115573 0 0.008256001740092684 -0.014265431305011098 0 0.0082502850419526146 -0.014253095175115573 0 0.0082636572594001843 -0.014210350559801483 0 0.008256001740092684 -0.014265431305011098 0 0.008266941309241476 -0.014258535022242618 0 0.0082460012608341245 -0.014054935765942609 0 0.0085051092567812285 -0.013964884487365587 0 0.008266941309241476 -0.014258535022242618 0 0.0082524915035034046 -0.014270101601720221 0 0.0082502850419526146 -0.014253095175115573 0 0.0087399892364323929 -0.012616149333710512 0 0.0092000165527647004 -0.011412742624308312 0 0.0082460012608341245 -0.014054935765942609 0 0.0085051092567812285 -0.013964884487365587 0 0.0082833851247819286 -0.013798161574592828 0 0.0085051092567812285 -0.013964884487365587 0 0.0084517552660751463 -0.0136323635253004 0 0.008721629609749499 -0.013546339387076809 0 0.0085051092567812285 -0.013964884487365587 0 0.0082833851247819286 -0.013798161574592828 0 0.0084517552660751463 -0.0136323635253004 0 0.0081693139712828381 -0.013544694731866489 0 0.0082833851247819286 -0.013798161574592828 0 0.0084517552660751463 -0.0136323635253004 0 0.013039255537891772 0.0021134230808572832 0 0.010998008156825615 0.0027964432468286452 0 0.01046994042759963 0.0055548621871432313 0 0.0092000165527647004 -0.011412742624308312 0 0.011279655736119802 -0.0060566885204619099 0 0.011279655736119802 -0.0060566885204619099 0 0.0051379777789386559 -0.0085499320481223114 0 0.011177298668989732 0.0011766965292717977 0 0.013039255537891772 0.0021134230808572832 0 0.010998008156825615 0.0027964432468286452 0 0.010998008156825615 0.0027964432468286452 0 0.009294104143752915 0.0022131189867230531 0 0.01046994042759963 0.0055548621871432313 0 0.011177298668989732 0.0011766965292717977 0 0.010998008156825615 0.0027964432468286452 0 0.009294104143752915 0.0022131189867230531 0 0.009294104143752915 0.0022131189867230531 0 0.01046994042759963 0.0055548621871432313 0 0.0079340253313934482 0.0053491176259807711 0 0.004964813788676626 0.00061089398710154443 0 0.009294104143752915 0.0022131189867230531 0 0.0060870565311060424 0.0036465952111308961 0 0.0070251806981229542 0.0070390257535645267 0 0.0060870565311060424 0.0036465952111308961 0 0.0031018312067374403 0.0047683305497931905 0 0.00054503765779225139 -0.00044475132837556059 0 -0.0015448078951504796 -0.0016929349205739872 0 0.009294104143752915 0.0022131189867230531 0 0.0070251806981229542 0.0070390257535645267 0 0.0060870565311060424 0.0036465952111308961 0 0.0002070079359096038 0.0012359086835538155 0 0.004964813788676626 0.00061089398710154443 0 0.0031018312067374403 0.0047683305497931905 0 0.004964813788676626 0.00061089398710154443 0 0.0060870565311060424 0.0036465952111308961 0 0.0031018312067374403 0.0047683305497931905 0 0.0002070079359096038 0.0012359086835538155 0 0.0031018312067374403 0.0047683305497931905 0 -0.001447762537205135 0.0050532578080790067 0 -0.001447762537205135 0.0050532578080790067 0 0.0010980269323567673 0.0072825243237503896 0 -0.00089718199280705373 0.010815987778501682 0 -0.0074496348896416044 -0.0037789595608520854 0 -0.014248174532789981 -0.019362331696676824 0 0.0031018312067374403 0.0047683305497931905 0 -0.001447762537205135 0.0050532578080790067 0 0.0010980269323567673 0.0072825243237503896 0 0.0070251806981229542 0.0070390257535645267 0 0.0031018312067374403 0.0047683305497931905 0 0.003675564332891314 0.0084167314240439182 0 0.0031018312067374403 0.0047683305497931905 0 0.0010980269323567673 0.0072825243237503896 0 0.003675564332891314 0.0084167314240439182 0 0.003675564332891314 0.0084167314240439182 0 0.0047633810084453882 0.01178777198078336 0 -0.00089718199280705373 0.010815987778501682 0 -0.0051251172011772678 -0.014354094598569286 0 -0.014248174532789981 -0.019362331696676824 0 0.0070251806981229542 0.0070390257535645267 0 0.003675564332891314 0.0084167314240439182 0 0.0047633810084453882 0.01178777198078336 0 0.0010980269323567673 0.0072825243237503896 0 0.003675564332891314 0.0084167314240439182 0 -0.00089718199280705373 0.010815987778501682 0 -0.014248174532789981 -0.019362331696676824 0 -0.015005914443730433 -0.024392875864121526 0 -0.013643863651703324 -0.018562538769265679 0 -0.010740400395615258 -0.018063178018338299 0 -0.011496462590767406 -0.019947577007117492 0 -0.021734363335038004 -0.034138326405520156 0 -0.014248174532789981 -0.019362331696676824 0 -0.018793307849950459 -0.029768894339171726 0 -0.01819387918765725 -0.022155991126498152 0 -0.020174061599945763 -0.027049549714462006 0 -0.013643863651703324 -0.018562538769265679 0 -0.011496462590767406 -0.019947577007117492 0 -0.012926841467117488 -0.020149239410350857 0 -0.0089460965427687559 -0.023012331349870973 0 -0.0078068971508102767 -0.025519567427108765 0 -0.010668130829855883 -0.024376441230941258 0 -0.0051251172011772678 -0.014354094598569286 0 -0.01032626179700148 -0.022277461397515956 0 -0.010456659773076348 -0.02825444828268469 0 -0.010668130829855883 -0.024376441230941258 0 -0.012272785006825226 -0.023588872148005095 0 -0.0051251172011772678 -0.014354094598569286 0 -0.0017367899381739531 -0.017507053032803099 0 -0.0089460965427687559 -0.023012331349870973 0 -0.010668130829855883 -0.024376441230941258 0 -0.011278329447435899 -0.023415652032785089 0 -0.010668130829855883 -0.024376441230941258 0 -0.011274088152828658 -0.023419205736407208 0 -0.012272785006825226 -0.023588872148005095 0 -0.0017367899381739531 -0.017507053032803099 0 -0.002495392909383113 -0.020870427127940946 0 -0.0018751402500857596 -0.017639318533342385 0 -0.0017367899381739531 -0.017507053032803099 0 -0.00020252813930507154 -0.026126306909429575 0 -0.002495392909383113 -0.020870427127940946 0 -0.0075879028296684699 -0.034940900640879242 0 -0.0080398712356294574 -0.034422993586886254 0 -0.0073085010569383544 -0.034278446115281795 0 0.008252237607079509 -0.014299413142818025 0 0.0082198113266428192 -0.014285830031072906 0 0.0082434353047343267 -0.014283671313336715 0 0.0082060196090073326 -0.014294710465887267 0 0.0082123855783908014 -0.014290577738217522 0 0.0082259682355710021 -0.014286372626751835 0 0.008256001740092684 -0.014265431305011098 0 0.0082259682355710021 -0.014286372626751835 0 0.0082434353047343267 -0.014283671313336715 0 0.0082198113266428192 -0.014285830031072906 0 0.0082259682355710021 -0.014286372626751835 0 0.0082434353047343267 -0.014283671313336715 0 0.008256001740092684 -0.014265431305011098 0 0.0082060196090073326 -0.014294710465887267 0 0.0082259682355710021 -0.014286372626751835 0 -0.002495392909383113 -0.020870427127940946 0 -0.0023261298195942437 -0.020627048331145696 0 0.0051379777789386559 -0.0085499320481223114 0 -0.0017367899381739531 -0.017507053032803099 0 -0.0015448078951504796 -0.0016929349205739872 0 -0.0051251172011772678 -0.014354094598569286 0 0.0079340253313934482 0.0053491176259807711 0 0.0065448744253093815 0.0082645228411947057 0 0.0083214380314949547 0.0085907401865861575 0 0.01046994042759963 0.0055548621871432313 0 0.0079340253313934482 0.0053491176259807711 0 0.0083214380314949547 0.0085907401865861575 0 -0.06833639515426837 -0.012018920065595384 0 -0.06499982210782497 -0.012830838941077791 0 -0.068068974852892788 -0.015989741216557381 0 -0.06499982210782497 -0.012830838941077791 0 -0.068068974852892788 -0.015989741216557381 0 -0.064999922913140232 -0.016734946908062046 0 -0.066551474318288464 -0.015898301240955249 0 -0.06659056783044702 -0.013013976629643062 0 -0.06833639515426837 -0.012018920065595384 0 -0.068068974852892788 -0.015989741216557381 0 -0.070730064605109333 -0.014641775381163371 0 -0.066551474318288464 -0.015898301240955249 0 -0.066102026569466607 -0.017706887977787359 0 -0.066534115927742721 -0.012883182460509636 0 -0.064497076084496216 -0.013744124946207798 0 -0.063876996631025598 -0.013261926982609111 0 -0.06659056783044702 -0.013013976629643062 0 -0.06531896963630851 -0.0099271786835087184 0 -0.064497076084496216 -0.013744124946207798 0 -0.063876996631025598 -0.013261926982609111 0 -0.062456901116682201 -0.01460080412845096 0 -0.070730064605109333 -0.014641775381163371 0 -0.071287808678358225 -0.012106439648789536 0 -0.07354623123450342 -0.013325341885693618 0 -0.06833639515426837 -0.012018920065595384 0 -0.070730064605109333 -0.014641775381163371 0 -0.071287808678358225 -0.012106439648789536 0 -0.06833639515426837 -0.012018920065595384 0 -0.070972836671660308 -0.0093031930694371275 0 -0.068574828277262564 -0.008356755197777406 0 -0.06833639515426837 -0.012018920065595384 0 -0.071287808678358225 -0.012106439648789536 0 -0.070972836671660308 -0.0093031930694371275 0 -0.071287808678358225 -0.012106439648789536 0 -0.070972836671660308 -0.0093031930694371275 0 -0.074344216600308807 -0.010495293720536708 0 -0.072180140018980765 -0.0066784641413758852 0 -0.071789054884129844 -0.0057239178703949968 0 -0.070972836671660308 -0.0093031930694371275 0 -0.071932768162513372 -0.0065839052562992658 0 -0.073283680711067778 -0.0074781118651140272 0 -0.070972836671660308 -0.0093031930694371275 0 -0.068574828277262564 -0.008356755197777406 0 -0.070277439135084593 -0.0062917582570982799 0 -0.06833639515426837 -0.012018920065595384 0 -0.068574828277262564 -0.008356755197777406 0 -0.064999873728384019 -0.0089265402130978347 0 -0.06833639515426837 -0.012018920065595384 0 -0.06499982210782497 -0.012830838941077791 0 -0.064999873728384019 -0.0089265402130978347 0 -0.064999873728384019 -0.0089265402130978347 0 -0.068006085385384898 -0.0055201824110065007 0 -0.064999960079806213 -0.0050225622987383287 0 -0.068574828277262564 -0.008356755197777406 0 -0.064999873728384019 -0.0089265402130978347 0 -0.068006085385384898 -0.0055201824110065007 0 -0.064999960079806213 -0.0050225622987383287 0 -0.067700043330282747 -0.0013218985635304668 0 -0.064999889343977227 -0.0011187174016782666 0 -0.068006085385384898 -0.0055201824110065007 0 -0.064999960079806213 -0.0050225622987383287 0 -0.067700043330282747 -0.0013218985635304668 0 -0.068006085385384898 -0.0055201824110065007 0 -0.067700043330282747 -0.0013218985635304668 0 -0.070295442115410944 -0.0036897366461157402 0 -0.073134497476378804 -0.0001846018506979169 0 -0.070887122085703844 -0.0011034007455084035 0 -0.072989053151696126 -0.0016271229709347169 0 -0.070887122085703844 -0.0011034007455084035 0 -0.071983478562445719 -0.003069551941256847 0 -0.072989053151696126 -0.0016271229709347169 0 -0.06923042036607209 0.0005963298175578381 0 -0.067700043330282747 -0.0013218985635304668 0 -0.070887122085703844 -0.0011034007455084035 0 -0.067700043330282747 -0.0013218985635304668 0 -0.070887122085703844 -0.0011034007455084035 0 -0.070295442115410944 -0.0036897366461157402 0 -0.070295442115410944 -0.0036897366461157402 0 -0.071983478562445719 -0.003069551941256847 0 -0.071820947417275613 -0.0047167870167843639 0 -0.070887122085703844 -0.0011034007455084035 0 -0.070295442115410944 -0.0036897366461157402 0 -0.071983478562445719 -0.003069551941256847 0 -0.070295442115410944 -0.0036897366461157402 0 -0.071820947417275613 -0.0047167870167843639 0 -0.070277439135084593 -0.0062917582570982799 0 -0.068006085385384898 -0.0055201824110065007 0 -0.070295442115410944 -0.0036897366461157402 0 -0.070277439135084593 -0.0062917582570982799 0 -0.068574828277262564 -0.008356755197777406 0 -0.068006085385384898 -0.0055201824110065007 0 -0.070277439135084593 -0.0062917582570982799 0 -0.071820947417275613 -0.0047167870167843639 0 -0.070277439135084593 -0.0062917582570982799 0 -0.071932768162513372 -0.0065839052562992658 0 -0.070972836671660308 -0.0093031930694371275 0 -0.070277439135084593 -0.0062917582570982799 0 -0.071932768162513372 -0.0065839052562992658 0 -0.071932768162513372 -0.0065839052562992658 0 -0.073228979014335838 -0.0051034044244075661 0 -0.073283680711067778 -0.0074781118651140272 0 -0.074292792846434169 -0.0061076462389156082 0 -0.074920414021392767 -0.0073159103576491405 0 -0.073283680711067778 -0.0074781118651140272 0 -0.074292792846434169 -0.0061076462389156082 0 -0.073228979014335838 -0.0051034044244075661 0 -0.07480588842852165 -0.0047524405308685186 0 -0.074292792846434169 -0.0061076462389156082 0 -0.073228979014335838 -0.0051034044244075661 0 -0.073283680711067778 -0.0074781118651140272 0 -0.074292792846434169 -0.0061076462389156082 0 -0.075221322487612888 -0.0058809889498564723 0 -0.074920414021392767 -0.0073159103576491405 0 -0.074292792846434169 -0.0061076462389156082 0 -0.07480588842852165 -0.0047524405308685186 0 -0.075221322487612888 -0.0058809889498564723 0 -0.074155738170226859 -0.003500170436000163 0 -0.073228979014335838 -0.0051034044244075661 0 -0.07480588842852165 -0.0047524405308685186 0 -0.074155738170226859 -0.003500170436000163 0 -0.073228979014335838 -0.0051034044244075661 0 -0.073086742297378854 -0.0034338761076925938 0 -0.071820947417275613 -0.0047167870167843639 0 -0.071932768162513372 -0.0065839052562992658 0 -0.073228979014335838 -0.0051034044244075661 0 -0.071820947417275613 -0.0047167870167843639 0 -0.073228979014335838 -0.0051034044244075661 0 -0.073086742297378854 -0.0034338761076925938 0 -0.071983478562445719 -0.003069551941256847 0 -0.071820947417275613 -0.0047167870167843639 0 -0.073086742297378854 -0.0034338761076925938 0 -0.071983478562445719 -0.003069551941256847 0 -0.073086742297378854 -0.0034338761076925938 0 -0.072989053151696126 -0.0016271229709347169 0 -0.073086742297378854 -0.0034338761076925938 0 -0.073871501487219937 -0.0022895334928304165 0 -0.072989053151696126 -0.0016271229709347169 0 -0.074155738170226859 -0.003500170436000163 0 -0.073086742297378854 -0.0034338761076925938 0 -0.073871501487219937 -0.0022895334928304165 0 -0.074155738170226859 -0.003500170436000163 0 -0.073871501487219937 -0.0022895334928304165 0 -0.074663443040773755 -0.0022530685238429525 0 -0.073871501487219937 -0.0022895334928304165 0 -0.074267905250265484 -0.0010312751482203573 0 -0.074663443040773755 -0.0022530685238429525 0 -0.073871501487219937 -0.0022895334928304165 0 -0.074267905250265484 -0.0010312751482203573 0 -0.072989053151696126 -0.0016271229709347169 0 -0.073134497476378804 -0.0001846018506979169 0 -0.074267905250265484 -0.0010312751482203573 0 -0.072989053151696126 -0.0016271229709347169 0 -0.074005911936972549 -0.0014837017682511424 0 -0.071227906429810237 -3.9791511519348524e-05 0 -0.074576245251064779 -0.00043717187677029578 0 -0.071227906429810237 -3.9791511519348524e-05 0 -0.074576245251064779 -0.00043717187677029578 0 -0.071365299082935901 0.0022765780293768668 0 -0.071227906429810237 -3.9791511519348524e-05 0 -0.071365299082935901 0.0022765780293768668 0 -0.069289239439968356 0.0020440939036992034 0 -0.074005911936972549 -0.0014837017682511424 0 -0.074267905250265484 -0.0010312751482203573 0 -0.074576245251064779 -0.00043717187677029578 0 -0.074267905250265484 -0.0010312751482203573 0 -0.074576245251064779 -0.00043717187677029578 0 -0.074663443040773755 -0.0022530685238429525 0 -0.074576245251064779 -0.00043717187677029578 0 -0.074663443040773755 -0.0022530685238429525 0 -0.075767559820208344 -0.0028745693582336264 0 -0.074155738170226859 -0.003500170436000163 0 -0.074663443040773755 -0.0022530685238429525 0 -0.075478980125067666 -0.0038248901888157261 0 -0.074663443040773755 -0.0022530685238429525 0 -0.075767559820208344 -0.0028745693582336264 0 -0.075478980125067666 -0.0038248901888157261 0 -0.074576245251064779 -0.00043717187677029578 0 -0.075767559820208344 -0.0028745693582336264 0 -0.077264719805562293 -0.0036425647525128524 0 -0.071365299082935901 0.0022765780293768668 0 -0.073081364792244752 0.0065403296961659262 0 -0.069332641590435923 0.0040303705324627893 0 -0.074576245251064779 -0.00043717187677029578 0 -0.071365299082935901 0.0022765780293768668 0 -0.073081364792244752 0.0065403296961659262 0 -0.069197189619855909 -0.0010791357731168517 0 -0.066615527202835617 5.9229746792260882e-05 0 -0.075767559820208344 -0.0028745693582336264 0 -0.076848407183873868 -0.003594320849142621 0 -0.077264719805562293 -0.0036425647525128524 0 -0.075767559820208344 -0.0028745693582336264 0 -0.076848407183873868 -0.003594320849142621 0 -0.076084123456892902 -0.0035837174918468754 0 -0.077144819586055707 -0.0036790793654041718 0 -0.076554477324583883 -0.0045086661380747328 0 -0.078117383256939385 -0.0061301450514629503 0 -0.066615527202835617 5.9229746792260882e-05 0 -0.063676097875568688 0.0010413777485387865 0 -0.066730749618901547 3.0207795423282234e-05 0 -0.066615527202835617 5.9229746792260882e-05 0 -0.076848407183873868 -0.003594320849142621 0 -0.076554477324583883 -0.0045086661380747328 0 -0.076084123456892902 -0.0035837174918468754 0 -0.076848407183873868 -0.003594320849142621 0 -0.077144819586055707 -0.0036790793654041718 0 -0.076554477324583883 -0.0045086661380747328 0 -0.074155738170226859 -0.003500170436000163 0 -0.075478980125067666 -0.0038248901888157261 0 -0.07480588842852165 -0.0047524405308685186 0 -0.076554477324583883 -0.0045086661380747328 0 -0.075478980125067666 -0.0038248901888157261 0 -0.076084123456892902 -0.0035837174918468754 0 -0.075767559820208344 -0.0028745693582336264 0 -0.075478980125067666 -0.0038248901888157261 0 -0.076084123456892902 -0.0035837174918468754 0 -0.076554477324583883 -0.0045086661380747328 0 -0.075478980125067666 -0.0038248901888157261 0 -0.075683522819066595 -0.0049518080742474756 0 -0.076554477324583883 -0.0045086661380747328 0 -0.075683522819066595 -0.0049518080742474756 0 -0.076424208752309111 -0.0057330854600989647 0 -0.075683522819066595 -0.0049518080742474756 0 -0.07480588842852165 -0.0047524405308685186 0 -0.075221322487612888 -0.0058809889498564723 0 -0.075478980125067666 -0.0038248901888157261 0 -0.075683522819066595 -0.0049518080742474756 0 -0.07480588842852165 -0.0047524405308685186 0 -0.075221322487612888 -0.0058809889498564723 0 -0.076606272513033716 -0.0072732714741869132 0 -0.074920414021392767 -0.0073159103576491405 0 -0.075683522819066595 -0.0049518080742474756 0 -0.075221322487612888 -0.0058809889498564723 0 -0.076424208752309111 -0.0057330854600989647 0 -0.075221322487612888 -0.0058809889498564723 0 -0.076424208752309111 -0.0057330854600989647 0 -0.076606272513033716 -0.0072732714741869132 0 -0.076424208752309111 -0.0057330854600989647 0 -0.076606272513033716 -0.0072732714741869132 0 -0.078117383256939385 -0.0061301450514629503 0 -0.076554477324583883 -0.0045086661380747328 0 -0.076424208752309111 -0.0057330854600989647 0 -0.078117383256939385 -0.0061301450514629503 0 -0.076606272513033716 -0.0072732714741869132 0 -0.077708123417942768 -0.0077283359671815096 0 -0.078117383256939385 -0.0061301450514629503 0 -0.076606272513033716 -0.0072732714741869132 0 -0.077708123417942768 -0.0077283359671815096 0 -0.077124131885857608 -0.0091629319066856042 0 -0.076606272513033716 -0.0072732714741869132 0 -0.077124131885857608 -0.0091629319066856042 0 -0.075743795580973397 -0.0085306990046266507 0 -0.050887901966155079 0.020216580887788164 0 -0.054982060307875877 0.021931204698518902 0 -0.049006773601674249 0.02388686315193524 0 -0.050887901966155079 0.020216580887788164 0 -0.049006773601674249 0.02388686315193524 0 -0.048015615633196451 0.021372686468790269 0 -0.061463423566842812 0.0048663565753849477 0 -0.062920409756684142 5.7866595568644313e-06 0 -0.077124131885857608 -0.0091629319066856042 0 -0.075307725205806447 -0.0099581020863208497 0 -0.075743795580973397 -0.0085306990046266507 0 -0.075307725205806447 -0.0099581020863208497 0 -0.075743795580973397 -0.0085306990046266507 0 -0.074477105848657285 -0.008565862087333587 0 -0.076606272513033716 -0.0072732714741869132 0 -0.075743795580973397 -0.0085306990046266507 0 -0.074920414021392767 -0.0073159103576491405 0 -0.075743795580973397 -0.0085306990046266507 0 -0.074920414021392767 -0.0073159103576491405 0 -0.074477105848657285 -0.008565862087333587 0 -0.074920414021392767 -0.0073159103576491405 0 -0.074477105848657285 -0.008565862087333587 0 -0.073283680711067778 -0.0074781118651140272 0 -0.074477105848657285 -0.008565862087333587 0 -0.073283680711067778 -0.0074781118651140272 0 -0.073092412632457443 -0.0093728707705894414 0 -0.070972836671660308 -0.0093031930694371275 0 -0.073283680711067778 -0.0074781118651140272 0 -0.073092412632457443 -0.0093728707705894414 0 -0.062920409756684142 5.7866595568644313e-06 0 -0.071789054884129844 -0.0057239178703949968 0 -0.075307725205806447 -0.0099581020863208497 0 -0.074477105848657285 -0.008565862087333587 0 -0.073092412632457443 -0.0093728707705894414 0 -0.077447086238833701 -0.011508049140969688 0 -0.074344216600308807 -0.010495293720536708 0 -0.076346466925460335 -0.011986585942733807 0 -0.061275620185871738 -0.0055946230158638224 0 -0.06531896963630851 -0.0099271786835087184 0 -0.060102236781234844 -0.019673503602169164 0 -0.061994956213713634 -0.015250013385588233 0 -0.057213759847125199 -0.01596832258884975 0 -0.060431544303258804 -0.015456121293729905 0 -0.062456901116682201 -0.01460080412845096 0 -0.061219861507005709 -0.013647552523896551 0 -0.061275620185871738 -0.0055946230158638224 0 -0.059661851412568835 -0.022169775851499453 0 -0.074344216600308807 -0.010495293720536708 0 -0.076346466925460335 -0.011986585942733807 0 -0.07354623123450342 -0.013325341885693618 0 -0.071287808678358225 -0.012106439648789536 0 -0.074344216600308807 -0.010495293720536708 0 -0.07354623123450342 -0.013325341885693618 0 -0.066102026569466607 -0.017706887977787359 0 -0.059661851412568835 -0.022169775851499453 0 -0.063876996631025598 -0.013261926982609111 0 -0.062456901116682201 -0.01460080412845096 0 -0.061219861507005709 -0.013647552523896551 0 -0.059661851412568835 -0.022169775851499453 0 -0.05538643339074633 -0.025490809702437993 0 -0.056330978882550828 -0.05750255997830038 0 -0.052081270331628599 -0.054761797354932341 0 -0.055908855645150045 -0.054052572501908869 0 -0.061927654243587552 -0.057002684735654355 0 -0.056330978882550828 -0.05750255997830038 0 -0.055908855645150045 -0.054052572501908869 0 -0.05538643339074633 -0.025490809702437993 0 -0.050738302662266629 -0.024457350417124747 0 -0.056330978882550828 -0.05750255997830038 0 -0.051148203392236184 -0.057628505625255372 0 -0.052081270331628599 -0.054761797354932341 0 -0.05518731749696025 0.021672368130437453 0 -0.05088110032103229 0.023813257872115471 0 -0.049006773601674249 0.02388686315193524 0 -0.057213759847125199 -0.01596832258884975 0 -0.05241701225457162 -0.016694109402229877 0 -0.053840318522253912 -0.018549412044877121 0 -0.062920409756684142 5.7866595568644313e-06 0 -0.052227473286875721 0.008630648843111887 0 -0.05518731749696025 0.021672368130437453 0 -0.057162877431749415 0.022435387399824997 0 -0.05088110032103229 0.023813257872115471 0 -0.061275620185871738 -0.0055946230158638224 0 -0.051771308042389934 -0.0079496884036134741 0 -0.060102236781234844 -0.019673503602169164 0 -0.057213759847125199 -0.01596832258884975 0 -0.053840318522253912 -0.018549412044877121 0 -0.062920409756684142 5.7866595568644313e-06 0 -0.061275620185871738 -0.0055946230158638224 0 -0.046570249965861829 -0.018386644813523735 0 -0.044972712841901817 -0.016986756841045052 0 -0.04477004397258872 0.024980701783600356 0 -0.04345121932730571 0.022903801370262832 0 -0.04534061702193154 0.021698300333567913 0 -0.045497803585140495 -0.017188494776797413 0 -0.044707722507594951 -0.0170392253482415 0 -0.044008752584048544 -0.017403274559248873 0 -0.04477004397258872 0.024980701783600356 0 -0.04345121932730571 0.022903801370262832 0 -0.041653779369908904 0.024386972055541117 0 -0.046570249965861829 -0.018386644813523735 0 -0.044381327674362148 -0.021016511285501815 0 -0.044381327674362148 -0.021016511285501815 0 -0.043956256485428474 -0.021634607918418432 0 -0.046537499514678643 -0.057625736093628505 0 -0.04467057030119255 -0.057159543844487862 0 -0.045688910041720932 -0.05665257778821399 0 -0.04477004397258872 0.024980701783600356 0 -0.046773288320069911 0.022995190353296197 0 -0.04534061702193154 0.021698300333567913 0 -0.050738302662266629 -0.024457350417124747 0 -0.046570249965861829 -0.018386644813523735 0 -0.05241701225457162 -0.016694109402229877 0 -0.053840318522253912 -0.018549412044877121 0 -0.047612038646107205 -0.017435179187214416 0 -0.04477004397258872 0.024980701783600356 0 -0.046773288320069911 0.022995190353296197 0 -0.049006773601674249 0.02388686315193524 0 -0.051771308042389934 -0.0079496884036134741 0 -0.046570249965861829 -0.018386644813523735 0 -0.05088110032103229 0.023813257872115471 0 -0.04477004397258872 0.024980701783600356 0 -0.049006773601674249 0.02388686315193524 0 -0.046773288320069911 0.022995190353296197 0 -0.049006773601674249 0.02388686315193524 0 -0.048015615633196451 0.021372686468790269 0 -0.052081270331628599 -0.054761797354932341 0 -0.048064096975337291 -0.055547343170674605 0 -0.048514592589299285 -0.052528185369497042 0 -0.051148203392236184 -0.057628505625255372 0 -0.046537499514678643 -0.057625736093628505 0 -0.048064096975337291 -0.055547343170674605 0 -0.051148203392236184 -0.057628505625255372 0 -0.052081270331628599 -0.054761797354932341 0 -0.048064096975337291 -0.055547343170674605 0 -0.048064096975337291 -0.055547343170674605 0 -0.045852346159470349 -0.054170398761706241 0 -0.048514592589299285 -0.052528185369497042 0 -0.046537499514678643 -0.057625736093628505 0 -0.048064096975337291 -0.055547343170674605 0 -0.045688910041720932 -0.05665257778821399 0 -0.048064096975337291 -0.055547343170674605 0 -0.045852346159470349 -0.054170398761706241 0 -0.045688910041720932 -0.05665257778821399 0 -0.044787752160473676 -0.056920704708116804 0 -0.045688910041720932 -0.05665257778821399 0 -0.044474386480236147 -0.055205204286245486 0 -0.045852346159470349 -0.054170398761706241 0 -0.045688910041720932 -0.05665257778821399 0 -0.044474386480236147 -0.055205204286245486 0 -0.045852346159470349 -0.054170398761706241 0 -0.044474386480236147 -0.055205204286245486 0 -0.043439627096018479 -0.053331581411940179 0 -0.044787752160473676 -0.056920704708116804 0 -0.042995237284119241 -0.05483340718570074 0 -0.041183713191108577 -0.055476700294847026 0 -0.044381327674362148 -0.021016511285501815 0 -0.042571718606275857 -0.028251081269762935 0 -0.044474386480236147 -0.055205204286245486 0 -0.042995237284119241 -0.05483340718570074 0 -0.043439627096018479 -0.053331581411940179 0 -0.042995237284119241 -0.05483340718570074 0 -0.041154416036341179 -0.053307331466782723 0 -0.043439627096018479 -0.053331581411940179 0 -0.042995237284119241 -0.05483340718570074 0 -0.041154416036341179 -0.053307331466782723 0 -0.041183713191108577 -0.055476700294847026 0 -0.044787752160473676 -0.056920704708116804 0 -0.044474386480236147 -0.055205204286245486 0 -0.042995237284119241 -0.05483340718570074 0 -0.042571718606275857 -0.028251081269762935 0 -0.041013888884664076 -0.032517457038760668 0 -0.04060129760994019 -0.018217980859830937 0 -0.039722261492023112 -0.018432870577363616 0 -0.038539734532547699 -0.017838803821386664 0 -0.039026981749956662 -0.0531059004677326 0 -0.041183713191108577 -0.055476700294847026 0 -0.037854105494121076 -0.053764960816034393 0 -0.039026981749956662 -0.0531059004677326 0 -0.041154416036341179 -0.053307331466782723 0 -0.039578590376877339 -0.052262036990956294 0 -0.039026981749956662 -0.0531059004677326 0 -0.041154416036341179 -0.053307331466782723 0 -0.041183713191108577 -0.055476700294847026 0 -0.044972712841901817 -0.016986756841045052 0 -0.041580412419215479 -0.0087987125086700403 0 -0.041722833891048625 -0.018965479896816111 0 -0.04079050006479671 -0.019080373126131089 0 -0.039233205874617406 -0.02016506495450722 0 -0.039940441345509281 -0.019052506721707003 0 -0.04079050006479671 -0.019080373126131089 0 -0.039233205874617406 -0.02016506495450722 0 -0.039722261492023112 -0.018432870577363616 0 -0.039940441345509281 -0.019052506721707003 0 -0.039389264760782312 -0.019299202560699943 0 -0.039722261492023112 -0.018432870577363616 0 -0.039389264760782312 -0.019299202560699943 0 -0.038544112810212201 -0.01953461056772304 0 -0.04060129760994019 -0.018217980859830937 0 -0.039722261492023112 -0.018432870577363616 0 -0.039940441345509281 -0.019052506721707003 0 -0.04060129760994019 -0.018217980859830937 0 -0.039940441345509281 -0.019052506721707003 0 -0.04079050006479671 -0.019080373126131089 0 -0.039940441345509281 -0.019052506721707003 0 -0.039389264760782312 -0.019299202560699943 0 -0.039233205874617406 -0.02016506495450722 0 -0.04345121932730571 0.022903801370262832 0 -0.041653779369908904 0.024386972055541117 0 -0.041946765413472795 0.021055113220273636 0 -0.0424637875879392 -0.018565598310162447 0 -0.04060129760994019 -0.018217980859830937 0 -0.041741954099924337 -0.018942465754945407 0 -0.044381327674362148 -0.021016511285501815 0 -0.044972712841901817 -0.016986756841045052 0 -0.04060129760994019 -0.018217980859830937 0 -0.041741954099924337 -0.018942465754945407 0 -0.04079050006479671 -0.019080373126131089 0 -0.044972712841901817 -0.016986756841045052 0 -0.044388836807158279 -0.017133127497751963 0 -0.041653779369908904 0.024386972055541117 0 -0.041946765413472795 0.021055113220273636 0 -0.036766268857893705 0.021971216314831926 0 -0.041946765413472795 0.021055113220273636 0 -0.036766268857893705 0.021971216314831926 0 -0.039257345827888632 0.019018053841112357 0 -0.039257345827888632 0.019018053841112357 0 -0.038911522040326364 0.016360987893592461 0 -0.036026577324952708 0.017851510123539156 0 -0.036766268857893705 0.021971216314831926 0 -0.039257345827888632 0.019018053841112357 0 -0.036026577324952708 0.017851510123539156 0 -0.050162700246095232 0.0094188224814162422 0 -0.045676046381968045 0.009377858085919049 0 -0.041946765413472795 0.021055113220273636 0 -0.039257345827888632 0.019018053841112357 0 -0.042634458807481235 0.017799099205062306 0 -0.039257345827888632 0.019018053841112357 0 -0.042634458807481235 0.017799099205062306 0 -0.038911522040326364 0.016360987893592461 0 -0.042634458807481235 0.017799099205062306 0 -0.044011531154331276 0.020196285578224928 0 -0.046321866078277339 0.019280503764788629 0 -0.050162700246095232 0.0094188224814162422 0 -0.055891528338855516 0.0080907739737660182 0 -0.053668472405055921 0.0086471082263228707 0 -0.057625807041380012 0.010360469593228498 0 -0.056267320712824635 0.0068404930493883315 0 -0.041946765413472795 0.021055113220273636 0 -0.042634458807481235 0.017799099205062306 0 -0.044011531154331276 0.020196285578224928 0 -0.044011531154331276 0.020196285578224928 0 -0.04534061702193154 0.021698300333567913 0 -0.046321866078277339 0.019280503764788629 0 -0.04345121932730571 0.022903801370262832 0 -0.044011531154331276 0.020196285578224928 0 -0.04534061702193154 0.021698300333567913 0 -0.04345121932730571 0.022903801370262832 0 -0.041946765413472795 0.021055113220273636 0 -0.044011531154331276 0.020196285578224928 0 -0.050887901966155079 0.020216580887788164 0 -0.048015615633196451 0.021372686468790269 0 -0.046730976598006353 0.018412002397191953 0 -0.061463423566842812 0.0048663565753849477 0 -0.055891528338855516 0.0080907739737660182 0 -0.046773288320069911 0.022995190353296197 0 -0.04534061702193154 0.021698300333567913 0 -0.048015615633196451 0.021372686468790269 0 -0.04534061702193154 0.021698300333567913 0 -0.048015615633196451 0.021372686468790269 0 -0.046730976598006353 0.018412002397191953 0 -0.053720088705056623 0.012193900276537096 0 -0.055891528338855516 0.0080907739737660182 0 -0.057625807041380012 0.010360469593228498 0 -0.05947919356172552 0.0060834880788076216 0 -0.056267320712824635 0.0068404930493883315 0 -0.077708123417942768 -0.0077283359671815096 0 -0.077124131885857608 -0.0091629319066856042 0 -0.078989981796065617 -0.0083244655651285217 0 -0.077708123417942768 -0.0077283359671815096 0 -0.078989981796065617 -0.0083244655651285217 0 -0.078117383256939385 -0.0061301450514629503 0 -0.055891528338855516 0.0080907739737660182 0 -0.063676097875568688 0.0010413777485387865 0 -0.05947919356172552 0.0060834880788076216 0 -0.056267320712824635 0.0068404930493883315 0 -0.056132009690608879 0.0029346113629120127 0 -0.053668472405055921 0.0086471082263228707 0 -0.056267320712824635 0.0068404930493883315 0 -0.053938598604991318 0.005383732179530842 0 -0.056267320712824635 0.0068404930493883315 0 -0.053938598604991318 0.005383732179530842 0 -0.056132009690608879 0.0029346113629120127 0 -0.064088043270205869 0.0092172163136188742 0 -0.067056766727420988 0.0060424926977725273 0 -0.053192982770554793 0.0028538608486494447 0 -0.053938598604991318 0.005383732179530842 0 -0.056132009690608879 0.0029346113629120127 0 -0.050926706058509567 0.00407414489453033 0 -0.073081364792244752 0.0065403296961659262 0 -0.064088043270205869 0.0092172163136188742 0 -0.067056766727420988 0.0060424926977725273 0 -0.061338640672515037 0.0017956377637940342 0 -0.05947919356172552 0.0060834880788076216 0 -0.056132009690608879 0.0029346113629120127 0 -0.066615527202835617 5.9229746792260882e-05 0 -0.05904145455564809 0.0040500195453736301 0 -0.073081364792244752 0.0065403296961659262 0 -0.067056766727420988 0.0060424926977725273 0 -0.069332641590435923 0.0040303705324627893 0 -0.071365299082935901 0.0022765780293768668 0 -0.069332641590435923 0.0040303705324627893 0 -0.069289239439968356 0.0020440939036992034 0 -0.069332641590435923 0.0040303705324627893 0 -0.067416464802788859 0.0031361946809018246 0 -0.069289239439968356 0.0020440939036992034 0 -0.067056766727420988 0.0060424926977725273 0 -0.067416464802788859 0.0031361946809018246 0 -0.065108739681545708 0.0032356973613962572 0 -0.067056766727420988 0.0060424926977725273 0 -0.069332641590435923 0.0040303705324627893 0 -0.067416464802788859 0.0031361946809018246 0 -0.061777389293872102 0.0057841679385760439 0 -0.056233558554087015 0.0050804926821094451 0 -0.067056766727420988 0.0060424926977725273 0 -0.065108739681545708 0.0032356973613962572 0 -0.062368989342713878 0.0040541332048684292 0 -0.067416464802788859 0.0031361946809018246 0 -0.065108739681545708 0.0032356973613962572 0 -0.065857785480316136 0.001679928230613028 0 -0.065857785480316136 0.001679928230613028 0 -0.065827539388803286 0.00011753973699363988 0 -0.067568323032179189 0.00063590073003473547 0 -0.064146917552868304 -0.0010332231371410242 0 -0.063812018186432395 0.0011285556549408223 0 -0.065827539388803286 0.00011753973699363988 0 -0.065857785480316136 0.001679928230613028 0 -0.063812018186432395 0.0011285556549408223 0 -0.065827539388803286 0.00011753973699363988 0 -0.065108739681545708 0.0032356973613962572 0 -0.065857785480316136 0.001679928230613028 0 -0.063812018186432395 0.0011285556549408223 0 -0.067843490924404476 -0.0016220631446543423 0 -0.065827539388803286 0.00011753973699363988 0 -0.067568323032179189 0.00063590073003473547 0 -0.071657690378477079 -0.0020669397759622891 0 -0.071227906429810237 -3.9791511519348524e-05 0 -0.067568323032179189 0.00063590073003473547 0 -0.071227906429810237 -3.9791511519348524e-05 0 -0.067568323032179189 0.00063590073003473547 0 -0.069289239439968356 0.0020440939036992034 0 -0.067416464802788859 0.0031361946809018246 0 -0.067568323032179189 0.00063590073003473547 0 -0.069289239439968356 0.0020440939036992034 0 -0.067416464802788859 0.0031361946809018246 0 -0.065857785480316136 0.001679928230613028 0 -0.067568323032179189 0.00063590073003473547 0 -0.058272408322645991 -0.001449200120484 0 -0.060760401096661268 0.0014891635515086501 0 -0.058008334097709877 0.0031290447075978597 0 -0.062753222013665774 -0.00083823429333818511 0 -0.063812018186432395 0.0011285556549408223 0 -0.060760401096661268 0.0014891635515086501 0 -0.063812018186432395 0.0011285556549408223 0 -0.060760401096661268 0.0014891635515086501 0 -0.062368989342713878 0.0040541332048684292 0 -0.065108739681545708 0.0032356973613962572 0 -0.063812018186432395 0.0011285556549408223 0 -0.062368989342713878 0.0040541332048684292 0 -0.056233558554087015 0.0050804926821094451 0 -0.043774181976926486 0.0043851390840939485 0 -0.053192982770554793 0.0028538608486494447 0 -0.043356948414194303 0.0075609801381120306 0 -0.038573837775550741 0.00039547095037891872 0 -0.060760401096661268 0.0014891635515086501 0 -0.062368989342713878 0.0040541332048684292 0 -0.058008334097709877 0.0031290447075978597 0 -0.043356948414194303 0.0075609801381120306 0 -0.050760313749814032 0.012395984241706209 0 -0.037737934468858376 0.014638418987039192 0 -0.053192982770554793 0.0028538608486494447 0 -0.043356948414194303 0.0075609801381120306 0 -0.050760313749814032 0.012395984241706209 0 -0.064088043270205869 0.0092172163136188742 0 -0.053192982770554793 0.0028538608486494447 0 -0.050760313749814032 0.012395984241706209 0 -0.05904145455564809 0.0040500195453736301 0 -0.050663149753220386 0.0067997937895268095 0 -0.053668472405055921 0.0086471082263228707 0 -0.053938598604991318 0.005383732179530842 0 -0.049694086946878074 0.0069357761637267633 0 -0.053938598604991318 0.005383732179530842 0 -0.050926706058509567 0.00407414489453033 0 -0.049694086946878074 0.0069357761637267633 0 -0.050663149753220386 0.0067997937895268095 0 -0.042285698572861123 0.0086556609052684114 0 -0.050926706058509567 0.00407414489453033 0 -0.049694086946878074 0.0069357761637267633 0 -0.045710794737342499 0.0052187044250561173 0 -0.045676046381968045 0.009377858085919049 0 -0.042285698572861123 0.0086556609052684114 0 -0.038911522040326364 0.016360987893592461 0 -0.035200012285339262 0.014624009652330516 0 -0.036026577324952708 0.017851510123539156 0 -0.034592209453156143 0.016460142164144518 0 -0.035200012285339262 0.014624009652330516 0 -0.036026577324952708 0.017851510123539156 0 -0.0346013383763938 0.012850926211237217 0 -0.037021268424339414 0.013899904262614301 0 -0.033424427032381687 0.014509709617920476 0 -0.034592209453156143 0.016460142164144518 0 -0.035200012285339262 0.014624009652330516 0 -0.033424427032381687 0.014509709617920476 0 -0.042285698572861123 0.0086556609052684114 0 -0.041123374531365144 0.0090515773703790364 0 -0.041941059196618863 0.0086611704986916116 0 -0.042285698572861123 0.0086556609052684114 0 -0.033424427032381687 0.014509709617920476 0 -0.029396380040496224 0.0086815857178378555 0 -0.032678311539360176 0.017835461619612112 0 -0.030465302830230297 0.018368521560565145 0 -0.031039345030552355 0.018005154844325955 0 -0.032678311539360176 0.017835461619612112 0 -0.031106170902365487 0.013723328618851165 0 -0.031817378721447701 0.015836522592972486 0 -0.031039345030552355 0.018005154844325955 0 -0.031120484371550926 0.017814237667488655 0 -0.032678311539360176 0.017835461619612112 0 -0.034592209453156143 0.016460142164144518 0 -0.033424427032381687 0.014509709617920476 0 -0.032678311539360176 0.017835461619612112 0 -0.0346013383763938 0.012850926211237217 0 -0.034268118298360739 0.0082392065746006941 0 -0.029396380040496224 0.0086815857178378555 0 -0.0346013383763938 0.012850926211237217 0 -0.033424427032381687 0.014509709617920476 0 -0.029396380040496224 0.0086815857178378555 0 -0.034268118298360739 0.0082392065746006941 0 -0.029396380040496224 0.0086815857178378555 0 -0.034554345746377654 0.0048697188830183636 0 -0.043356948414194303 0.0075609801381120306 0 -0.037737934468858376 0.014638418987039192 0 -0.037728927909006428 0.0096817607625577524 0 -0.0346013383763938 0.012850926211237217 0 -0.037737934468858376 0.014638418987039192 0 -0.037728927909006428 0.0096817607625577524 0 -0.0346013383763938 0.012850926211237217 0 -0.034268118298360739 0.0082392065746006941 0 -0.037728927909006428 0.0096817607625577524 0 -0.034268118298360739 0.0082392065746006941 0 -0.037728927909006428 0.0096817607625577524 0 -0.038269037989401657 0.0048755691876306443 0 -0.043356948414194303 0.0075609801381120306 0 -0.037728927909006428 0.0096817607625577524 0 -0.038269037989401657 0.0048755691876306443 0 -0.043356948414194303 0.0075609801381120306 0 -0.038269037989401657 0.0048755691876306443 0 -0.038573837775550741 0.00039547095037891872 0 -0.043610939904750963 0.0043337204229541362 0 -0.043774181976926486 0.0043851390840939485 0 -0.038391116693744114 0.0017541194206731738 0 -0.034554345746377654 0.0048697188830183636 0 -0.032584915833802575 0.0009064483367670213 0 -0.043774181976926486 0.0043851390840939485 0 -0.036952488761375482 0.0027676508303317456 0 -0.034268118298360739 0.0082392065746006941 0 -0.038269037989401657 0.0048755691876306443 0 -0.034554345746377654 0.0048697188830183636 0 -0.038269037989401657 0.0048755691876306443 0 -0.038391116693744114 0.0017541194206731738 0 -0.034554345746377654 0.0048697188830183636 0 -0.029396380040496224 0.0086815857178378555 0 -0.032584915833802575 0.0009064483367670213 0 -0.027052563842424195 2.4719299899557924e-05 0 -0.029396380040496224 0.0086815857178378555 0 -0.034554345746377654 0.0048697188830183636 0 -0.032584915833802575 0.0009064483367670213 0 -0.031388878923644843 0.00083272328727880659 0 -0.028068274132483237 -0.0019252745065988211 0 -0.027052563842424195 2.4719299899557924e-05 0 -0.036952488761375482 0.0027676508303317456 0 -0.034445046835897296 0.0021927080446599548 0 -0.031388878923644843 0.00083272328727880659 0 -0.02986982120510712 -0.0033684089569255339 0 -0.028068274132483237 -0.0019252745065988211 0 -0.031388878923644843 0.00083272328727880659 0 -0.02986982120510712 -0.0033684089569255339 0 -0.033014815661949824 -0.0029364456619645905 0 -0.035718791717780272 0.001705634649503256 0 -0.031388878923644843 0.00083272328727880659 0 -0.033014815661949824 -0.0029364456619645905 0 -0.044552004327912988 0.0059971233339751184 0 -0.043774181976926486 0.0043851390840939485 0 -0.036253380672865293 -0.0066663275611200156 0 -0.035718791717780272 0.001705634649503256 0 -0.033014815661949824 -0.0029364456619645905 0 -0.032565257518008588 0.02092416159436003 0 -0.032459402559791566 0.022240310636408162 0 -0.030921371785674476 0.019272517699449359 0 -0.032459402559791566 0.022240310636408162 0 -0.031236244581845016 0.021177937110944834 0 -0.031538857697843252 0.01952077999971228 0 -0.033559305468430493 0.01944053523224536 0 -0.033352271166779156 0.017295301443289317 0 -0.031236244581845016 0.021177937110944834 0 -0.030865566852676541 0.021891405425800925 0 -0.03074704155584608 0.021079491642965326 0 -0.032459402559791566 0.022240310636408162 0 -0.031236244581845016 0.021177937110944834 0 -0.031305391280809551 0.022445160169293186 0 -0.031236244581845016 0.021177937110944834 0 -0.031305391280809551 0.022445160169293186 0 -0.030865566852676541 0.021891405425800925 0 -0.030907889145771864 0.022721994517266395 0 -0.031305391280809551 0.022445160169293186 0 -0.030865566852676541 0.021891405425800925 0 -0.030907889145771864 0.022721994517266395 0 -0.030865566852676541 0.021891405425800925 0 -0.030139758232841072 0.021353873546412733 0 -0.027440982348846 -0.0044307271120729401 0 -0.028068274132483237 -0.0019252745065988211 0 -0.026075890222774095 -0.001043704326825166 0 -0.027440982348846 -0.0044307271120729401 0 -0.02986982120510712 -0.0033684089569255339 0 -0.028068274132483237 -0.0019252745065988211 0 -0.028068274132483237 -0.0019252745065988211 0 -0.027052563842424195 2.4719299899557924e-05 0 -0.026075890222774095 -0.001043704326825166 0 -0.030139758232841072 0.021353873546412733 0 -0.03074704155584608 0.021079491642965326 0 -0.030824788419628588 0.020055406127336941 0 -0.030865566852676541 0.021891405425800925 0 -0.030139758232841072 0.021353873546412733 0 -0.03074704155584608 0.021079491642965326 0 -0.030465302830230297 0.018368521560565145 0 -0.030139758232841072 0.021353873546412733 0 -0.030824788419628588 0.020055406127336941 0 -0.031236244581845016 0.021177937110944834 0 -0.03074704155584608 0.021079491642965326 0 -0.030824788419628588 0.020055406127336941 0 -0.029396380040496224 0.0086815857178378555 0 -0.027052563842424195 2.4719299899557924e-05 0 -0.026075890222774095 -0.001043704326825166 0 -0.031106170902365487 0.013723328618851165 0 -0.03090290692379264 0.011119148228399326 0 -0.030465302830230297 0.018368521560565145 0 -0.030824788419628588 0.020055406127336941 0 -0.030951429650262964 0.019050300921837598 0 -0.030824788419628588 0.020055406127336941 0 -0.031538857697843252 0.01952077999971228 0 -0.030951429650262964 0.019050300921837598 0 -0.032786433365965775 0.020280567595289213 0 -0.032565257518008588 0.02092416159436003 0 -0.030921371785674476 0.019272517699449359 0 -0.032786433365965775 0.020280567595289213 0 -0.030921371785674476 0.019272517699449359 0 -0.032002251408711178 0.019333497058967315 0 -0.031236244581845016 0.021177937110944834 0 -0.030824788419628588 0.020055406127336941 0 -0.031538857697843252 0.01952077999971228 0 -0.030921371785674476 0.019272517699449359 0 -0.032002251408711178 0.019333497058967315 0 -0.031958408071676388 0.018253455074432507 0 -0.030921371785674476 0.019272517699449359 0 -0.031958408071676388 0.018253455074432507 0 -0.029422645678868469 0.016377139294254585 0 -0.032258704342808031 0.014246336969925597 0 -0.033095252623784849 0.010499188946765896 0 -0.031538857697843252 0.01952077999971228 0 -0.030988564617575879 0.018526646923583169 0 -0.031146137173391861 0.017769839318051848 0 -0.033352271166779156 0.017295301443289317 0 -0.033095252623784849 0.010499188946765896 0 -0.030465302830230297 0.018368521560565145 0 -0.030951429650262964 0.019050300921837598 0 -0.030988564617575879 0.018526646923583169 0 -0.031538857697843252 0.01952077999971228 0 -0.030951429650262964 0.019050300921837598 0 -0.030988564617575879 0.018526646923583169 0 -0.030988564617575879 0.018526646923583169 0 -0.031039345030552355 0.018005154844325955 0 -0.031146137173391861 0.017769839318051848 0 -0.030465302830230297 0.018368521560565145 0 -0.030988564617575879 0.018526646923583169 0 -0.031039345030552355 0.018005154844325955 0 -0.023497341299363161 0.010612503951510055 0 -0.027847199203791296 0.010911547542557139 0 -0.023566090963635555 0.006790824091184958 0 -0.030905607969530027 0.017649059382304037 0 -0.031120484371550926 0.017814237667488655 0 -0.031826388675360223 0.019577180870294614 0 -0.031039345030552355 0.018005154844325955 0 -0.031146137173391861 0.017769839318051848 0 -0.031120484371550926 0.017814237667488655 0 -0.033095252623784849 0.010499188946765896 0 -0.033115995402119326 0.010553790793753341 0 -0.033565751702436447 -0.016803067196993104 0 -0.032641148998205041 -0.019849752869377523 0 -0.028432565737381253 0.014356540354731795 0 -0.023497341299363161 0.010612503951510055 0 -0.027847199203791296 0.010911547542557139 0 -0.03770092551356552 -0.0444395198449581 0 -0.037128958753670685 -0.04611315626992029 0 -0.035626661508380224 -0.04724084299125781 0 -0.03770092551356552 -0.0444395198449581 0 -0.037128958753670685 -0.04611315626992029 0 -0.038230522612955058 -0.046084026643873094 0 -0.037413442352227946 -0.047244063749445397 0 -0.037275236361521573 -0.049054741906332855 0 -0.036656729741005444 -0.047074476918255871 0 -0.038230522612955058 -0.046084026643873094 0 -0.037413442352227946 -0.047244063749445397 0 -0.038066685075071043 -0.047496397436025517 0 -0.037128958753670685 -0.04611315626992029 0 -0.038230522612955058 -0.046084026643873094 0 -0.037413442352227946 -0.047244063749445397 0 -0.037128958753670685 -0.04611315626992029 0 -0.037413442352227946 -0.047244063749445397 0 -0.036656729741005444 -0.047074476918255871 0 -0.037413442352227946 -0.047244063749445397 0 -0.038066685075071043 -0.047496397436025517 0 -0.037275236361521573 -0.049054741906332855 0 -0.039696726185297009 -0.047203101019190875 0 -0.038066685075071043 -0.047496397436025517 0 -0.037275236361521573 -0.049054741906332855 0 -0.033309050823386741 -0.036006685799129565 0 -0.035433472723789911 -0.042854210053639458 0 -0.038029263191173099 -0.050805167806775249 0 -0.036088032682934736 -0.050168899290093091 0 -0.036656729741005444 -0.047074476918255871 0 -0.036088032682934736 -0.050168899290093091 0 -0.035924541998103819 -0.047818501758651016 0 -0.034963818482217537 -0.050644182957107195 0 -0.036088032682934736 -0.050168899290093091 0 -0.035617996788344958 -0.0515534130132198 0 -0.036007994437589882 -0.05206024829374066 0 -0.038029263191173099 -0.050805167806775249 0 -0.036088032682934736 -0.050168899290093091 0 -0.036007994437589882 -0.05206024829374066 0 -0.036088032682934736 -0.050168899290093091 0 -0.036656729741005444 -0.047074476918255871 0 -0.035924541998103819 -0.047818501758651016 0 -0.023497341299363161 0.010612503951510055 0 -0.023566090963635555 0.006790824091184958 0 -0.020765804866166086 0.0052336909697572554 0 -0.033095252623784849 0.010499188946765896 0 -0.035435926599384063 -0.011412905999740606 0 -0.032641148998205041 -0.019849752869377523 0 -0.035435926599384063 -0.011412905999740606 0 -0.031435269416453394 -0.022911427040849145 0 -0.032641148998205041 -0.019849752869377523 0 -0.037128958753670685 -0.04611315626992029 0 -0.036656729741005444 -0.047074476918255871 0 -0.035924541998103819 -0.047818501758651016 0 -0.032641148998205041 -0.019849752869377523 0 -0.034348989866802952 -0.021139764666894184 0 -0.034562886498749765 -0.019303413842180088 0 -0.036196590813645312 -0.01846946610516945 0 -0.036822050422605557 -0.017334703589053979 0 -0.032678311539360176 0.017835461619612112 0 -0.031826388675360223 0.019577180870294614 0 -0.036026577324952708 0.017851510123539156 0 -0.031120484371550926 0.017814237667488655 0 -0.032678311539360176 0.017835461619612112 0 -0.031826388675360223 0.019577180870294614 0 -0.036766268857893705 0.021971216314831926 0 -0.031826388675360223 0.019577180870294614 0 -0.036026577324952708 0.017851510123539156 0 -0.034592209453156143 0.016460142164144518 0 -0.032678311539360176 0.017835461619612112 0 -0.036026577324952708 0.017851510123539156 0 -0.039233205874617406 -0.02016506495450722 0 -0.036966807328168726 -0.021264661612052066 0 -0.037380604808663842 -0.020537509307797699 0 -0.041580412419215479 -0.0087987125086700403 0 -0.035435926599384063 -0.011412905999740606 0 -0.039233205874617406 -0.02016506495450722 0 -0.037380604808663842 -0.020537509307797699 0 -0.038544112810212201 -0.01953461056772304 0 -0.034348989866802952 -0.021139764666894184 0 -0.036635860441386524 -0.01969818525844148 0 -0.036088032682934736 -0.050168899290093091 0 -0.034963818482217537 -0.050644182957107195 0 -0.035617996788344958 -0.0515534130132198 0 -0.035435926599384063 -0.011412905999740606 0 -0.034348989866802952 -0.021139764666894184 0 -0.034963818482217537 -0.050644182957107195 0 -0.035617996788344958 -0.0515534130132198 0 -0.035699861266943418 -0.051861056729059725 0 -0.034348989866802952 -0.021139764666894184 0 -0.03666265565624497 -0.029491077082166483 0 -0.035617996788344958 -0.0515534130132198 0 -0.035964246611848938 -0.0520664732693241 0 -0.035699861266943418 -0.051861056729059725 0 -0.035964246611848938 -0.0520664732693241 0 -0.035699861266943418 -0.051861056729059725 0 -0.03615485605200483 -0.052209467655544697 0 -0.039389264760782312 -0.019299202560699943 0 -0.039233205874617406 -0.02016506495450722 0 -0.038544112810212201 -0.01953461056772304 0 -0.036585252459226447 -0.021319925197658903 0 -0.038229569357667498 -0.019854430869801949 0 -0.037572811815848997 -0.019518442991874555 0 -0.038229569357667498 -0.019854430869801949 0 -0.037572811815848997 -0.019518442991874555 0 -0.038523055872476265 -0.018908766856186986 0 -0.035699861266943418 -0.051861056729059725 0 -0.036290908450535321 -0.052516775476672356 0 -0.03615485605200483 -0.052209467655544697 0 -0.03666265565624497 -0.029491077082166483 0 -0.041013888884664076 -0.032517457038760668 0 -0.039722261492023112 -0.018432870577363616 0 -0.038229569357667498 -0.019854430869801949 0 -0.038523055872476265 -0.018908766856186986 0 -0.037572811815848997 -0.019518442991874555 0 -0.038523055872476265 -0.018908766856186986 0 -0.038539734532547699 -0.017838803821386664 0 -0.037464864155395537 -0.019137753072509939 0 -0.036635860441386524 -0.01969818525844148 0 -0.039722261492023112 -0.018432870577363616 0 -0.038523055872476265 -0.018908766856186986 0 -0.038539734532547699 -0.017838803821386664 0 -0.037854105494121076 -0.053764960816034393 0 -0.036582856145107201 -0.052651040069759375 0 -0.037578196132956931 -0.053060084735350392 0 -0.036290908450535321 -0.052516775476672356 0 -0.03615485605200483 -0.052209467655544697 0 -0.036582856145107201 -0.052651040069759375 0 -0.03615485605200483 -0.052209467655544697 0 -0.036582856145107201 -0.052651040069759375 0 -0.036293931925042128 -0.052170919247270402 0 -0.041013888884664076 -0.032517457038760668 0 -0.040981906900072355 -0.032820748066853069 0 -0.036582856145107201 -0.052651040069759375 0 -0.036764644823413052 -0.052187776261511359 0 -0.036293931925042128 -0.052170919247270402 0 -0.036764644823413052 -0.052187776261511359 0 -0.037222674891192971 -0.05255381533352186 0 -0.037553035198519519 -0.052239795751075631 0 -0.036582856145107201 -0.052651040069759375 0 -0.036764644823413052 -0.052187776261511359 0 -0.037222674891192971 -0.05255381533352186 0 -0.036582856145107201 -0.052651040069759375 0 -0.037222674891192971 -0.05255381533352186 0 -0.037578196132956931 -0.053060084735350392 0 -0.037222674891192971 -0.05255381533352186 0 -0.037578196132956931 -0.053060084735350392 0 -0.037920970946193858 -0.052744824418484201 0 -0.037854105494121076 -0.053764960816034393 0 -0.037578196132956931 -0.053060084735350392 0 -0.038125971550836871 -0.053130539263677182 0 -0.037578196132956931 -0.053060084735350392 0 -0.037920970946193858 -0.052744824418484201 0 -0.038125971550836871 -0.053130539263677182 0 -0.037553035198519519 -0.052239795751075631 0 -0.037920970946193858 -0.052744824418484201 0 -0.038183855046739074 -0.052428387313601298 0 -0.037222674891192971 -0.05255381533352186 0 -0.037553035198519519 -0.052239795751075631 0 -0.037920970946193858 -0.052744824418484201 0 -0.039026981749956662 -0.0531059004677326 0 -0.038183855046739074 -0.052428387313601298 0 -0.038374344482476008 -0.051873556196296751 0 -0.039026981749956662 -0.0531059004677326 0 -0.037920970946193858 -0.052744824418484201 0 -0.038183855046739074 -0.052428387313601298 0 -0.039026981749956662 -0.0531059004677326 0 -0.037854105494121076 -0.053764960816034393 0 -0.038125971550836871 -0.053130539263677182 0 -0.039026981749956662 -0.0531059004677326 0 -0.037920970946193858 -0.052744824418484201 0 -0.038125971550836871 -0.053130539263677182 0 -0.035964246611848938 -0.0520664732693241 0 -0.036293931925042128 -0.052170919247270402 0 -0.035873097685235833 -0.051687883167232246 0 -0.035964246611848938 -0.0520664732693241 0 -0.03615485605200483 -0.052209467655544697 0 -0.036293931925042128 -0.052170919247270402 0 -0.036764644823413052 -0.052187776261511359 0 -0.036293931925042128 -0.052170919247270402 0 -0.03634720482019152 -0.051625828508259607 0 -0.036293931925042128 -0.052170919247270402 0 -0.035873097685235833 -0.051687883167232246 0 -0.03634720482019152 -0.051625828508259607 0 -0.035964246611848938 -0.0520664732693241 0 -0.035873097685235833 -0.051687883167232246 0 -0.035559024363125177 -0.051746475715326722 0 -0.035873097685235833 -0.051687883167232246 0 -0.035559024363125177 -0.051746475715326722 0 -0.035055123069355147 -0.051056846056588327 0 -0.035559024363125177 -0.051746475715326722 0 -0.034350173238336536 -0.051625364592560501 0 -0.036007994437589882 -0.05206024829374066 0 -0.035559024363125177 -0.051746475715326722 0 -0.034350173238336536 -0.051625364592560501 0 -0.035055123069355147 -0.051056846056588327 0 -0.033309050823386741 -0.036006685799129565 0 -0.027413643383961829 -0.030238580986212061 0 -0.035247424407236265 -0.052685590714237347 0 -0.034350173238336536 -0.051625364592560501 0 -0.036007994437589882 -0.05206024829374066 0 -0.033309050823386741 -0.036006685799129565 0 -0.032251379604902937 -0.038616454141986369 0 -0.035617996788344958 -0.0515534130132198 0 -0.035964246611848938 -0.0520664732693241 0 -0.036007994437589882 -0.05206024829374066 0 -0.035964246611848938 -0.0520664732693241 0 -0.035559024363125177 -0.051746475715326722 0 -0.036007994437589882 -0.05206024829374066 0 -0.034966436438520355 -0.049695729541574495 0 -0.035863148907649106 -0.05009290845095344 0 -0.035756855609883377 -0.050858851691530427 0 -0.034966436438520355 -0.049695729541574495 0 -0.035863148907649106 -0.05009290845095344 0 -0.035802489214468991 -0.049051914509049672 0 -0.034966436438520355 -0.049695729541574495 0 -0.035802489214468991 -0.049051914509049672 0 -0.035094292565316529 -0.048387989498861507 0 -0.033100118398286922 -0.049916373893325268 0 -0.034966436438520355 -0.049695729541574495 0 -0.033922943617984133 -0.048200649564743223 0 -0.033100118398286922 -0.049916373893325268 0 -0.034350173238336536 -0.051625364592560501 0 -0.035055123069355147 -0.051056846056588327 0 -0.033100118398286922 -0.049916373893325268 0 -0.034966436438520355 -0.049695729541574495 0 -0.035055123069355147 -0.051056846056588327 0 -0.034966436438520355 -0.049695729541574495 0 -0.035055123069355147 -0.051056846056588327 0 -0.035756855609883377 -0.050858851691530427 0 -0.035873097685235833 -0.051687883167232246 0 -0.035055123069355147 -0.051056846056588327 0 -0.035756855609883377 -0.050858851691530427 0 -0.035756855609883377 -0.050858851691530427 0 -0.03634720482019152 -0.051625828508259607 0 -0.03649254661052212 -0.050918613599163769 0 -0.035873097685235833 -0.051687883167232246 0 -0.035756855609883377 -0.050858851691530427 0 -0.03634720482019152 -0.051625828508259607 0 -0.036764644823413052 -0.052187776261511359 0 -0.03634720482019152 -0.051625828508259607 0 -0.036841454461647646 -0.05151850392560197 0 -0.03634720482019152 -0.051625828508259607 0 -0.036841454461647646 -0.05151850392560197 0 -0.03649254661052212 -0.050918613599163769 0 -0.03649254661052212 -0.050918613599163769 0 -0.037210359990110575 -0.050950660014179104 0 -0.03705414535214617 -0.050287509476946733 0 -0.036841454461647646 -0.05151850392560197 0 -0.03649254661052212 -0.050918613599163769 0 -0.037210359990110575 -0.050950660014179104 0 -0.035863148907649106 -0.05009290845095344 0 -0.035756855609883377 -0.050858851691530427 0 -0.03649254661052212 -0.050918613599163769 0 -0.037553035198519519 -0.052239795751075631 0 -0.038183855046739074 -0.052428387313601298 0 -0.038374344482476008 -0.051873556196296751 0 -0.037553035198519519 -0.052239795751075631 0 -0.038374344482476008 -0.051873556196296751 0 -0.037389552998399446 -0.051668959900772617 0 -0.038374344482476008 -0.051873556196296751 0 -0.037389552998399446 -0.051668959900772617 0 -0.037847686442175087 -0.05118476421374054 0 -0.036764644823413052 -0.052187776261511359 0 -0.037553035198519519 -0.052239795751075631 0 -0.037389552998399446 -0.051668959900772617 0 -0.036764644823413052 -0.052187776261511359 0 -0.036841454461647646 -0.05151850392560197 0 -0.037389552998399446 -0.051668959900772617 0 -0.036841454461647646 -0.05151850392560197 0 -0.037389552998399446 -0.051668959900772617 0 -0.037210359990110575 -0.050950660014179104 0 -0.037210359990110575 -0.050950660014179104 0 -0.037893379588417715 -0.050325418492836858 0 -0.03705414535214617 -0.050287509476946733 0 -0.037210359990110575 -0.050950660014179104 0 -0.037847686442175087 -0.05118476421374054 0 -0.037893379588417715 -0.050325418492836858 0 -0.037389552998399446 -0.051668959900772617 0 -0.037210359990110575 -0.050950660014179104 0 -0.037847686442175087 -0.05118476421374054 0 -0.038555335517548348 -0.051046312790026922 0 -0.038862190715950345 -0.050425341572766749 0 -0.037893379588417715 -0.050325418492836858 0 -0.038374344482476008 -0.051873556196296751 0 -0.037847686442175087 -0.05118476421374054 0 -0.038555335517548348 -0.051046312790026922 0 -0.037847686442175087 -0.05118476421374054 0 -0.038555335517548348 -0.051046312790026922 0 -0.037893379588417715 -0.050325418492836858 0 -0.038555335517548348 -0.051046312790026922 0 -0.038862190715950345 -0.050425341572766749 0 -0.039363897503225539 -0.051240245396011748 0 -0.038374344482476008 -0.051873556196296751 0 -0.038555335517548348 -0.051046312790026922 0 -0.039363897503225539 -0.051240245396011748 0 -0.038921002649693094 -0.049581741713164172 0 -0.038862190715950345 -0.050425341572766749 0 -0.037893379588417715 -0.050325418492836858 0 -0.038921002649693094 -0.049581741713164172 0 -0.037893379588417715 -0.050325418492836858 0 -0.038136108538998431 -0.04925073626704015 0 -0.037893379588417715 -0.050325418492836858 0 -0.037322615701214271 -0.049496410292504206 0 -0.038136108538998431 -0.04925073626704015 0 -0.037893379588417715 -0.050325418492836858 0 -0.037322615701214271 -0.049496410292504206 0 -0.03705414535214617 -0.050287509476946733 0 -0.038136108538998431 -0.04925073626704015 0 -0.038783950077339889 -0.048409705601333244 0 -0.037754544682237962 -0.048683993753912129 0 -0.037322615701214271 -0.049496410292504206 0 -0.038136108538998431 -0.04925073626704015 0 -0.037754544682237962 -0.048683993753912129 0 -0.038921002649693094 -0.049581741713164172 0 -0.038136108538998431 -0.04925073626704015 0 -0.038783950077339889 -0.048409705601333244 0 -0.038921002649693094 -0.049581741713164172 0 -0.038783950077339889 -0.048409705601333244 0 -0.03974734733748736 -0.048974787781631293 0 -0.035863148907649106 -0.05009290845095344 0 -0.035802489214468991 -0.049051914509049672 0 -0.036537084510104748 -0.049693957523468418 0 -0.035863148907649106 -0.05009290845095344 0 -0.03649254661052212 -0.050918613599163769 0 -0.036537084510104748 -0.049693957523468418 0 -0.037322615701214271 -0.049496410292504206 0 -0.036537084510104748 -0.049693957523468418 0 -0.03705414535214617 -0.050287509476946733 0 -0.03649254661052212 -0.050918613599163769 0 -0.036537084510104748 -0.049693957523468418 0 -0.03705414535214617 -0.050287509476946733 0 -0.037322615701214271 -0.049496410292504206 0 -0.036836965076958474 -0.04864869499927689 0 -0.037754544682237962 -0.048683993753912129 0 -0.037322615701214271 -0.049496410292504206 0 -0.036537084510104748 -0.049693957523468418 0 -0.036836965076958474 -0.04864869499927689 0 -0.035802489214468991 -0.049051914509049672 0 -0.036537084510104748 -0.049693957523468418 0 -0.036836965076958474 -0.04864869499927689 0 -0.035802489214468991 -0.049051914509049672 0 -0.036836965076958474 -0.04864869499927689 0 -0.035912532407370738 -0.047956026449977832 0 -0.036836965076958474 -0.04864869499927689 0 -0.036744970954240362 -0.047534302362574075 0 -0.035912532407370738 -0.047956026449977832 0 -0.036836965076958474 -0.04864869499927689 0 -0.036744970954240362 -0.047534302362574075 0 -0.037782009296103543 -0.047623193904924498 0 -0.036744970954240362 -0.047534302362574075 0 -0.037782009296103543 -0.047623193904924498 0 -0.03701482482575829 -0.046581325248353553 0 -0.036744970954240362 -0.047534302362574075 0 -0.0361302546669778 -0.047030516450200732 0 -0.035912532407370738 -0.047956026449977832 0 -0.036836965076958474 -0.04864869499927689 0 -0.037754544682237962 -0.048683993753912129 0 -0.037782009296103543 -0.047623193904924498 0 -0.038783950077339889 -0.048409705601333244 0 -0.037754544682237962 -0.048683993753912129 0 -0.037782009296103543 -0.047623193904924498 0 -0.037782009296103543 -0.047623193904924498 0 -0.038051442033668392 -0.046632825459020928 0 -0.039313902239611391 -0.046999582942501908 0 -0.038783950077339889 -0.048409705601333244 0 -0.037782009296103543 -0.047623193904924498 0 -0.039313902239611391 -0.046999582942501908 0 -0.038051442033668392 -0.046632825459020928 0 -0.038840350466695713 -0.045849633929675448 0 -0.039313902239611391 -0.046999582942501908 0 -0.037782009296103543 -0.047623193904924498 0 -0.038051442033668392 -0.046632825459020928 0 -0.03701482482575829 -0.046581325248353553 0 -0.038051442033668392 -0.046632825459020928 0 -0.038840350466695713 -0.045849633929675448 0 -0.037706925650634535 -0.045435436607895473 0 -0.036273763639826456 -0.046301849940342886 0 -0.035969261403780275 -0.04619241694292809 0 -0.038051442033668392 -0.046632825459020928 0 -0.03701482482575829 -0.046581325248353553 0 -0.037706925650634535 -0.045435436607895473 0 -0.0361302546669778 -0.047030516450200732 0 -0.03701482482575829 -0.046581325248353553 0 -0.035921842320091581 -0.04616363361171965 0 -0.036744970954240362 -0.047534302362574075 0 -0.0361302546669778 -0.047030516450200732 0 -0.03701482482575829 -0.046581325248353553 0 -0.03701482482575829 -0.046581325248353553 0 -0.036567962343986099 -0.045908705280887925 0 -0.037706925650634535 -0.045435436607895473 0 -0.03701482482575829 -0.046581325248353553 0 -0.036567962343986099 -0.045908705280887925 0 -0.035921842320091581 -0.04616363361171965 0 -0.035921842320091581 -0.04616363361171965 0 -0.035075817302128026 -0.04709094779080928 0 -0.034891892070930831 -0.045757802908886133 0 -0.035075817302128026 -0.04709094779080928 0 -0.033897596207084241 -0.046225397759872111 0 -0.034891892070930831 -0.045757802908886133 0 -0.0361302546669778 -0.047030516450200732 0 -0.035921842320091581 -0.04616363361171965 0 -0.035075817302128026 -0.04709094779080928 0 -0.035075817302128026 -0.04709094779080928 0 -0.035912532407370738 -0.047956026449977832 0 -0.035094292565316529 -0.048387989498861507 0 -0.0361302546669778 -0.047030516450200732 0 -0.035075817302128026 -0.04709094779080928 0 -0.035912532407370738 -0.047956026449977832 0 -0.035075817302128026 -0.04709094779080928 0 -0.035094292565316529 -0.048387989498861507 0 -0.033922943617984133 -0.048200649564743223 0 -0.035802489214468991 -0.049051914509049672 0 -0.035912532407370738 -0.047956026449977832 0 -0.035094292565316529 -0.048387989498861507 0 -0.034966436438520355 -0.049695729541574495 0 -0.035094292565316529 -0.048387989498861507 0 -0.033922943617984133 -0.048200649564743223 0 -0.032154099219815796 -0.047700495608879435 0 -0.033922943617984133 -0.048200649564743223 0 -0.033897596207084241 -0.046225397759872111 0 -0.035075817302128026 -0.04709094779080928 0 -0.033922943617984133 -0.048200649564743223 0 -0.033897596207084241 -0.046225397759872111 0 -0.033065853266602392 -0.045572237772643145 0 -0.033897596207084241 -0.046225397759872111 0 -0.033734990219711249 -0.044886465439375287 0 -0.033897596207084241 -0.046225397759872111 0 -0.034891892070930831 -0.045757802908886133 0 -0.033734990219711249 -0.044886465439375287 0 -0.03304156828079706 -0.045084352630569854 0 -0.033065853266602392 -0.045572237772643145 0 -0.033734990219711249 -0.044886465439375287 0 -0.034891892070930831 -0.045757802908886133 0 -0.035222584756043021 -0.044847018174633817 0 -0.035936034158806543 -0.045578404813570582 0 -0.035921842320091581 -0.04616363361171965 0 -0.034891892070930831 -0.045757802908886133 0 -0.035936034158806543 -0.045578404813570582 0 -0.034891892070930831 -0.045757802908886133 0 -0.035222584756043021 -0.044847018174633817 0 -0.033734990219711249 -0.044886465439375287 0 -0.036204217018921105 -0.045522812325973883 0 -0.035387295109200988 -0.045850380260831387 0 -0.035701391761077568 -0.045664292392490848 0 -0.034651404059405866 -0.046348868882339987 0 -0.03477310524876151 -0.04648405970318914 0 -0.034578838085202859 -0.046331112369306322 0 -0.035148155712877951 -0.046044426432843115 0 -0.035565719286458373 -0.046050326109120882 0 -0.036204217018921105 -0.045522812325973883 0 -0.035387295109200988 -0.045850380260831387 0 -0.036817211186741694 -0.045664045126643051 0 -0.035222584756043021 -0.044847018174633817 0 -0.033734990219711249 -0.044886465439375287 0 -0.03290814296965669 -0.044147170769133139 0 -0.034651404059405866 -0.046348868882339987 0 -0.03477310524876151 -0.04648405970318914 0 -0.03486368416331613 -0.046462024464844258 0 -0.034863683152296557 -0.04591760150525552 0 -0.033503228035864425 -0.045757550837806228 0 -0.03304156828079706 -0.045084352630569854 0 -0.033734990219711249 -0.044886465439375287 0 -0.032886647039564884 -0.044933867581041537 0 -0.033453563212926085 -0.045638705996372257 0 -0.033503228035864425 -0.045757550837806228 0 -0.035178232024309385 -0.046207397916838998 0 -0.035520368442105599 -0.045737981524874363 0 -0.035179833156099037 -0.046089745020782245 0 -0.035178232024309385 -0.046207397916838998 0 -0.035429362939537211 -0.045856463569123825 0 -0.035520368442105599 -0.045737981524874363 0 -0.035387295109200988 -0.045850380260831387 0 -0.035429362939537211 -0.045856463569123825 0 -0.035701391761077568 -0.045664292392490848 0 -0.035387295109200988 -0.045850380260831387 0 -0.035178232024309385 -0.046207397916838998 0 -0.035429362939537211 -0.045856463569123825 0 -0.035701391761077568 -0.045664292392490848 0 -0.036041809364220218 -0.045394913273943301 0 -0.035520368442105599 -0.045737981524874363 0 -0.035429362939537211 -0.045856463569123825 0 -0.035701391761077568 -0.045664292392490848 0 -0.035520368442105599 -0.045737981524874363 0 -0.036204217018921105 -0.045522812325973883 0 -0.036041809364220218 -0.045394913273943301 0 -0.03691933749314439 -0.045067539352295058 0 -0.036204217018921105 -0.045522812325973883 0 -0.035701391761077568 -0.045664292392490848 0 -0.036041809364220218 -0.045394913273943301 0 -0.036041809364220218 -0.045394913273943301 0 -0.035759342186343482 -0.045433871865907416 0 -0.036492986299457957 -0.045010766599137379 0 -0.036041809364220218 -0.045394913273943301 0 -0.035520368442105599 -0.045737981524874363 0 -0.035759342186343482 -0.045433871865907416 0 -0.035759342186343482 -0.045433871865907416 0 -0.035326337042698427 -0.045737584881780161 0 -0.035179833156099037 -0.046089745020782245 0 -0.035520368442105599 -0.045737981524874363 0 -0.035759342186343482 -0.045433871865907416 0 -0.035179833156099037 -0.046089745020782245 0 -0.035326337042698427 -0.045737584881780161 0 -0.035179833156099037 -0.046089745020782245 0 -0.034952091443000328 -0.046431973681203477 0 -0.03502728087123852 -0.046531860216459699 0 -0.035179833156099037 -0.046089745020782245 0 -0.034832766438420315 -0.047058380349222148 0 -0.035178232024309385 -0.046207397916838998 0 -0.03502728087123852 -0.046531860216459699 0 -0.035179833156099037 -0.046089745020782245 0 -0.038560622049430206 -0.043939626134762884 0 -0.036245510657152452 -0.04478748512013634 0 -0.038206559692453158 -0.043661762995477346 0 -0.038560622049430206 -0.043939626134762884 0 -0.036245510657152452 -0.04478748512013634 0 -0.037799767690286583 -0.044474847524457455 0 -0.036245510657152452 -0.04478748512013634 0 -0.036492986299457957 -0.045010766599137379 0 -0.037799767690286583 -0.044474847524457455 0 -0.035759342186343482 -0.045433871865907416 0 -0.035326337042698427 -0.045737584881780161 0 -0.036245510657152452 -0.04478748512013634 0 -0.035759342186343482 -0.045433871865907416 0 -0.036245510657152452 -0.04478748512013634 0 -0.036492986299457957 -0.045010766599137379 0 -0.036041809364220218 -0.045394913273943301 0 -0.036492986299457957 -0.045010766599137379 0 -0.03691933749314439 -0.045067539352295058 0 -0.036492986299457957 -0.045010766599137379 0 -0.03691933749314439 -0.045067539352295058 0 -0.037799767690286583 -0.044474847524457455 0 -0.037799767690286583 -0.044474847524457455 0 -0.039104765299984634 -0.044172236279588196 0 -0.039910585022997616 -0.04362265656189649 0 -0.03691933749314439 -0.045067539352295058 0 -0.037799767690286583 -0.044474847524457455 0 -0.038052752943724233 -0.044660886940487587 0 -0.038560622049430206 -0.043939626134762884 0 -0.037799767690286583 -0.044474847524457455 0 -0.039910585022997616 -0.04362265656189649 0 -0.037799767690286583 -0.044474847524457455 0 -0.039104765299984634 -0.044172236279588196 0 -0.038052752943724233 -0.044660886940487587 0 -0.039104765299984634 -0.044172236279588196 0 -0.038052752943724233 -0.044660886940487587 0 -0.038590703402806847 -0.044787184575671199 0 -0.038052752943724233 -0.044660886940487587 0 -0.038590703402806847 -0.044787184575671199 0 -0.037460020191610405 -0.045075023892892738 0 -0.038590703402806847 -0.044787184575671199 0 -0.037460020191610405 -0.045075023892892738 0 -0.03749769265188467 -0.045302130755177056 0 -0.036204217018921105 -0.045522812325973883 0 -0.03691933749314439 -0.045067539352295058 0 -0.0369076194076947 -0.045328834122934904 0 -0.03691933749314439 -0.045067539352295058 0 -0.037460020191610405 -0.045075023892892738 0 -0.0369076194076947 -0.045328834122934904 0 -0.03691933749314439 -0.045067539352295058 0 -0.038052752943724233 -0.044660886940487587 0 -0.037460020191610405 -0.045075023892892738 0 -0.037460020191610405 -0.045075023892892738 0 -0.03749769265188467 -0.045302130755177056 0 -0.0369076194076947 -0.045328834122934904 0 -0.03749769265188467 -0.045302130755177056 0 -0.0369076194076947 -0.045328834122934904 0 -0.036817211186741694 -0.045664045126643051 0 -0.036204217018921105 -0.045522812325973883 0 -0.0369076194076947 -0.045328834122934904 0 -0.036817211186741694 -0.045664045126643051 0 -0.034651404059405866 -0.046348868882339987 0 -0.034578838085202859 -0.046331112369306322 0 -0.034462296924193427 -0.046239931366238572 0 -0.036567962343986099 -0.045908705280887925 0 -0.035936034158806543 -0.045578404813570582 0 -0.037706925650634535 -0.045435436607895473 0 -0.036817211186741694 -0.045664045126643051 0 -0.038137404161825671 -0.04534536450201504 0 -0.038139298003624235 -0.045737711751375587 0 -0.03749769265188467 -0.045302130755177056 0 -0.036817211186741694 -0.045664045126643051 0 -0.038137404161825671 -0.04534536450201504 0 -0.034863683152296557 -0.04591760150525552 0 -0.035969261403780275 -0.04619241694292809 0 -0.035222584756043021 -0.044847018174633817 0 -0.035936034158806543 -0.045578404813570582 0 -0.037706925650634535 -0.045435436607895473 0 -0.035565719286458373 -0.046050326109120882 0 -0.035969261403780275 -0.04619241694292809 0 -0.036567962343986099 -0.045908705280887925 0 -0.035921842320091581 -0.04616363361171965 0 -0.035936034158806543 -0.045578404813570582 0 -0.038590703402806847 -0.044787184575671199 0 -0.038948133339931412 -0.045215167737698951 0 -0.040077921611095781 -0.044663267466883955 0 -0.038590703402806847 -0.044787184575671199 0 -0.038137404161825671 -0.04534536450201504 0 -0.038948133339931412 -0.045215167737698951 0 -0.038590703402806847 -0.044787184575671199 0 -0.03749769265188467 -0.045302130755177056 0 -0.038137404161825671 -0.04534536450201504 0 -0.038840350466695713 -0.045849633929675448 0 -0.038137404161825671 -0.04534536450201504 0 -0.038139298003624235 -0.045737711751375587 0 -0.038840350466695713 -0.045849633929675448 0 -0.038948133339931412 -0.045215167737698951 0 -0.040077921611095781 -0.044663267466883955 0 -0.038840350466695713 -0.045849633929675448 0 -0.038137404161825671 -0.04534536450201504 0 -0.038948133339931412 -0.045215167737698951 0 -0.040077921611095781 -0.044663267466883955 0 -0.041966568934317425 -0.044095191263463653 0 -0.040656828145229404 -0.043657956546331471 0 -0.040077921611095781 -0.044663267466883955 0 -0.041966568934317425 -0.044095191263463653 0 -0.040618260276272938 -0.045576143972212164 0 -0.041966568934317425 -0.044095191263463653 0 -0.04340781645419528 -0.042324388081967146 0 -0.044853087698516529 -0.043377933691942844 0 -0.041966568934317425 -0.044095191263463653 0 -0.040656828145229404 -0.043657956546331471 0 -0.04340781645419528 -0.042324388081967146 0 -0.040656828145229404 -0.043657956546331471 0 -0.042033681695535646 -0.04278495789586341 0 -0.04340781645419528 -0.042324388081967146 0 -0.038590703402806847 -0.044787184575671199 0 -0.040077921611095781 -0.044663267466883955 0 -0.040656828145229404 -0.043657956546331471 0 -0.039104765299984634 -0.044172236279588196 0 -0.038590703402806847 -0.044787184575671199 0 -0.040656828145229404 -0.043657956546331471 0 -0.040656828145229404 -0.043657956546331471 0 -0.039910585022997616 -0.04362265656189649 0 -0.042033681695535646 -0.04278495789586341 0 -0.039104765299984634 -0.044172236279588196 0 -0.040656828145229404 -0.043657956546331471 0 -0.039910585022997616 -0.04362265656189649 0 -0.039910585022997616 -0.04362265656189649 0 -0.042033681695535646 -0.04278495789586341 0 -0.040719973470703844 -0.042923180781738408 0 -0.042033681695535646 -0.04278495789586341 0 -0.040719973470703844 -0.042923180781738408 0 -0.042842460307960989 -0.042226576789388556 0 -0.038560622049430206 -0.043939626134762884 0 -0.039910585022997616 -0.04362265656189649 0 -0.040719973470703844 -0.042923180781738408 0 -0.038560622049430206 -0.043939626134762884 0 -0.040719973470703844 -0.042923180781738408 0 -0.038206559692453158 -0.043661762995477346 0 -0.04365160042049248 -0.042097955741507272 0 -0.042842460307960989 -0.042226576789388556 0 -0.044075316921635833 -0.042045354307581974 0 -0.042033681695535646 -0.04278495789586341 0 -0.042842460307960989 -0.042226576789388556 0 -0.044075316921635833 -0.042045354307581974 0 -0.042033681695535646 -0.04278495789586341 0 -0.044075316921635833 -0.042045354307581974 0 -0.04340781645419528 -0.042324388081967146 0 -0.044075316921635833 -0.042045354307581974 0 -0.046829224215303902 -0.040285872342526965 0 -0.043811479173460212 -0.042093788925644519 0 -0.04365160042049248 -0.042097955741507272 0 -0.044075316921635833 -0.042045354307581974 0 -0.043811479173460212 -0.042093788925644519 0 -0.049316731616834371 -0.040101649222764671 0 -0.050932626764932654 -0.038747916343171561 0 -0.044075316921635833 -0.042045354307581974 0 -0.04340781645419528 -0.042324388081967146 0 -0.046829224215303902 -0.040285872342526965 0 -0.04340781645419528 -0.042324388081967146 0 -0.044853087698516529 -0.043377933691942844 0 -0.046829224215303902 -0.040285872342526965 0 -0.044853087698516529 -0.043377933691942844 0 -0.046829224215303902 -0.040285872342526965 0 -0.050439989298764303 -0.043944763370509302 0 -0.044853087698516529 -0.043377933691942844 0 -0.050439989298764303 -0.043944763370509302 0 -0.045982155828543828 -0.046054607048856763 0 -0.04936153807122854 -0.047264409254852507 0 -0.045982155828543828 -0.046054607048856763 0 -0.047429624595849013 -0.049228792762444996 0 -0.050439989298764303 -0.043944763370509302 0 -0.04936153807122854 -0.047264409254852507 0 -0.045982155828543828 -0.046054607048856763 0 -0.045982155828543828 -0.046054607048856763 0 -0.042831150172209273 -0.045491794632091284 0 -0.043381310034237175 -0.047512843243379337 0 -0.045982155828543828 -0.046054607048856763 0 -0.047429624595849013 -0.049228792762444996 0 -0.045009106210695204 -0.048609313290838549 0 -0.045982155828543828 -0.046054607048856763 0 -0.043381310034237175 -0.047512843243379337 0 -0.045009106210695204 -0.048609313290838549 0 -0.044853087698516529 -0.043377933691942844 0 -0.045982155828543828 -0.046054607048856763 0 -0.042831150172209273 -0.045491794632091284 0 -0.041966568934317425 -0.044095191263463653 0 -0.042831150172209273 -0.045491794632091284 0 -0.040618260276272938 -0.045576143972212164 0 -0.041966568934317425 -0.044095191263463653 0 -0.044853087698516529 -0.043377933691942844 0 -0.042831150172209273 -0.045491794632091284 0 -0.042831150172209273 -0.045491794632091284 0 -0.040618260276272938 -0.045576143972212164 0 -0.041067464791789021 -0.047270281164652928 0 -0.040618260276272938 -0.045576143972212164 0 -0.039313902239611391 -0.046999582942501908 0 -0.041067464791789021 -0.047270281164652928 0 -0.038840350466695713 -0.045849633929675448 0 -0.040077921611095781 -0.044663267466883955 0 -0.040618260276272938 -0.045576143972212164 0 -0.038840350466695713 -0.045849633929675448 0 -0.040618260276272938 -0.045576143972212164 0 -0.039313902239611391 -0.046999582942501908 0 -0.039313902239611391 -0.046999582942501908 0 -0.041067464791789021 -0.047270281164652928 0 -0.039897540276288376 -0.048031069958862485 0 -0.041067464791789021 -0.047270281164652928 0 -0.040640653573909523 -0.048536191629293589 0 -0.039897540276288376 -0.048031069958862485 0 -0.041067464791789021 -0.047270281164652928 0 -0.040640653573909523 -0.048536191629293589 0 -0.041868872199690321 -0.048859509047096489 0 -0.038783950077339889 -0.048409705601333244 0 -0.039313902239611391 -0.046999582942501908 0 -0.039897540276288376 -0.048031069958862485 0 -0.038783950077339889 -0.048409705601333244 0 -0.039897540276288376 -0.048031069958862485 0 -0.03974734733748736 -0.048974787781631293 0 -0.040640653573909523 -0.048536191629293589 0 -0.039897540276288376 -0.048031069958862485 0 -0.03974734733748736 -0.048974787781631293 0 -0.042831150172209273 -0.045491794632091284 0 -0.041067464791789021 -0.047270281164652928 0 -0.043381310034237175 -0.047512843243379337 0 -0.041067464791789021 -0.047270281164652928 0 -0.043381310034237175 -0.047512843243379337 0 -0.041868872199690321 -0.048859509047096489 0 -0.043381310034237175 -0.047512843243379337 0 -0.043575180631511078 -0.050068610700624738 0 -0.045009106210695204 -0.048609313290838549 0 -0.043381310034237175 -0.047512843243379337 0 -0.041868872199690321 -0.048859509047096489 0 -0.043575180631511078 -0.050068610700624738 0 -0.041868872199690321 -0.048859509047096489 0 -0.041918097162216506 -0.050423614543986479 0 -0.040696849761786842 -0.049574517990379353 0 -0.041868872199690321 -0.048859509047096489 0 -0.041918097162216506 -0.050423614543986479 0 -0.043575180631511078 -0.050068610700624738 0 -0.041918097162216506 -0.050423614543986479 0 -0.043575180631511078 -0.050068610700624738 0 -0.043232733202446708 -0.051493001576182536 0 -0.038921002649693094 -0.049581741713164172 0 -0.03974734733748736 -0.048974787781631293 0 -0.039660245179662865 -0.050021525453886516 0 -0.03974734733748736 -0.048974787781631293 0 -0.040696849761786842 -0.049574517990379353 0 -0.039660245179662865 -0.050021525453886516 0 -0.040640653573909523 -0.048536191629293589 0 -0.041868872199690321 -0.048859509047096489 0 -0.040696849761786842 -0.049574517990379353 0 -0.040640653573909523 -0.048536191629293589 0 -0.03974734733748736 -0.048974787781631293 0 -0.040696849761786842 -0.049574517990379353 0 -0.041918097162216506 -0.050423614543986479 0 -0.040696849761786842 -0.049574517990379353 0 -0.040494802029767622 -0.050690425632713247 0 -0.040696849761786842 -0.049574517990379353 0 -0.039660245179662865 -0.050021525453886516 0 -0.040494802029767622 -0.050690425632713247 0 -0.038921002649693094 -0.049581741713164172 0 -0.038862190715950345 -0.050425341572766749 0 -0.039660245179662865 -0.050021525453886516 0 -0.038862190715950345 -0.050425341572766749 0 -0.039660245179662865 -0.050021525453886516 0 -0.039363897503225539 -0.051240245396011748 0 -0.039660245179662865 -0.050021525453886516 0 -0.039363897503225539 -0.051240245396011748 0 -0.040494802029767622 -0.050690425632713247 0 -0.039363897503225539 -0.051240245396011748 0 -0.040426396713799287 -0.051705905895894758 0 -0.040494802029767622 -0.050690425632713247 0 -0.040426396713799287 -0.051705905895894758 0 -0.040494802029767622 -0.050690425632713247 0 -0.041795164830030825 -0.051900212860198316 0 -0.041154416036341179 -0.053307331466782723 0 -0.040426396713799287 -0.051705905895894758 0 -0.041795164830030825 -0.051900212860198316 0 -0.041154416036341179 -0.053307331466782723 0 -0.040426396713799287 -0.051705905895894758 0 -0.039578590376877339 -0.052262036990956294 0 -0.039363897503225539 -0.051240245396011748 0 -0.040426396713799287 -0.051705905895894758 0 -0.039578590376877339 -0.052262036990956294 0 -0.039026981749956662 -0.0531059004677326 0 -0.038374344482476008 -0.051873556196296751 0 -0.039578590376877339 -0.052262036990956294 0 -0.038374344482476008 -0.051873556196296751 0 -0.039363897503225539 -0.051240245396011748 0 -0.039578590376877339 -0.052262036990956294 0 -0.043575180631511078 -0.050068610700624738 0 -0.043232733202446708 -0.051493001576182536 0 -0.04523710364810176 -0.051579828200429841 0 -0.043232733202446708 -0.051493001576182536 0 -0.043439627096018479 -0.053331581411940179 0 -0.04523710364810176 -0.051579828200429841 0 -0.041918097162216506 -0.050423614543986479 0 -0.043232733202446708 -0.051493001576182536 0 -0.041795164830030825 -0.051900212860198316 0 -0.041918097162216506 -0.050423614543986479 0 -0.040494802029767622 -0.050690425632713247 0 -0.041795164830030825 -0.051900212860198316 0 -0.041154416036341179 -0.053307331466782723 0 -0.041795164830030825 -0.051900212860198316 0 -0.043439627096018479 -0.053331581411940179 0 -0.043232733202446708 -0.051493001576182536 0 -0.041795164830030825 -0.051900212860198316 0 -0.043439627096018479 -0.053331581411940179 0 -0.045852346159470349 -0.054170398761706241 0 -0.04523710364810176 -0.051579828200429841 0 -0.048514592589299285 -0.052528185369497042 0 -0.045852346159470349 -0.054170398761706241 0 -0.043439627096018479 -0.053331581411940179 0 -0.04523710364810176 -0.051579828200429841 0 -0.04523710364810176 -0.051579828200429841 0 -0.048514592589299285 -0.052528185369497042 0 -0.047429624595849013 -0.049228792762444996 0 -0.048514592589299285 -0.052528185369497042 0 -0.050337581607843351 -0.049621852542288965 0 -0.053181609851794723 -0.051419036826127994 0 -0.048514592589299285 -0.052528185369497042 0 -0.050337581607843351 -0.049621852542288965 0 -0.047429624595849013 -0.049228792762444996 0 -0.04936153807122854 -0.047264409254852507 0 -0.050337581607843351 -0.049621852542288965 0 -0.047429624595849013 -0.049228792762444996 0 -0.043575180631511078 -0.050068610700624738 0 -0.04523710364810176 -0.051579828200429841 0 -0.045009106210695204 -0.048609313290838549 0 -0.04523710364810176 -0.051579828200429841 0 -0.047429624595849013 -0.049228792762444996 0 -0.045009106210695204 -0.048609313290838549 0 -0.056083888963425726 -0.048099080657516766 0 -0.058699095219004072 -0.050871051225967863 0 -0.058963127113299277 -0.045360339090639724 0 -0.056083888963425726 -0.048099080657516766 0 -0.053181609851794723 -0.051419036826127994 0 -0.058699095219004072 -0.050871051225967863 0 -0.056083888963425726 -0.048099080657516766 0 -0.052921333440262647 -0.04753700925743274 0 -0.053181609851794723 -0.051419036826127994 0 -0.050337581607843351 -0.049621852542288965 0 -0.052921333440262647 -0.04753700925743274 0 -0.053181609851794723 -0.051419036826127994 0 -0.04936153807122854 -0.047264409254852507 0 -0.050337581607843351 -0.049621852542288965 0 -0.052921333440262647 -0.04753700925743274 0 -0.052081270331628599 -0.054761797354932341 0 -0.048514592589299285 -0.052528185369497042 0 -0.053181609851794723 -0.051419036826127994 0 -0.052081270331628599 -0.054761797354932341 0 -0.053181609851794723 -0.051419036826127994 0 -0.055908855645150045 -0.054052572501908869 0 -0.053181609851794723 -0.051419036826127994 0 -0.055908855645150045 -0.054052572501908869 0 -0.058699095219004072 -0.050871051225967863 0 -0.061927654243587552 -0.057002684735654355 0 -0.055908855645150045 -0.054052572501908869 0 -0.058699095219004072 -0.050871051225967863 0 -0.061927654243587552 -0.057002684735654355 0 -0.058699095219004072 -0.050871051225967863 0 -0.065680302284831446 -0.049923523184803406 0 -0.059661851412568835 -0.022169775851499453 0 -0.064330581176130761 -0.030815730897647133 0 -0.070418514038468563 -0.017010484341274706 0 -0.072728577589805193 -0.016675926146000778 0 -0.071409545252192896 -0.018578892590492661 0 -0.072728577589805193 -0.016675926146000778 0 -0.071409545252192896 -0.018578892590492661 0 -0.071797896610311371 -0.018981375290631382 0 -0.058699095219004072 -0.050871051225967863 0 -0.058963127113299277 -0.045360339090639724 0 -0.063321168800749381 -0.045632745216193038 0 -0.058699095219004072 -0.050871051225967863 0 -0.065680302284831446 -0.049923523184803406 0 -0.063321168800749381 -0.045632745216193038 0 -0.058963127113299277 -0.045360339090639724 0 -0.064163506293798953 -0.0397354384812676 0 -0.059356804790363003 -0.041286651634404016 0 -0.058963127113299277 -0.045360339090639724 0 -0.063321168800749381 -0.045632745216193038 0 -0.064163506293798953 -0.0397354384812676 0 -0.063321168800749381 -0.045632745216193038 0 -0.064163506293798953 -0.0397354384812676 0 -0.070024016698166325 -0.041196172303744179 0 -0.064330581176130761 -0.030815730897647133 0 -0.067877579697205745 -0.03077146640228752 0 -0.065680302284831446 -0.049923523184803406 0 -0.063321168800749381 -0.045632745216193038 0 -0.070024016698166325 -0.041196172303744179 0 -0.064163506293798953 -0.0397354384812676 0 -0.066900609018096996 -0.035223604419587662 0 -0.068235009095606078 -0.037683525049613524 0 -0.067145886721022605 -0.031734387337721118 0 -0.067877579697205745 -0.03077146640228752 0 -0.064163506293798953 -0.0397354384812676 0 -0.06168584423971029 -0.037532019184446035 0 -0.065498732151875336 -0.035146908214787158 0 -0.064163506293798953 -0.0397354384812676 0 -0.066900609018096996 -0.035223604419587662 0 -0.065498732151875336 -0.035146908214787158 0 -0.064163506293798953 -0.0397354384812676 0 -0.059356804790363003 -0.041286651634404016 0 -0.06168584423971029 -0.037532019184446035 0 -0.059356804790363003 -0.041286651634404016 0 -0.055553619139925486 -0.044094760534455012 0 -0.056526821899214867 -0.040026570879007344 0 -0.059356804790363003 -0.041286651634404016 0 -0.056526821899214867 -0.040026570879007344 0 -0.06168584423971029 -0.037532019184446035 0 -0.056083888963425726 -0.048099080657516766 0 -0.052921333440262647 -0.04753700925743274 0 -0.055553619139925486 -0.044094760534455012 0 -0.056083888963425726 -0.048099080657516766 0 -0.058963127113299277 -0.045360339090639724 0 -0.055553619139925486 -0.044094760534455012 0 -0.058963127113299277 -0.045360339090639724 0 -0.059356804790363003 -0.041286651634404016 0 -0.055553619139925486 -0.044094760534455012 0 -0.050439989298764303 -0.043944763370509302 0 -0.04936153807122854 -0.047264409254852507 0 -0.052921333440262647 -0.04753700925743274 0 -0.050439989298764303 -0.043944763370509302 0 -0.052921333440262647 -0.04753700925743274 0 -0.055553619139925486 -0.044094760534455012 0 -0.050439989298764303 -0.043944763370509302 0 -0.055553619139925486 -0.044094760534455012 0 -0.056526821899214867 -0.040026570879007344 0 -0.046829224215303902 -0.040285872342526965 0 -0.056526821899214867 -0.040026570879007344 0 -0.056613188451288335 -0.035601482796983629 0 -0.046829224215303902 -0.040285872342526965 0 -0.050439989298764303 -0.043944763370509302 0 -0.056526821899214867 -0.040026570879007344 0 -0.056526821899214867 -0.040026570879007344 0 -0.056613188451288335 -0.035601482796983629 0 -0.060803023839327328 -0.035376207655187036 0 -0.056526821899214867 -0.040026570879007344 0 -0.060803023839327328 -0.035376207655187036 0 -0.06168584423971029 -0.037532019184446035 0 -0.056613188451288335 -0.035601482796983629 0 -0.061783804780164389 -0.032207334208924104 0 -0.060803023839327328 -0.035376207655187036 0 -0.046829224215303902 -0.040285872342526965 0 -0.056613188451288335 -0.035601482796983629 0 -0.054080977443073969 -0.030953939536110756 0 -0.056613188451288335 -0.035601482796983629 0 -0.054080977443073969 -0.030953939536110756 0 -0.061783804780164389 -0.032207334208924104 0 -0.061783804780164389 -0.032207334208924104 0 -0.066225438376724954 -0.029649904187675991 0 -0.059354690681930923 -0.026427583143512758 0 -0.054080977443073969 -0.030953939536110756 0 -0.061783804780164389 -0.032207334208924104 0 -0.059354690681930923 -0.026427583143512758 0 -0.050932626764932654 -0.038747916343171561 0 -0.053804468712870486 -0.039499059797262648 0 -0.04365160042049248 -0.042097955741507272 0 -0.043811479173460212 -0.042093788925644519 0 -0.044150086113636439 -0.041787228557231125 0 -0.066225438376724954 -0.029649904187675991 0 -0.065831176741343075 -0.031250503297752412 0 -0.067022849983492283 -0.031289440118854317 0 -0.061783804780164389 -0.032207334208924104 0 -0.066225438376724954 -0.029649904187675991 0 -0.065831176741343075 -0.031250503297752412 0 -0.061783804780164389 -0.032207334208924104 0 -0.065831176741343075 -0.031250503297752412 0 -0.065395053401744063 -0.033162946282516634 0 -0.065831176741343075 -0.031250503297752412 0 -0.065395053401744063 -0.033162946282516634 0 -0.066922327902312326 -0.031417901104484496 0 -0.065831176741343075 -0.031250503297752412 0 -0.066922327902312326 -0.031417901104484496 0 -0.067022849983492283 -0.031289440118854317 0 -0.061783804780164389 -0.032207334208924104 0 -0.065395053401744063 -0.033162946282516634 0 -0.060803023839327328 -0.035376207655187036 0 -0.065395053401744063 -0.033162946282516634 0 -0.060803023839327328 -0.035376207655187036 0 -0.06168584423971029 -0.037532019184446035 0 -0.065395053401744063 -0.033162946282516634 0 -0.065498732151875336 -0.035146908214787158 0 -0.067677420341236694 -0.032628024233432071 0 -0.065395053401744063 -0.033162946282516634 0 -0.06168584423971029 -0.037532019184446035 0 -0.065498732151875336 -0.035146908214787158 0 -0.066900609018096996 -0.035223604419587662 0 -0.065498732151875336 -0.035146908214787158 0 -0.067677420341236694 -0.032628024233432071 0 -0.067677420341236694 -0.032628024233432071 0 -0.068082723988840688 -0.030886579397925207 0 -0.068925031016601759 -0.032272209075487258 0 -0.067677420341236694 -0.032628024233432071 0 -0.068082723988840688 -0.030886579397925207 0 -0.06772702444400186 -0.03136402351133076 0 -0.068082723988840688 -0.030886579397925207 0 -0.06772702444400186 -0.03136402351133076 0 -0.067335108499702298 -0.02940345774532982 0 -0.068082723988840688 -0.030886579397925207 0 -0.067335108499702298 -0.02940345774532982 0 -0.067449775598633369 -0.028573007789027823 0 -0.068082723988840688 -0.030886579397925207 0 -0.067449775598633369 -0.028573007789027823 0 -0.068925031016601759 -0.032272209075487258 0 -0.06772702444400186 -0.03136402351133076 0 -0.06741957608472382 -0.031108288914741232 0 -0.067335108499702298 -0.02940345774532982 0 -0.065395053401744063 -0.033162946282516634 0 -0.067677420341236694 -0.032628024233432071 0 -0.06772702444400186 -0.03136402351133076 0 -0.065395053401744063 -0.033162946282516634 0 -0.06772702444400186 -0.03136402351133076 0 -0.066922327902312326 -0.031417901104484496 0 -0.066922327902312326 -0.031417901104484496 0 -0.06741957608472382 -0.031108288914741232 0 -0.067022849983492283 -0.031289440118854317 0 -0.06772702444400186 -0.03136402351133076 0 -0.066922327902312326 -0.031417901104484496 0 -0.06741957608472382 -0.031108288914741232 0 -0.06741957608472382 -0.031108288914741232 0 -0.067075360862408007 -0.031994544451093884 0 -0.066696271795620793 -0.032502270508297154 0 -0.06741957608472382 -0.031108288914741232 0 -0.067075360862408007 -0.031994544451093884 0 -0.067022849983492283 -0.031289440118854317 0 -0.064999396082016395 -0.032056592425196019 0 -0.066613130838897402 -0.03036559625406763 0 -0.066696271795620793 -0.032502270508297154 0 -0.06741957608472382 -0.031108288914741232 0 -0.066613130838897402 -0.03036559625406763 0 -0.066696271795620793 -0.032502270508297154 0 -0.06741957608472382 -0.031108288914741232 0 -0.066613130838897402 -0.03036559625406763 0 -0.067335108499702298 -0.02940345774532982 0 -0.064999396082016395 -0.032056592425196019 0 -0.066613130838897402 -0.03036559625406763 0 -0.064999721662621968 -0.028308703856199196 0 -0.067335108499702298 -0.02940345774532982 0 -0.064999545982150131 -0.02456105473488043 0 -0.067449775598633369 -0.028573007789027823 0 -0.064999721662621968 -0.028308703856199196 0 -0.067335108499702298 -0.02940345774532982 0 -0.064999545982150131 -0.02456105473488043 0 -0.066613130838897402 -0.03036559625406763 0 -0.064999721662621968 -0.028308703856199196 0 -0.067335108499702298 -0.02940345774532982 0 -0.064999545982150131 -0.02456105473488043 0 -0.067080679160497717 -0.025491694093546898 0 -0.067449775598633369 -0.028573007789027823 0 -0.064999545982150131 -0.02456105473488043 0 -0.064999231373225316 -0.020811547064580826 0 -0.067080679160497717 -0.025491694093546898 0 -0.064999862170372222 -0.020813813321443823 0 -0.066438602840157721 -0.025032823730105354 0 -0.065000062358104085 -0.020806381604683129 0 -0.068105206572997332 -0.021102526416629921 0 -0.067388081544701092 -0.019195673664584009 0 -0.067080679160497717 -0.025491694093546898 0 -0.067449775598633369 -0.028573007789027823 0 -0.068925031016601759 -0.032272209075487258 0 -0.067080679160497717 -0.025491694093546898 0 -0.068925031016601759 -0.032272209075487258 0 -0.070060943940137718 -0.029867610696063567 0 -0.066900609018096996 -0.035223604419587662 0 -0.067677420341236694 -0.032628024233432071 0 -0.068925031016601759 -0.032272209075487258 0 -0.067797664033548297 -0.031216662411278975 0 -0.067877579697205745 -0.03077146640228752 0 -0.066900609018096996 -0.035223604419587662 0 -0.068925031016601759 -0.032272209075487258 0 -0.068235009095606078 -0.037683525049613524 0 -0.066438602840157721 -0.025032823730105354 0 -0.067877579697205745 -0.03077146640228752 0 -0.068105206572997332 -0.021102526416629921 0 -0.070776374940812112 -0.021537963424566209 0 -0.069998303329740719 -0.019599332880367984 0 -0.068105206572997332 -0.021102526416629921 0 -0.068619689765384378 -0.01948774014171677 0 -0.069998303329740719 -0.019599332880367984 0 -0.068619689765384378 -0.01948774014171677 0 -0.069998303329740719 -0.019599332880367984 0 -0.068958355554170167 -0.018075015330815371 0 -0.071409545252192896 -0.018578892590492661 0 -0.071797896610311371 -0.018981375290631382 0 -0.069998303329740719 -0.019599332880367984 0 -0.071797896610311371 -0.018981375290631382 0 -0.070776374940812112 -0.021537963424566209 0 -0.069998303329740719 -0.019599332880367984 0 -0.071409545252192896 -0.018578892590492661 0 -0.069998303329740719 -0.019599332880367984 0 -0.068958355554170167 -0.018075015330815371 0 -0.069956242622667489 -0.018068498944421529 0 -0.068611737243621351 -0.017786325141009435 0 -0.070418514038468563 -0.017010484341274706 0 -0.071409545252192896 -0.018578892590492661 0 -0.069042678477854197 -0.018271275113289388 0 -0.068006203933380763 -0.017362497911686436 0 -0.070418514038468563 -0.017010484341274706 0 -0.069042678477854197 -0.018271275113289388 0 -0.068611737243621351 -0.017786325141009435 0 -0.065849109071423717 -0.017089579509116579 0 -0.068006203933380763 -0.017362497911686436 0 -0.069042678477854197 -0.018271275113289388 0 -0.066665665706546598 -0.01794276664325517 0 -0.068958355554170167 -0.018075015330815371 0 -0.066119087814251548 -0.017386074801606886 0 -0.067388081544701092 -0.019195673664584009 0 -0.066551474318288464 -0.015898301240955249 0 -0.065849109071423717 -0.017089579509116579 0 -0.066551474318288464 -0.015898301240955249 0 -0.065001847340106486 -0.016733958692301973 0 -0.067973311370522607 -0.016288493250355047 0 -0.066146742305107475 -0.01708087664996227 0 -0.065000038823732467 -0.016735533120350841 0 -0.065849109071423717 -0.017089579509116579 0 -0.065002188326097332 -0.016939362629334938 0 -0.066260138896509571 -0.017111479961976594 0 -0.064999998855071378 -0.016938898089195589 0 -0.064999999473824691 -0.01766263445848161 0 -0.066146742305107475 -0.01708087664996227 0 -0.065000038823732467 -0.016735533120350841 0 -0.064999955933536066 -0.016938690506117387 0 -0.066119087814251548 -0.017386074801606886 0 -0.064999791850102212 -0.017663827660934637 0 -0.066027239972290139 -0.018783177629318328 0 -0.065849109071423717 -0.017089579509116579 0 -0.0650018179578912 -0.017660919531111773 0 -0.065000062358104085 -0.020806381604683129 0 -0.064999791850102212 -0.017663827660934637 0 -0.066027239972290139 -0.018783177629318328 0 -0.065000062358104085 -0.020806381604683129 0 -0.066027239972290139 -0.018783177629318328 0 -0.067388081544701092 -0.019195673664584009 0 -0.066119087814251548 -0.017386074801606886 0 -0.066027239972290139 -0.018783177629318328 0 -0.067388081544701092 -0.019195673664584009 0 -0.068105206572997332 -0.021102526416629921 0 -0.068619689765384378 -0.01948774014171677 0 -0.067388081544701092 -0.019195673664584009 0 -0.068619689765384378 -0.01948774014171677 0 -0.068958355554170167 -0.018075015330815371 0 -0.067388081544701092 -0.019195673664584009 0 -0.065855707133485472 -0.045629224349325946 0 -0.065348252902001053 -0.04754079433530832 0 -0.065862792896325503 -0.047626482399931828 0 -0.065855707133485472 -0.045629224349325946 0 -0.065296068232443244 -0.045426527081575158 0 -0.065348252902001053 -0.04754079433530832 0 -0.065296068232443244 -0.045426527081575158 0 -0.06499855349269712 -0.047056627092066809 0 -0.065348252902001053 -0.04754079433530832 0 -0.065296068232443244 -0.045426527081575158 0 -0.06499855349269712 -0.047056627092066809 0 -0.064998311798775243 -0.043305335200832518 0 -0.06499855349269712 -0.047056627092066809 0 -0.065348252902001053 -0.04754079433530832 0 -0.065077876036279167 -0.049423378841209273 0 -0.065348252902001053 -0.04754079433530832 0 -0.065108740634292672 -0.049162888787409577 0 -0.065077876036279167 -0.049423378841209273 0 -0.065348252902001053 -0.04754079433530832 0 -0.065862792896325503 -0.047626482399931828 0 -0.065108740634292672 -0.049162888787409577 0 -0.065862792896325503 -0.047626482399931828 0 -0.065317173609659579 -0.049431134520741903 0 -0.065108740634292672 -0.049162888787409577 0 -0.065862792896325503 -0.047626482399931828 0 -0.067106501841957114 -0.047178367156854036 0 -0.065317173609659579 -0.049431134520741903 0 -0.067106501841957114 -0.047178367156854036 0 -0.066913200111475238 -0.048192663085014111 0 -0.065317173609659579 -0.049431134520741903 0 -0.064281184109762274 -0.045702525566781262 0 -0.063428148016638028 -0.046188476259702217 0 -0.067106501841957114 -0.047178367156854036 0 -0.067749472213848833 -0.044423869483470664 0 -0.069809901958989687 -0.044104544586455116 0 -0.065862792896325503 -0.047626482399931828 0 -0.067106501841957114 -0.047178367156854036 0 -0.066579647666457548 -0.045946570322778983 0 -0.067106501841957114 -0.047178367156854036 0 -0.066579647666457548 -0.045946570322778983 0 -0.067749472213848833 -0.044423869483470664 0 -0.065855707133485472 -0.045629224349325946 0 -0.065862792896325503 -0.047626482399931828 0 -0.066579647666457548 -0.045946570322778983 0 -0.065855707133485472 -0.045629224349325946 0 -0.066579647666457548 -0.045946570322778983 0 -0.066651695458850482 -0.044041294280881847 0 -0.066651695458850482 -0.044041294280881847 0 -0.067575798068356549 -0.041747144057254257 0 -0.065976820386668522 -0.042264244261185704 0 -0.065855707133485472 -0.045629224349325946 0 -0.066651695458850482 -0.044041294280881847 0 -0.065976820386668522 -0.042264244261185704 0 -0.067749472213848833 -0.044423869483470664 0 -0.067575798068356549 -0.041747144057254257 0 -0.069763892552626314 -0.043613816332620035 0 -0.064615310529535841 -0.045563771889746814 0 -0.063482678988760005 -0.045664397141224541 0 -0.067749472213848833 -0.044423869483470664 0 -0.069763892552626314 -0.043613816332620035 0 -0.069809901958989687 -0.044104544586455116 0 -0.066579647666457548 -0.045946570322778983 0 -0.066651695458850482 -0.044041294280881847 0 -0.067749472213848833 -0.044423869483470664 0 -0.066651695458850482 -0.044041294280881847 0 -0.067749472213848833 -0.044423869483470664 0 -0.067575798068356549 -0.041747144057254257 0 -0.067575798068356549 -0.041747144057254257 0 -0.068557618215224547 -0.038068757623845435 0 -0.070132205715424265 -0.043285720277539443 0 -0.067575798068356549 -0.041747144057254257 0 -0.067237204264090883 -0.039168138758002208 0 -0.068557618215224547 -0.038068757623845435 0 -0.067575798068356549 -0.041747144057254257 0 -0.065976820386668522 -0.042264244261185704 0 -0.067237204264090883 -0.039168138758002208 0 -0.065976820386668522 -0.042264244261185704 0 -0.066364857000789243 -0.038375996653716687 0 -0.065622206273994219 -0.040264459022958131 0 -0.065855707133485472 -0.045629224349325946 0 -0.065296068232443244 -0.045426527081575158 0 -0.065976820386668522 -0.042264244261185704 0 -0.065296068232443244 -0.045426527081575158 0 -0.065976820386668522 -0.042264244261185704 0 -0.064998311798775243 -0.043305335200832518 0 -0.065976820386668522 -0.042264244261185704 0 -0.064998311798775243 -0.043305335200832518 0 -0.065622206273994219 -0.040264459022958131 0 -0.064998311798775243 -0.043305335200832518 0 -0.064998733073081905 -0.039555324757175679 0 -0.065622206273994219 -0.040264459022958131 0 -0.064998733073081905 -0.039555324757175679 0 -0.065622206273994219 -0.040264459022958131 0 -0.06564930862449786 -0.037527415316411156 0 -0.066364857000789243 -0.038375996653716687 0 -0.065622206273994219 -0.040264459022958131 0 -0.06564930862449786 -0.037527415316411156 0 -0.066364857000789243 -0.038375996653716687 0 -0.06564930862449786 -0.037527415316411156 0 -0.066318999034550519 -0.035249004620374377 0 -0.064998733073081905 -0.039555324757175679 0 -0.06564930862449786 -0.037527415316411156 0 -0.064998875197915945 -0.035805532393291963 0 -0.064998875197915945 -0.035805532393291963 0 -0.066318999034550519 -0.035249004620374377 0 -0.065784561255566101 -0.033916871852053228 0 -0.06564930862449786 -0.037527415316411156 0 -0.064998875197915945 -0.035805532393291963 0 -0.066318999034550519 -0.035249004620374377 0 -0.066318999034550519 -0.035249004620374377 0 -0.066696271795620793 -0.032502270508297154 0 -0.065784561255566101 -0.033916871852053228 0 -0.064999396082016395 -0.032056592425196019 0 -0.066696271795620793 -0.032502270508297154 0 -0.065784561255566101 -0.033916871852053228 0 -0.064999396082016395 -0.032056592425196019 0 -0.064998875197915945 -0.035805532393291963 0 -0.065784561255566101 -0.033916871852053228 0 -0.067075360862408007 -0.031994544451093884 0 -0.067022849983492283 -0.031289440118854317 0 -0.067151764169496794 -0.033631003113257701 0 -0.067022849983492283 -0.031289440118854317 0 -0.067151764169496794 -0.033631003113257701 0 -0.067268509099936841 -0.032654097976803499 0 -0.067075360862408007 -0.031994544451093884 0 -0.066696271795620793 -0.032502270508297154 0 -0.067151764169496794 -0.033631003113257701 0 -0.066318999034550519 -0.035249004620374377 0 -0.066696271795620793 -0.032502270508297154 0 -0.067151764169496794 -0.033631003113257701 0 -0.066318999034550519 -0.035249004620374377 0 -0.067151764169496794 -0.033631003113257701 0 -0.067336147432536575 -0.036389190870554797 0 -0.067151764169496794 -0.033631003113257701 0 -0.067336147432536575 -0.036389190870554797 0 -0.068059875666474604 -0.035540083531763966 0 -0.067336147432536575 -0.036389190870554797 0 -0.068557618215224547 -0.038068757623845435 0 -0.068059875666474604 -0.035540083531763966 0 -0.066364857000789243 -0.038375996653716687 0 -0.066318999034550519 -0.035249004620374377 0 -0.067336147432536575 -0.036389190870554797 0 -0.065976820386668522 -0.042264244261185704 0 -0.066364857000789243 -0.038375996653716687 0 -0.067237204264090883 -0.039168138758002208 0 -0.066364857000789243 -0.038375996653716687 0 -0.067336147432536575 -0.036389190870554797 0 -0.067237204264090883 -0.039168138758002208 0 -0.067336147432536575 -0.036389190870554797 0 -0.067237204264090883 -0.039168138758002208 0 -0.068557618215224547 -0.038068757623845435 0 -0.068557618215224547 -0.038068757623845435 0 -0.069432420772193193 -0.037955831763644143 0 -0.068059875666474604 -0.035540083531763966 0 -0.047678718799210026 -0.046758593353937526 0 -0.047885329611713316 -0.046723612823689503 0 -0.047614220368024575 -0.046845770097460937 0 -0.047750774493088649 -0.046709652404994091 0 -0.047678718799210026 -0.046758593353937526 0 -0.047588383091839256 -0.04670527518844441 0 -0.047750774493088649 -0.046709652404994091 0 -0.047678718799210026 -0.046758593353937526 0 -0.047885329611713316 -0.046723612823689503 0 -0.047885329611713316 -0.046723612823689503 0 -0.047628189116703225 -0.046989141772908374 0 -0.047614220368024575 -0.046845770097460937 0 -0.059842164653019017 -0.043029151937314637 0 -0.057503574254858913 -0.040949262999908226 0 -0.047885329611713316 -0.046723612823689503 0 -0.047659918530647404 -0.047341797532697412 0 -0.047628189116703225 -0.046989141772908374 0 -0.069432420772193193 -0.037955831763644143 0 -0.068059875666474604 -0.035540083531763966 0 -0.069679967814753982 -0.03494500763820442 0 -0.066225438376724954 -0.029649904187675991 0 -0.067268509099936841 -0.032654097976803499 0 -0.069679967814753982 -0.03494500763820442 0 -0.067151764169496794 -0.033631003113257701 0 -0.068059875666474604 -0.035540083531763966 0 -0.067268509099936841 -0.032654097976803499 0 -0.068059875666474604 -0.035540083531763966 0 -0.067268509099936841 -0.032654097976803499 0 -0.069679967814753982 -0.03494500763820442 0 -0.066225438376724954 -0.029649904187675991 0 -0.067022849983492283 -0.031289440118854317 0 -0.067268509099936841 -0.032654097976803499 0 -0.066225438376724954 -0.029649904187675991 0 -0.070816083694491647 -0.030574914209765085 0 -0.069679967814753982 -0.03494500763820442 0 -0.053804468712870486 -0.039499059797262648 0 -0.046570472197920161 -0.042312615138775912 0 -0.047199779284667592 -0.048388596127475147 0 -0.046891599306417453 -0.047667522128556336 0 -0.046198125918431046 -0.048195844835739285 0 -0.04365160042049248 -0.042097955741507272 0 -0.044150086113636439 -0.041787228557231125 0 -0.043609154440020829 -0.041504159118628731 0 -0.059114942181944914 -0.038340865747116017 0 -0.053804468712870486 -0.039499059797262648 0 -0.046891599306417453 -0.047667522128556336 0 -0.047659918530647404 -0.047341797532697412 0 -0.04716675321365571 -0.047185261394925494 0 -0.053804468712870486 -0.039499059797262648 0 -0.057503574254858913 -0.040949262999908226 0 -0.047199779284667592 -0.048388596127475147 0 -0.046891599306417453 -0.047667522128556336 0 -0.047659918530647404 -0.047341797532697412 0 -0.046891599306417453 -0.047667522128556336 0 -0.046546040838642749 -0.047284813653661724 0 -0.046449815668335025 -0.047684396248110841 0 -0.046891599306417453 -0.047667522128556336 0 -0.046546040838642749 -0.047284813653661724 0 -0.04716675321365571 -0.047185261394925494 0 -0.046687375698800215 -0.046929890241755381 0 -0.04716675321365571 -0.047185261394925494 0 -0.047440712748833387 -0.046826861838267633 0 -0.046546040838642749 -0.047284813653661724 0 -0.046687375698800215 -0.046929890241755381 0 -0.04716675321365571 -0.047185261394925494 0 -0.047659918530647404 -0.047341797532697412 0 -0.04716675321365571 -0.047185261394925494 0 -0.047479123811008425 -0.047043543378199396 0 -0.04716675321365571 -0.047185261394925494 0 -0.047479123811008425 -0.047043543378199396 0 -0.047440712748833387 -0.046826861838267633 0 -0.047659918530647404 -0.047341797532697412 0 -0.047479123811008425 -0.047043543378199396 0 -0.047628189116703225 -0.046989141772908374 0 -0.047479123811008425 -0.047043543378199396 0 -0.047628189116703225 -0.046989141772908374 0 -0.047493992763122203 -0.046847061166588641 0 -0.047628189116703225 -0.046989141772908374 0 -0.047614220368024575 -0.046845770097460937 0 -0.047493992763122203 -0.046847061166588641 0 -0.047479123811008425 -0.047043543378199396 0 -0.047493992763122203 -0.046847061166588641 0 -0.047440712748833387 -0.046826861838267633 0 -0.045566501121157926 -0.047468313286643526 0 -0.045558257536965942 -0.047468719687761916 0 -0.045667722372230997 -0.047434451831126899 0 -0.045558257536965942 -0.047468719687761916 0 -0.047614220368024575 -0.046845770097460937 0 -0.047517685699886909 -0.046887031785563478 0 -0.047545877061817683 -0.046815150141688668 0 -0.047614220368024575 -0.046845770097460937 0 -0.047493992763122203 -0.046847061166588641 0 -0.047447118652979667 -0.046830818097728238 0 -0.045558257536965942 -0.047468719687761916 0 -0.044878359305590088 -0.047632213846853746 0 -0.047517685699886909 -0.046887031785563478 0 -0.047545877061817683 -0.046815150141688668 0 -0.047304856114524833 -0.046877875707432626 0 -0.04746726946356384 -0.046932940563665343 0 -0.047425687056293506 -0.046930913485843044 0 -0.047630730963202916 -0.046745981261008547 0 -0.046328278921387342 -0.046905257776946166 0 -0.044878359305590088 -0.047632213846853746 0 -0.044332301683346405 -0.0477682110729198 0 -0.045877178598610499 -0.04684150747911419 0 -0.047545877061817683 -0.046815150141688668 0 -0.047588383091839256 -0.04670527518844441 0 -0.047304856114524833 -0.046877875707432626 0 -0.047690494252068172 -0.046779520323068792 0 -0.04746726946356384 -0.046932940563665343 0 -0.047630730963202916 -0.046745981261008547 0 -0.047678718799210026 -0.046758593353937526 0 -0.047614220368024575 -0.046845770097460937 0 -0.047545877061817683 -0.046815150141688668 0 -0.047678718799210026 -0.046758593353937526 0 -0.047545877061817683 -0.046815150141688668 0 -0.047588383091839256 -0.04670527518844441 0 -0.044741087129301624 -0.047493104994313667 0 -0.045558257536965942 -0.047468719687761916 0 -0.044847546631343785 -0.04755387744517707 0 -0.045166195309920637 -0.047455943197846399 0 -0.045001649524291233 -0.047447595473118845 0 -0.044332301683346405 -0.0477682110729198 0 -0.037378425962382396 -0.049348897580587463 0 -0.047072555063991516 -0.047364777607131502 0 -0.047084524987553319 -0.046978786985356985 0 -0.046421042396583921 -0.047338403644489491 0 -0.040750319232936039 -0.048076902242104036 0 -0.041167978975012287 -0.047689449897573087 0 -0.040343992884534663 -0.047645339496067647 0 -0.044741087129301624 -0.047493104994313667 0 -0.044332301683346405 -0.0477682110729198 0 -0.044836379854032646 -0.047378900087626116 0 -0.04408277913147883 -0.047911842701109701 0 -0.044271895880808716 -0.04792009467281886 0 -0.044741087129301624 -0.047493104994313667 0 -0.044878359305590088 -0.047632213846853746 0 -0.044878359305590088 -0.047632213846853746 0 -0.044332301683346405 -0.0477682110729198 0 -0.047072555063991516 -0.047364777607131502 0 -0.047084524987553319 -0.046978786985356985 0 -0.047548578879877734 -0.046910186510596079 0 -0.04163171902002083 -0.049886104498817231 0 -0.037378425962382396 -0.049348897580587463 0 -0.026276703943346916 -0.051784613153039581 0 -0.027525144749405036 -0.052358796086862537 0 -0.027522411293811111 -0.051054871566865286 0 -0.04163171902002083 -0.049886104498817231 0 -0.041823300256596252 -0.049685155043901939 0 -0.026276703943346916 -0.051784613153039581 0 -0.027040176182080794 -0.054121338944970149 0 -0.027525144749405036 -0.052358796086862537 0 -0.047485778670291599 -0.04682575837562885 0 -0.047426933891589695 -0.046546978301883049 0 -0.047633480821555448 -0.046558236107442037 0 -0.047426933891589695 -0.046546978301883049 0 -0.047633480821555448 -0.046558236107442037 0 -0.047544669145344658 -0.046444862552420071 0 -0.047633480821555448 -0.046558236107442037 0 -0.047798298785325523 -0.04653020940224932 0 -0.047761720955539579 -0.046416847351903504 0 -0.047633480821555448 -0.046558236107442037 0 -0.04779528029682014 -0.046626904413759843 0 -0.047798298785325523 -0.04653020940224932 0 -0.047633480821555448 -0.046558236107442037 0 -0.047627218370661029 -0.046736013964552223 0 -0.04779528029682014 -0.046626904413759843 0 -0.047485778670291599 -0.04682575837562885 0 -0.047633480821555448 -0.046558236107442037 0 -0.047627218370661029 -0.046736013964552223 0 -0.04163171902002083 -0.049886104498817231 0 -0.043649710338935464 -0.048734048092479269 0 -0.047084524987553319 -0.046978786985356985 0 -0.047548578879877734 -0.046910186510596079 0 -0.047627218370661029 -0.046736013964552223 0 -0.045877178598610499 -0.04684150747911419 0 -0.046315156769226089 -0.04659267238498515 0 -0.047690494252068172 -0.046779520323068792 0 -0.047630730963202916 -0.046745981261008547 0 -0.04779528029682014 -0.046626904413759843 0 -0.047548578879877734 -0.046910186510596079 0 -0.047627218370661029 -0.046736013964552223 0 -0.04779528029682014 -0.046626904413759843 0 -0.047690494252068172 -0.046779520323068792 0 -0.047848150087297286 -0.046649254451660328 0 -0.04779528029682014 -0.046626904413759843 0 -0.047750774493088649 -0.046709652404994091 0 -0.047588383091839256 -0.04670527518844441 0 -0.047848150087297286 -0.046649254451660328 0 -0.047885329611713316 -0.046723612823689503 0 -0.047848150087297286 -0.046649254451660328 0 -0.047888586464483997 -0.046582313115258261 0 -0.046328278921387342 -0.046905257776946166 0 -0.046726452604113636 -0.046715715071178228 0 -0.047750774493088649 -0.046709652404994091 0 -0.047885329611713316 -0.046723612823689503 0 -0.047848150087297286 -0.046649254451660328 0 -0.047848150087297286 -0.046649254451660328 0 -0.04779528029682014 -0.046626904413759843 0 -0.047888586464483997 -0.046582313115258261 0 -0.069432420772193193 -0.037955831763644143 0 -0.068722949332000766 -0.039309660467193558 0 -0.068795959869753939 -0.039354598287049437 0 -0.059842164653019017 -0.043029151937314637 0 -0.063179296008826047 -0.045750734766866134 0 -0.068557618215224547 -0.038068757623845435 0 -0.069432420772193193 -0.037955831763644143 0 -0.068722949332000766 -0.039309660467193558 0 -0.047885329611713316 -0.046723612823689503 0 -0.048006757990285656 -0.046534099824336775 0 -0.047888586464483997 -0.046582313115258261 0 -0.064599986731413581 -0.041594645923907173 0 -0.063482678988760005 -0.045664397141224541 0 -0.064504470726276519 -0.045302323417539168 0 -0.064273821303819645 -0.045165066055814371 0 -0.064436499673489231 -0.044842515955489062 0 -0.063482678988760005 -0.045664397141224541 0 -0.063179296008826047 -0.045750734766866134 0 -0.06487840438583016 -0.059715971210217746 0 -0.065008448560604781 -0.059453304896494155 0 -0.063757286085602743 -0.057826979778486831 0 -0.063179296008826047 -0.045750734766866134 0 -0.063428148016638028 -0.046188476259702217 0 -0.063482678988760005 -0.045664397141224541 0 -0.063428148016638028 -0.046188476259702217 0 -0.048006757990285656 -0.046534099824336775 0 -0.047798298785325523 -0.04653020940224932 0 -0.047761720955539579 -0.046416847351903504 0 -0.048006757990285656 -0.046534099824336775 0 -0.047888586464483997 -0.046582313115258261 0 -0.047798298785325523 -0.04653020940224932 0 -0.063179296008826047 -0.045750734766866134 0 -0.056740704816491856 -0.049385917618263553 0 -0.04779528029682014 -0.046626904413759843 0 -0.047888586464483997 -0.046582313115258261 0 -0.047798298785325523 -0.04653020940224932 0 -0.06487840438583016 -0.059715971210217746 0 -0.061680993872464618 -0.057841925401679109 0 -0.063757286085602743 -0.057826979778486831 0 -0.061680993872464618 -0.057841925401679109 0 -0.062608219952979299 -0.056301741005278301 0 -0.060246489068654492 -0.056006010029319202 0 -0.061680993872464618 -0.057841925401679109 0 -0.063757286085602743 -0.057826979778486831 0 -0.062608219952979299 -0.056301741005278301 0 -0.067106501841957114 -0.047178367156854036 0 -0.067492404860526045 -0.046493052083147489 0 -0.066913200111475238 -0.048192663085014111 0 -0.065008448560604781 -0.059453304896494155 0 -0.063757286085602743 -0.057826979778486831 0 -0.064546741703023394 -0.055799228293156457 0 -0.063428148016638028 -0.046188476259702217 0 -0.064566928752326613 -0.050682058556003377 0 -0.063757286085602743 -0.057826979778486831 0 -0.064546741703023394 -0.055799228293156457 0 -0.062608219952979299 -0.056301741005278301 0 -0.064546741703023394 -0.055799228293156457 0 -0.062608219952979299 -0.056301741005278301 0 -0.062166004954834944 -0.054124174886398715 0 -0.062608219952979299 -0.056301741005278301 0 -0.060246489068654492 -0.056006010029319202 0 -0.062166004954834944 -0.054124174886398715 0 -0.060246489068654492 -0.056006010029319202 0 -0.059550192624814001 -0.054134571762044455 0 -0.062166004954834944 -0.054124174886398715 0 -0.061680993872464618 -0.057841925401679109 0 -0.060246489068654492 -0.056006010029319202 0 -0.058512503600053133 -0.055976570718528636 0 -0.058666786302667778 -0.056122917864544354 0 -0.057697567747313661 -0.054742179111911329 0 -0.059550192624814001 -0.054134571762044455 0 -0.058666786302667778 -0.056122917864544354 0 -0.056656427587673135 -0.056183019574870027 0 -0.057697567747313661 -0.054742179111911329 0 -0.060246489068654492 -0.056006010029319202 0 -0.058666786302667778 -0.056122917864544354 0 -0.059550192624814001 -0.054134571762044455 0 -0.052772489136540847 -0.051681320144836285 0 -0.046641097851270484 -0.052363426441746019 0 -0.054404173872977905 -0.051991047209482208 0 -0.052772489136540847 -0.051681320144836285 0 -0.047426933891589695 -0.046546978301883049 0 -0.047544669145344658 -0.046444862552420071 0 -0.047355538573866998 -0.046324615592382039 0 -0.04751147238500341 -0.046317676712117867 0 -0.047544669145344658 -0.046444862552420071 0 -0.047355538573866998 -0.046324615592382039 0 -0.047633480821555448 -0.046558236107442037 0 -0.047761720955539579 -0.046416847351903504 0 -0.047544669145344658 -0.046444862552420071 0 -0.056740704816491856 -0.049385917618263553 0 -0.052772489136540847 -0.051681320144836285 0 -0.047761720955539579 -0.046416847351903504 0 -0.04751147238500341 -0.046317676712117867 0 -0.047544669145344658 -0.046444862552420071 0 -0.02881056568760788 -0.054965439471529369 0 -0.027838853726080796 -0.056571368488996271 0 -0.029723110428781549 -0.056706251273168917 0 -0.02881056568760788 -0.054965439471529369 0 -0.029723110428781549 -0.056706251273168917 0 -0.030091999031117561 -0.055068773253799268 0 -0.027040176182080794 -0.054121338944970149 0 -0.02881056568760788 -0.054965439471529369 0 -0.027838853726080796 -0.056571368488996271 0 -0.041823300256596252 -0.049685155043901939 0 -0.046641097851270484 -0.052363426441746019 0 -0.046641097851270484 -0.052363426441746019 0 -0.041255153047963435 -0.054917867654935004 0 -0.05507691840558112 -0.060915537957945201 0 -0.049506675292309656 -0.060751453097419708 0 -0.053342925586080996 -0.05570654415731971 0 -0.041255153047963435 -0.054917867654935004 0 -0.038812505274157583 -0.056038499345080185 0 -0.029723110428781549 -0.056706251273168917 0 -0.031785083846382046 -0.056977644597251687 0 -0.030091999031117561 -0.055068773253799268 0 -0.049506675292309656 -0.060751453097419708 0 -0.042962575105066778 -0.060076904518521858 0 -0.044597494489789856 -0.056292559769946217 0 -0.042962575105066778 -0.060076904518521858 0 -0.035556240845917693 -0.057124663125881082 0 -0.040082796882753464 -0.055336695163707851 0 -0.038812505274157583 -0.056038499345080185 0 -0.037928224830576757 -0.056283708225025174 0 -0.031785083846382046 -0.056977644597251687 0 -0.031579162123938742 -0.054454081515916165 0 -0.033393651474367743 -0.055338997369732433 0 -0.031785083846382046 -0.056977644597251687 0 -0.030091999031117561 -0.055068773253799268 0 -0.031579162123938742 -0.054454081515916165 0 -0.030091999031117561 -0.055068773253799268 0 -0.029940480647942944 -0.053471408075580824 0 -0.031579162123938742 -0.054454081515916165 0 -0.029940480647942944 -0.053471408075580824 0 -0.031579162123938742 -0.054454081515916165 0 -0.0315332406829157 -0.052610896635227125 0 -0.031579162123938742 -0.054454081515916165 0 -0.032817354849458233 -0.053976700231017471 0 -0.033393651474367743 -0.055338997369732433 0 -0.031579162123938742 -0.054454081515916165 0 -0.0315332406829157 -0.052610896635227125 0 -0.032817354849458233 -0.053976700231017471 0 -0.0315332406829157 -0.052610896635227125 0 -0.030201788781217195 -0.052126579258371282 0 -0.030953038319783781 -0.051315069818192283 0 -0.029940480647942944 -0.053471408075580824 0 -0.0315332406829157 -0.052610896635227125 0 -0.030201788781217195 -0.052126579258371282 0 -0.029940480647942944 -0.053471408075580824 0 -0.030201788781217195 -0.052126579258371282 0 -0.029237146565064948 -0.052251256352761351 0 -0.029940480647942944 -0.053471408075580824 0 -0.029237146565064948 -0.052251256352761351 0 -0.028414386275625324 -0.052969630933907011 0 -0.029237146565064948 -0.052251256352761351 0 -0.028414386275625324 -0.052969630933907011 0 -0.028359801956543754 -0.051887924271961518 0 -0.02881056568760788 -0.054965439471529369 0 -0.030091999031117561 -0.055068773253799268 0 -0.029940480647942944 -0.053471408075580824 0 -0.02881056568760788 -0.054965439471529369 0 -0.029940480647942944 -0.053471408075580824 0 -0.028414386275625324 -0.052969630933907011 0 -0.027040176182080794 -0.054121338944970149 0 -0.02881056568760788 -0.054965439471529369 0 -0.028414386275625324 -0.052969630933907011 0 -0.027040176182080794 -0.054121338944970149 0 -0.028414386275625324 -0.052969630933907011 0 -0.027525144749405036 -0.052358796086862537 0 -0.028414386275625324 -0.052969630933907011 0 -0.027525144749405036 -0.052358796086862537 0 -0.028359801956543754 -0.051887924271961518 0 -0.037378425962382396 -0.049348897580587463 0 -0.031020876383601473 -0.049937616529131486 0 -0.027525144749405036 -0.052358796086862537 0 -0.028359801956543754 -0.051887924271961518 0 -0.027522411293811111 -0.051054871566865286 0 -0.028359801956543754 -0.051887924271961518 0 -0.027522411293811111 -0.051054871566865286 0 -0.029297495950607835 -0.051169856470996838 0 -0.0240572496425592 -0.050602136223063032 0 -0.026389149814775019 -0.050730772468879477 0 -0.026043440873687106 -0.049377403914776262 0 -0.030201788781217195 -0.052126579258371282 0 -0.029237146565064948 -0.052251256352761351 0 -0.029297495950607835 -0.051169856470996838 0 -0.029237146565064948 -0.052251256352761351 0 -0.028359801956543754 -0.051887924271961518 0 -0.029297495950607835 -0.051169856470996838 0 -0.039325670144622425 -0.048224006173313815 0 -0.039500094584109843 -0.04844803038884582 0 -0.038309427627912493 -0.048787789398502639 0 -0.041953814573398543 -0.047522805967558313 0 -0.038245083609023039 -0.047720524194793508 0 -0.045601771816780087 -0.046989966030646237 0 -0.044867712956750828 -0.047507496311014523 0 -0.044486371733072599 -0.047292251936462734 0 -0.03575073533077041 -0.049313676137788441 0 -0.038245083609023039 -0.047720524194793508 0 -0.026389149814775019 -0.050730772468879477 0 -0.026043440873687106 -0.049377403914776262 0 -0.027674271893385356 -0.049670616838586742 0 -0.045601771816780087 -0.046989966030646237 0 -0.045949949076197073 -0.047109083436840199 0 -0.045292174002738612 -0.047567078163572613 0 -0.046622954263705288 -0.046693569363578748 0 -0.045601771816780087 -0.046989966030646237 0 -0.045949949076197073 -0.047109083436840199 0 -0.044741087129301624 -0.047493104994313667 0 -0.041953814573398543 -0.047522805967558313 0 -0.037378425962382396 -0.049348897580587463 0 -0.03575073533077041 -0.049313676137788441 0 -0.040750319232936039 -0.048076902242104036 0 -0.040343992884534663 -0.047645339496067647 0 -0.039500094584109843 -0.04844803038884582 0 -0.040343992884534663 -0.047645339496067647 0 -0.039325670144622425 -0.048224006173313815 0 -0.039500094584109843 -0.04844803038884582 0 -0.044741087129301624 -0.047493104994313667 0 -0.045334052494406293 -0.047220456611973986 0 -0.046546040838642749 -0.047284813653661724 0 -0.046108695849944543 -0.047345305892587911 0 -0.046331053460974929 -0.047468552908738443 0 -0.044741087129301624 -0.047493104994313667 0 -0.045292793449103592 -0.04727134805300643 0 -0.046546040838642749 -0.047284813653661724 0 -0.046687375698800215 -0.046929890241755381 0 -0.046108695849944543 -0.047345305892587911 0 -0.046533387345134895 -0.046757159820067104 0 -0.045926732365515491 -0.047152010574192299 0 -0.04599467318735348 -0.047286368778550449 0 -0.046546040838642749 -0.047284813653661724 0 -0.046331053460974929 -0.047468552908738443 0 -0.046449815668335025 -0.047684396248110841 0 -0.046216447106171669 -0.04755998482362829 0 -0.046449815668335025 -0.047684396248110841 0 -0.04594644293585106 -0.047787082151422182 0 -0.046891599306417453 -0.047667522128556336 0 -0.046449815668335025 -0.047684396248110841 0 -0.046198125918431046 -0.048195844835739285 0 -0.046108695849944543 -0.047345305892587911 0 -0.046331053460974929 -0.047468552908738443 0 -0.046216447106171669 -0.04755998482362829 0 -0.046331053460974929 -0.047468552908738443 0 -0.046216447106171669 -0.04755998482362829 0 -0.046449815668335025 -0.047684396248110841 0 -0.046449815668335025 -0.047684396248110841 0 -0.04594644293585106 -0.047787082151422182 0 -0.046198125918431046 -0.048195844835739285 0 -0.04594644293585106 -0.047787082151422182 0 -0.045405998963280278 -0.047884951074335803 0 -0.046198125918431046 -0.048195844835739285 0 -0.046108695849944543 -0.047345305892587911 0 -0.04594644293585106 -0.047787082151422182 0 -0.045405998963280278 -0.047884951074335803 0 -0.046108695849944543 -0.047345305892587911 0 -0.046216447106171669 -0.04755998482362829 0 -0.04594644293585106 -0.047787082151422182 0 -0.045926732365515491 -0.047152010574192299 0 -0.04599467318735348 -0.047286368778550449 0 -0.045292174002738612 -0.047567078163572613 0 -0.045292793449103592 -0.04727134805300643 0 -0.045310389090795829 -0.047344324543345001 0 -0.045334052494406293 -0.047220456611973986 0 -0.045355724242577118 -0.047238201034668768 0 -0.045405998963280278 -0.047884951074335803 0 -0.046198125918431046 -0.048195844835739285 0 -0.0449220209096243 -0.047933703541623476 0 -0.04599467318735348 -0.047286368778550449 0 -0.045292174002738612 -0.047567078163572613 0 -0.045405998963280278 -0.047884951074335803 0 -0.045601771816780087 -0.046989966030646237 0 -0.045292174002738612 -0.047567078163572613 0 -0.044867712956750828 -0.047507496311014523 0 -0.045292174002738612 -0.047567078163572613 0 -0.0449220209096243 -0.047933703541623476 0 -0.044867712956750828 -0.047507496311014523 0 -0.045292174002738612 -0.047567078163572613 0 -0.045405998963280278 -0.047884951074335803 0 -0.0449220209096243 -0.047933703541623476 0 -0.046570472197920161 -0.042312615138775912 0 -0.043039536754180811 -0.044420910485859541 0 -0.042842460307960989 -0.042226576789388556 0 -0.043609154440020829 -0.041504159118628731 0 -0.042011496314470209 -0.041224062865836616 0 -0.04365160042049248 -0.042097955741507272 0 -0.042842460307960989 -0.042226576789388556 0 -0.043609154440020829 -0.041504159118628731 0 -0.040719973470703844 -0.042923180781738408 0 -0.0398538728766165 -0.042404188409154664 0 -0.038206559692453158 -0.043661762995477346 0 -0.0398538728766165 -0.042404188409154664 0 -0.038206559692453158 -0.043661762995477346 0 -0.037969162033378107 -0.043072592665755131 0 -0.040719973470703844 -0.042923180781738408 0 -0.0398538728766165 -0.042404188409154664 0 -0.042011496314470209 -0.041224062865836616 0 -0.040719973470703844 -0.042923180781738408 0 -0.042842460307960989 -0.042226576789388556 0 -0.042011496314470209 -0.041224062865836616 0 -0.0398538728766165 -0.042404188409154664 0 -0.042011496314470209 -0.041224062865836616 0 -0.039072876401816045 -0.040839922630321594 0 -0.043039536754180811 -0.044420910485859541 0 -0.038337254401381519 -0.046179500431118813 0 -0.0449220209096243 -0.047933703541623476 0 -0.044245093101587828 -0.047422632267917431 0 -0.043534959864289215 -0.047579953406278616 0 -0.0449220209096243 -0.047933703541623476 0 -0.044867712956750828 -0.047507496311014523 0 -0.044245093101587828 -0.047422632267917431 0 -0.044867712956750828 -0.047507496311014523 0 -0.044486371733072599 -0.047292251936462734 0 -0.044245093101587828 -0.047422632267917431 0 -0.038245083609023039 -0.047720524194793508 0 -0.038431660581449166 -0.047641104989000711 0 -0.044482059699832495 -0.04728219343944056 0 -0.044245093101587828 -0.047422632267917431 0 -0.043534959864289215 -0.047579953406278616 0 -0.038245083609023039 -0.047720524194793508 0 -0.038337254401381519 -0.046179500431118813 0 -0.0398538728766165 -0.042404188409154664 0 -0.039072876401816045 -0.040839922630321594 0 -0.037969162033378107 -0.043072592665755131 0 -0.030540485703814266 -0.047213602753175807 0 -0.030220083462932569 -0.047139778657829388 0 -0.03097701523397969 -0.048373355316945157 0 -0.038237152048229764 -0.046163208082491386 0 -0.038337254401381519 -0.046179500431118813 0 -0.02819656467683682 -0.047964004110854594 0 -0.030220083462932569 -0.047139778657829388 0 -0.02953519878804442 -0.049019922020726032 0 -0.030220083462932569 -0.047139778657829388 0 -0.03097701523397969 -0.048373355316945157 0 -0.02953519878804442 -0.049019922020726032 0 -0.03097701523397969 -0.048373355316945157 0 -0.02953519878804442 -0.049019922020726032 0 -0.030771762884273642 -0.04977073642161043 0 -0.02953519878804442 -0.049019922020726032 0 -0.030771762884273642 -0.04977073642161043 0 -0.02894013570135014 -0.050983358186379731 0 -0.026043440873687106 -0.049377403914776262 0 -0.02819656467683682 -0.047964004110854594 0 -0.027674271893385356 -0.049670616838586742 0 -0.02819656467683682 -0.047964004110854594 0 -0.02953519878804442 -0.049019922020726032 0 -0.027674271893385356 -0.049670616838586742 0 -0.02953519878804442 -0.049019922020726032 0 -0.027674271893385356 -0.049670616838586742 0 -0.02894013570135014 -0.050983358186379731 0 -0.026389149814775019 -0.050730772468879477 0 -0.027674271893385356 -0.049670616838586742 0 -0.02894013570135014 -0.050983358186379731 0 -0.030201788781217195 -0.052126579258371282 0 -0.029297495950607835 -0.051169856470996838 0 -0.030953038319783781 -0.051315069818192283 0 -0.031020876383601473 -0.049937616529131486 0 -0.030522328140446649 -0.050350882898012837 0 -0.030771762884273642 -0.04977073642161043 0 -0.02894013570135014 -0.050983358186379731 0 -0.032044507065099155 -0.051229062338511905 0 -0.0315332406829157 -0.052610896635227125 0 -0.030953038319783781 -0.051315069818192283 0 -0.032044507065099155 -0.051229062338511905 0 -0.030522328140446649 -0.050350882898012837 0 -0.030967203258191658 -0.050501419812867446 0 -0.032044507065099155 -0.051229062338511905 0 -0.033128275187790886 -0.050450848992497681 0 -0.033240626936380295 -0.052555847751161296 0 -0.032044507065099155 -0.051229062338511905 0 -0.033128275187790886 -0.050450848992497681 0 -0.032270318518946996 -0.049338790179268413 0 -0.033128275187790886 -0.050450848992497681 0 -0.033826294205792917 -0.050363876773538235 0 -0.033240626936380295 -0.052555847751161296 0 -0.033128275187790886 -0.050450848992497681 0 -0.034107685409825374 -0.047998995534111182 0 -0.033826294205792917 -0.050363876773538235 0 -0.033128275187790886 -0.050450848992497681 0 -0.034107685409825374 -0.047998995534111182 0 -0.032270318518946996 -0.049338790179268413 0 -0.030771762884273642 -0.04977073642161043 0 -0.032044507065099155 -0.051229062338511905 0 -0.032270318518946996 -0.049338790179268413 0 -0.03097701523397969 -0.048373355316945157 0 -0.030771762884273642 -0.04977073642161043 0 -0.032270318518946996 -0.049338790179268413 0 -0.034107685409825374 -0.047998995534111182 0 -0.032270318518946996 -0.049338790179268413 0 -0.032493796470782058 -0.047758574976691073 0 -0.03097701523397969 -0.048373355316945157 0 -0.032270318518946996 -0.049338790179268413 0 -0.032493796470782058 -0.047758574976691073 0 -0.030540485703814266 -0.047213602753175807 0 -0.03097701523397969 -0.048373355316945157 0 -0.032493796470782058 -0.047758574976691073 0 -0.030540485703814266 -0.047213602753175807 0 -0.032493796470782058 -0.047758574976691073 0 -0.034741498290977703 -0.045147630825300121 0 -0.038337254401381519 -0.046179500431118813 0 -0.036708819467005334 -0.046062414290102605 0 -0.039072876401816045 -0.040839922630321594 0 -0.034741498290977703 -0.045147630825300121 0 -0.037969162033378107 -0.043072592665755131 0 -0.030540485703814266 -0.047213602753175807 0 -0.030020847464057917 -0.047105682382174767 0 -0.034741498290977703 -0.045147630825300121 0 -0.034107685409825374 -0.047998995534111182 0 -0.034741498290977703 -0.045147630825300121 0 -0.034920867296474506 -0.045924609783640831 0 -0.034107685409825374 -0.047998995534111182 0 -0.032493796470782058 -0.047758574976691073 0 -0.034741498290977703 -0.045147630825300121 0 -0.036245510657152452 -0.04478748512013634 0 -0.034741498290977703 -0.045147630825300121 0 -0.034920867296474506 -0.045924609783640831 0 -0.035326337042698427 -0.045737584881780161 0 -0.036245510657152452 -0.04478748512013634 0 -0.034920867296474506 -0.045924609783640831 0 -0.034741498290977703 -0.045147630825300121 0 -0.038206559692453158 -0.043661762995477346 0 -0.037969162033378107 -0.043072592665755131 0 -0.036245510657152452 -0.04478748512013634 0 -0.034741498290977703 -0.045147630825300121 0 -0.038206559692453158 -0.043661762995477346 0 -0.034832766438420315 -0.047058380349222148 0 -0.034952091443000328 -0.046431973681203477 0 -0.034670623299119088 -0.047703732978207083 0 -0.035179833156099037 -0.046089745020782245 0 -0.034832766438420315 -0.047058380349222148 0 -0.034952091443000328 -0.046431973681203477 0 -0.034952091443000328 -0.046431973681203477 0 -0.034920867296474506 -0.045924609783640831 0 -0.034670623299119088 -0.047703732978207083 0 -0.035326337042698427 -0.045737584881780161 0 -0.034952091443000328 -0.046431973681203477 0 -0.034920867296474506 -0.045924609783640831 0 -0.034107685409825374 -0.047998995534111182 0 -0.034920867296474506 -0.045924609783640831 0 -0.034670623299119088 -0.047703732978207083 0 -0.034832766438420315 -0.047058380349222148 0 -0.034670623299119088 -0.047703732978207083 0 -0.034430579483628723 -0.048693428184314123 0 -0.034670623299119088 -0.047703732978207083 0 -0.033883939935625385 -0.050557853723215425 0 -0.034430579483628723 -0.048693428184314123 0 -0.034670623299119088 -0.047703732978207083 0 -0.033826294205792917 -0.050363876773538235 0 -0.033883939935625385 -0.050557853723215425 0 -0.034107685409825374 -0.047998995534111182 0 -0.034670623299119088 -0.047703732978207083 0 -0.033826294205792917 -0.050363876773538235 0 -0.033826294205792917 -0.050363876773538235 0 -0.033883939935625385 -0.050557853723215425 0 -0.033403517191963633 -0.052720554901795204 0 -0.033883939935625385 -0.050557853723215425 0 -0.033403517191963633 -0.052720554901795204 0 -0.032674111845568357 -0.052909240363271541 0 -0.030944192500652969 -0.054463881798145049 0 -0.032674111845568357 -0.052909240363271541 0 -0.031549870335773202 -0.05491096349436568 0 -0.033403517191963633 -0.052720554901795204 0 -0.030944192500652969 -0.054463881798145049 0 -0.032674111845568357 -0.052909240363271541 0 -0.033403517191963633 -0.052720554901795204 0 -0.034232745556772609 -0.05493485426558601 0 -0.0345232066841814 -0.055061231778608465 0 -0.032478846035991715 -0.054617540292749782 0 -0.032286048512752887 -0.055171023489611823 0 -0.033826294205792917 -0.050363876773538235 0 -0.033403517191963633 -0.052720554901795204 0 -0.033240626936380295 -0.052555847751161296 0 -0.0315332406829157 -0.052610896635227125 0 -0.032044507065099155 -0.051229062338511905 0 -0.033240626936380295 -0.052555847751161296 0 -0.0315332406829157 -0.052610896635227125 0 -0.033240626936380295 -0.052555847751161296 0 -0.032817354849458233 -0.053976700231017471 0 -0.033240626936380295 -0.052555847751161296 0 -0.032817354849458233 -0.053976700231017471 0 -0.034232745556772609 -0.05493485426558601 0 -0.033403517191963633 -0.052720554901795204 0 -0.033240626936380295 -0.052555847751161296 0 -0.034232745556772609 -0.05493485426558601 0 -0.034232745556772609 -0.05493485426558601 0 -0.033393651474367743 -0.055338997369732433 0 -0.035556240845917693 -0.057124663125881082 0 -0.032817354849458233 -0.053976700231017471 0 -0.034232745556772609 -0.05493485426558601 0 -0.033393651474367743 -0.055338997369732433 0 -0.031785083846382046 -0.056977644597251687 0 -0.033393651474367743 -0.055338997369732433 0 -0.035556240845917693 -0.057124663125881082 0 -0.035556240845917693 -0.057124663125881082 0 -0.03477484901539693 -0.05580552344984295 0 -0.036747236273446247 -0.05493779483732885 0 -0.034232745556772609 -0.05493485426558601 0 -0.035556240845917693 -0.057124663125881082 0 -0.03477484901539693 -0.05580552344984295 0 -0.03477484901539693 -0.05580552344984295 0 -0.033640795020155899 -0.05532456613659438 0 -0.0345232066841814 -0.055061231778608465 0 -0.031828885277460299 -0.055779817427030566 0 -0.032286048512752887 -0.055171023489611823 0 -0.029566365552038718 -0.056540245122389733 0 -0.030944192500652969 -0.054463881798145049 0 -0.031549870335773202 -0.05491096349436568 0 -0.034232745556772609 -0.05493485426558601 0 -0.03477484901539693 -0.05580552344984295 0 -0.0345232066841814 -0.055061231778608465 0 -0.03441289467763211 -0.052039105700061566 0 -0.03230054658010028 -0.052307891489984916 0 -0.034257683067628004 -0.054019533479298242 0 -0.03441289467763211 -0.052039105700061566 0 -0.034257683067628004 -0.054019533479298242 0 -0.035705199735955533 -0.053491213330102171 0 -0.031828885277460299 -0.055779817427030566 0 -0.031497718832060935 -0.056199917730401928 0 -0.033640795020155899 -0.05532456613659438 0 -0.03230054658010028 -0.052307891489984916 0 -0.034257683067628004 -0.054019533479298242 0 -0.029566365552038718 -0.056540245122389733 0 -0.02830012044555355 -0.059102832156201456 0 -0.03048486133303482 -0.058195204277026791 0 -0.03477484901539693 -0.05580552344984295 0 -0.033640795020155899 -0.05532456613659438 0 -0.034257683067628004 -0.054019533479298242 0 -0.03477484901539693 -0.05580552344984295 0 -0.034257683067628004 -0.054019533479298242 0 -0.035705199735955533 -0.053491213330102171 0 -0.03477484901539693 -0.05580552344984295 0 -0.036747236273446247 -0.05493779483732885 0 -0.035705199735955533 -0.053491213330102171 0 -0.036747236273446247 -0.05493779483732885 0 -0.039005824049492273 -0.051722728499770006 0 -0.040082796882753464 -0.055336695163707851 0 -0.035556240845917693 -0.057124663125881082 0 -0.036747236273446247 -0.05493779483732885 0 -0.040082796882753464 -0.055336695163707851 0 -0.036747236273446247 -0.05493779483732885 0 -0.039005824049492273 -0.051722728499770006 0 -0.035705199735955533 -0.053491213330102171 0 -0.039005824049492273 -0.051722728499770006 0 -0.035705199735955533 -0.053491213330102171 0 -0.03645519973317593 -0.05088810785266789 0 -0.03441289467763211 -0.052039105700061566 0 -0.035705199735955533 -0.053491213330102171 0 -0.03645519973317593 -0.05088810785266789 0 -0.03645519973317593 -0.05088810785266789 0 -0.037766090597452021 -0.048349396107990765 0 -0.033999540770340585 -0.049973017764764822 0 -0.038509347021741712 -0.049646502985346064 0 -0.036628176112772373 -0.049788789657260892 0 -0.037766090597452021 -0.048349396107990765 0 -0.040412746913032871 -0.049328876341552509 0 -0.043309354859959043 -0.047086095789083911 0 -0.039005824049492273 -0.051722728499770006 0 -0.038456594479314689 -0.050027265361963356 0 -0.040412746913032871 -0.049328876341552509 0 -0.03645519973317593 -0.05088810785266789 0 -0.038456594479314689 -0.050027265361963356 0 -0.037766090597452021 -0.048349396107990765 0 -0.039005824049492273 -0.051722728499770006 0 -0.03645519973317593 -0.05088810785266789 0 -0.038456594479314689 -0.050027265361963356 0 -0.038456594479314689 -0.050027265361963356 0 -0.037766090597452021 -0.048349396107990765 0 -0.040412746913032871 -0.049328876341552509 0 -0.038509347021741712 -0.049646502985346064 0 -0.042570296636045557 -0.049624140734431547 0 -0.036965290286315365 -0.049818647521700898 0 -0.037155546382901493 -0.048801662815930111 0 -0.03863092499850547 -0.048650177315259814 0 -0.039779820804465592 -0.054930916921447678 0 -0.039195132696089645 -0.056796663107113184 0 -0.037155546382901493 -0.048801662815930111 0 -0.038251764248698299 -0.047298452801969107 0 -0.03863092499850547 -0.048650177315259814 0 -0.036965290286315365 -0.049818647521700898 0 -0.035351293836892436 -0.048943213975542924 0 -0.033999540770340585 -0.049973017764764822 0 -0.037155546382901493 -0.048801662815930111 0 -0.035351293836892436 -0.048943213975542924 0 -0.03479986148136853 -0.046661681847149965 0 -0.036965290286315365 -0.049818647521700898 0 -0.037155546382901493 -0.048801662815930111 0 -0.035351293836892436 -0.048943213975542924 0 -0.033508291711916813 -0.048132043213854447 0 -0.033999540770340585 -0.049973017764764822 0 -0.03188887884699175 -0.048986403194086592 0 -0.035351293836892436 -0.048943213975542924 0 -0.033508291711916813 -0.048132043213854447 0 -0.03479986148136853 -0.046661681847149965 0 -0.035351293836892436 -0.048943213975542924 0 -0.033508291711916813 -0.048132043213854447 0 -0.033999540770340585 -0.049973017764764822 0 -0.03441289467763211 -0.052039105700061566 0 -0.03645519973317593 -0.05088810785266789 0 -0.033999540770340585 -0.049973017764764822 0 -0.03441289467763211 -0.052039105700061566 0 -0.03230054658010028 -0.052307891489984916 0 -0.033999540770340585 -0.049973017764764822 0 -0.031497718832060935 -0.056199917730401928 0 -0.031897743334091191 -0.057300824398108512 0 -0.03230054658010028 -0.052307891489984916 0 -0.033999540770340585 -0.049973017764764822 0 -0.03188887884699175 -0.048986403194086592 0 -0.02830012044555355 -0.059102832156201456 0 -0.027381052068489037 -0.063870601299929136 0 -0.029256748365514763 -0.061032584525849164 0 -0.031897743334091191 -0.057300824398108512 0 -0.03394594804621881 -0.061536737474888158 0 -0.027381052068489037 -0.063870601299929136 0 -0.027839616846884276 -0.068280791531551532 0 -0.028354345181529524 -0.066679220344668319 0 -0.033508291711916813 -0.048132043213854447 0 -0.03188887884699175 -0.048986403194086592 0 -0.031547782336527726 -0.046092628940377078 0 -0.035887212522609076 -0.059123725536064882 0 -0.03394594804621881 -0.061536737474888158 0 -0.033508291711916813 -0.048132043213854447 0 -0.03479986148136853 -0.046661681847149965 0 -0.031547782336527726 -0.046092628940377078 0 -0.036448380841338772 -0.0719054258205475 0 -0.033548593549257724 -0.069027253307988465 0 -0.0356843894701801 -0.068129421161760517 0 -0.036448380841338772 -0.0719054258205475 0 -0.032276252931386987 -0.071300085875101171 0 -0.033548593549257724 -0.069027253307988465 0 -0.032276252931386987 -0.071300085875101171 0 -0.033548593549257724 -0.069027253307988465 0 -0.031488133779081363 -0.066888736835652537 0 -0.03394594804621881 -0.061536737474888158 0 -0.033548856037241601 -0.065521441108587514 0 -0.033548593549257724 -0.069027253307988465 0 -0.033861855576337682 -0.067038622092772671 0 -0.031488133779081363 -0.066888736835652537 0 -0.033548593549257724 -0.069027253307988465 0 -0.033861855576337682 -0.067038622092772671 0 -0.0356843894701801 -0.068129421161760517 0 -0.033861855576337682 -0.067038622092772671 0 -0.0356843894701801 -0.068129421161760517 0 -0.035716562593508368 -0.066357698147228028 0 -0.035716562593508368 -0.066357698147228028 0 -0.03352445393858576 -0.064999409187803545 0 -0.037419771379974376 -0.064999964577705044 0 -0.033861855576337682 -0.067038622092772671 0 -0.03352445393858576 -0.064999409187803545 0 -0.031488133779081363 -0.066888736835652537 0 -0.033861855576337682 -0.067038622092772671 0 -0.035716562593508368 -0.066357698147228028 0 -0.03352445393858576 -0.064999409187803545 0 -0.039728390797718061 -0.065392702902760697 0 -0.037419771379974376 -0.064999964577705044 0 -0.041313846822664063 -0.064999964199357468 0 -0.040175082221631284 -0.066921454297087499 0 -0.039728390797718061 -0.065392702902760697 0 -0.038163454798253192 -0.066808926557889628 0 -0.040175082221631284 -0.066921454297087499 0 -0.039728390797718061 -0.065392702902760697 0 -0.041721228287492702 -0.066389852904510979 0 -0.035716562593508368 -0.066357698147228028 0 -0.037419771379974376 -0.064999964577705044 0 -0.038163454798253192 -0.066808926557889628 0 -0.039728390797718061 -0.065392702902760697 0 -0.037419771379974376 -0.064999964577705044 0 -0.038163454798253192 -0.066808926557889628 0 -0.0356843894701801 -0.068129421161760517 0 -0.035716562593508368 -0.066357698147228028 0 -0.038163454798253192 -0.066808926557889628 0 -0.0356843894701801 -0.068129421161760517 0 -0.038163454798253192 -0.066808926557889628 0 -0.037764055741735587 -0.069119010381259477 0 -0.038163454798253192 -0.066808926557889628 0 -0.039699850301769105 -0.068588706188084977 0 -0.037764055741735587 -0.069119010381259477 0 -0.040175082221631284 -0.066921454297087499 0 -0.038163454798253192 -0.066808926557889628 0 -0.039699850301769105 -0.068588706188084977 0 -0.040175082221631284 -0.066921454297087499 0 -0.039699850301769105 -0.068588706188084977 0 -0.041477375981391743 -0.068026709876784358 0 -0.039699850301769105 -0.068588706188084977 0 -0.03921791326105268 -0.070400059570359372 0 -0.042022999586977257 -0.069964926394138996 0 -0.03921791326105268 -0.070400059570359372 0 -0.040312473422687102 -0.072526204110952994 0 -0.042022999586977257 -0.069964926394138996 0 -0.039699850301769105 -0.068588706188084977 0 -0.03921791326105268 -0.070400059570359372 0 -0.037764055741735587 -0.069119010381259477 0 -0.036448380841338772 -0.0719054258205475 0 -0.03921791326105268 -0.070400059570359372 0 -0.037764055741735587 -0.069119010381259477 0 -0.036448380841338772 -0.0719054258205475 0 -0.0356843894701801 -0.068129421161760517 0 -0.037764055741735587 -0.069119010381259477 0 -0.035887212522609076 -0.059123725536064882 0 -0.039195132696089645 -0.056796663107113184 0 -0.037155546382901493 -0.048801662815930111 0 -0.03479986148136853 -0.046661681847149965 0 -0.038177672352356105 -0.0473086093710329 0 -0.036448380841338772 -0.0719054258205475 0 -0.03921791326105268 -0.070400059570359372 0 -0.040312473422687102 -0.072526204110952994 0 -0.039195132696089645 -0.056796663107113184 0 -0.040941243204941087 -0.061477216034529575 0 -0.042463480972116802 -0.057554145296035746 0 -0.042009951513272387 -0.057466193228845192 0 -0.042165075850191337 -0.05801495124377979 0 -0.039195132696089645 -0.056796663107113184 0 -0.040532471281712126 -0.055110511943692028 0 -0.038251764248698299 -0.047298452801969107 0 -0.040612951744424523 -0.047810225655022305 0 -0.03863092499850547 -0.048650177315259814 0 -0.042009951513272387 -0.057466193228845192 0 -0.041856675096673741 -0.057774583044554073 0 -0.041548366213171019 -0.057373517063802101 0 -0.042009951513272387 -0.057466193228845192 0 -0.041856675096673741 -0.057774583044554073 0 -0.042165075850191337 -0.05801495124377979 0 -0.041856675096673741 -0.057774583044554073 0 -0.04181135144755644 -0.05809223615432265 0 -0.041558957470783205 -0.057848037676078073 0 -0.041856675096673741 -0.057774583044554073 0 -0.04181135144755644 -0.05809223615432265 0 -0.042165075850191337 -0.05801495124377979 0 -0.041477375981391743 -0.068026709876784358 0 -0.043725258924222465 -0.067424074547847337 0 -0.041721228287492702 -0.066389852904510979 0 -0.042022999586977257 -0.069964926394138996 0 -0.041477375981391743 -0.068026709876784358 0 -0.043725258924222465 -0.067424074547847337 0 -0.039699850301769105 -0.068588706188084977 0 -0.042022999586977257 -0.069964926394138996 0 -0.041477375981391743 -0.068026709876784358 0 -0.040175082221631284 -0.066921454297087499 0 -0.041477375981391743 -0.068026709876784358 0 -0.041721228287492702 -0.066389852904510979 0 -0.040941243204941087 -0.061477216034529575 0 -0.043736556913963359 -0.062653690840276693 0 -0.04181135144755644 -0.05809223615432265 0 -0.041864003452430132 -0.058482856243585769 0 -0.041571111283135648 -0.058326322347147158 0 -0.04181135144755644 -0.05809223615432265 0 -0.042165075850191337 -0.05801495124377979 0 -0.041864003452430132 -0.058482856243585769 0 -0.043736556913963359 -0.062653690840276693 0 -0.045131953145404288 -0.06021678663077891 0 -0.043736556913963359 -0.062653690840276693 0 -0.043010244434983198 -0.063529557104215026 0 -0.043736556913963359 -0.062653690840276693 0 -0.045095102452317098 -0.064610667502504812 0 -0.041313846822664063 -0.064999964199357468 0 -0.041702266521749229 -0.066432899464838185 0 -0.045211174122206113 -0.065195151495582693 0 -0.041313846822664063 -0.064999964199357468 0 -0.045211174122206113 -0.065195151495582693 0 -0.045208044739369027 -0.065000007836500215 0 -0.043670698613926189 -0.067459110088451207 0 -0.041702266521749229 -0.066432899464838185 0 -0.045211174122206113 -0.065195151495582693 0 -0.042445424800443297 -0.063621883310107846 0 -0.043010244434983198 -0.063529557104215026 0 -0.039728390797718061 -0.065392702902760697 0 -0.041313846822664063 -0.064999964199357468 0 -0.041702266521749229 -0.066432899464838185 0 -0.048328589618092103 -0.064999980684874364 0 -0.046772319152897687 -0.066679052161699975 0 -0.045208094835794868 -0.064999974989472409 0 -0.048328589618092103 -0.064999980684874364 0 -0.046772319152897687 -0.066679052161699975 0 -0.049151901215510274 -0.06733427733841002 0 -0.046017848545599246 -0.062355843219251313 0 -0.045520500489442756 -0.063097289165043965 0 -0.045502725439252753 -0.062083438469725985 0 -0.046772319152897687 -0.066679052161699975 0 -0.045214377842032111 -0.065192139198728391 0 -0.045292431063234814 -0.068246627124727205 0 -0.046772319152897687 -0.066679052161699975 0 -0.045214377842032111 -0.065192139198728391 0 -0.045208094835794868 -0.064999974989472409 0 -0.045095102452317098 -0.064610667502504812 0 -0.045131953145404288 -0.06021678663077891 0 -0.045095102452317098 -0.064610667502504812 0 -0.045204511207387409 -0.064993683507969788 0 -0.046772319152897687 -0.066679052161699975 0 -0.045292431063234814 -0.068246627124727205 0 -0.047299104708387232 -0.069288285502141209 0 -0.045131953145404288 -0.06021678663077891 0 -0.047672601473476232 -0.057696099711176813 0 -0.047299104708387232 -0.069288285502141209 0 -0.049306340089229787 -0.070324722319147381 0 -0.049151901215510274 -0.06733427733841002 0 -0.046772319152897687 -0.066679052161699975 0 -0.047299104708387232 -0.069288285502141209 0 -0.049151901215510274 -0.06733427733841002 0 -0.047672601473476232 -0.057696099711176813 0 -0.052104911266871896 -0.055526360942439575 0 -0.043228139386742928 -0.048563038251151193 0 -0.043217819835003883 -0.048638808923026536 0 -0.043359238280299375 -0.048624986483476247 0 -0.04181135144755644 -0.05809223615432265 0 -0.041571111283135648 -0.058326322347147158 0 -0.041558957470783205 -0.057848037676078073 0 -0.045131953145404288 -0.06021678663077891 0 -0.043064302137715504 -0.055475198476017458 0 -0.043111260236827841 -0.048527712143431677 0 -0.043228139386742928 -0.048563038251151193 0 -0.043091234742473908 -0.048635911095686511 0 -0.043228139386742928 -0.048563038251151193 0 -0.043217819835003883 -0.048638808923026536 0 -0.043091234742473908 -0.048635911095686511 0 -0.041856675096673741 -0.057774583044554073 0 -0.041558957470783205 -0.057848037676078073 0 -0.041548366213171019 -0.057373517063802101 0 -0.043091234742473908 -0.048635911095686511 0 -0.043119793849835532 -0.048724332012609166 0 -0.042994613168011023 -0.048836353107626018 0 -0.043064302137715504 -0.055475198476017458 0 -0.041284869788924455 -0.054180890491917454 0 -0.043217819835003883 -0.048638808923026536 0 -0.043091234742473908 -0.048635911095686511 0 -0.043119793849835532 -0.048724332012609166 0 -0.043119793849835532 -0.048724332012609166 0 -0.043263654828365888 -0.048716115844223536 0 -0.043013219394127007 -0.048843204978550346 0 -0.043119793849835532 -0.048724332012609166 0 -0.042994613168011023 -0.048836353107626018 0 -0.043013219394127007 -0.048843204978550346 0 -0.043217819835003883 -0.048638808923026536 0 -0.043263654828365888 -0.048716115844223536 0 -0.043359238280299375 -0.048624986483476247 0 -0.051071603238134367 -0.051581830493801495 0 -0.052104911266871896 -0.055526360942439575 0 -0.043217819835003883 -0.048638808923026536 0 -0.043119793849835532 -0.048724332012609166 0 -0.043263654828365888 -0.048716115844223536 0 -0.057175722971292815 -0.048872913263249176 0 -0.05847863994006991 -0.049928418356645306 0 -0.059523662970579053 -0.049899249493686168 0 -0.057785929019285524 -0.049058378427747136 0 -0.057175722971292815 -0.048872913263249176 0 -0.059523662970579053 -0.049899249493686168 0 -0.057785929019285524 -0.049058378427747136 0 -0.057175722971292815 -0.048872913263249176 0 -0.057174210057852511 -0.048852861119739195 0 -0.057175722971292815 -0.048872913263249176 0 -0.055575390073840485 -0.049805812316491234 0 -0.05847863994006991 -0.049928418356645306 0 -0.055575390073840485 -0.049805812316491234 0 -0.057856037110707144 -0.051098563541376089 0 -0.05847863994006991 -0.049928418356645306 0 -0.055575390073840485 -0.049805812316491234 0 -0.057856037110707144 -0.051098563541376089 0 -0.056027068701233564 -0.051931984589969032 0 -0.052937718610933555 -0.051195133496409771 0 -0.052778054042369897 -0.049409748842137079 0 -0.048997570884449733 -0.049201317779211134 0 -0.055575390073840485 -0.049805812316491234 0 -0.052937718610933555 -0.051195133496409771 0 -0.056027068701233564 -0.051931984589969032 0 -0.055575390073840485 -0.049805812316491234 0 -0.052937718610933555 -0.051195133496409771 0 -0.052778054042369897 -0.049409748842137079 0 -0.055575390073840485 -0.049805812316491234 0 -0.052778054042369897 -0.049409748842137079 0 -0.053481209454764249 -0.047472937098356982 0 -0.048857441015448415 -0.050130476893483072 0 -0.047686832396059808 -0.050616909378044792 0 -0.052778054042369897 -0.049409748842137079 0 -0.053481209454764249 -0.047472937098356982 0 -0.048997570884449733 -0.049201317779211134 0 -0.057175722971292815 -0.048872913263249176 0 -0.055575390073840485 -0.049805812316491234 0 -0.053481209454764249 -0.047472937098356982 0 -0.05055150713817938 -0.049886141841053909 0 -0.048857441015448415 -0.050130476893483072 0 -0.043263654828365888 -0.048716115844223536 0 -0.043062114144260651 -0.049133078426519199 0 -0.043013219394127007 -0.048843204978550346 0 -0.051071603238134367 -0.051581830493801495 0 -0.048857441015448415 -0.050130476893483072 0 -0.041294447413790528 -0.054033939022730182 0 -0.041284869788924455 -0.054180890491917454 0 -0.043062114144260651 -0.049133078426519199 0 -0.042893822895534527 -0.048847045052833056 0 -0.043013219394127007 -0.048843204978550346 0 -0.042893822895534527 -0.048847045052833056 0 -0.042966127219821584 -0.048829878497922023 0 -0.043013219394127007 -0.048843204978550346 0 -0.041284869788924455 -0.054180890491917454 0 -0.04129262359637495 -0.054170703323310788 0 -0.048857441015448415 -0.050130476893483072 0 -0.042570296636045557 -0.049624140734431547 0 -0.040532471281712126 -0.055110511943692028 0 -0.041284869788924455 -0.054180890491917454 0 -0.040612951744424523 -0.047810225655022305 0 -0.042893822895534527 -0.048847045052833056 0 -0.042888012281628182 -0.048341983738426207 0 -0.043062114144260651 -0.049133078426519199 0 -0.042893822895534527 -0.048847045052833056 0 -0.040131821429096395 -0.049544323737006228 0 -0.040612951744424523 -0.047810225655022305 0 -0.042893822895534527 -0.048847045052833056 0 -0.040131821429096395 -0.049544323737006228 0 -0.040612951744424523 -0.047810225655022305 0 -0.03863092499850547 -0.048650177315259814 0 -0.040131821429096395 -0.049544323737006228 0 -0.036965290286315365 -0.049818647521700898 0 -0.03863092499850547 -0.048650177315259814 0 -0.040131821429096395 -0.049544323737006228 0 -0.039005824049492273 -0.051722728499770006 0 -0.040412746913032871 -0.049328876341552509 0 -0.043080785053811799 -0.049740995525441735 0 -0.040412746913032871 -0.049328876341552509 0 -0.043309354859959043 -0.047086095789083911 0 -0.043080785053811799 -0.049740995525441735 0 -0.048611984389104954 -0.046465883262760729 0 -0.043309354859959043 -0.047086095789083911 0 -0.045954969228792358 -0.049337274878926717 0 -0.043309354859959043 -0.047086095789083911 0 -0.043080785053811799 -0.049740995525441735 0 -0.045954969228792358 -0.049337274878926717 0 -0.043080785053811799 -0.049740995525441735 0 -0.045954969228792358 -0.049337274878926717 0 -0.043657442532004376 -0.052076264752680713 0 -0.047686832396059808 -0.050616909378044792 0 -0.046694734692067336 -0.051371384939867495 0 -0.052937718610933555 -0.051195133496409771 0 -0.048997570884449733 -0.049201317779211134 0 -0.048970967179908169 -0.054355593336187322 0 -0.048997570884449733 -0.049201317779211134 0 -0.048970967179908169 -0.054355593336187322 0 -0.043657442532004376 -0.052076264752680713 0 -0.039005824049492273 -0.051722728499770006 0 -0.043080785053811799 -0.049740995525441735 0 -0.043657442532004376 -0.052076264752680713 0 -0.039005824049492273 -0.051722728499770006 0 -0.043657442532004376 -0.052076264752680713 0 -0.040082796882753464 -0.055336695163707851 0 -0.042962575105066778 -0.060076904518521858 0 -0.040082796882753464 -0.055336695163707851 0 -0.044597494489789856 -0.056292559769946217 0 -0.043657442532004376 -0.052076264752680713 0 -0.040082796882753464 -0.055336695163707851 0 -0.044597494489789856 -0.056292559769946217 0 -0.048970967179908169 -0.054355593336187322 0 -0.043657442532004376 -0.052076264752680713 0 -0.044597494489789856 -0.056292559769946217 0 -0.049506675292309656 -0.060751453097419708 0 -0.048970967179908169 -0.054355593336187322 0 -0.044597494489789856 -0.056292559769946217 0 -0.049506675292309656 -0.060751453097419708 0 -0.048970967179908169 -0.054355593336187322 0 -0.053342925586080996 -0.05570654415731971 0 -0.046641097851270484 -0.052363426441746019 0 -0.049876372873569032 -0.054287902486708568 0 -0.055567798620036558 -0.054143862767814827 0 -0.057702516128380309 -0.053031258963635586 0 -0.057697567747313661 -0.054742179111911329 0 -0.056656427587673135 -0.056183019574870027 0 -0.055567798620036558 -0.054143862767814827 0 -0.057697567747313661 -0.054742179111911329 0 -0.057856037110707144 -0.051098563541376089 0 -0.057702516128380309 -0.053031258963635586 0 -0.056027068701233564 -0.051931984589969032 0 -0.055567798620036558 -0.054143862767814827 0 -0.057702516128380309 -0.053031258963635586 0 -0.056027068701233564 -0.051931984589969032 0 -0.052937718610933555 -0.051195133496409771 0 -0.048970967179908169 -0.054355593336187322 0 -0.053342925586080996 -0.05570654415731971 0 -0.050303797255674805 -0.053433725081092044 0 -0.049876372873569032 -0.054287902486708568 0 -0.052937718610933555 -0.051195133496409771 0 -0.055567798620036558 -0.054143862767814827 0 -0.056027068701233564 -0.051931984589969032 0 -0.061276273208069103 -0.052372710688009506 0 -0.059679152045668454 -0.051981136726192326 0 -0.06144912475335227 -0.050824362053901548 0 -0.057856037110707144 -0.051098563541376089 0 -0.057702516128380309 -0.053031258963635586 0 -0.059679152045668454 -0.051981136726192326 0 -0.057702516128380309 -0.053031258963635586 0 -0.059679152045668454 -0.051981136726192326 0 -0.059550192624814001 -0.054134571762044455 0 -0.057702516128380309 -0.053031258963635586 0 -0.057697567747313661 -0.054742179111911329 0 -0.059550192624814001 -0.054134571762044455 0 -0.061276273208069103 -0.052372710688009506 0 -0.059679152045668454 -0.051981136726192326 0 -0.059550192624814001 -0.054134571762044455 0 -0.061276273208069103 -0.052372710688009506 0 -0.059550192624814001 -0.054134571762044455 0 -0.062166004954834944 -0.054124174886398715 0 -0.061276273208069103 -0.052372710688009506 0 -0.062166004954834944 -0.054124174886398715 0 -0.063866565238675815 -0.051322063866526428 0 -0.066913200111475238 -0.048192663085014111 0 -0.063866565238675815 -0.051322063866526428 0 -0.065317173609659579 -0.049431134520741903 0 -0.064546741703023394 -0.055799228293156457 0 -0.062166004954834944 -0.054124174886398715 0 -0.063866565238675815 -0.051322063866526428 0 -0.064566928752326613 -0.050682058556003377 0 -0.064521907822559385 -0.050747911545508791 0 -0.063866565238675815 -0.051322063866526428 0 -0.062569002514037006 -0.050785312344414649 0 -0.063732348516578885 -0.050789198793718231 0 -0.063866565238675815 -0.051322063866526428 0 -0.063732348516578885 -0.050789198793718231 0 -0.065317173609659579 -0.049431134520741903 0 -0.063866565238675815 -0.051322063866526428 0 -0.06144912475335227 -0.050824362053901548 0 -0.062569002514037006 -0.050785312344414649 0 -0.061276273208069103 -0.052372710688009506 0 -0.063866565238675815 -0.051322063866526428 0 -0.06144912475335227 -0.050824362053901548 0 -0.06144912475335227 -0.050824362053901548 0 -0.062569002514037006 -0.050785312344414649 0 -0.06142691757162036 -0.050566862410756246 0 -0.062569002514037006 -0.050785312344414649 0 -0.061867399433991443 -0.050703696527336195 0 -0.06142691757162036 -0.050566862410756246 0 -0.062569002514037006 -0.050785312344414649 0 -0.061867399433991443 -0.050703696527336195 0 -0.063732348516578885 -0.050789198793718231 0 -0.060594555085423926 -0.050975224505647627 0 -0.06142691757162036 -0.050566862410756246 0 -0.060350427172415247 -0.051757750170466868 0 -0.061867399433991443 -0.050703696527336195 0 -0.060594555085423926 -0.050975224505647627 0 -0.06142691757162036 -0.050566862410756246 0 -0.061867399433991443 -0.050703696527336195 0 -0.060594555085423926 -0.050975224505647627 0 -0.061100461040860407 -0.050803702403718502 0 -0.06144912475335227 -0.050824362053901548 0 -0.06142691757162036 -0.050566862410756246 0 -0.061299498351075808 -0.050389675689542994 0 -0.06142691757162036 -0.050566862410756246 0 -0.061299498351075808 -0.050389675689542994 0 -0.060350427172415247 -0.051757750170466868 0 -0.061299498351075808 -0.050389675689542994 0 -0.059807394559093327 -0.050373347297738971 0 -0.059523662970579053 -0.049899249493686168 0 -0.06144912475335227 -0.050824362053901548 0 -0.061299498351075808 -0.050389675689542994 0 -0.059807394559093327 -0.050373347297738971 0 -0.059679152045668454 -0.051981136726192326 0 -0.06144912475335227 -0.050824362053901548 0 -0.059807394559093327 -0.050373347297738971 0 -0.057856037110707144 -0.051098563541376089 0 -0.059679152045668454 -0.051981136726192326 0 -0.059807394559093327 -0.050373347297738971 0 -0.057856037110707144 -0.051098563541376089 0 -0.059807394559093327 -0.050373347297738971 0 -0.05847863994006991 -0.049928418356645306 0 -0.059807394559093327 -0.050373347297738971 0 -0.05847863994006991 -0.049928418356645306 0 -0.059523662970579053 -0.049899249493686168 0 -0.057785929019285524 -0.049058378427747136 0 -0.059523662970579053 -0.049899249493686168 0 -0.059577697943049221 -0.048743377075942951 0 -0.059523662970579053 -0.049899249493686168 0 -0.061817433069411322 -0.051048334944131316 0 -0.059577697943049221 -0.048743377075942951 0 -0.061299498351075808 -0.050389675689542994 0 -0.059523662970579053 -0.049899249493686168 0 -0.061817433069411322 -0.051048334944131316 0 -0.061299498351075808 -0.050389675689542994 0 -0.061817433069411322 -0.051048334944131316 0 -0.059834159625529924 -0.053902871658221163 0 -0.061817433069411322 -0.051048334944131316 0 -0.062533871652419096 -0.059163807240357302 0 -0.059834159625529924 -0.053902871658221163 0 -0.061817433069411322 -0.051048334944131316 0 -0.066771558035850012 -0.053520150892816573 0 -0.062533871652419096 -0.059163807240357302 0 -0.052104911266871896 -0.055526360942439575 0 -0.054274246510255045 -0.060978934986005928 0 -0.055256042578510856 -0.055803707353140095 0 -0.052104911266871896 -0.055526360942439575 0 -0.049306340089229787 -0.070324722319147381 0 -0.049151901215510274 -0.06733427733841002 0 -0.051791049333481776 -0.067673027172075392 0 -0.051791049333481776 -0.067673027172075392 0 -0.051313202085453848 -0.06499997622944477 0 -0.054297805938877175 -0.065000003214524385 0 -0.049151901215510274 -0.06733427733841002 0 -0.051791049333481776 -0.067673027172075392 0 -0.051313202085453848 -0.06499997622944477 0 -0.048328589618092103 -0.064999980684874364 0 -0.049151901215510274 -0.06733427733841002 0 -0.051313202085453848 -0.06499997622944477 0 -0.056149838110745226 -0.063041731254912511 0 -0.054319307424548886 -0.064997526278804632 0 -0.056915219535066341 -0.060411306990428772 0 -0.056149838110745226 -0.063041731254912511 0 -0.054319307424548886 -0.064997526278804632 0 -0.057459319640174152 -0.064997157887398238 0 -0.054319307424548886 -0.064997526278804632 0 -0.058285291316351948 -0.059043141408499353 0 -0.056915219535066341 -0.060411306990428772 0 -0.062533871652419096 -0.059163807240357302 0 -0.054319307424548886 -0.064997526278804632 0 -0.058285291316351948 -0.059043141408499353 0 -0.054274246510255045 -0.060978934986005928 0 -0.05429696690754407 -0.064994865965858115 0 -0.062533871652419096 -0.059163807240357302 0 -0.058285291316351948 -0.059043141408499353 0 -0.059834159625529924 -0.053902871658221163 0 -0.058285291316351948 -0.059043141408499353 0 -0.057666282173345934 -0.057469861581438395 0 -0.056915219535066341 -0.060411306990428772 0 -0.056149838110745226 -0.063041731254912511 0 -0.056915219535066341 -0.060411306990428772 0 -0.054704660783048226 -0.060402420058432209 0 -0.057666282173345934 -0.057469861581438395 0 -0.056915219535066341 -0.060411306990428772 0 -0.054704660783048226 -0.060402420058432209 0 -0.057666282173345934 -0.057469861581438395 0 -0.0583508805633388 -0.054616636443145523 0 -0.059834159625529924 -0.053902871658221163 0 -0.057666282173345934 -0.057469861581438395 0 -0.0583508805633388 -0.054616636443145523 0 -0.054704660783048226 -0.060402420058432209 0 -0.058285291316351948 -0.059043141408499353 0 -0.057666282173345934 -0.057469861581438395 0 -0.059834159625529924 -0.053902871658221163 0 -0.061299498351075808 -0.050389675689542994 0 -0.059834159625529924 -0.053902871658221163 0 -0.060350427172415247 -0.051757750170466868 0 -0.0583508805633388 -0.054616636443145523 0 -0.059834159625529924 -0.053902871658221163 0 -0.060350427172415247 -0.051757750170466868 0 -0.0583508805633388 -0.054616636443145523 0 -0.060350427172415247 -0.051757750170466868 0 -0.059538896188368579 -0.05201541708521 0 -0.060594555085423926 -0.050975224505647627 0 -0.060350427172415247 -0.051757750170466868 0 -0.059538896188368579 -0.05201541708521 0 -0.059538896188368579 -0.05201541708521 0 -0.059516698772058917 -0.050842872151903237 0 -0.057610599370199647 -0.051776864966003984 0 -0.060594555085423926 -0.050975224505647627 0 -0.059538896188368579 -0.05201541708521 0 -0.059516698772058917 -0.050842872151903237 0 -0.061601609602212434 -0.049713381100128629 0 -0.062145106453625726 -0.050668805167118115 0 -0.061258881456434058 -0.050584698308609129 0 -0.059516698772058917 -0.050842872151903237 0 -0.060867900025450609 -0.050337181984184007 0 -0.061258881456434058 -0.050584698308609129 0 -0.060867900025450609 -0.050337181984184007 0 -0.061601609602212434 -0.049713381100128629 0 -0.061258881456434058 -0.050584698308609129 0 -0.062205797934240768 -0.059765520015535957 0 -0.062167338341947646 -0.059937267836708663 0 -0.060867900025450609 -0.050337181984184007 0 -0.061053376005099413 -0.049894938759582466 0 -0.061601609602212434 -0.049713381100128629 0 -0.059516698772058917 -0.050842872151903237 0 -0.060867900025450609 -0.050337181984184007 0 -0.061053376005099413 -0.049894938759582466 0 -0.0583508805633388 -0.054616636443145523 0 -0.059538896188368579 -0.05201541708521 0 -0.057610599370199647 -0.051776864966003984 0 -0.061601609602212434 -0.049713381100128629 0 -0.064406815754859528 -0.050112339171063475 0 -0.064251470179395628 -0.047992497525635967 0 -0.062167338341947646 -0.059937267836708663 0 -0.062988101077818742 -0.060227722104924851 0 -0.061601609602212434 -0.049713381100128629 0 -0.064406815754859528 -0.050112339171063475 0 -0.064784347267718922 -0.052405344595395371 0 -0.061053376005099413 -0.049894938759582466 0 -0.061601609602212434 -0.049713381100128629 0 -0.064251470179395628 -0.047992497525635967 0 -0.058492022263766909 -0.071699499581446446 0 -0.060614790936297076 -0.070162940872839336 0 -0.058644622997420515 -0.068420578037265381 0 -0.062167338341947646 -0.059937267836708663 0 -0.059695443908823552 -0.063130793834349275 0 -0.057708630973012827 -0.059534388166999019 0 -0.057564384698443709 -0.061332759219497587 0 -0.0583508805633388 -0.054616636443145523 0 -0.057610599370199647 -0.051776864966003984 0 -0.055937018002101761 -0.058920346926581928 0 -0.055937018002101761 -0.058920346926581928 0 -0.058424370306399472 -0.060764691218173295 0 -0.058690245259698924 -0.065002713116002198 0 -0.0583508805633388 -0.054616636443145523 0 -0.055937018002101761 -0.058920346926581928 0 -0.058424370306399472 -0.060764691218173295 0 -0.058644622997420515 -0.068420578037265381 0 -0.060768274131560808 -0.067397056702803257 0 -0.058704383303182152 -0.065000018594056672 0 -0.060614790936297076 -0.070162940872839336 0 -0.058644622997420515 -0.068420578037265381 0 -0.060768274131560808 -0.067397056702803257 0 -0.060768274131560808 -0.067397056702803257 0 -0.060897142148198614 -0.064999929573318974 0 -0.058704383303182152 -0.065000018594056672 0 -0.057564384698443709 -0.061332759219497587 0 -0.057475514066648206 -0.06499457434070105 0 -0.058424370306399472 -0.060764691218173295 0 -0.058690245259698924 -0.065002713116002198 0 -0.05748897784566278 -0.064995788252968867 0 -0.059695443908823552 -0.063130793834349275 0 -0.058705393369433187 -0.06499778640350741 0 -0.056149838110745226 -0.063041731254912511 0 -0.054704660783048226 -0.060402420058432209 0 -0.057459319640174152 -0.064997157887398238 0 -0.064657922194994388 -0.063917069139854885 0 -0.063096870458667312 -0.064997791505361238 0 -0.065692158655564103 -0.062922974425750997 0 -0.064657922194994388 -0.063917069139854885 0 -0.064997903633050247 -0.06499831475787822 0 -0.064997535234524076 -0.062743508473812909 0 -0.063091444987662795 -0.064997878898210543 0 -0.063849750569137623 -0.061163360878722414 0 -0.064657922194994388 -0.063917069139854885 0 -0.064997903633050247 -0.06499831475787822 0 -0.063096870458667312 -0.064997791505361238 0 -0.063090080323076198 -0.065000002220880371 0 -0.06189739981075474 -0.066506345296299285 0 -0.062816248775545619 -0.068598135263810672 0 -0.060768274131560808 -0.067397056702803257 0 -0.060897142148198614 -0.064999929573318974 0 -0.06189739981075474 -0.066506345296299285 0 -0.060897142148198614 -0.064999929573318974 0 -0.063090080323076198 -0.065000002220880371 0 -0.06189739981075474 -0.066506345296299285 0 -0.060614790936297076 -0.070162940872839336 0 -0.060768274131560808 -0.067397056702803257 0 -0.062816248775545619 -0.068598135263810672 0 -0.060768274131560808 -0.067397056702803257 0 -0.06189739981075474 -0.066506345296299285 0 -0.062816248775545619 -0.068598135263810672 0 -0.067075391546541296 -0.061199777044873969 0 -0.064999969233294166 -0.062737887833929348 0 -0.065000056699740461 -0.059754757792906101 0 -0.064657922194994388 -0.063917069139854885 0 -0.065692158655564103 -0.062922974425750997 0 -0.064997535234524076 -0.062743508473812909 0 -0.063849750569137623 -0.061163360878722414 0 -0.064997482098622758 -0.062734081265417713 0 -0.067075391546541296 -0.061199777044873969 0 -0.065000056699740461 -0.059754757792906101 0 -0.067228403230323669 -0.057497974703031217 0 -0.062988101077818742 -0.060227722104924851 0 -0.063849750569137623 -0.061163360878722414 0 -0.063849750569137623 -0.061163360878722414 0 -0.065445242663787997 -0.055031737125056233 0 -0.064251470179395628 -0.047992497525635967 0 -0.066909965698696283 -0.046074306314177763 0 -0.066710061265078627 -0.050302532492622815 0 -0.064406815754859528 -0.050112339171063475 0 -0.066710061265078627 -0.050302532492622815 0 -0.064784347267718922 -0.052405344595395371 0 -0.064406815754859528 -0.050112339171063475 0 -0.064251470179395628 -0.047992497525635967 0 -0.066710061265078627 -0.050302532492622815 0 -0.065000056699740461 -0.059754757792906101 0 -0.067228403230323669 -0.057497974703031217 0 -0.064999721219028153 -0.056770906671916074 0 -0.067228403230323669 -0.057497974703031217 0 -0.066249488005781676 -0.05548919033409791 0 -0.066629259672213698 -0.053499976132551384 0 -0.064999721219028153 -0.056770906671916074 0 -0.066249488005781676 -0.05548919033409791 0 -0.066024117482147468 -0.054301771959222693 0 -0.067228403230323669 -0.057497974703031217 0 -0.064999721219028153 -0.056770906671916074 0 -0.066249488005781676 -0.05548919033409791 0 -0.064999721219028153 -0.056770906671916074 0 -0.065000017034000879 -0.053788445841183856 0 -0.066024117482147468 -0.054301771959222693 0 -0.065000017034000879 -0.053788445841183856 0 -0.066024117482147468 -0.054301771959222693 0 -0.066937576841255425 -0.053724956181719886 0 -0.066249488005781676 -0.05548919033409791 0 -0.066024117482147468 -0.054301771959222693 0 -0.066629259672213698 -0.053499976132551384 0 -0.066024117482147468 -0.054301771959222693 0 -0.066937576841255425 -0.053724956181719886 0 -0.066629259672213698 -0.053499976132551384 0 -0.064041100070370435 -0.050475997131828196 0 -0.064497047705414215 -0.050256078608530139 0 -0.063477123391686444 -0.050512766944828404 0 -0.065018429868376415 -0.051362789243196365 0 -0.064232147202687592 -0.051018594844970948 0 -0.066937576841255425 -0.053724956181719886 0 -0.066629259672213698 -0.053499976132551384 0 -0.064784347267718922 -0.052405344595395371 0 -0.064041100070370435 -0.050475997131828196 0 -0.064497047705414215 -0.050256078608530139 0 -0.06441906133391051 -0.050335713894026607 0 -0.065445242663787997 -0.055031737125056233 0 -0.065806061685720188 -0.054175145140405605 0 -0.066710061265078627 -0.050302532492622815 0 -0.066629259672213698 -0.053499976132551384 0 -0.064784347267718922 -0.052405344595395371 0 -0.063457240917287105 -0.050411277120277417 0 -0.064232147202687592 -0.051018594844970948 0 -0.061601609602212434 -0.049713381100128629 0 -0.062145106453625726 -0.050668805167118115 0 -0.063477123391686444 -0.050512766944828404 0 -0.062145106453625726 -0.050668805167118115 0 -0.063477123391686444 -0.050512766944828404 0 -0.063357027015935666 -0.050658131485326906 0 -0.059516698772058917 -0.050842872151903237 0 -0.061100461040860407 -0.050803702403718502 0 -0.061258881456434058 -0.050584698308609129 0 -0.060594555085423926 -0.050975224505647627 0 -0.059516698772058917 -0.050842872151903237 0 -0.061100461040860407 -0.050803702403718502 0 -0.062145106453625726 -0.050668805167118115 0 -0.061100461040860407 -0.050803702403718502 0 -0.061258881456434058 -0.050584698308609129 0 -0.062145106453625726 -0.050668805167118115 0 -0.061100461040860407 -0.050803702403718502 0 -0.062811882596046822 -0.050757280579008628 0 -0.061867399433991443 -0.050703696527336195 0 -0.061100461040860407 -0.050803702403718502 0 -0.062811882596046822 -0.050757280579008628 0 -0.062811882596046822 -0.050757280579008628 0 -0.063954839557537627 -0.050531553875985076 0 -0.063732348516578885 -0.050789198793718231 0 -0.061867399433991443 -0.050703696527336195 0 -0.062811882596046822 -0.050757280579008628 0 -0.063732348516578885 -0.050789198793718231 0 -0.064041100070370435 -0.050475997131828196 0 -0.063477123391686444 -0.050512766944828404 0 -0.063357027015935666 -0.050658131485326906 0 -0.062145106453625726 -0.050668805167118115 0 -0.062811882596046822 -0.050757280579008628 0 -0.063357027015935666 -0.050658131485326906 0 -0.062811882596046822 -0.050757280579008628 0 -0.063357027015935666 -0.050658131485326906 0 -0.063954839557537627 -0.050531553875985076 0 -0.064041100070370435 -0.050475997131828196 0 -0.063357027015935666 -0.050658131485326906 0 -0.063954839557537627 -0.050531553875985076 0 -0.064041100070370435 -0.050475997131828196 0 -0.063954839557537627 -0.050531553875985076 0 -0.06458620085675261 -0.050175439502277062 0 -0.063954839557537627 -0.050531553875985076 0 -0.064629666453351359 -0.050005613318162681 0 -0.06458620085675261 -0.050175439502277062 0 -0.063954839557537627 -0.050531553875985076 0 -0.063732348516578885 -0.050789198793718231 0 -0.064629666453351359 -0.050005613318162681 0 -0.063732348516578885 -0.050789198793718231 0 -0.065317173609659579 -0.049431134520741903 0 -0.064629666453351359 -0.050005613318162681 0 -0.065317173609659579 -0.049431134520741903 0 -0.064629666453351359 -0.050005613318162681 0 -0.065108740634292672 -0.049162888787409577 0 -0.064629666453351359 -0.050005613318162681 0 -0.065108740634292672 -0.049162888787409577 0 -0.06458620085675261 -0.050175439502277062 0 -0.065108740634292672 -0.049162888787409577 0 -0.065077876036279167 -0.049423378841209273 0 -0.06458620085675261 -0.050175439502277062 0 -0.065077876036279167 -0.049423378841209273 0 -0.06458620085675261 -0.050175439502277062 0 -0.064695775973202321 -0.050329450081388373 0 -0.06499855349269712 -0.047056627092066809 0 -0.065077876036279167 -0.049423378841209273 0 -0.064998039555953124 -0.050800773993550014 0 -0.065077876036279167 -0.049423378841209273 0 -0.064998039555953124 -0.050800773993550014 0 -0.064695775973202321 -0.050329450081388373 0 -0.065018429868376415 -0.051362789243196365 0 -0.064999882570670575 -0.050805776969048914 0 -0.064497047705414215 -0.050256078608530139 0 -0.064998039555953124 -0.050800773993550014 0 -0.064695775973202321 -0.050329450081388373 0 -0.065000017034000879 -0.053788445841183856 0 -0.066937576841255425 -0.053724956181719886 0 -0.064999952297528168 -0.050805033299504025 0 -0.064497047705414215 -0.050256078608530139 0 -0.06441906133391051 -0.050335713894026607 0 -0.064695775973202321 -0.050329450081388373 0 -0.064041100070370435 -0.050475997131828196 0 -0.06441906133391051 -0.050335713894026607 0 -0.06458620085675261 -0.050175439502277062 0 -0.06441906133391051 -0.050335713894026607 0 -0.06458620085675261 -0.050175439502277062 0 -0.064695775973202321 -0.050329450081388373 0 -0.023759006729307301 -0.059971216002392823 0 -0.021286277930344506 -0.059273573069840962 0 -0.040291599967323531 -0.056125631139740423 0 -0.040278905830800391 -0.05592908212159186 0 -0.040649329697545637 -0.054642046049978514 0 -0.040278905830800391 -0.05592908212159186 0 -0.040649329697545637 -0.054642046049978514 0 -0.040097527676414571 -0.055404001072819911 0 -0.0074024069973825648 -0.064264675263502782 0 -0.0054210464882185486 -0.064849567299363683 0 -0.0064857881133455171 -0.066306486743549498 0 -0.0054210464882185486 -0.064849567299363683 0 -0.0054832350971258936 -0.062919458587924249 0 -0.0036337195724890285 -0.064585401779902671 0 -0.0064857881133455171 -0.066306486743549498 0 -0.0044098198154415907 -0.066370522997496906 0 -0.0051046317093061894 -0.067531738654970558 0 -0.0054210464882185486 -0.064849567299363683 0 -0.0043212684904921075 -0.065432119926714369 0 -0.0044098198154415907 -0.066370522997496906 0 -0.0054210464882185486 -0.064849567299363683 0 -0.0064857881133455171 -0.066306486743549498 0 -0.0044098198154415907 -0.066370522997496906 0 -0.040649329697545637 -0.054642046049978514 0 -0.039885383254703755 -0.055077030016873106 0 -0.040097527676414571 -0.055404001072819911 0 -0.040649329697545637 -0.054642046049978514 0 -0.039885383254703755 -0.055077030016873106 0 -0.040068549035879884 -0.054265617962552699 0 -0.039885383254703755 -0.055077030016873106 0 -0.038850152770558276 -0.055424120485876534 0 -0.040068549035879884 -0.054265617962552699 0 -0.035986260380682027 -0.053362176887302576 0 -0.033442042664860352 -0.051701121516952747 0 -0.038805123201649763 -0.054676897759579478 0 -0.038446176758032156 -0.052930707405003642 0 -0.04000518759575971 -0.052892808552502987 0 -0.038805123201649763 -0.054676897759579478 0 -0.038446176758032156 -0.052930707405003642 0 -0.037261072393917793 -0.053883066945419361 0 -0.038805123201649763 -0.054676897759579478 0 -0.037261072393917793 -0.053883066945419361 0 -0.036983788259072087 -0.057035683058046231 0 -0.035986260380682027 -0.053362176887302576 0 -0.03600506475488191 -0.054588192905383214 0 -0.038850152770558276 -0.055424120485876534 0 -0.039566696938876475 -0.056303186522750945 0 -0.038782730832384572 -0.057053032635813287 0 -0.040278905830800391 -0.05592908212159186 0 -0.040097527676414571 -0.055404001072819911 0 -0.039914598714849966 -0.05580431082350204 0 -0.039885383254703755 -0.055077030016873106 0 -0.039672622272668781 -0.055587251212227261 0 -0.040097527676414571 -0.055404001072819911 0 -0.039672622272668781 -0.055587251212227261 0 -0.040097527676414571 -0.055404001072819911 0 -0.039914598714849966 -0.05580431082350204 0 -0.039885383254703755 -0.055077030016873106 0 -0.038850152770558276 -0.055424120485876534 0 -0.039672622272668781 -0.055587251212227261 0 -0.038850152770558276 -0.055424120485876534 0 -0.039672622272668781 -0.055587251212227261 0 -0.039566696938876475 -0.056303186522750945 0 -0.039672622272668781 -0.055587251212227261 0 -0.039566696938876475 -0.056303186522750945 0 -0.039914598714849966 -0.05580431082350204 0 -0.040278905830800391 -0.05592908212159186 0 -0.039566696938876475 -0.056303186522750945 0 -0.039914598714849966 -0.05580431082350204 0 -0.039566696938876475 -0.056303186522750945 0 -0.038782730832384572 -0.057053032635813287 0 -0.040013893754712322 -0.058356797198413086 0 -0.040278905830800391 -0.05592908212159186 0 -0.039566696938876475 -0.056303186522750945 0 -0.040013893754712322 -0.058356797198413086 0 -0.040291599967323531 -0.056125631139740423 0 -0.040278905830800391 -0.05592908212159186 0 -0.03941885037996376 -0.057791114592719121 0 -0.030861634749453023 -0.056274497588870015 0 -0.026376138461329982 -0.060131124601163842 0 -0.023759006729307301 -0.059971216002392823 0 -0.026376138461329982 -0.060131124601163842 0 -0.038850152770558276 -0.055424120485876534 0 -0.038782730832384572 -0.057053032635813287 0 -0.036983788259072087 -0.057035683058046231 0 -0.038782730832384572 -0.057053032635813287 0 -0.038237435767098357 -0.058655344454499485 0 -0.036983788259072087 -0.057035683058046231 0 -0.038782730832384572 -0.057053032635813287 0 -0.038237435767098357 -0.058655344454499485 0 -0.040013893754712322 -0.058356797198413086 0 -0.038237435767098357 -0.058655344454499485 0 -0.036375809316295436 -0.059032177731694759 0 -0.037429762110004455 -0.060724542218546854 0 -0.038237435767098357 -0.058655344454499485 0 -0.040013893754712322 -0.058356797198413086 0 -0.039695145770345254 -0.060408236179739359 0 -0.026376138461329982 -0.060131124601163842 0 -0.022553415793786186 -0.065386550616363365 0 -0.0083392552575926437 -0.062192724037191983 0 -0.0074062084736588544 -0.061281616304665235 0 -0.0088827388482139134 -0.060815033859901634 0 -0.0074062084736588544 -0.061281616304665235 0 -0.0070516452716244656 -0.062799828635867971 0 -0.0054832350971258936 -0.062919458587924249 0 -0.0083392552575926437 -0.062192724037191983 0 -0.0074062084736588544 -0.061281616304665235 0 -0.0070516452716244656 -0.062799828635867971 0 -0.012671023869444823 -0.071634221479210031 0 -0.0091109951910053021 -0.072624343603564956 0 -0.0074024069973825648 -0.064264675263502782 0 -0.0070516452716244656 -0.062799828635867971 0 -0.0054832350971258936 -0.062919458587924249 0 -0.0074024069973825648 -0.064264675263502782 0 -0.0083392552575926437 -0.062192724037191983 0 -0.0070516452716244656 -0.062799828635867971 0 -0.0074024069973825648 -0.064264675263502782 0 -0.0054210464882185486 -0.064849567299363683 0 -0.0054832350971258936 -0.062919458587924249 0 -0.013492628092604918 -0.079585657657325837 0 -0.01087182610507057 -0.081747507859699323 0 -0.01095747328715135 -0.079346720711615415 0 -0.01087182610507057 -0.081747507859699323 0 -0.0090783593512029949 -0.080383259592763615 0 -0.01095747328715135 -0.079346720711615415 0 -0.0090053284533203916 -0.080208175858467831 0 -0.0087228471908948821 -0.080592239121209733 0 -0.009068254862811282 -0.077152468247964498 0 -0.0031020506130138592 -0.074293204784919062 0 -0.0036558966786160124 -0.07438630921679612 0 -0.0036152999385263233 -0.074579536397105337 0 -0.0036558966786160124 -0.07438630921679612 0 -0.0035071741231278175 -0.073696409741598495 0 -0.0039151286118061616 -0.0748737558966205 0 -0.0035071741231278175 -0.073696409741598495 0 -0.004304275706465379 -0.074101283334935555 0 -0.0037710164785425917 -0.07534196885235836 0 -0.0035071741231278175 -0.073696409741598495 0 -0.00372656707338139 -0.075383889135673302 0 -0.0037710164785425917 -0.07534196885235836 0 -0.0032093668715097766 -0.074534839763147454 0 -0.0030916621987822058 -0.074680503919126853 0 -0.0036558966786160124 -0.07438630921679612 0 -0.0037268070982177455 -0.074637040469426694 0 -0.0036152999385263233 -0.074579536397105337 0 -0.0036558966786160124 -0.07438630921679612 0 -0.0037680476001510318 -0.074664060882582095 0 -0.0037268070982177455 -0.074637040469426694 0 -0.0031020506130138592 -0.074293204784919062 0 -0.0036558966786160124 -0.07438630921679612 0 -0.0035071741231278175 -0.073696409741598495 0 -0.0035071741231278175 -0.073696409741598495 0 -0.004304275706465379 -0.074101283334935555 0 -0.0041284501490738814 -0.072467282020292484 0 -0.0035071741231278175 -0.073696409741598495 0 -0.0032182343476302531 -0.072885224267505128 0 -0.0041284501490738814 -0.072467282020292484 0 -0.01087182610507057 -0.081747507859699323 0 -0.0089214623467987215 -0.083203899055276129 0 -0.0083592571857283582 -0.083931404715684138 0 -0.0087228471908948821 -0.080592239121209733 0 -0.0089214623467987215 -0.083203899055276129 0 -0.0083592571857283582 -0.083931404715684138 0 -0.0078587138481256216 -0.079506316771021115 0 -0.0080189360609043882 -0.080992160192943641 0 -0.0091109951910053021 -0.072624343603564956 0 -0.0072549503058214806 -0.07280250637727266 0 -0.01087182610507057 -0.081747507859699323 0 -0.0090783593512029949 -0.080383259592763615 0 -0.0089214623467987215 -0.083203899055276129 0 -0.0068061572390759884 -0.076193530875019663 0 -0.0072549503058214806 -0.07280250637727266 0 -0.0031020506130138592 -0.074293204784919062 0 -0.0032182343476302531 -0.072885224267505128 0 -0.0026324169943518758 -0.072318615683428969 0 -0.0031020506130138592 -0.074293204784919062 0 -0.0035071741231278175 -0.073696409741598495 0 -0.0032182343476302531 -0.072885224267505128 0 -0.0090053284533203916 -0.080208175858467831 0 -0.0087228471908948821 -0.080592239121209733 0 -0.0089214623467987215 -0.083203899055276129 0 -0.0020744876766429525 -0.076844452774056771 0 -0.0023916472797969515 -0.075574688361190606 0 -0.0012810979056489509 -0.075943732660886318 0 -0.00305948249838073 -0.074228669352825224 0 -0.0032449314650897566 -0.074501474801179343 0 -0.004304275706465379 -0.074101283334935555 0 -0.005821575979800586 -0.073771150853618836 0 -0.0037710164785425917 -0.07534196885235836 0 -0.0020744876766429525 -0.076844452774056771 0 -0.0023916472797969515 -0.075574688361190606 0 -0.0037710164785425917 -0.07534196885235836 0 -0.004304275706465379 -0.074101283334935555 0 -0.005821575979800586 -0.073771150853618836 0 -0.0054196901731537236 -0.072459616649169584 0 -0.004304275706465379 -0.074101283334935555 0 -0.0054196901731537236 -0.072459616649169584 0 -0.0041284501490738814 -0.072467282020292484 0 -0.005821575979800586 -0.073771150853618836 0 -0.0054196901731537236 -0.072459616649169584 0 -0.0074162836363645167 -0.07195535830092778 0 -0.00305948249838073 -0.074228669352825224 0 -0.002388710768208084 -0.073178744137168489 0 -0.0054196901731537236 -0.072459616649169584 0 -0.0049953973568144256 -0.070934049089309267 0 -0.0074162836363645167 -0.07195535830092778 0 -0.0054196901731537236 -0.072459616649169584 0 -0.0049953973568144256 -0.070934049089309267 0 -0.0041284501490738814 -0.072467282020292484 0 -0.0049953973568144256 -0.070934049089309267 0 -0.0041284501490738814 -0.072467282020292484 0 -0.0038047381887067358 -0.071269133915537908 0 -0.0049953973568144256 -0.070934049089309267 0 -0.0038424100174079753 -0.070010864487076233 0 -0.0046071254909580608 -0.069167799934531066 0 -0.0049953973568144256 -0.070934049089309267 0 -0.0061861667755290766 -0.069595461531087852 0 -0.0046071254909580608 -0.069167799934531066 0 -0.0049953973568144256 -0.070934049089309267 0 -0.0038047381887067358 -0.071269133915537908 0 -0.0038424100174079753 -0.070010864487076233 0 -0.0049953973568144256 -0.070934049089309267 0 -0.0061861667755290766 -0.069595461531087852 0 -0.0074162836363645167 -0.07195535830092778 0 -0.0054210464882185486 -0.064849567299363683 0 -0.0043212684904921075 -0.065432119926714369 0 -0.0036337195724890285 -0.064585401779902671 0 -0.0025651410074503558 -0.072305826440030543 0 -0.002770884214887782 -0.072112689690399148 0 -0.0027712949263920534 -0.06996577762266086 0 -0.0032182343476302531 -0.072885224267505128 0 -0.0026324169943518758 -0.072318615683428969 0 -0.002770884214887782 -0.072112689690399148 0 -0.0072549503058214806 -0.07280250637727266 0 -0.0072178735634823472 -0.072819551097775423 0 -0.0032182343476302531 -0.072885224267505128 0 -0.0034218385455890704 -0.072052965116092188 0 -0.0041284501490738814 -0.072467282020292484 0 -0.0032182343476302531 -0.072885224267505128 0 -0.002770884214887782 -0.072112689690399148 0 -0.0034218385455890704 -0.072052965116092188 0 -0.0034218385455890704 -0.072052965116092188 0 -0.0041284501490738814 -0.072467282020292484 0 -0.0038047381887067358 -0.071269133915537908 0 -0.002770884214887782 -0.072112689690399148 0 -0.0034218385455890704 -0.072052965116092188 0 -0.0032909100320469755 -0.071524614251309904 0 -0.002770884214887782 -0.072112689690399148 0 -0.0032909100320469755 -0.071524614251309904 0 -0.003226423698345702 -0.070822684906643715 0 -0.0034218385455890704 -0.072052965116092188 0 -0.0032909100320469755 -0.071524614251309904 0 -0.0038047381887067358 -0.071269133915537908 0 -0.002770884214887782 -0.072112689690399148 0 -0.003226423698345702 -0.070822684906643715 0 -0.0027712949263920534 -0.06996577762266086 0 -0.0032909100320469755 -0.071524614251309904 0 -0.003226423698345702 -0.070822684906643715 0 -0.0038047381887067358 -0.071269133915537908 0 -0.003226423698345702 -0.070822684906643715 0 -0.0038047381887067358 -0.071269133915537908 0 -0.0038424100174079753 -0.070010864487076233 0 -0.003226423698345702 -0.070822684906643715 0 -0.0038424100174079753 -0.070010864487076233 0 -0.0027712949263920534 -0.06996577762266086 0 -0.0072549503058214806 -0.07280250637727266 0 -0.0057889013191894986 -0.069504512578119501 0 -0.0043212684904921075 -0.065432119926714369 0 -0.0036337195724890285 -0.064585401779902671 0 -0.0034899991645611617 -0.066573272376974399 0 -0.0043212684904921075 -0.065432119926714369 0 -0.0034899991645611617 -0.066573272376974399 0 -0.0044098198154415907 -0.066370522997496906 0 -0.0034899991645611617 -0.066573272376974399 0 -0.0044098198154415907 -0.066370522997496906 0 -0.0040117613923742745 -0.067141085159574176 0 -0.0044098198154415907 -0.066370522997496906 0 -0.0040117613923742745 -0.067141085159574176 0 -0.0044879192283634106 -0.067071126881837376 0 -0.0034899991645611617 -0.066573272376974399 0 -0.0040117613923742745 -0.067141085159574176 0 -0.0034787869616613814 -0.067824776818884214 0 -0.0040117613923742745 -0.067141085159574176 0 -0.0039793231232591146 -0.067568717241651546 0 -0.004265713753995269 -0.067406482203019785 0 -0.0027712949263920534 -0.06996577762266086 0 -0.0038071367174314051 -0.068865877931331032 0 -0.0034787869616613814 -0.067824776818884214 0 -0.0057889013191894986 -0.069504512578119501 0 -0.0053593833768049836 -0.068798581293011585 0 -0.0038071367174314051 -0.068865877931331032 0 -0.0041270201634297995 -0.067762101201756686 0 -0.0046071254909580608 -0.069167799934531066 0 -0.0038424100174079753 -0.070010864487076233 0 -0.0027712949263920534 -0.06996577762266086 0 -0.0038071367174314051 -0.068865877931331032 0 -0.0038424100174079753 -0.070010864487076233 0 -0.0038071367174314051 -0.068865877931331032 0 -0.0046071254909580608 -0.069167799934531066 0 -0.0041270201634297995 -0.067762101201756686 0 -0.0049061912048554692 -0.067423713426665643 0 -0.0036710696014882424 -0.06757461148936815 0 -0.0038071367174314051 -0.068865877931331032 0 -0.0034787869616613814 -0.067824776818884214 0 -0.0041270201634297995 -0.067762101201756686 0 -0.0041270201634297995 -0.067762101201756686 0 -0.0036406097118046356 -0.067702029401078098 0 -0.0036710696014882424 -0.06757461148936815 0 -0.0034787869616613814 -0.067824776818884214 0 -0.0041270201634297995 -0.067762101201756686 0 -0.0036406097118046356 -0.067702029401078098 0 -0.0036406097118046356 -0.067702029401078098 0 -0.0038102873707483303 -0.067786020219243875 0 -0.0036710696014882424 -0.06757461148936815 0 -0.0034787869616613814 -0.067824776818884214 0 -0.0036406097118046356 -0.067702029401078098 0 -0.0038102873707483303 -0.067786020219243875 0 -0.0034787869616613814 -0.067824776818884214 0 -0.0038102873707483303 -0.067786020219243875 0 -0.0039793231232591146 -0.067568717241651546 0 -0.0038102873707483303 -0.067786020219243875 0 -0.0041020163778746274 -0.067689998585163461 0 -0.0039793231232591146 -0.067568717241651546 0 -0.0038102873707483303 -0.067786020219243875 0 -0.0041020163778746274 -0.067689998585163461 0 -0.0040012809916962055 -0.067850597535631232 0 -0.0041020163778746274 -0.067689998585163461 0 -0.0039793231232591146 -0.067568717241651546 0 -0.004265713753995269 -0.067406482203019785 0 -0.0040117613923742745 -0.067141085159574176 0 -0.0034787869616613814 -0.067824776818884214 0 -0.0039793231232591146 -0.067568717241651546 0 -0.0061861667755290766 -0.069595461531087852 0 -0.0053288062859549734 -0.068328143215078435 0 -0.0065024084408896983 -0.06752880208542901 0 -0.0061861667755290766 -0.069595461531087852 0 -0.0046071254909580608 -0.069167799934531066 0 -0.0053288062859549734 -0.068328143215078435 0 -0.0041270201634297995 -0.067762101201756686 0 -0.0053288062859549734 -0.068328143215078435 0 -0.0049061912048554692 -0.067423713426665643 0 -0.0041270201634297995 -0.067762101201756686 0 -0.0046071254909580608 -0.069167799934531066 0 -0.0053288062859549734 -0.068328143215078435 0 -0.0053288062859549734 -0.068328143215078435 0 -0.0049061912048554692 -0.067423713426665643 0 -0.0065024084408896983 -0.06752880208542901 0 -0.0039412247209015946 -0.066692485740788954 0 -0.0065024084408896983 -0.06752880208542901 0 -0.0054504103103076781 -0.065791860220319756 0 -0.0059454785228938373 -0.063375065326221905 0 -0.0062929522448824477 -0.064097530577408579 0 -0.0065024084408896983 -0.06752880208542901 0 -0.0054504103103076781 -0.065791860220319756 0 -0.0069437020088368396 -0.064785388431233673 0 -0.0054504103103076781 -0.065791860220319756 0 -0.0054158118817846388 -0.064335243025190725 0 -0.0069437020088368396 -0.064785388431233673 0 -0.0054504103103076781 -0.065791860220319756 0 -0.0040788962427897608 -0.064959334551991058 0 -0.0054158118817846388 -0.064335243025190725 0 -0.0059454785228938373 -0.063375065326221905 0 -0.0062951276507637495 -0.06136726809779107 0 -0.0039412247209015946 -0.066692485740788954 0 -0.0054504103103076781 -0.065791860220319756 0 -0.0040788962427897608 -0.064959334551991058 0 -0.0039412247209015946 -0.066692485740788954 0 -0.0040788962427897608 -0.064959334551991058 0 -0.002463892419590428 -0.065425424639423232 0 -0.0040788962427897608 -0.064959334551991058 0 -0.0030203819473185014 -0.064627489260509499 0 -0.002463892419590428 -0.065425424639423232 0 -0.0040788962427897608 -0.064959334551991058 0 -0.0030203819473185014 -0.064627489260509499 0 -0.0031611784856982517 -0.063795491898636744 0 -0.0030203819473185014 -0.064627489260509499 0 -0.0031611784856982517 -0.063795491898636744 0 -0.0023773990841329078 -0.064328404919377372 0 -0.0033006655088883164 -0.062392407858747966 0 -0.0031611784856982517 -0.063795491898636744 0 -0.004514673673196367 -0.063148329334038397 0 -0.0033006655088883164 -0.062392407858747966 0 -0.0031611784856982517 -0.063795491898636744 0 -0.0021958937744567218 -0.063461517088010705 0 -0.0040788962427897608 -0.064959334551991058 0 -0.0031611784856982517 -0.063795491898636744 0 -0.004514673673196367 -0.063148329334038397 0 -0.0040788962427897608 -0.064959334551991058 0 -0.004514673673196367 -0.063148329334038397 0 -0.0054158118817846388 -0.064335243025190725 0 -0.004514673673196367 -0.063148329334038397 0 -0.0054158118817846388 -0.064335243025190725 0 -0.0060789182208571772 -0.063004193309017756 0 -0.0054158118817846388 -0.064335243025190725 0 -0.0060789182208571772 -0.063004193309017756 0 -0.0069437020088368396 -0.064785388431233673 0 -0.0038102873707483303 -0.067786020219243875 0 -0.0039579798494712402 -0.06800097438398342 0 -0.0036710696014882424 -0.06757461148936815 0 8.3675698337173218e-05 -0.064832650500605021 0 0.00039812672478279102 -0.065203720038224264 0 -0.0016889433237471366 -0.065882121698758886 0 -0.0099946796151982441 -0.058051428427878256 0 -0.0062951276507637495 -0.06136726809779107 0 -0.014600972160332256 -0.056455611929706398 0 -0.0092029741928078921 -0.055256796489378153 0 -0.010440623709180736 -0.061349166921952768 0 -0.008388623900865819 -0.058324587452185189 0 -0.010035532236645958 -0.057267582607606546 0 -0.010035532236645958 -0.057267582607606546 0 -0.011023994037988996 -0.057523355610346501 0 -0.0092029741928078921 -0.055256796489378153 0 -0.010440623709180736 -0.061349166921952768 0 -0.0071130674901120974 -0.060337538967246168 0 -0.0099946796151982441 -0.058051428427878256 0 -0.011023994037988996 -0.057523355610346501 0 -0.008388623900865819 -0.058324587452185189 0 -0.0099946796151982441 -0.058051428427878256 0 -0.0039579798494712402 -0.06800097438398342 0 -0.0040012809916962055 -0.067850597535631232 0 -0.0041397576050403 -0.067905212285620006 0 -0.0038102873707483303 -0.067786020219243875 0 -0.0039579798494712402 -0.06800097438398342 0 -0.0040012809916962055 -0.067850597535631232 0 -0.0039412247209015946 -0.066692485740788954 0 -0.0016889433237471366 -0.065882121698758886 0 -0.002463892419590428 -0.065425424639423232 0 8.3675698337173218e-05 -0.064832650500605021 0 -0.0016889433237471366 -0.065882121698758886 0 -0.002463892419590428 -0.065425424639423232 0 0.00038260141194663858 -0.064765100937588346 0 -0.002463892419590428 -0.065425424639423232 0 -0.0012261897583405723 -0.064216825139436995 0 -0.008388623900865819 -0.058324587452185189 0 -0.0050857723554058511 -0.059317838135131473 0 -0.0030203819473185014 -0.064627489260509499 0 -0.002463892419590428 -0.065425424639423232 0 -0.0023773990841329078 -0.064328404919377372 0 -0.002463892419590428 -0.065425424639423232 0 -0.0012261897583405723 -0.064216825139436995 0 -0.0023773990841329078 -0.064328404919377372 0 -0.0031611784856982517 -0.063795491898636744 0 -0.0023773990841329078 -0.064328404919377372 0 -0.0021958937744567218 -0.063461517088010705 0 -0.0012261897583405723 -0.064216825139436995 0 -0.0023773990841329078 -0.064328404919377372 0 -0.0021958937744567218 -0.063461517088010705 0 -0.0015049098422758695 -0.062529009124370996 0 -0.0033006655088883164 -0.062392407858747966 0 -0.0021958937744567218 -0.063461517088010705 0 -0.0015049098422758695 -0.062529009124370996 0 -0.0012261897583405723 -0.064216825139436995 0 -0.0021958937744567218 -0.063461517088010705 0 -0.0015049098422758695 -0.062529009124370996 0 0.00038260141194663858 -0.064765100937588346 0 -0.0012261897583405723 -0.064216825139436995 0 -0.0044889088172185019 -0.06083075476272292 0 -0.008388623900865819 -0.058324587452185189 0 -0.00243141212873005 -0.059808130123506324 0 -0.0029797799822214341 -0.059966410361790144 0 -0.0022423832277351429 -0.060827569876639287 0 -0.0059462741253864014 -0.047835955630799801 0 -0.0069435000406377163 -0.047705304360367913 0 -0.0065018773716489725 -0.048835509448130102 0 -0.0065516601553552174 -0.054359756881550675 0 -0.010035532236645958 -0.057267582607606546 0 -0.00243141212873005 -0.059808130123506324 0 -0.0022423832277351429 -0.060827569876639287 0 -0.0020654890066138711 -0.060786502396242816 0 -0.0059462741253864014 -0.047835955630799801 0 -0.0065018773716489725 -0.048835509448130102 0 -0.0052861010142035581 -0.04855290982385891 0 -0.010035532236645958 -0.057267582607606546 0 -0.016659346014301447 -0.051536205809370184 0 -0.011959475359025553 -0.054167026516009693 0 -0.01565536029527629 -0.054585255120630102 0 -0.015824654800832227 -0.055006887419019282 0 -0.0049728457193093881 -0.047761776938914688 0 -0.0059462741253864014 -0.047835955630799801 0 -0.0052861010142035581 -0.04855290982385891 0 -0.016027279766127795 -0.04696697672078564 0 -0.016659346014301447 -0.051536205809370184 0 -0.015926653207401709 -0.049159156228408413 0 -0.015398243652367959 -0.051637481412332299 0 -0.014794842233240523 -0.050559246987047592 0 -0.015926653207401709 -0.049159156228408413 0 -0.017058831371679604 -0.052009315536929564 0 -0.015398243652367959 -0.051637481412332299 0 -0.016027279766127795 -0.04696697672078564 0 -0.020367648492678504 -0.048712608714896494 0 -0.01716017519911496 -0.052508847169238315 0 -0.016659346014301447 -0.051536205809370184 0 -0.016659346014301447 -0.051536205809370184 0 -0.020647819756695364 -0.050427434905039425 0 -0.01716017519911496 -0.052508847169238315 0 -0.021008728530994183 -0.051184610285241759 0 -0.017534290145641496 -0.051196768060513334 0 -0.01972799926903342 -0.051216919783532072 0 -0.02002489107798068 -0.051742410404008621 0 -0.017242772013788748 -0.050469675923472332 0 -0.017534290145641496 -0.051196768060513334 0 -0.01972799926903342 -0.051216919783532072 0 -0.021008728530994183 -0.051184610285241759 0 -0.020647819756695364 -0.050427434905039425 0 -0.01716017519911496 -0.052508847169238315 0 -0.018125523875006069 -0.056683174920702149 0 -0.02014886528579702 -0.051380733622016915 0 -0.020006224734982127 -0.053631297671367491 0 -0.021949093451054627 -0.055929783808667102 0 -0.040040140997982102 -0.049309637866942473 0 -0.040628732785029147 -0.050328730281866046 0 -0.039933011766326659 -0.050320236186452108 0 -0.021008728530994183 -0.051184610285241759 0 -0.021979749106500614 -0.054057983005707792 0 -0.02014886528579702 -0.051380733622016915 0 -0.018465358647268136 -0.050863974689246715 0 -0.020006224734982127 -0.053631297671367491 0 -0.040628732785029147 -0.050328730281866046 0 -0.039970294670944345 -0.050994036035280285 0 -0.039933011766326659 -0.050320236186452108 0 -0.01716017519911496 -0.052508847169238315 0 -0.011023994037988996 -0.057523355610346501 0 -0.011959475359025553 -0.054167026516009693 0 -0.01565536029527629 -0.054585255120630102 0 -0.012211275987692304 -0.053555991290140305 0 -0.016248378161264683 -0.054038267090319822 0 -0.018408975583563445 -0.054703965077522003 0 -0.01811368288415054 -0.055429137803027911 0 -0.016248378161264683 -0.054038267090319822 0 -0.01811368288415054 -0.055429137803027911 0 -0.017220637575742593 -0.056485222650712145 0 -0.013903673949464413 -0.057510606671057923 0 -0.013106901146903171 -0.057268212518451454 0 -0.012169620179409577 -0.059553553036904606 0 -0.011023994037988996 -0.057523355610346501 0 -0.012738495243910535 -0.058023765504247399 0 -0.0099946796151982441 -0.058051428427878256 0 -0.012738495243910535 -0.058023765504247399 0 -0.012738495243910535 -0.058023765504247399 0 -0.018125523875006069 -0.056683174920702149 0 -0.012738495243910535 -0.058023765504247399 0 -0.017288692692511237 -0.057694255653074268 0 -0.0041020163778746274 -0.067689998585163461 0 -0.0040012809916962055 -0.067850597535631232 0 -0.0041397576050403 -0.067905212285620006 0 -0.0041020163778746274 -0.067689998585163461 0 -0.0041397576050403 -0.067905212285620006 0 -0.0044786363096489751 -0.067525376846624449 0 -0.0041020163778746274 -0.067689998585163461 0 -0.0044786363096489751 -0.067525376846624449 0 -0.004265713753995269 -0.067406482203019785 0 -0.017885917011467557 -0.057213918987184441 0 -0.017288692692511237 -0.057694255653074268 0 -0.017497499897155017 -0.05977645523796693 0 -0.018395815875367809 -0.057591694033592045 0 -0.014810082594389663 -0.054991977306928133 0 -0.017288692692511237 -0.057694255653074268 0 -0.018125523875006069 -0.056683174920702149 0 -0.018395815875367809 -0.057591694033592045 0 -0.014810082594389663 -0.054991977306928133 0 -0.016545589540691848 -0.052950706451520932 0 -0.017885917011467557 -0.057213918987184441 0 -0.020333137400894975 -0.055896666701281773 0 -0.014603841214166916 -0.057025508068523814 0 -0.014948247172411772 -0.056219083347145038 0 -0.015058341016824359 -0.056502202031446618 0 -0.020333137400894975 -0.055896666701281773 0 -0.018125523875006069 -0.056683174920702149 0 -0.021979749106500614 -0.054057983005707792 0 -0.020333137400894975 -0.055896666701281773 0 -0.020006224734982127 -0.053631297671367491 0 -0.021550635440202099 -0.056398826723759753 0 -0.021949093451054627 -0.055929783808667102 0 -0.040628732785029147 -0.050328730281866046 0 -0.041194184798592735 -0.051343464731367139 0 -0.04049687258576827 -0.051247296688023615 0 -0.040628732785029147 -0.050328730281866046 0 -0.04049687258576827 -0.051247296688023615 0 -0.039970294670944345 -0.050994036035280285 0 -0.04049687258576827 -0.051247296688023615 0 -0.039970294670944345 -0.050994036035280285 0 -0.039827820301496793 -0.05151629955550651 0 -0.04049687258576827 -0.051247296688023615 0 -0.040259260948979768 -0.051851652891515866 0 -0.039827820301496793 -0.05151629955550651 0 -0.041194184798592735 -0.051343464731367139 0 -0.04049687258576827 -0.051247296688023615 0 -0.040259260948979768 -0.051851652891515866 0 -0.040955496728536274 -0.053592161911167578 0 -0.040808662408445058 -0.053350072731933505 0 -0.040068549035879884 -0.054265617962552699 0 -0.020333137400894975 -0.055896666701281773 0 -0.033442042664860352 -0.051701121516952747 0 -0.041194184798592735 -0.051343464731367139 0 -0.040259260948979768 -0.051851652891515866 0 -0.04000518759575971 -0.052892808552502987 0 -0.040649329697545637 -0.054642046049978514 0 -0.040955496728536274 -0.053592161911167578 0 -0.040068549035879884 -0.054265617962552699 0 -0.021286277930344506 -0.059273573069840962 0 -0.017885917011467557 -0.057213918987184441 0 -0.0064857881133455171 -0.066306486743549498 0 -0.0056040316711545536 -0.068387969378094576 0 -0.0051046317093061894 -0.067531738654970558 0 -0.015960036668376355 -0.059380139720790551 0 -0.016833808889940766 -0.058621891937000049 0 -0.0044786363096489751 -0.067525376846624449 0 -0.0044879192283634106 -0.067071126881837376 0 -0.004265713753995269 -0.067406482203019785 0 -0.0040117613923742745 -0.067141085159574176 0 -0.0044879192283634106 -0.067071126881837376 0 -0.004265713753995269 -0.067406482203019785 0 -0.017288692692511237 -0.057694255653074268 0 -0.016833808889940766 -0.058621891937000049 0 -0.017885917011467557 -0.057213918987184441 0 -0.016833808889940766 -0.058621891937000049 0 -0.01635963933600551 -0.057414905124908357 0 -0.016495411240527828 -0.057083908871114857 0 -0.017050581666735017 -0.058642744468974425 0 -0.038446176758032156 -0.052930707405003642 0 -0.039020204188109843 -0.05225068758085704 0 -0.03824957365805521 -0.051405241569273806 0 -0.038446176758032156 -0.052930707405003642 0 -0.037295108554557081 -0.051745159069672433 0 -0.037261072393917793 -0.053883066945419361 0 -0.038446176758032156 -0.052930707405003642 0 -0.03824957365805521 -0.051405241569273806 0 -0.037295108554557081 -0.051745159069672433 0 -0.038446176758032156 -0.052930707405003642 0 -0.04000518759575971 -0.052892808552502987 0 -0.039020204188109843 -0.05225068758085704 0 -0.04000518759575971 -0.052892808552502987 0 -0.039681940385155712 -0.05216419533452752 0 -0.039020204188109843 -0.05225068758085704 0 -0.040259260948979768 -0.051851652891515866 0 -0.039681940385155712 -0.05216419533452752 0 -0.039827820301496793 -0.05151629955550651 0 -0.040259260948979768 -0.051851652891515866 0 -0.04000518759575971 -0.052892808552502987 0 -0.039681940385155712 -0.05216419533452752 0 -0.039681940385155712 -0.05216419533452752 0 -0.039020204188109843 -0.05225068758085704 0 -0.039129972652595775 -0.051518226633011609 0 -0.039129972652595775 -0.051518226633011609 0 -0.039827820301496793 -0.05151629955550651 0 -0.039501353675886898 -0.051115705547967745 0 -0.039681940385155712 -0.05216419533452752 0 -0.039129972652595775 -0.051518226633011609 0 -0.039827820301496793 -0.05151629955550651 0 -0.039970294670944345 -0.050994036035280285 0 -0.039827820301496793 -0.05151629955550651 0 -0.039501353675886898 -0.051115705547967745 0 -0.039970294670944345 -0.050994036035280285 0 -0.039501353675886898 -0.051115705547967745 0 -0.039506500974112589 -0.050684499467313252 0 -0.039129972652595775 -0.051518226633011609 0 -0.039065632327810074 -0.050857391743034622 0 -0.038683527285722531 -0.05107515506812027 0 -0.039129972652595775 -0.051518226633011609 0 -0.039501353675886898 -0.051115705547967745 0 -0.039065632327810074 -0.050857391743034622 0 -0.039501353675886898 -0.051115705547967745 0 -0.039065632327810074 -0.050857391743034622 0 -0.039506500974112589 -0.050684499467313252 0 -0.039065632327810074 -0.050857391743034622 0 -0.038782541769732705 -0.050702293402326272 0 -0.038683527285722531 -0.05107515506812027 0 -0.031930436641860474 -0.04809946171623676 0 -0.034148841598765071 -0.049474159122600753 0 -0.038683527285722531 -0.05107515506812027 0 -0.03824957365805521 -0.051405241569273806 0 -0.038413242742515466 -0.050440338256802823 0 -0.038254671782460781 -0.050090413979934204 0 -0.037452520040866334 -0.050230187689060006 0 -0.037487763925444124 -0.051394538703792812 0 -0.03824957365805521 -0.051405241569273806 0 -0.038413242742515466 -0.050440338256802823 0 -0.037295108554557081 -0.051745159069672433 0 -0.038782541769732705 -0.050702293402326272 0 -0.038683527285722531 -0.05107515506812027 0 -0.038413242742515466 -0.050440338256802823 0 -0.039020204188109843 -0.05225068758085704 0 -0.039129972652595775 -0.051518226633011609 0 -0.03824957365805521 -0.051405241569273806 0 -0.039129972652595775 -0.051518226633011609 0 -0.038683527285722531 -0.05107515506812027 0 -0.03824957365805521 -0.051405241569273806 0 -0.038187327538251534 -0.049963173107243838 0 -0.038236919501522859 -0.049846284575538587 0 -0.038218330313943664 -0.049698734470106198 0 -0.038254671782460781 -0.050090413979934204 0 -0.038187327538251534 -0.049963173107243838 0 -0.037452520040866334 -0.050230187689060006 0 -0.038187327538251534 -0.049963173107243838 0 -0.03754050766094489 -0.049828087586695831 0 -0.037452520040866334 -0.050230187689060006 0 -0.038782541769732705 -0.050702293402326272 0 -0.038413242742515466 -0.050440338256802823 0 -0.038993471129228963 -0.050385244454054241 0 -0.038254671782460781 -0.050090413979934204 0 -0.038187327538251534 -0.049963173107243838 0 -0.038236919501522859 -0.049846284575538587 0 -0.038187327538251534 -0.049963173107243838 0 -0.037984515758973547 -0.049628158853207115 0 -0.038270816155075278 -0.049383636787647262 0 -0.038187327538251534 -0.049963173107243838 0 -0.037984515758973547 -0.049628158853207115 0 -0.03754050766094489 -0.049828087586695831 0 -0.037984515758973547 -0.049628158853207115 0 -0.038037785710513597 -0.049400536224912021 0 -0.038270816155075278 -0.049383636787647262 0 -0.037984515758973547 -0.049628158853207115 0 -0.037669520238683578 -0.049417844225582971 0 -0.03754050766094489 -0.049828087586695831 0 -0.037984515758973547 -0.049628158853207115 0 -0.038037785710513597 -0.049400536224912021 0 -0.037669520238683578 -0.049417844225582971 0 -0.038254671782460781 -0.050090413979934204 0 -0.038236919501522859 -0.049846284575538587 0 -0.038317174131626067 -0.049692567141876913 0 -0.031930436641860474 -0.04809946171623676 0 -0.023124145189320652 -0.049429335505311693 0 -0.038413242742515466 -0.050440338256802823 0 -0.039187144544869761 -0.049990822480031817 0 -0.039498965972180139 -0.04907861320943209 0 -0.039970294670944345 -0.050994036035280285 0 -0.039933011766326659 -0.050320236186452108 0 -0.039506500974112589 -0.050684499467313252 0 -0.039933011766326659 -0.050320236186452108 0 -0.039506500974112589 -0.050684499467313252 0 -0.039466380918780096 -0.050217174927688339 0 -0.038413242742515466 -0.050440338256802823 0 -0.038993471129228963 -0.050385244454054241 0 -0.039187144544869761 -0.049990822480031817 0 -0.039466380918780096 -0.050217174927688339 0 -0.038993471129228963 -0.050385244454054241 0 -0.039187144544869761 -0.049990822480031817 0 -0.039065632327810074 -0.050857391743034622 0 -0.039506500974112589 -0.050684499467313252 0 -0.038993471129228963 -0.050385244454054241 0 -0.039506500974112589 -0.050684499467313252 0 -0.039466380918780096 -0.050217174927688339 0 -0.038993471129228963 -0.050385244454054241 0 -0.039065632327810074 -0.050857391743034622 0 -0.038782541769732705 -0.050702293402326272 0 -0.038993471129228963 -0.050385244454054241 0 -0.040040140997982102 -0.049309637866942473 0 -0.039933011766326659 -0.050320236186452108 0 -0.039609747087353459 -0.049778058168153075 0 -0.039187144544869761 -0.049990822480031817 0 -0.039609747087353459 -0.049778058168153075 0 -0.039498965972180139 -0.04907861320943209 0 -0.039466380918780096 -0.050217174927688339 0 -0.039187144544869761 -0.049990822480031817 0 -0.039609747087353459 -0.049778058168153075 0 -0.039933011766326659 -0.050320236186452108 0 -0.039466380918780096 -0.050217174927688339 0 -0.039609747087353459 -0.049778058168153075 0 -0.040040140997982102 -0.049309637866942473 0 -0.039609747087353459 -0.049778058168153075 0 -0.039498965972180139 -0.04907861320943209 0 -0.020532952134246982 -0.049235041050277421 0 -0.020770468841223057 -0.049654830988789173 0 -0.022268550355485819 -0.049981040632905781 0 -0.021008728530994183 -0.051184610285241759 0 -0.023124145189320652 -0.049429335505311693 0 -0.020647819756695364 -0.050427434905039425 0 -0.023124145189320652 -0.049429335505311693 0 -0.020042956640782969 -0.052405589671497096 0 -0.017669683831503309 -0.051876755559699325 0 -0.018897132167156844 -0.050361708590649125 0 -0.038236919501522859 -0.049846284575538587 0 -0.038317174131626067 -0.049692567141876913 0 -0.038251062693782721 -0.049749451865843161 0 -0.038236919501522859 -0.049846284575538587 0 -0.038251062693782721 -0.049749451865843161 0 -0.038218330313943664 -0.049698734470106198 0 -0.038317174131626067 -0.049692567141876913 0 -0.038258392868731221 -0.049712507673259854 0 -0.038251062693782721 -0.049749451865843161 0 -0.023124145189320652 -0.049429335505311693 0 -0.023834855546508993 -0.049498394148401959 0 -0.038258392868731221 -0.049712507673259854 0 -0.038251062693782721 -0.049749451865843161 0 -0.038218330313943664 -0.049698734470106198 0 -0.023124145189320652 -0.049429335505311693 0 -0.024830221891423969 -0.046909199420445302 0 -0.021363017575038227 -0.048498567390021161 0 -0.02067812119548362 -0.048344697855716559 0 -0.021596172191716594 -0.048209145237439917 0 -0.021087712670668023 -0.047304616705891381 0 -0.02067812119548362 -0.048344697855716559 0 -0.021596172191716594 -0.048209145237439917 0 -0.03830457145406245 -0.049718931850997183 0 -0.038258392868731221 -0.049712507673259854 0 -0.038218330313943664 -0.049698734470106198 0 -0.023124145189320652 -0.049429335505311693 0 -0.020367648492678504 -0.048712608714896494 0 -0.020647819756695364 -0.050427434905039425 0 -0.020367648492678504 -0.048712608714896494 0 -0.038187327538251534 -0.049963173107243838 0 -0.038605137861675735 -0.048865600864658451 0 -0.038270816155075278 -0.049383636787647262 0 -0.026851186595235867 -0.046648839561880248 0 -0.024830221891423969 -0.046909199420445302 0 -0.037977946348080632 -0.049168456773790857 0 -0.038106679989651462 -0.04897431606370533 0 -0.037633382187591692 -0.048968911130927502 0 -0.037977946348080632 -0.049168456773790857 0 -0.038106679989651462 -0.04897431606370533 0 -0.038171757056620501 -0.049121672599398411 0 -0.037977946348080632 -0.049168456773790857 0 -0.038157349102113353 -0.049269128582808429 0 -0.038171757056620501 -0.049121672599398411 0 -0.037977946348080632 -0.049168456773790857 0 -0.037633382187591692 -0.048968911130927502 0 -0.037669520238683578 -0.049417844225582971 0 -0.037977946348080632 -0.049168456773790857 0 -0.038037785710513597 -0.049400536224912021 0 -0.037669520238683578 -0.049417844225582971 0 -0.037977946348080632 -0.049168456773790857 0 -0.038037785710513597 -0.049400536224912021 0 -0.038157349102113353 -0.049269128582808429 0 -0.038270816155075278 -0.049383636787647262 0 -0.038271633373190658 -0.049194589850392989 0 -0.038427556310399458 -0.049016504903155803 0 -0.038605137861675735 -0.048865600864658451 0 -0.038270816155075278 -0.049383636787647262 0 -0.038427556310399458 -0.049016504903155803 0 -0.038037785710513597 -0.049400536224912021 0 -0.038270816155075278 -0.049383636787647262 0 -0.038157349102113353 -0.049269128582808429 0 -0.038270816155075278 -0.049383636787647262 0 -0.038271633373190658 -0.049194589850392989 0 -0.038157349102113353 -0.049269128582808429 0 -0.038271633373190658 -0.049194589850392989 0 -0.038157349102113353 -0.049269128582808429 0 -0.038171757056620501 -0.049121672599398411 0 -0.038271633373190658 -0.049194589850392989 0 -0.038171757056620501 -0.049121672599398411 0 -0.038282392978329666 -0.049090779929635064 0 -0.038271633373190658 -0.049194589850392989 0 -0.038427556310399458 -0.049016504903155803 0 -0.038282392978329666 -0.049090779929635064 0 -0.038427556310399458 -0.049016504903155803 0 -0.038282392978329666 -0.049090779929635064 0 -0.038272951817947452 -0.048944362680938568 0 -0.038106679989651462 -0.04897431606370533 0 -0.038282392978329666 -0.049090779929635064 0 -0.038272951817947452 -0.048944362680938568 0 -0.038106679989651462 -0.04897431606370533 0 -0.038171757056620501 -0.049121672599398411 0 -0.038282392978329666 -0.049090779929635064 0 -0.020270162531036667 -0.043640499543949933 0 -0.020563708488078002 -0.04541685767460079 0 -0.019482717441085286 -0.045176413112991809 0 -0.038106679989651462 -0.04897431606370533 0 -0.038272951817947452 -0.048944362680938568 0 -0.038232216076598782 -0.048785628820475373 0 -0.038427556310399458 -0.049016504903155803 0 -0.038272951817947452 -0.048944362680938568 0 -0.038232216076598782 -0.048785628820475373 0 -0.024830221891423969 -0.046909199420445302 0 -0.026792525574662645 -0.045967028285117478 0 -0.038605137861675735 -0.048865600864658451 0 -0.038427556310399458 -0.049016504903155803 0 -0.038232216076598782 -0.048785628820475373 0 -0.026792525574662645 -0.045967028285117478 0 -0.029274593280688328 -0.046536389302713789 0 -0.037362945567687156 -0.048162992021380108 0 -0.038112312059433481 -0.048765454063206919 0 -0.037451121337982833 -0.048623323818142966 0 -0.038232216076598782 -0.048785628820475373 0 -0.037451121337982833 -0.048623323818142966 0 -0.037633382187591692 -0.048968911130927502 0 -0.038106679989651462 -0.04897431606370533 0 -0.038232216076598782 -0.048785628820475373 0 -0.037633382187591692 -0.048968911130927502 0 -0.037451121337982833 -0.048623323818142966 0 -0.037633382187591692 -0.048968911130927502 0 -0.036841794468915438 -0.049530491940867963 0 -0.029978205630313001 -0.044097607423408652 0 -0.031412542172252859 -0.045767158855319533 0 -0.036992359748947753 -0.047636318277429236 0 -0.037779904435908535 -0.04772923550132737 0 -0.036841794468915438 -0.049530491940867963 0 -0.037362945567687156 -0.048162992021380108 0 -0.037451121337982833 -0.048623323818142966 0 -0.036841794468915438 -0.049530491940867963 0 -0.037633382187591692 -0.048968911130927502 0 -0.037669520238683578 -0.049417844225582971 0 -0.036841794468915438 -0.049530491940867963 0 -0.03754050766094489 -0.049828087586695831 0 -0.036841794468915438 -0.049530491940867963 0 -0.037452520040866334 -0.050230187689060006 0 -0.037669520238683578 -0.049417844225582971 0 -0.03754050766094489 -0.049828087586695831 0 -0.036841794468915438 -0.049530491940867963 0 -0.036841794468915438 -0.049530491940867963 0 -0.037452520040866334 -0.050230187689060006 0 -0.036270715908328914 -0.050564437549277065 0 -0.036841794468915438 -0.049530491940867963 0 -0.035489152517152844 -0.049315589201677786 0 -0.036270715908328914 -0.050564437549277065 0 -0.036841794468915438 -0.049530491940867963 0 -0.036154549047642232 -0.048602523926507046 0 -0.035489152517152844 -0.049315589201677786 0 -0.036992359748947753 -0.047636318277429236 0 -0.036841794468915438 -0.049530491940867963 0 -0.036154549047642232 -0.048602523926507046 0 -0.03542131509967756 -0.047951307736610105 0 -0.036154549047642232 -0.048602523926507046 0 -0.035489152517152844 -0.049315589201677786 0 -0.03542131509967756 -0.047951307736610105 0 -0.034647063788163367 -0.048953667341500633 0 -0.035489152517152844 -0.049315589201677786 0 -0.034647063788163367 -0.048953667341500633 0 -0.034639138006515732 -0.050021366250504108 0 -0.035489152517152844 -0.049315589201677786 0 -0.034639138006515732 -0.050021366250504108 0 -0.035489152517152844 -0.049315589201677786 0 -0.035062111159079652 -0.050929100067445679 0 -0.035489152517152844 -0.049315589201677786 0 -0.035062111159079652 -0.050929100067445679 0 -0.036270715908328914 -0.050564437549277065 0 -0.034639138006515732 -0.050021366250504108 0 -0.035062111159079652 -0.050929100067445679 0 -0.034195862298841397 -0.05119211350811749 0 -0.035062111159079652 -0.050929100067445679 0 -0.034195862298841397 -0.05119211350811749 0 -0.034678837350509084 -0.052734006209453892 0 -0.034195862298841397 -0.05119211350811749 0 -0.033424963111612103 -0.052947439455615544 0 -0.034678837350509084 -0.052734006209453892 0 -0.035062111159079652 -0.050929100067445679 0 -0.035894548010296116 -0.051712624244620677 0 -0.034678837350509084 -0.052734006209453892 0 -0.035894548010296116 -0.051712624244620677 0 -0.036179949955499571 -0.053034928435091964 0 -0.034678837350509084 -0.052734006209453892 0 -0.035894548010296116 -0.051712624244620677 0 -0.037487763925444124 -0.051394538703792812 0 -0.036179949955499571 -0.053034928435091964 0 -0.034148841598765071 -0.049474159122600753 0 -0.034419532089683666 -0.050321630941580452 0 -0.037295108554557081 -0.051745159069672433 0 -0.037261072393917793 -0.053883066945419361 0 -0.036179949955499571 -0.053034928435091964 0 -0.037452520040866334 -0.050230187689060006 0 -0.037487763925444124 -0.051394538703792812 0 -0.036270715908328914 -0.050564437549277065 0 -0.035894548010296116 -0.051712624244620677 0 -0.037487763925444124 -0.051394538703792812 0 -0.036270715908328914 -0.050564437549277065 0 -0.035062111159079652 -0.050929100067445679 0 -0.035894548010296116 -0.051712624244620677 0 -0.036270715908328914 -0.050564437549277065 0 -0.034430579483628723 -0.048693428184314123 0 -0.034757778687237895 -0.047648510590489981 0 -0.034580454102743657 -0.048620691186652208 0 -0.034832766438420315 -0.047058380349222148 0 -0.034430579483628723 -0.048693428184314123 0 -0.034757778687237895 -0.047648510590489981 0 -0.034897578172030513 -0.047022193225916574 0 -0.034832766438420315 -0.047058380349222148 0 -0.034757778687237895 -0.047648510590489981 0 -0.034853740877805094 -0.047555620403923152 0 -0.034866725766238484 -0.047312244546933842 0 -0.034757778687237895 -0.047648510590489981 0 -0.034853740877805094 -0.047555620403923152 0 -0.034757778687237895 -0.047648510590489981 0 -0.034580454102743657 -0.048620691186652208 0 -0.034853740877805094 -0.047555620403923152 0 -0.034580454102743657 -0.048620691186652208 0 -0.034883833547493796 -0.0481993396563168 0 -0.034430579483628723 -0.048693428184314123 0 -0.034580454102743657 -0.048620691186652208 0 -0.034133789866173637 -0.049782914188610368 0 -0.034580454102743657 -0.048620691186652208 0 -0.034133789866173637 -0.049782914188610368 0 -0.034172776963572626 -0.049670650304366806 0 -0.034580454102743657 -0.048620691186652208 0 -0.034883833547493796 -0.0481993396563168 0 -0.034172776963572626 -0.049670650304366806 0 -0.032932658587310801 -0.04820159969753128 0 -0.033893957997598742 -0.048451044787084042 0 -0.034172776963572626 -0.049670650304366806 0 -0.033928337846153608 -0.047644630312227008 0 -0.034146426822536331 -0.048202729048338042 0 -0.034310980273829519 -0.047846502577078384 0 -0.034647063788163367 -0.048953667341500633 0 -0.033893957997598742 -0.048451044787084042 0 -0.034647063788163367 -0.048953667341500633 0 -0.033893957997598742 -0.048451044787084042 0 -0.034172776963572626 -0.049670650304366806 0 -0.034647063788163367 -0.048953667341500633 0 -0.034639138006515732 -0.050021366250504108 0 -0.034172776963572626 -0.049670650304366806 0 -0.034195862298841397 -0.05119211350811749 0 -0.034172776963572626 -0.049670650304366806 0 -0.033696377553330312 -0.051188795635483085 0 -0.034639138006515732 -0.050021366250504108 0 -0.034195862298841397 -0.05119211350811749 0 -0.034172776963572626 -0.049670650304366806 0 -0.034195862298841397 -0.05119211350811749 0 -0.033696377553330312 -0.051188795635483085 0 -0.033424963111612103 -0.052947439455615544 0 -0.033696377553330312 -0.051188795635483085 0 -0.032898106563217407 -0.052844012097713979 0 -0.033424963111612103 -0.052947439455615544 0 -0.034133789866173637 -0.049782914188610368 0 -0.034172776963572626 -0.049670650304366806 0 -0.033696377553330312 -0.051188795635483085 0 -0.034133789866173637 -0.049782914188610368 0 -0.033696377553330312 -0.051188795635483085 0 -0.033680043724341968 -0.050818687376510262 0 -0.034430579483628723 -0.048693428184314123 0 -0.034133789866173637 -0.049782914188610368 0 -0.033680043724341968 -0.050818687376510262 0 -0.033696377553330312 -0.051188795635483085 0 -0.033680043724341968 -0.050818687376510262 0 -0.032898106563217407 -0.052844012097713979 0 -0.033883939935625385 -0.050557853723215425 0 -0.033680043724341968 -0.050818687376510262 0 -0.032674111845568357 -0.052909240363271541 0 -0.033883939935625385 -0.050557853723215425 0 -0.034430579483628723 -0.048693428184314123 0 -0.033680043724341968 -0.050818687376510262 0 -0.032674111845568357 -0.052909240363271541 0 -0.032155201326859811 -0.054219007629309104 0 -0.031549870335773202 -0.05491096349436568 0 -0.032674111845568357 -0.052909240363271541 0 -0.032155201326859811 -0.054219007629309104 0 -0.032898106563217407 -0.052844012097713979 0 -0.033680043724341968 -0.050818687376510262 0 -0.032674111845568357 -0.052909240363271541 0 -0.032898106563217407 -0.052844012097713979 0 -0.032155201326859811 -0.054219007629309104 0 -0.032898106563217407 -0.052844012097713979 0 -0.032250680286997013 -0.054978564230025583 0 -0.032898106563217407 -0.052844012097713979 0 -0.033424963111612103 -0.052947439455615544 0 -0.032250680286997013 -0.054978564230025583 0 -0.033424963111612103 -0.052947439455615544 0 -0.032250680286997013 -0.054978564230025583 0 -0.033537038649034998 -0.05456362763525844 0 -0.032250680286997013 -0.054978564230025583 0 -0.033537038649034998 -0.05456362763525844 0 -0.032262112813518089 -0.056632437565325794 0 -0.032250680286997013 -0.054978564230025583 0 -0.030524742251731084 -0.057964697797870293 0 -0.032262112813518089 -0.056632437565325794 0 -0.030524742251731084 -0.057964697797870293 0 -0.031587315716250175 -0.055965695122230583 0 -0.031494280570734182 -0.056565803488679581 0 -0.032250680286997013 -0.054978564230025583 0 -0.030524742251731084 -0.057964697797870293 0 -0.031587315716250175 -0.055965695122230583 0 -0.032155201326859811 -0.054219007629309104 0 -0.032250680286997013 -0.054978564230025583 0 -0.031587315716250175 -0.055965695122230583 0 -0.032155201326859811 -0.054219007629309104 0 -0.031587315716250175 -0.055965695122230583 0 -0.031549870335773202 -0.05491096349436568 0 -0.031587315716250175 -0.055965695122230583 0 -0.031494280570734182 -0.056565803488679581 0 -0.031549870335773202 -0.05491096349436568 0 -0.029566365552038718 -0.056540245122389733 0 -0.031494280570734182 -0.056565803488679581 0 -0.031549870335773202 -0.05491096349436568 0 -0.035209216446771198 -0.054894152810701848 0 -0.037261072393917793 -0.053883066945419361 0 -0.036983788259072087 -0.057035683058046231 0 -0.035209216446771198 -0.054894152810701848 0 -0.036179949955499571 -0.053034928435091964 0 -0.034678837350509084 -0.052734006209453892 0 -0.035209216446771198 -0.054894152810701848 0 -0.037261072393917793 -0.053883066945419361 0 -0.036179949955499571 -0.053034928435091964 0 -0.035209216446771198 -0.054894152810701848 0 -0.034678837350509084 -0.052734006209453892 0 -0.033537038649034998 -0.05456362763525844 0 -0.033424963111612103 -0.052947439455615544 0 -0.034678837350509084 -0.052734006209453892 0 -0.033537038649034998 -0.05456362763525844 0 -0.035209216446771198 -0.054894152810701848 0 -0.033537038649034998 -0.05456362763525844 0 -0.033765911275508195 -0.056342406445856266 0 -0.033765911275508195 -0.056342406445856266 0 -0.032262112813518089 -0.056632437565325794 0 -0.03196277811228336 -0.059409719064257099 0 -0.033537038649034998 -0.05456362763525844 0 -0.033765911275508195 -0.056342406445856266 0 -0.032262112813518089 -0.056632437565325794 0 -0.030524742251731084 -0.057964697797870293 0 -0.032262112813518089 -0.056632437565325794 0 -0.03196277811228336 -0.059409719064257099 0 -0.03196277811228336 -0.059409719064257099 0 -0.034567869061524731 -0.058145047395124279 0 -0.032609156386888279 -0.061362308537573483 0 -0.033765911275508195 -0.056342406445856266 0 -0.03196277811228336 -0.059409719064257099 0 -0.034567869061524731 -0.058145047395124279 0 -0.034567869061524731 -0.058145047395124279 0 -0.036375809316295436 -0.059032177731694759 0 -0.034808112418242824 -0.060915448350401899 0 -0.035209216446771198 -0.054894152810701848 0 -0.034567869061524731 -0.058145047395124279 0 -0.036983788259072087 -0.057035683058046231 0 -0.035209216446771198 -0.054894152810701848 0 -0.033765911275508195 -0.056342406445856266 0 -0.034567869061524731 -0.058145047395124279 0 -0.038237435767098357 -0.058655344454499485 0 -0.036983788259072087 -0.057035683058046231 0 -0.036375809316295436 -0.059032177731694759 0 -0.034567869061524731 -0.058145047395124279 0 -0.036983788259072087 -0.057035683058046231 0 -0.036375809316295436 -0.059032177731694759 0 -0.035844112139853286 -0.06286490190400626 0 -0.034808112418242824 -0.060915448350401899 0 -0.037429762110004455 -0.060724542218546854 0 -0.036375809316295436 -0.059032177731694759 0 -0.034808112418242824 -0.060915448350401899 0 -0.037429762110004455 -0.060724542218546854 0 -0.035844112139853286 -0.06286490190400626 0 -0.035335189313894309 -0.066286197731847657 0 -0.038975737870377662 -0.062779293964896343 0 -0.035844112139853286 -0.06286490190400626 0 -0.032135264308854918 -0.064116126568421236 0 -0.035335189313894309 -0.066286197731847657 0 -0.035844112139853286 -0.06286490190400626 0 -0.032135264308854918 -0.064116126568421236 0 -0.034808112418242824 -0.060915448350401899 0 -0.034567869061524731 -0.058145047395124279 0 -0.034808112418242824 -0.060915448350401899 0 -0.032609156386888279 -0.061362308537573483 0 -0.032135264308854918 -0.064116126568421236 0 -0.034808112418242824 -0.060915448350401899 0 -0.032609156386888279 -0.061362308537573483 0 -0.03196277811228336 -0.059409719064257099 0 -0.032609156386888279 -0.061362308537573483 0 -0.029743593824831938 -0.064170008198340941 0 -0.03196277811228336 -0.059409719064257099 0 -0.029743593824831938 -0.064170008198340941 0 -0.029336826782633833 -0.062586978325611678 0 -0.032135264308854918 -0.064116126568421236 0 -0.029743593824831938 -0.064170008198340941 0 -0.029028384775435366 -0.066759443883454242 0 -0.032135264308854918 -0.064116126568421236 0 -0.032609156386888279 -0.061362308537573483 0 -0.029743593824831938 -0.064170008198340941 0 -0.032135264308854918 -0.064116126568421236 0 -0.029028384775435366 -0.066759443883454242 0 -0.027300154396914671 -0.070071483167505388 0 -0.029743593824831938 -0.064170008198340941 0 -0.029028384775435366 -0.066759443883454242 0 -0.027807294604377669 -0.067842942583375282 0 -0.027807294604377669 -0.067842942583375282 0 -0.027300154396914671 -0.070071483167505388 0 -0.025824083116156197 -0.068384874664851839 0 -0.029028384775435366 -0.066759443883454242 0 -0.027807294604377669 -0.067842942583375282 0 -0.027300154396914671 -0.070071483167505388 0 -0.027300154396914671 -0.070071483167505388 0 -0.018848400646731604 -0.071713280996270112 0 -0.02285711080788605 -0.068518081700358349 0 -0.027300154396914671 -0.070071483167505388 0 -0.018848400646731604 -0.071713280996270112 0 -0.021267275986310483 -0.076467476206955723 0 -0.018848400646731604 -0.071713280996270112 0 -0.021267275986310483 -0.076467476206955723 0 -0.017359767570140034 -0.076607909579241518 0 -0.032135264308854918 -0.064116126568421236 0 -0.027300154396914671 -0.070071483167505388 0 -0.035335189313894309 -0.066286197731847657 0 -0.026281316310671054 -0.068992862192689977 0 -0.025291002330230662 -0.069028479559720385 0 -0.02830012044555355 -0.059102832156201456 0 -0.03048486133303482 -0.058195204277026791 0 -0.029256748365514763 -0.061032584525849164 0 -0.029566365552038718 -0.056540245122389733 0 -0.031494280570734182 -0.056565803488679581 0 -0.03048486133303482 -0.058195204277026791 0 -0.031494280570734182 -0.056565803488679581 0 -0.03048486133303482 -0.058195204277026791 0 -0.032024599953196821 -0.057901683369220545 0 -0.029660153208164109 -0.061351648820419533 0 -0.028951432480663543 -0.063480528500901467 0 -0.03048486133303482 -0.058195204277026791 0 -0.032024599953196821 -0.057901683369220545 0 -0.031574207864313239 -0.061457364374644885 0 -0.026431929705074044 -0.063746552052274363 0 -0.029336826782633833 -0.062586978325611678 0 -0.027528671112757263 -0.066495331857866435 0 -0.030199003161621697 -0.06005613682581179 0 -0.029660153208164109 -0.061351648820419533 0 -0.030524742251731084 -0.057964697797870293 0 -0.026431929705074044 -0.063746552052274363 0 -0.029336826782633833 -0.062586978325611678 0 -0.030524742251731084 -0.057964697797870293 0 -0.031494280570734182 -0.056565803488679581 0 -0.032024599953196821 -0.057901683369220545 0 -0.030524742251731084 -0.057964697797870293 0 -0.03196277811228336 -0.059409719064257099 0 -0.029336826782633833 -0.062586978325611678 0 -0.029743593824831938 -0.064170008198340941 0 -0.029336826782633833 -0.062586978325611678 0 -0.027528671112757263 -0.066495331857866435 0 -0.029743593824831938 -0.064170008198340941 0 -0.027807294604377669 -0.067842942583375282 0 -0.027528671112757263 -0.066495331857866435 0 -0.027807294604377669 -0.067842942583375282 0 -0.027475041403203684 -0.067820336349577653 0 -0.026959465809045343 -0.068029614151999374 0 -0.027807294604377669 -0.067842942583375282 0 -0.027528671112757263 -0.066495331857866435 0 -0.027475041403203684 -0.067820336349577653 0 -0.027528671112757263 -0.066495331857866435 0 -0.027779820355110098 -0.067375253092516074 0 -0.027475041403203684 -0.067820336349577653 0 -0.026431929705074044 -0.063746552052274363 0 -0.027528671112757263 -0.066495331857866435 0 -0.026958735597437545 -0.066726615461429065 0 -0.027528671112757263 -0.066495331857866435 0 -0.026958735597437545 -0.066726615461429065 0 -0.027779820355110098 -0.067375253092516074 0 -0.027381052068489037 -0.063870601299929136 0 -0.031574207864313239 -0.061457364374644885 0 -0.028354345181529524 -0.066679220344668319 0 -0.028951432480663543 -0.063480528500901467 0 -0.028446386014005221 -0.064755641931653563 0 -0.026958735597437545 -0.066726615461429065 0 -0.028354345181529524 -0.066679220344668319 0 -0.027779820355110098 -0.067375253092516074 0 -0.03048486133303482 -0.058195204277026791 0 -0.031574207864313239 -0.061457364374644885 0 -0.029256748365514763 -0.061032584525849164 0 -0.027381052068489037 -0.063870601299929136 0 -0.031574207864313239 -0.061457364374644885 0 -0.029256748365514763 -0.061032584525849164 0 -0.030159951585546046 -0.068247388863038994 0 -0.028957584373557815 -0.067989093794968272 0 -0.031488133779081363 -0.066888736835652537 0 -0.03394594804621881 -0.061536737474888158 0 -0.032796323776237812 -0.061912649301331737 0 -0.028354345181529524 -0.066679220344668319 0 -0.028509665345579874 -0.067355929278632376 0 -0.027779820355110098 -0.067375253092516074 0 -0.027839616846884276 -0.068280791531551532 0 -0.028354345181529524 -0.066679220344668319 0 -0.028509665345579874 -0.067355929278632376 0 -0.027839616846884276 -0.068280791531551532 0 -0.028957584373557815 -0.067989093794968272 0 -0.028509665345579874 -0.067355929278632376 0 -0.028957584373557815 -0.067989093794968272 0 -0.028509665345579874 -0.067355929278632376 0 -0.028034996742174734 -0.067804148302674935 0 -0.028509665345579874 -0.067355929278632376 0 -0.027779820355110098 -0.067375253092516074 0 -0.028034996742174734 -0.067804148302674935 0 -0.028957584373557815 -0.067989093794968272 0 -0.028034996742174734 -0.067804148302674935 0 -0.029141829745026101 -0.067202621130667328 0 -0.028034996742174734 -0.067804148302674935 0 -0.026576324960123108 -0.067768967588293746 0 -0.027350398209043999 -0.066938357759655023 0 -0.028034996742174734 -0.067804148302674935 0 -0.027475041403203684 -0.067820336349577653 0 -0.026576324960123108 -0.067768967588293746 0 -0.027779820355110098 -0.067375253092516074 0 -0.028034996742174734 -0.067804148302674935 0 -0.027475041403203684 -0.067820336349577653 0 -0.027475041403203684 -0.067820336349577653 0 -0.026576324960123108 -0.067768967588293746 0 -0.026959465809045343 -0.068029614151999374 0 -0.026576324960123108 -0.067768967588293746 0 -0.025418139928983403 -0.06668567632440664 0 -0.027350398209043999 -0.066938357759655023 0 -0.025418139928983403 -0.06668567632440664 0 -0.025737904910590949 -0.06499946942942772 0 -0.027350398209043999 -0.066938357759655023 0 -0.025737904910590949 -0.06499946942942772 0 -0.027350398209043999 -0.066938357759655023 0 -0.029630409141853851 -0.064999880101848331 0 -0.027350398209043999 -0.066938357759655023 0 -0.029141829745026101 -0.067202621130667328 0 -0.029630409141853851 -0.064999880101848331 0 -0.028034996742174734 -0.067804148302674935 0 -0.027350398209043999 -0.066938357759655023 0 -0.029141829745026101 -0.067202621130667328 0 -0.03352445393858576 -0.064999409187803545 0 -0.029630409141853851 -0.064999880101848331 0 -0.031488133779081363 -0.066888736835652537 0 -0.029141829745026101 -0.067202621130667328 0 -0.029630409141853851 -0.064999880101848331 0 -0.031488133779081363 -0.066888736835652537 0 -0.028957584373557815 -0.067989093794968272 0 -0.029141829745026101 -0.067202621130667328 0 -0.031488133779081363 -0.066888736835652537 0 -0.02294030596768256 -0.06752254213141741 0 -0.02285711080788605 -0.068518081700358349 0 -0.025824083116156197 -0.068384874664851839 0 -0.02294030596768256 -0.06752254213141741 0 -0.020527369291457837 -0.067524182602148611 0 -0.020634348856643243 -0.066456874778683464 0 -0.02294030596768256 -0.06752254213141741 0 -0.020527369291457837 -0.067524182602148611 0 -0.02285711080788605 -0.068518081700358349 0 -0.020527369291457837 -0.067524182602148611 0 -0.017695555014465222 -0.066530423901741145 0 -0.018331683128183594 -0.068408395671265554 0 -0.020527369291457837 -0.067524182602148611 0 -0.02285711080788605 -0.068518081700358349 0 -0.018331683128183594 -0.068408395671265554 0 -0.018848400646731604 -0.071713280996270112 0 -0.02285711080788605 -0.068518081700358349 0 -0.018331683128183594 -0.068408395671265554 0 -0.027300154396914671 -0.070071483167505388 0 -0.02285711080788605 -0.068518081700358349 0 -0.025824083116156197 -0.068384874664851839 0 -0.027807294604377669 -0.067842942583375282 0 -0.025824083116156197 -0.068384874664851839 0 -0.026959465809045343 -0.068029614151999374 0 -0.026576324960123108 -0.067768967588293746 0 -0.025824083116156197 -0.068384874664851839 0 -0.026959465809045343 -0.068029614151999374 0 -0.026576324960123108 -0.067768967588293746 0 -0.025824083116156197 -0.068384874664851839 0 -0.024094004533982919 -0.067087173849479612 0 -0.02294030596768256 -0.06752254213141741 0 -0.025824083116156197 -0.068384874664851839 0 -0.023180552674487181 -0.066686688426394275 0 -0.023311896709980396 -0.067515376559896978 0 -0.022819749182169093 -0.066601450988361663 0 -0.02294030596768256 -0.06752254213141741 0 -0.023180552674487181 -0.066686688426394275 0 -0.020634348856643243 -0.066456874778683464 0 -0.026576324960123108 -0.067768967588293746 0 -0.025418139928983403 -0.06668567632440664 0 -0.024094004533982919 -0.067087173849479612 0 -0.025418139928983403 -0.06668567632440664 0 -0.024094004533982919 -0.067087173849479612 0 -0.02184670093647284 -0.064999905044701045 0 -0.025418139928983403 -0.06668567632440664 0 -0.025737904910590949 -0.06499946942942772 0 -0.02184670093647284 -0.064999905044701045 0 -0.022819749182169093 -0.066601450988361663 0 -0.021845150464139488 -0.065001466225507717 0 -0.023180552674487181 -0.066686688426394275 0 -0.021842946208843143 -0.064999600940993038 0 -0.020634348856643243 -0.066456874778683464 0 -0.021842946208843143 -0.064999600940993038 0 -0.018728948510126499 -0.064999100544428687 0 -0.020634348856643243 -0.066456874778683464 0 -0.020527369291457837 -0.067524182602148611 0 -0.020634348856643243 -0.066456874778683464 0 -0.017695555014465222 -0.066530423901741145 0 -0.018728948510126499 -0.064999100544428687 0 -0.017695555014465222 -0.066530423901741145 0 -0.01561177871856523 -0.064999273592645221 0 -0.018728948510126499 -0.064999100544428687 0 -0.020634348856643243 -0.066456874778683464 0 -0.017695555014465222 -0.066530423901741145 0 -0.017695555014465222 -0.066530423901741145 0 -0.01561177871856523 -0.064999273592645221 0 -0.014733375190156692 -0.066183598590663348 0 -0.014733375190156692 -0.066183598590663348 0 -0.012494859722302715 -0.064999339371221806 0 -0.012532780876796028 -0.066781714311001605 0 -0.01561177871856523 -0.064999273592645221 0 -0.014733375190156692 -0.066183598590663348 0 -0.012494859722302715 -0.064999339371221806 0 -0.014733375190156692 -0.066183598590663348 0 -0.012532780876796028 -0.066781714311001605 0 -0.015386826437277333 -0.067864861443793181 0 -0.017695555014465222 -0.066530423901741145 0 -0.014733375190156692 -0.066183598590663348 0 -0.015386826437277333 -0.067864861443793181 0 -0.0093778111046787776 -0.065002015011864839 0 -0.0090015199222168597 -0.067626490895943275 0 -0.012494859722302715 -0.064999339371221806 0 -0.0093804860039177814 -0.064999572472742906 0 -0.012532780876796028 -0.066781714311001605 0 -0.0093804860039177814 -0.064999572472742906 0 -0.012532780876796028 -0.066781714311001605 0 -0.010182025872829195 -0.067384091923562026 0 -0.0090015199222168597 -0.067626490895943275 0 -0.0084585454327372328 -0.070603034183005578 0 -0.010182025872829195 -0.067384091923562026 0 -0.013042827323646681 -0.069663467472727447 0 -0.010012983353634418 -0.070317155890605318 0 -0.012532780876796028 -0.066781714311001605 0 -0.010182025872829195 -0.067384091923562026 0 -0.013042827323646681 -0.069663467472727447 0 -0.013042827323646681 -0.069663467472727447 0 -0.010012983353634418 -0.070317155890605318 0 -0.012042232523509113 -0.072595831218478263 0 -0.018331683128183594 -0.068408395671265554 0 -0.015386826437277333 -0.067864861443793181 0 -0.015968738972658086 -0.069862969888644835 0 -0.017695555014465222 -0.066530423901741145 0 -0.018331683128183594 -0.068408395671265554 0 -0.015386826437277333 -0.067864861443793181 0 -0.013042827323646681 -0.069663467472727447 0 -0.015386826437277333 -0.067864861443793181 0 -0.015968738972658086 -0.069862969888644835 0 -0.012532780876796028 -0.066781714311001605 0 -0.013042827323646681 -0.069663467472727447 0 -0.015386826437277333 -0.067864861443793181 0 -0.013042827323646681 -0.069663467472727447 0 -0.015968738972658086 -0.069862969888644835 0 -0.014910985445351287 -0.072136530096448451 0 -0.018848400646731604 -0.071713280996270112 0 -0.018331683128183594 -0.068408395671265554 0 -0.015968738972658086 -0.069862969888644835 0 -0.018848400646731604 -0.071713280996270112 0 -0.015968738972658086 -0.069862969888644835 0 -0.014910985445351287 -0.072136530096448451 0 -0.018848400646731604 -0.071713280996270112 0 -0.015846814245730281 -0.074026359108325557 0 -0.014910985445351287 -0.072136530096448451 0 -0.018848400646731604 -0.071713280996270112 0 -0.017456574115092497 -0.074799122749015151 0 -0.015846814245730281 -0.074026359108325557 0 -0.018346819839357213 -0.073103352096787047 0 -0.018282728638245076 -0.07328240659540991 0 -0.017456574115092497 -0.074799122749015151 0 -0.015846814245730281 -0.074026359108325557 0 -0.016203696260803545 -0.075488815013472446 0 -0.021267275986310483 -0.076467476206955723 0 -0.017704014962670184 -0.077254106246673157 0 -0.017359767570140034 -0.076607909579241518 0 -0.015846814245730281 -0.074026359108325557 0 -0.014910985445351287 -0.072136530096448451 0 -0.013661136332928181 -0.074843540266311931 0 -0.015846814245730281 -0.074026359108325557 0 -0.013661136332928181 -0.074843540266311931 0 -0.015211879804615172 -0.075735205059991303 0 -0.015846814245730281 -0.074026359108325557 0 -0.016203696260803545 -0.075488815013472446 0 -0.015211879804615172 -0.075735205059991303 0 -0.013042827323646681 -0.069663467472727447 0 -0.014910985445351287 -0.072136530096448451 0 -0.012042232523509113 -0.072595831218478263 0 -0.014910985445351287 -0.072136530096448451 0 -0.012042232523509113 -0.072595831218478263 0 -0.013661136332928181 -0.074843540266311931 0 -0.010012983353634418 -0.070317155890605318 0 -0.012042232523509113 -0.072595831218478263 0 -0.0095632627626674703 -0.073823253521661497 0 -0.0084585454327372328 -0.070603034183005578 0 -0.0078309894824494051 -0.073608599089407964 0 -0.012042232523509113 -0.072595831218478263 0 -0.011262223911202072 -0.075178874799682854 0 -0.0095632627626674703 -0.073823253521661497 0 -0.012042232523509113 -0.072595831218478263 0 -0.011262223911202072 -0.075178874799682854 0 -0.013661136332928181 -0.074843540266311931 0 -0.013661136332928181 -0.074843540266311931 0 -0.011926913193396161 -0.077161542630867261 0 -0.013987488181646383 -0.077341238811781801 0 -0.011262223911202072 -0.075178874799682854 0 -0.013661136332928181 -0.074843540266311931 0 -0.011926913193396161 -0.077161542630867261 0 -0.011262223911202072 -0.075178874799682854 0 -0.0091601055421710615 -0.07744829292923959 0 -0.0095632627626674703 -0.073823253521661497 0 -0.011262223911202072 -0.075178874799682854 0 -0.011926913193396161 -0.077161542630867261 0 -0.0091601055421710615 -0.07744829292923959 0 -0.011926913193396161 -0.077161542630867261 0 -0.01095747328715135 -0.079346720711615415 0 -0.0091601055421710615 -0.07744829292923959 0 -0.013492628092604918 -0.079585657657325837 0 -0.011926913193396161 -0.077161542630867261 0 -0.013987488181646383 -0.077341238811781801 0 -0.013492628092604918 -0.079585657657325837 0 -0.011926913193396161 -0.077161542630867261 0 -0.01095747328715135 -0.079346720711615415 0 -0.013492628092604918 -0.079585657657325837 0 -0.016269410170694103 -0.077340638485311503 0 -0.013987488181646383 -0.077341238811781801 0 -0.012671023869444823 -0.071634221479210031 0 -0.019572182603645068 -0.069699247880732187 0 -0.0074062084736588544 -0.061281616304665235 0 -0.0088827388482139134 -0.060815033859901634 0 -0.0093358268085496562 -0.05967640702527581 0 -0.022553415793786186 -0.065386550616363365 0 -0.019572182603645068 -0.069699247880732187 0 -0.039695145770345254 -0.060408236179739359 0 -0.037429762110004455 -0.060724542218546854 0 -0.038975737870377662 -0.062779293964896343 0 -0.038237435767098357 -0.058655344454499485 0 -0.039695145770345254 -0.060408236179739359 0 -0.037429762110004455 -0.060724542218546854 0 -0.035844112139853286 -0.06286490190400626 0 -0.037429762110004455 -0.060724542218546854 0 -0.038975737870377662 -0.062779293964896343 0 -0.022553415793786186 -0.065386550616363365 0 -0.02077023493811243 -0.06932836311474351 0 -0.022266451477920786 -0.065860757695780453 0 -0.020966243611908471 -0.069544708565776311 0 -0.020282635823652889 -0.070161787924917035 0 -0.017456574115092497 -0.074799122749015151 0 -0.016269410170694103 -0.077340638485311503 0 -0.016203696260803545 -0.075488815013472446 0 -0.017359767570140034 -0.076607909579241518 0 -0.015936313549665713 -0.080893975379054003 0 -0.016448048877629268 -0.080422885862291196 0 -0.018282728638245076 -0.07328240659540991 0 -0.019572182603645068 -0.069699247880732187 0 -0.021267275986310483 -0.076467476206955723 0 -0.017704014962670184 -0.077254106246673157 0 -0.016200430883543757 -0.080778212162286922 0 -0.025291002330230662 -0.069028479559720385 0 -0.02077023493811243 -0.06932836311474351 0 -0.017704014962670184 -0.077254106246673157 0 -0.017359767570140034 -0.076607909579241518 0 -0.016448048877629268 -0.080422885862291196 0 -0.019572182603645068 -0.069699247880732187 0 -0.02077023493811243 -0.06932836311474351 0 -0.019656408958564249 -0.072077669412801249 0 -0.02077023493811243 -0.06932836311474351 0 -0.016269410170694103 -0.077340638485311503 0 -0.015211879804615172 -0.075735205059991303 0 -0.013987488181646383 -0.077341238811781801 0 -0.016269410170694103 -0.077340638485311503 0 -0.016203696260803545 -0.075488815013472446 0 -0.015211879804615172 -0.075735205059991303 0 -0.013661136332928181 -0.074843540266311931 0 -0.015211879804615172 -0.075735205059991303 0 -0.013987488181646383 -0.077341238811781801 0 -0.0027704257965904186 -0.074505620975230294 0 -0.0035972486482057282 -0.074662854955834107 0 -0.0039151286118061616 -0.0748737558966205 0 -0.0027704257965904186 -0.074505620975230294 0 -0.0035972486482057282 -0.074662854955834107 0 -0.0036580978332056693 -0.074227980447851269 0 -0.0022417653999183941 -0.073980877703185663 0 -0.0030916621987822058 -0.074680503919126853 0 -0.002297733047888966 -0.073885129189707896 0 -0.0016339458719626129 -0.074466675021525583 0 -0.0025784483253350672 -0.074811493355811387 0 -0.002297733047888966 -0.073885129189707896 0 -0.0016339458719626129 -0.074466675021525583 0 -0.00093763108865778952 -0.073949997448804497 0 -0.0016339458719626129 -0.074466675021525583 0 -0.0014989077840107657 -0.075179946106678941 0 -0.0025784483253350672 -0.074811493355811387 0 -0.0014989077840107657 -0.075179946106678941 0 -0.0023916472797969515 -0.075574688361190606 0 -0.0012810979056489509 -0.075943732660886318 0 -0.0014989077840107657 -0.075179946106678941 0 -0.0023916472797969515 -0.075574688361190606 0 -0.0025784483253350672 -0.074811493355811387 0 -0.0031526164345612451 -0.075256266059084129 0 -0.0025784483253350672 -0.074811493355811387 0 -0.00372656707338139 -0.075383889135673302 0 -0.002297733047888966 -0.073885129189707896 0 -0.0025784483253350672 -0.074811493355811387 0 -0.00372656707338139 -0.075383889135673302 0 -0.0023916472797969515 -0.075574688361190606 0 -0.0031526164345612451 -0.075256266059084129 0 -0.0037710164785425917 -0.07534196885235836 0 -0.0023916472797969515 -0.075574688361190606 0 -0.0031526164345612451 -0.075256266059084129 0 -0.0025784483253350672 -0.074811493355811387 0 -0.0035972486482057282 -0.074662854955834107 0 -0.0039151286118061616 -0.0748737558966205 0 -0.0038250296379798545 -0.074799661835498452 0 -0.0031526164345612451 -0.075256266059084129 0 -0.00372656707338139 -0.075383889135673302 0 -0.0037710164785425917 -0.07534196885235836 0 -0.0036558966786160124 -0.07438630921679612 0 -0.0039151286118061616 -0.0748737558966205 0 -0.0037680476001510318 -0.074664060882582095 0 -0.0039151286118061616 -0.0748737558966205 0 -0.0038257499121109153 -0.074778630648131061 0 -0.0037680476001510318 -0.074664060882582095 0 -0.0039151286118061616 -0.0748737558966205 0 -0.0038257499121109153 -0.074778630648131061 0 -0.0038250296379798545 -0.074799661835498452 0 -0.0038257499121109153 -0.074778630648131061 0 -0.0038006087503211381 -0.074747268984273321 0 -0.0038250296379798545 -0.074799661835498452 0 -0.0038257499121109153 -0.074778630648131061 0 -0.0038006087503211381 -0.074747268984273321 0 -0.0037680476001510318 -0.074664060882582095 0 -0.0038006087503211381 -0.074747268984273321 0 -0.0037680476001510318 -0.074664060882582095 0 -0.0037268070982177455 -0.074637040469426694 0 -0.0037268070982177455 -0.074637040469426694 0 -0.003829322332670089 -0.0747186112413286 0 -0.0036152999385263233 -0.074579536397105337 0 -0.0038006087503211381 -0.074747268984273321 0 -0.0037268070982177455 -0.074637040469426694 0 -0.003829322332670089 -0.0747186112413286 0 -0.0038006087503211381 -0.074747268984273321 0 -0.003829322332670089 -0.0747186112413286 0 -0.003850687139879779 -0.074757254688805022 0 -0.003829322332670089 -0.0747186112413286 0 -0.003850687139879779 -0.074757254688805022 0 -0.0039816793097447621 -0.074705986569941443 0 -0.0035972486482057282 -0.074662854955834107 0 -0.003850687139879779 -0.074757254688805022 0 -0.0038250296379798545 -0.074799661835498452 0 -0.0038006087503211381 -0.074747268984273321 0 -0.003850687139879779 -0.074757254688805022 0 -0.0038250296379798545 -0.074799661835498452 0 -0.0078587138481256216 -0.079506316771021115 0 -0.0072225024760393611 -0.076222354647128579 0 -0.0031020506130138592 -0.074293204784919062 0 -0.0036152999385263233 -0.074579536397105337 0 -0.0041977040783570552 -0.074774005532819807 0 -0.0090783593512029949 -0.080383259592763615 0 -0.01095747328715135 -0.079346720711615415 0 -0.0091601055421710615 -0.07744829292923959 0 -0.0068061572390759884 -0.076193530875019663 0 -0.0072225024760393611 -0.076222354647128579 0 -0.003829322332670089 -0.0747186112413286 0 -0.0036152999385263233 -0.074579536397105337 0 -0.0041977040783570552 -0.074774005532819807 0 -0.003829322332670089 -0.0747186112413286 0 -0.0041977040783570552 -0.074774005532819807 0 -0.0039816793097447621 -0.074705986569941443 0 -0.0041977040783570552 -0.074774005532819807 0 -0.0042968412700313931 -0.07453689894864321 0 -0.0050829278832427577 -0.074204582715024364 0 -0.0072225024760393611 -0.076222354647128579 0 -0.0067978692659776173 -0.074874213562695843 0 -0.0054694879991156473 -0.076370522305338265 0 -0.0060442642430477943 -0.073810937575050972 0 -0.0057003268565685447 -0.074717898433618049 0 -0.0072225024760393611 -0.076222354647128579 0 -0.0078309894824494051 -0.073608599089407964 0 -0.0041977040783570552 -0.074774005532819807 0 -0.0042968412700313931 -0.07453689894864321 0 -0.0039816793097447621 -0.074705986569941443 0 -0.0042968412700313931 -0.07453689894864321 0 -0.0043398724419918466 -0.074175556151879707 0 -0.0050829278832427577 -0.074204582715024364 0 -0.0035972486482057282 -0.074662854955834107 0 -0.003850687139879779 -0.074757254688805022 0 -0.003935974286109617 -0.074570253721129243 0 -0.0042968412700313931 -0.07453689894864321 0 -0.003935974286109617 -0.074570253721129243 0 -0.0039816793097447621 -0.074705986569941443 0 -0.003850687139879779 -0.074757254688805022 0 -0.003935974286109617 -0.074570253721129243 0 -0.0039816793097447621 -0.074705986569941443 0 -0.0042968412700313931 -0.07453689894864321 0 -0.003935974286109617 -0.074570253721129243 0 -0.0043398724419918466 -0.074175556151879707 0 -0.0035972486482057282 -0.074662854955834107 0 -0.003935974286109617 -0.074570253721129243 0 -0.0036580978332056693 -0.074227980447851269 0 -0.003935974286109617 -0.074570253721129243 0 -0.0036580978332056693 -0.074227980447851269 0 -0.0043398724419918466 -0.074175556151879707 0 -0.0036580978332056693 -0.074227980447851269 0 -0.0043398724419918466 -0.074175556151879707 0 -0.0042598318622692572 -0.07348818350235671 0 -0.0043398724419918466 -0.074175556151879707 0 -0.0042598318622692572 -0.07348818350235671 0 -0.0049526855372096735 -0.073649661423193097 0 -0.0036580978332056693 -0.074227980447851269 0 -0.0042598318622692572 -0.07348818350235671 0 -0.00323238338603112 -0.073530247277380265 0 -0.0050829278832427577 -0.074204582715024364 0 -0.0049526855372096735 -0.073649661423193097 0 -0.006017952006165176 -0.073063813349459134 0 -0.0067978692659776173 -0.074874213562695843 0 -0.0067046464427238869 -0.074298679807709794 0 -0.0060442642430477943 -0.073810937575050972 0 -0.0057003268565685447 -0.074717898433618049 0 -0.006017952006165176 -0.073063813349459134 0 -0.0043398724419918466 -0.074175556151879707 0 -0.0050829278832427577 -0.074204582715024364 0 -0.0049526855372096735 -0.073649661423193097 0 -0.0042598318622692572 -0.07348818350235671 0 -0.0049526855372096735 -0.073649661423193097 0 -0.005204927782463141 -0.072970350137001136 0 -0.0071221510910232794 -0.07125847640834207 0 -0.006017952006165176 -0.073063813349459134 0 -0.005664430349329396 -0.072150845047681211 0 -0.0071221510910232794 -0.07125847640834207 0 -0.0060442642430477943 -0.073810937575050972 0 -0.006017952006165176 -0.073063813349459134 0 -0.006017952006165176 -0.073063813349459134 0 -0.005204927782463141 -0.072970350137001136 0 -0.005664430349329396 -0.072150845047681211 0 -0.0049526855372096735 -0.073649661423193097 0 -0.006017952006165176 -0.073063813349459134 0 -0.005204927782463141 -0.072970350137001136 0 -0.005204927782463141 -0.072970350137001136 0 -0.005664430349329396 -0.072150845047681211 0 -0.0047715373343523004 -0.072319283879198296 0 -0.0042598318622692572 -0.07348818350235671 0 -0.0038192387385943298 -0.072680069892598981 0 -0.00323238338603112 -0.073530247277380265 0 -0.0042598318622692572 -0.07348818350235671 0 -0.0047715373343523004 -0.072319283879198296 0 -0.0038192387385943298 -0.072680069892598981 0 -0.0042598318622692572 -0.07348818350235671 0 -0.005204927782463141 -0.072970350137001136 0 -0.0047715373343523004 -0.072319283879198296 0 -0.0047715373343523004 -0.072319283879198296 0 -0.0038192387385943298 -0.072680069892598981 0 -0.0038772916060850929 -0.071271100780281663 0 -0.0038192387385943298 -0.072680069892598981 0 -0.0027595055533574447 -0.072525662664551432 0 -0.0038772916060850929 -0.071271100780281663 0 -0.0027595055533574447 -0.072525662664551432 0 -0.0023679929390469983 -0.073266131003220686 0 -0.0019782086050761107 -0.072527887051253223 0 -0.0027595055533574447 -0.072525662664551432 0 -0.0023679929390469983 -0.073266131003220686 0 -0.00323238338603112 -0.073530247277380265 0 -0.0038192387385943298 -0.072680069892598981 0 -0.0027595055533574447 -0.072525662664551432 0 -0.00323238338603112 -0.073530247277380265 0 -0.0027704257965904186 -0.074505620975230294 0 -0.0023679929390469983 -0.073266131003220686 0 -0.00323238338603112 -0.073530247277380265 0 -0.0027704257965904186 -0.074505620975230294 0 -0.0036580978332056693 -0.074227980447851269 0 -0.00323238338603112 -0.073530247277380265 0 -0.002297733047888966 -0.073885129189707896 0 -0.001015615899797061 -0.073450198641575939 0 -0.00093763108865778952 -0.073949997448804497 0 -0.0022417653999183941 -0.073980877703185663 0 -0.00087764671275545887 -0.072517809951544304 0 -0.002297733047888966 -0.073885129189707896 0 -0.0011826720222978171 -0.073258726411494252 0 -0.001015615899797061 -0.073450198641575939 0 -0.0027704257965904186 -0.074505620975230294 0 -0.0023679929390469983 -0.073266131003220686 0 -0.0011121723843599779 -0.072945752260269087 0 -0.002297733047888966 -0.073885129189707896 0 -0.0011826720222978171 -0.073258726411494252 0 -0.00091195862566086571 -0.072937524487574526 0 -0.0011121723843599779 -0.072945752260269087 0 -0.0019782086050761107 -0.072527887051253223 0 -0.00168147936051194 -0.071068941864444096 0 -0.0023679929390469983 -0.073266131003220686 0 -0.0011121723843599779 -0.072945752260269087 0 -0.0019782086050761107 -0.072527887051253223 0 -0.0027595055533574447 -0.072525662664551432 0 -0.0019782086050761107 -0.072527887051253223 0 -0.00168147936051194 -0.071068941864444096 0 -0.0011121723843599779 -0.072945752260269087 0 -0.00168147936051194 -0.071068941864444096 0 0.00071338694012789349 -0.070645290972876251 0 -0.0027595055533574447 -0.072525662664551432 0 -0.00168147936051194 -0.071068941864444096 0 -0.0038772916060850929 -0.071271100780281663 0 -0.00168147936051194 -0.071068941864444096 0 -0.0038772916060850929 -0.071271100780281663 0 -0.0032762480335934863 -0.068773810862704302 0 -0.00168147936051194 -0.071068941864444096 0 -0.00051969033679397135 -0.068160291417177193 0 -0.0032762480335934863 -0.068773810862704302 0 -0.00168147936051194 -0.071068941864444096 0 -0.00051969033679397135 -0.068160291417177193 0 0.00071338694012789349 -0.070645290972876251 0 -0.0071221510910232794 -0.07125847640834207 0 -0.0053253661239616307 -0.071183117371096019 0 -0.0056341874430167792 -0.069579540981587015 0 -0.0071221510910232794 -0.07125847640834207 0 -0.005664430349329396 -0.072150845047681211 0 -0.0053253661239616307 -0.071183117371096019 0 -0.005664430349329396 -0.072150845047681211 0 -0.0047715373343523004 -0.072319283879198296 0 -0.0053253661239616307 -0.071183117371096019 0 -0.0053253661239616307 -0.071183117371096019 0 -0.0038772916060850929 -0.071271100780281663 0 -0.0056341874430167792 -0.069579540981587015 0 -0.0047715373343523004 -0.072319283879198296 0 -0.0053253661239616307 -0.071183117371096019 0 -0.0038772916060850929 -0.071271100780281663 0 -0.0038772916060850929 -0.071271100780281663 0 -0.0056341874430167792 -0.069579540981587015 0 -0.0032762480335934863 -0.068773810862704302 0 -0.0082906999844801627 -0.068325172301151288 0 -0.0071221510910232794 -0.07125847640834207 0 -0.0056341874430167792 -0.069579540981587015 0 -0.0082906999844801627 -0.068325172301151288 0 -0.0056341874430167792 -0.069579540981587015 0 -0.0054453510771098248 -0.067405747521546405 0 -0.0056341874430167792 -0.069579540981587015 0 -0.0054453510771098248 -0.067405747521546405 0 -0.0032762480335934863 -0.068773810862704302 0 -0.0054453510771098248 -0.067405747521546405 0 -0.0059083000751130451 -0.064999831874093583 0 -0.0024391067995916675 -0.065000076437678203 0 -0.0093772905479792088 -0.065000084545260073 0 -0.0082906999844801627 -0.068325172301151288 0 -0.0054453510771098248 -0.067405747521546405 0 -0.0093772905479792088 -0.065000084545260073 0 -0.0054453510771098248 -0.067405747521546405 0 -0.0059083000751130451 -0.064999831874093583 0 -0.0054453510771098248 -0.067405747521546405 0 -0.0032762480335934863 -0.068773810862704302 0 -0.0024391067995916675 -0.065000076437678203 0 -0.00051969033679397135 -0.068160291417177193 0 -0.0032762480335934863 -0.068773810862704302 0 -0.0024391067995916675 -0.065000076437678203 0 -0.00051969033679397135 -0.068160291417177193 0 -0.0024391067995916675 -0.065000076437678203 0 0.0010300604750980438 -0.064999868247783615 0 -0.00051969033679397135 -0.068160291417177193 0 0.0010300604750980438 -0.064999868247783615 0 0.0026073119975415305 -0.067948910774013646 0 0.0027063216877214157 -0.067664942494074232 0 0.0044979150076382224 -0.065002285086062636 0 0.0010300604750980438 -0.064999868247783615 0 0.0026073119975415305 -0.067948910774013646 0 0.0044995885214345055 -0.064999986423697906 0 0.0030073562521367135 -0.067585429213645215 0 0.0045001475333905812 -0.06499979996858786 0 0.0054967728958943652 -0.066847896348432523 0 0.0045001475333905812 -0.06499979996858786 0 0.0067978634946727094 -0.064999880062303034 0 0.0054967728958943652 -0.066847896348432523 0 0.0067978634946727094 -0.064999880062303034 0 0.0077062537617251124 -0.066836751396282507 0 0.0090953777244886097 -0.064999911945654715 0 0.0067978634946727094 -0.064999880062303034 0 0.0077062537617251124 -0.066836751396282507 0 0.0054967728958943652 -0.066847896348432523 0 0.0077062537617251124 -0.066836751396282507 0 0.0064532572014168827 -0.068299432490075168 0 0.0054967728958943652 -0.066847896348432523 0 0.0077062537617251124 -0.066836751396282507 0 0.0064532572014168827 -0.068299432490075168 0 0.00815617836027617 -0.069172760467591854 0 0.0030073562521367135 -0.067585429213645215 0 0.0054967728958943652 -0.066847896348432523 0 0.0043904257542005717 -0.069240830194173056 0 0.0064532572014168827 -0.068299432490075168 0 0.0054967728958943652 -0.066847896348432523 0 0.0043904257542005717 -0.069240830194173056 0 0.0043904257542005717 -0.069240830194173056 0 0.0063735315235463209 -0.069834201478393698 0 0.0052016949478632009 -0.071130454655878472 0 0.0064532572014168827 -0.068299432490075168 0 0.0043904257542005717 -0.069240830194173056 0 0.0063735315235463209 -0.069834201478393698 0 0.0063735315235463209 -0.069834201478393698 0 0.0077426345385655975 -0.071102918611307575 0 0.00815617836027617 -0.069172760467591854 0 0.0064532572014168827 -0.068299432490075168 0 0.0063735315235463209 -0.069834201478393698 0 0.00815617836027617 -0.069172760467591854 0 0.0063735315235463209 -0.069834201478393698 0 0.0077426345385655975 -0.071102918611307575 0 0.0052016949478632009 -0.071130454655878472 0 0.0077426345385655975 -0.071102918611307575 0 0.0052016949478632009 -0.071130454655878472 0 0.0066319788205821927 -0.073158549214529661 0 0.0043904257542005717 -0.069240830194173056 0 0.0052016949478632009 -0.071130454655878472 0 0.0031896157032239606 -0.071333402605270282 0 0.0052016949478632009 -0.071130454655878472 0 0.0031896157032239606 -0.071333402605270282 0 0.0040567400756666028 -0.072343576880387409 0 0.0043904257542005717 -0.069240830194173056 0 0.0031896157032239606 -0.071333402605270282 0 0.0012202572112204105 -0.070180838114761224 0 -0.00087764671275545887 -0.072517809951544304 0 0.00087213893267602577 -0.070259523551264483 0 0.0031896157032239606 -0.071333402605270282 0 0.0012202572112204105 -0.070180838114761224 0 0.0014221136335980332 -0.072139479359874137 0 -0.00091195862566086571 -0.072937524487574526 0 0.0012202572112204105 -0.070180838114761224 0 0.0014221136335980332 -0.072139479359874137 0 -0.00051969033679397135 -0.068160291417177193 0 0.0026073119975415305 -0.067948910774013646 0 0.00071338694012789349 -0.070645290972876251 0 0.0027063216877214157 -0.067664942494074232 0 0.00087213893267602577 -0.070259523551264483 0 0.0030073562521367135 -0.067585429213645215 0 0.0043904257542005717 -0.069240830194173056 0 0.0012202572112204105 -0.070180838114761224 0 0.013086071617275461 -0.067809896670954023 0 0.015164427111731712 -0.069822828409212681 0 0.016378059683969274 -0.067965680849634919 0 0.014863994290709705 -0.065000136619251275 0 0.013086071617275461 -0.067809896670954023 0 0.016378059683969274 -0.067965680849634919 0 0.014870298086593233 -0.065000340385216668 0 0.019183464109160494 -0.066455307954699783 0 0.0130139447282 -0.065002778448911988 0 0.013678086450779796 -0.067589970408314146 0 0.013012365276043178 -0.064999979704717645 0 0.012834214596279522 -0.067978831472118917 0 0.011273128616752765 -0.06653665910844532 0 0.014863994290709705 -0.065000136619251275 0 0.013013268635614552 -0.064999800246740874 0 0.013086071617275461 -0.067809896670954023 0 0.012834214596279522 -0.067978831472118917 0 0.011273128616752765 -0.06653665910844532 0 0.010121557936034985 -0.068103968230232334 0 0.012834214596279522 -0.067978831472118917 0 0.010121557936034985 -0.068103968230232334 0 0.011654993007251056 -0.069357020953984966 0 0.013012365276043178 -0.064999979704717645 0 0.011273128616752765 -0.06653665910844532 0 0.0090963518216471417 -0.064999979319315768 0 0.009098226080397195 -0.065002181964162659 0 0.010674206462099201 -0.067491347947451916 0 0.011273128616752765 -0.06653665910844532 0 0.0090963518216471417 -0.064999979319315768 0 0.010121557936034985 -0.068103968230232334 0 0.0077062537617251124 -0.066836751396282507 0 0.0090953777244886097 -0.064999911945654715 0 0.0095226806910048527 -0.067786917196413249 0 0.0077062537617251124 -0.066836751396282507 0 0.0095226806910048527 -0.067786917196413249 0 0.00815617836027617 -0.069172760467591854 0 0.0095226806910048527 -0.067786917196413249 0 0.00815617836027617 -0.069172760467591854 0 0.010237230807049354 -0.070558471896797287 0 0.0077426345385655975 -0.071102918611307575 0 0.00815617836027617 -0.069172760467591854 0 0.010237230807049354 -0.070558471896797287 0 0.0077426345385655975 -0.071102918611307575 0 0.010237230807049354 -0.070558471896797287 0 0.0096391095907226026 -0.072653248146055879 0 0.011064363789028272 -0.071010811235158636 0 0.012693722212401299 -0.070781861743591801 0 0.012609753218530724 -0.073456130399018965 0 0.012672215671388534 -0.069498040538715472 0 0.01542015555093805 -0.069250177340997809 0 0.010674206462099201 -0.067491347947451916 0 0.012672215671388534 -0.069498040538715472 0 0.010121557936034985 -0.068103968230232334 0 0.011064363789028272 -0.071010811235158636 0 0.011654993007251056 -0.069357020953984966 0 0.011064363789028272 -0.071010811235158636 0 0.011654993007251056 -0.069357020953984966 0 0.012693722212401299 -0.070781861743591801 0 0.013086071617275461 -0.067809896670954023 0 0.013072240891059022 -0.070474501639131701 0 0.015164427111731712 -0.069822828409212681 0 0.013678086450779796 -0.067589970408314146 0 0.01471166436163192 -0.069535420846594934 0 0.012834214596279522 -0.067978831472118917 0 0.011654993007251056 -0.069357020953984966 0 0.012693722212401299 -0.070781861743591801 0 0.01471166436163192 -0.069535420846594934 0 0.016713397564853644 -0.068607953459257812 0 0.013072240891059022 -0.070474501639131701 0 0.015430317194409821 -0.071982153931049203 0 0.013009696289687791 -0.073119073064707857 0 0.013072240891059022 -0.070474501639131701 0 0.015430317194409821 -0.071982153931049203 0 0.015164427111731712 -0.069822828409212681 0 0.027761603256775031 -0.064279522150401891 0 0.02776681054673235 -0.064000379521554226 0 0.027428740535573322 -0.064139639976252674 0 0.027761603256775031 -0.064279522150401891 0 0.028126565175421326 -0.064019255473138081 0 0.02776681054673235 -0.064000379521554226 0 0.027711242909623214 -0.064618001457096175 0 0.027761603256775031 -0.064279522150401891 0 0.027431191574551355 -0.064463524267593636 0 0.027711242909623214 -0.064618001457096175 0 0.027761603256775031 -0.064279522150401891 0 0.028101522683423721 -0.064432990040543425 0 0.021081367898933487 -0.067427173642768859 0 0.016713397564853644 -0.068607953459257812 0 0.016713397564853644 -0.068607953459257812 0 0.01542015555093805 -0.069250177340997809 0 0.016644597208222735 -0.070018989136046483 0 0.016687227029806045 -0.068641257984240478 0 0.017034779956089673 -0.069833302627602151 0 0.027761603256775031 -0.064279522150401891 0 0.028101522683423721 -0.064432990040543425 0 0.028126565175421326 -0.064019255473138081 0 0.016713397564853644 -0.068607953459257812 0 0.017209139987474944 -0.069184097031724345 0 0.017209139987474944 -0.069184097031724345 0 0.01542015555093805 -0.069250177340997809 0 0.01111938496431695 -0.074540788690311444 0 0.01042233062830574 -0.07366067999575085 0 0.010757920703923875 -0.07310129341774739 0 0.01111938496431695 -0.074540788690311444 0 0.010078806877407793 -0.074274372840112166 0 0.01042233062830574 -0.07366067999575085 0 0.010078806877407793 -0.074274372840112166 0 0.0097707022548267873 -0.073510917078223464 0 0.0093582451752926704 -0.074209996263664021 0 0.010078806877407793 -0.074274372840112166 0 0.0093582451752926704 -0.074209996263664021 0 0.0097103300454673778 -0.074624226435882846 0 0.010078806877407793 -0.074274372840112166 0 0.0097707022548267873 -0.073510917078223464 0 0.01042233062830574 -0.07366067999575085 0 0.0097707022548267873 -0.073510917078223464 0 0.01042233062830574 -0.07366067999575085 0 0.01016479712248277 -0.073334511809647243 0 0.01042233062830574 -0.07366067999575085 0 0.0106011730873459 -0.073186823485827127 0 0.01016479712248277 -0.073334511809647243 0 0.010823356296258177 -0.073104055605846069 0 0.0106011730873459 -0.073186823485827127 0 0.0096391095907226026 -0.072653248146055879 0 0.010237230807049354 -0.070558471896797287 0 0.010823356296258177 -0.073104055605846069 0 0.0096391095907226026 -0.072653248146055879 0 0.011064363789028272 -0.071010811235158636 0 0.012609753218530724 -0.073456130399018965 0 0.011908197226356136 -0.073787990181506821 0 0.01542015555093805 -0.069250177340997809 0 0.015370417597039982 -0.069277837842740123 0 0.01042233062830574 -0.07366067999575085 0 0.010757920703923875 -0.07310129341774739 0 0.0106011730873459 -0.073186823485827127 0 0.0097707022548267873 -0.073510917078223464 0 0.0096391095907226026 -0.072653248146055879 0 0.01016479712248277 -0.073334511809647243 0 0.0106011730873459 -0.073186823485827127 0 0.0096391095907226026 -0.072653248146055879 0 0.01016479712248277 -0.073334511809647243 0 0.0096391095907226026 -0.072653248146055879 0 0.0086202728603004194 -0.073432953304927662 0 0.0092420381623498672 -0.073576124611194962 0 0.0096391095907226026 -0.072653248146055879 0 0.0086202728603004194 -0.073432953304927662 0 0.007657305948425527 -0.072910034640580254 0 0.0077426345385655975 -0.071102918611307575 0 0.0096391095907226026 -0.072653248146055879 0 0.0066319788205821927 -0.073158549214529661 0 0.0079655975068534252 -0.07262502925697506 0 0.0065784233795104542 -0.072707863639492151 0 0.0097707022548267873 -0.073510917078223464 0 0.0096391095907226026 -0.072653248146055879 0 0.0092420381623498672 -0.073576124611194962 0 0.0086202728603004194 -0.073432953304927662 0 0.0092420381623498672 -0.073576124611194962 0 0.0089208788509805032 -0.074086529773450566 0 0.0092420381623498672 -0.073576124611194962 0 0.0093582451752926704 -0.074209996263664021 0 0.0089208788509805032 -0.074086529773450566 0 0.0097707022548267873 -0.073510917078223464 0 0.0092420381623498672 -0.073576124611194962 0 0.0093582451752926704 -0.074209996263664021 0 0.0093582451752926704 -0.074209996263664021 0 0.0089208788509805032 -0.074086529773450566 0 0.0089862214220497137 -0.074647841146183919 0 0.0086202728603004194 -0.073432953304927662 0 0.0089208788509805032 -0.074086529773450566 0 0.0083948284580562058 -0.074565214499483792 0 0.0089208788509805032 -0.074086529773450566 0 0.0089862214220497137 -0.074647841146183919 0 0.0083948284580562058 -0.074565214499483792 0 0.0089862214220497137 -0.074647841146183919 0 0.0091368577044903202 -0.07573936817569768 0 0.0083948284580562058 -0.074565214499483792 0 0.0093582451752926704 -0.074209996263664021 0 0.0093702899461915751 -0.074974143283282627 0 0.0097103300454673778 -0.074624226435882846 0 0.0089862214220497137 -0.074647841146183919 0 0.0093702899461915751 -0.074974143283282627 0 0.0091368577044903202 -0.07573936817569768 0 0.0093582451752926704 -0.074209996263664021 0 0.0089862214220497137 -0.074647841146183919 0 0.0093702899461915751 -0.074974143283282627 0 0.0093702899461915751 -0.074974143283282627 0 0.0091368577044903202 -0.07573936817569768 0 0.0095961911243421291 -0.075337163061057241 0 0.0091368577044903202 -0.07573936817569768 0 0.0095961911243421291 -0.075337163061057241 0 0.0098477575472871691 -0.07560216781596206 0 0.0025777763327517141 -0.074630098866756978 0 0.0026582735204265327 -0.075067625018432199 0 0.0020695031628915833 -0.075087226858063433 0 0.0026582735204265327 -0.075067625018432199 0 0.0026399945888070779 -0.075414628893874958 0 0.0020695031628915833 -0.075087226858063433 0 0.0026399945888070779 -0.075414628893874958 0 0.0033235978397654891 -0.075141115799239877 0 0.003038316618655966 -0.075670970697736442 0 0.0026582735204265327 -0.075067625018432199 0 0.0026399945888070779 -0.075414628893874958 0 0.0033235978397654891 -0.075141115799239877 0 0.0082381180506104039 -0.070475453064126822 0 0.0095216377514367664 -0.070460794223961565 0 0.0025777763327517141 -0.074630098866756978 0 0.0026582735204265327 -0.075067625018432199 0 0.0033235978397654891 -0.075141115799239877 0 0.0028861931551059047 -0.074669400908187578 0 0.0025777763327517141 -0.074630098866756978 0 0.003538967622426482 -0.075134487907243072 0 0.01019150540449219 -0.076096136838948059 0 0.010496354385853618 -0.075576825395249486 0 0.0098477575472871691 -0.07560216781596206 0 0.0091368577044903202 -0.07573936817569768 0 0.01019150540449219 -0.076096136838948059 0 0.0098477575472871691 -0.07560216781596206 0 0.0084381385579782135 -0.072429060653761687 0 0.013783507202208604 -0.070508033068298601 0 0.0091368577044903202 -0.07573936817569768 0 0.01019150540449219 -0.076096136838948059 0 0.010865349247066456 -0.076976959967813535 0 0.0028861931551059047 -0.074669400908187578 0 0.003538967622426482 -0.075134487907243072 0 0.0045321878224880447 -0.075631635431625335 0 0.0095216377514367664 -0.070460794223961565 0 0.013783507202208604 -0.070508033068298601 0 0.01019150540449219 -0.076096136838948059 0 0.010724678926294509 -0.076358366506776978 0 0.010865349247066456 -0.076976959967813535 0 0.010724678926294509 -0.076358366506776978 0 0.010496354385853618 -0.075576825395249486 0 0.011065836738604848 -0.07582049237152709 0 0.01019150540449219 -0.076096136838948059 0 0.010724678926294509 -0.076358366506776978 0 0.010496354385853618 -0.075576825395249486 0 0.010496354385853618 -0.075576825395249486 0 0.0098477575472871691 -0.07560216781596206 0 0.010030374638660067 -0.075032737479939465 0 0.0095961911243421291 -0.075337163061057241 0 0.0098477575472871691 -0.07560216781596206 0 0.010030374638660067 -0.075032737479939465 0 0.0093702899461915751 -0.074974143283282627 0 0.0097103300454673778 -0.074624226435882846 0 0.010030374638660067 -0.075032737479939465 0 0.0093702899461915751 -0.074974143283282627 0 0.0095961911243421291 -0.075337163061057241 0 0.010030374638660067 -0.075032737479939465 0 0.010078806877407793 -0.074274372840112166 0 0.0097103300454673778 -0.074624226435882846 0 0.010030374638660067 -0.075032737479939465 0 0.01111938496431695 -0.074540788690311444 0 0.010496354385853618 -0.075576825395249486 0 0.010030374638660067 -0.075032737479939465 0 0.01111938496431695 -0.074540788690311444 0 0.010078806877407793 -0.074274372840112166 0 0.010030374638660067 -0.075032737479939465 0 0.018801006904684805 -0.069366729256590723 0 0.018676894334398494 -0.068935094340421346 0 0.018812390948215803 -0.06902509662998986 0 0.017209139987474944 -0.069184097031724345 0 0.01969260170151094 -0.068033669986775208 0 0.01111938496431695 -0.074540788690311444 0 0.010496354385853618 -0.075576825395249486 0 0.011065836738604848 -0.07582049237152709 0 0.017209139987474944 -0.069184097031724345 0 0.016244060614802266 -0.070695816207998446 0 0.028126565175421326 -0.064019255473138081 0 0.028027972821939154 -0.063605330808764432 0 0.027833973650481101 -0.063766404087628362 0 0.016244060614802266 -0.070695816207998446 0 0.015633963015760935 -0.070261039047166046 0 0.018676894334398494 -0.068935094340421346 0 0.018812390948215803 -0.06902509662998986 0 0.018825088617480286 -0.068676882541922349 0 0.010724678926294509 -0.076358366506776978 0 0.011065836738604848 -0.07582049237152709 0 0.011034952916140406 -0.077102128640683998 0 0.010724678926294509 -0.076358366506776978 0 0.010865349247066456 -0.076976959967813535 0 0.011034952916140406 -0.077102128640683998 0 0.027736995222969692 -0.063468905539732695 0 0.027833973650481101 -0.063766404087628362 0 0.027506126151886134 -0.063734273116021964 0 0.028027972821939154 -0.063605330808764432 0 0.027736995222969692 -0.063468905539732695 0 0.02792923681350961 -0.063186504836067206 0 0.028027972821939154 -0.063605330808764432 0 0.027736995222969692 -0.063468905539732695 0 0.027833973650481101 -0.063766404087628362 0 0.028126565175421326 -0.064019255473138081 0 0.027833973650481101 -0.063766404087628362 0 0.02776681054673235 -0.064000379521554226 0 0.027833973650481101 -0.063766404087628362 0 0.02776681054673235 -0.064000379521554226 0 0.027506126151886134 -0.063734273116021964 0 -0.00021759726097022396 -0.073268754710607953 0 -0.00067483743922388466 -0.073043565872528179 0 0.0001797881537808244 -0.072850866780625148 0 -0.00021759726097022396 -0.073268754710607953 0 0.00037893997333576698 -0.073510065769228403 0 0.0001797881537808244 -0.072850866780625148 0 0.00037893997333576698 -0.073510065769228403 0 -0.00018410026824427291 -0.073709536835389847 0 0.00056715089772333858 -0.074165698691313495 0 -0.00021759726097022396 -0.073268754710607953 0 0.00037893997333576698 -0.073510065769228403 0 -0.00018410026824427291 -0.073709536835389847 0 -0.00021759726097022396 -0.073268754710607953 0 -0.00018410026824427291 -0.073709536835389847 0 -0.00058867083267806638 -0.07342442450804941 0 -0.00018410026824427291 -0.073709536835389847 0 -0.00058867083267806638 -0.07342442450804941 0 -0.00093763108865778952 -0.073949997448804497 0 -0.0011826720222978171 -0.073258726411494252 0 -0.001015615899797061 -0.073450198641575939 0 -0.00067483743922388466 -0.073043565872528179 0 -0.001015615899797061 -0.073450198641575939 0 -0.00058867083267806638 -0.07342442450804941 0 -0.00093763108865778952 -0.073949997448804497 0 -0.001015615899797061 -0.073450198641575939 0 -0.00058867083267806638 -0.07342442450804941 0 -0.00067483743922388466 -0.073043565872528179 0 -0.00021759726097022396 -0.073268754710607953 0 -0.00058867083267806638 -0.07342442450804941 0 -0.00067483743922388466 -0.073043565872528179 0 0.0010713119139689733 -0.073731988743867383 0 0.0014221136335980332 -0.072139479359874137 0 0.0027886393938886533 -0.073171316586606056 0 0.0010209624156718041 -0.073080182998248658 0 0.001676860319002175 -0.07300239618498594 0 -0.0011826720222978171 -0.073258726411494252 0 -0.00091195862566086571 -0.072937524487574526 0 0.0010713119139689733 -0.073731988743867383 0 -0.00091195862566086571 -0.072937524487574526 0 0.0010713119139689733 -0.073731988743867383 0 0.0014221136335980332 -0.072139479359874137 0 0.001676860319002175 -0.07300239618498594 0 0.0034946956245841057 -0.072754557364015607 0 0.0010713119139689733 -0.073731988743867383 0 0.0027886393938886533 -0.073171316586606056 0 0.0033688121410834883 -0.073623439658396655 0 0.0031896157032239606 -0.071333402605270282 0 0.0014221136335980332 -0.072139479359874137 0 0.0027886393938886533 -0.073171316586606056 0 0.0027886393938886533 -0.073171316586606056 0 0.0033405200186912075 -0.07357830289699166 0 0.0040567400756666028 -0.072343576880387409 0 0.0034869025214804414 -0.072758281416763632 0 0.0034946956245841057 -0.072754557364015607 0 0.0031896157032239606 -0.071333402605270282 0 0.0027886393938886533 -0.073171316586606056 0 0.0040567400756666028 -0.072343576880387409 0 0.0033405200186912075 -0.07357830289699166 0 0.0040567400756666028 -0.072343576880387409 0 0.0066319788205821927 -0.073158549214529661 0 0.0034946956245841057 -0.072754557364015607 0 0.0065784233795104542 -0.072707863639492151 0 0.0052016949478632009 -0.071130454655878472 0 0.0040567400756666028 -0.072343576880387409 0 0.0066319788205821927 -0.073158549214529661 0 0.0086202728603004194 -0.073432953304927662 0 0.007657305948425527 -0.072910034640580254 0 0.0073688665284508247 -0.074445974269092718 0 0.0086202728603004194 -0.073432953304927662 0 0.0073688665284508247 -0.074445974269092718 0 0.0083948284580562058 -0.074565214499483792 0 0.0056196166703939877 -0.073140671885369296 0 0.007657305948425527 -0.072910034640580254 0 0.0073688665284508247 -0.074445974269092718 0 0.0034946956245841057 -0.072754557364015607 0 0.0054647084640159962 -0.072904412734718607 0 0.00037893997333576698 -0.073510065769228403 0 0.0001797881537808244 -0.072850866780625148 0 0.0014767465323482435 -0.073716946487203408 0 0.00037893997333576698 -0.073510065769228403 0 0.0014767465323482435 -0.073716946487203408 0 0.00056715089772333858 -0.074165698691313495 0 0.0014767465323482435 -0.073716946487203408 0 0.00056715089772333858 -0.074165698691313495 0 0.001416141158659517 -0.074667166471094282 0 0.00056715089772333858 -0.074165698691313495 0 0.001416141158659517 -0.074667166471094282 0 0.00053654057636047417 -0.075001037041695834 0 0.0091368577044903202 -0.07573936817569768 0 0.0073688665284508247 -0.074445974269092718 0 0.0083948284580562058 -0.074565214499483792 0 0.0028861931551059047 -0.074669400908187578 0 0.0025777763327517141 -0.074630098866756978 0 0.0014767465323482435 -0.073716946487203408 0 0.0025777763327517141 -0.074630098866756978 0 0.0014767465323482435 -0.073716946487203408 0 0.001416141158659517 -0.074667166471094282 0 0.0084381385579782135 -0.072429060653761687 0 0.0054647084640159962 -0.072904412734718607 0 0.001416141158659517 -0.074667166471094282 0 0.0020695031628915833 -0.075087226858063433 0 0.0013325178672076779 -0.075596487352471584 0 0.0025777763327517141 -0.074630098866756978 0 0.001416141158659517 -0.074667166471094282 0 0.0020695031628915833 -0.075087226858063433 0 0.0020695031628915833 -0.075087226858063433 0 0.0013325178672076779 -0.075596487352471584 0 0.0021076266483079035 -0.075772552460644113 0 0.0026399945888070779 -0.075414628893874958 0 0.0020695031628915833 -0.075087226858063433 0 0.0021076266483079035 -0.075772552460644113 0 0.001416141158659517 -0.074667166471094282 0 0.00053654057636047417 -0.075001037041695834 0 0.0013325178672076779 -0.075596487352471584 0 0.00053654057636047417 -0.075001037041695834 0 0.0013325178672076779 -0.075596487352471584 0 0.00041055630258474612 -0.075974699848921579 0 0.00053654057636047417 -0.075001037041695834 0 -0.00043167796893609818 -0.075363088945883241 0 0.00041055630258474612 -0.075974699848921579 0 0.00053654057636047417 -0.075001037041695834 0 -0.00043167796893609818 -0.075363088945883241 0 -0.00018449800218154613 -0.074423204923169853 0 0.00056715089772333858 -0.074165698691313495 0 0.00053654057636047417 -0.075001037041695834 0 -0.00018449800218154613 -0.074423204923169853 0 -0.00018410026824427291 -0.073709536835389847 0 0.00056715089772333858 -0.074165698691313495 0 -0.00018449800218154613 -0.074423204923169853 0 -0.00018410026824427291 -0.073709536835389847 0 -0.00018449800218154613 -0.074423204923169853 0 -0.00093763108865778952 -0.073949997448804497 0 -0.00018449800218154613 -0.074423204923169853 0 -0.00093763108865778952 -0.073949997448804497 0 -0.0009181182349955136 -0.074614682272686708 0 -0.0016339458719626129 -0.074466675021525583 0 -0.00093763108865778952 -0.073949997448804497 0 -0.0009181182349955136 -0.074614682272686708 0 -0.0014989077840107657 -0.075179946106678941 0 -0.00043167796893609818 -0.075363088945883241 0 -0.0009181182349955136 -0.074614682272686708 0 -0.0014989077840107657 -0.075179946106678941 0 -0.00043167796893609818 -0.075363088945883241 0 -0.0012810979056489509 -0.075943732660886318 0 -0.00043167796893609818 -0.075363088945883241 0 -0.00018449800218154613 -0.074423204923169853 0 -0.0009181182349955136 -0.074614682272686708 0 -0.0016339458719626129 -0.074466675021525583 0 -0.0014989077840107657 -0.075179946106678941 0 -0.0009181182349955136 -0.074614682272686708 0 -0.0020744876766429525 -0.076844452774056771 0 -0.0012810979056489509 -0.075943732660886318 0 -0.00059597959844959029 -0.076690092993356218 0 -0.00043167796893609818 -0.075363088945883241 0 -0.0012810979056489509 -0.075943732660886318 0 -0.00059597959844959029 -0.076690092993356218 0 0.00041055630258474612 -0.075974699848921579 0 -0.00059597959844959029 -0.076690092993356218 0 0.00050638606882108051 -0.076922786491651976 0 -0.00043167796893609818 -0.075363088945883241 0 0.00041055630258474612 -0.075974699848921579 0 -0.00059597959844959029 -0.076690092993356218 0 -0.00059597959844959029 -0.076690092993356218 0 -2.6824727306597844e-05 -0.077693552485017914 0 0.00050638606882108051 -0.076922786491651976 0 -0.00059597959844959029 -0.076690092993356218 0 -0.00093074092059270243 -0.07789094876436943 0 -2.6824727306597844e-05 -0.077693552485017914 0 -0.0020744876766429525 -0.076844452774056771 0 -0.00059597959844959029 -0.076690092993356218 0 -0.00093074092059270243 -0.07789094876436943 0 -0.00093074092059270243 -0.07789094876436943 0 -2.6824727306597844e-05 -0.077693552485017914 0 0.00010094980862560688 -0.078962857916747953 0 -2.6824727306597844e-05 -0.077693552485017914 0 0.00010094980862560688 -0.078962857916747953 0 0.00078480214920988731 -0.077950980206499806 0 -2.6824727306597844e-05 -0.077693552485017914 0 0.00078480214920988731 -0.077950980206499806 0 0.00050638606882108051 -0.076922786491651976 0 -0.0061861667755290766 -0.069595461531087852 0 -0.0074162836363645167 -0.07195535830092778 0 -0.0076424485682694771 -0.070051961595901435 0 -0.0074162836363645167 -0.07195535830092778 0 -0.009138269682440919 -0.070035943628382655 0 -0.0076424485682694771 -0.070051961595901435 0 -0.002388710768208084 -0.073178744137168489 0 -0.00081778448474069713 -0.070674664817033828 0 0.0017555758915064183 -0.078588828019530141 0 0.0028938282794948836 -0.078578318536985298 0 0.0019016286623142204 -0.079397150091466015 0 0.0017555758915064183 -0.078588828019530141 0 0.0010812683137291967 -0.079096032507671568 0 0.0019016286623142204 -0.079397150091466015 0 0.00010094980862560688 -0.078962857916747953 0 0.00078480214920988731 -0.077950980206499806 0 0.0010812683137291967 -0.079096032507671568 0 0.0017555758915064183 -0.078588828019530141 0 0.00078480214920988731 -0.077950980206499806 0 0.0010812683137291967 -0.079096032507671568 0 0.00078480214920988731 -0.077950980206499806 0 0.0016296361021300237 -0.077767543865578603 0 0.0014980924108960935 -0.076953486485110162 0 0.0017555758915064183 -0.078588828019530141 0 0.00078480214920988731 -0.077950980206499806 0 0.0016296361021300237 -0.077767543865578603 0 0.0017555758915064183 -0.078588828019530141 0 0.0016296361021300237 -0.077767543865578603 0 0.0024246425233900126 -0.077882996121523343 0 0.0016296361021300237 -0.077767543865578603 0 0.0023781138409524985 -0.077112587516699083 0 0.0024246425233900126 -0.077882996121523343 0 0.0016296361021300237 -0.077767543865578603 0 0.0014980924108960935 -0.076953486485110162 0 0.0023781138409524985 -0.077112587516699083 0 0.0014980924108960935 -0.076953486485110162 0 0.0021765734741250485 -0.076491950744733431 0 0.0016675327617839415 -0.076231752019518997 0 0.0014980924108960935 -0.076953486485110162 0 0.0010953238016969328 -0.07632788946229728 0 0.0016675327617839415 -0.076231752019518997 0 0.0014980924108960935 -0.076953486485110162 0 0.0021765734741250485 -0.076491950744733431 0 0.0023781138409524985 -0.077112587516699083 0 0.0014980924108960935 -0.076953486485110162 0 0.00050638606882108051 -0.076922786491651976 0 0.0010953238016969328 -0.07632788946229728 0 0.00078480214920988731 -0.077950980206499806 0 0.0014980924108960935 -0.076953486485110162 0 0.00050638606882108051 -0.076922786491651976 0 0.0013325178672076779 -0.075596487352471584 0 0.00041055630258474612 -0.075974699848921579 0 0.0010953238016969328 -0.07632788946229728 0 0.00041055630258474612 -0.075974699848921579 0 0.00050638606882108051 -0.076922786491651976 0 0.0010953238016969328 -0.07632788946229728 0 0.0013325178672076779 -0.075596487352471584 0 0.0010953238016969328 -0.07632788946229728 0 0.0016675327617839415 -0.076231752019518997 0 0.0021765734741250485 -0.076491950744733431 0 0.0016675327617839415 -0.076231752019518997 0 0.0021076266483079035 -0.075772552460644113 0 0.0013325178672076779 -0.075596487352471584 0 0.0016675327617839415 -0.076231752019518997 0 0.0021076266483079035 -0.075772552460644113 0 0.0026399945888070779 -0.075414628893874958 0 0.0021076266483079035 -0.075772552460644113 0 0.0027175657696215019 -0.075981776613732774 0 0.0021765734741250485 -0.076491950744733431 0 0.0021076266483079035 -0.075772552460644113 0 0.0027175657696215019 -0.075981776613732774 0 0.0021765734741250485 -0.076491950744733431 0 0.0027175657696215019 -0.075981776613732774 0 0.0028369605422823396 -0.076523847515048329 0 0.0027175657696215019 -0.075981776613732774 0 0.0034711124846882753 -0.076147373136078181 0 0.0028369605422823396 -0.076523847515048329 0 0.0027175657696215019 -0.075981776613732774 0 0.003038316618655966 -0.075670970697736442 0 0.0034711124846882753 -0.076147373136078181 0 0.0026399945888070779 -0.075414628893874958 0 0.0027175657696215019 -0.075981776613732774 0 0.003038316618655966 -0.075670970697736442 0 0.0033235978397654891 -0.075141115799239877 0 0.003038316618655966 -0.075670970697736442 0 0.0034711124846882753 -0.076147373136078181 0 0.0034711124846882753 -0.076147373136078181 0 0.0042103171526798209 -0.075729827540377159 0 0.0041393621053172746 -0.077390790425595712 0 0.0033235978397654891 -0.075141115799239877 0 0.0034711124846882753 -0.076147373136078181 0 0.0040834429216536393 -0.075635608021105485 0 0.0034711124846882753 -0.076147373136078181 0 0.0040834429216536393 -0.075635608021105485 0 0.0042103171526798209 -0.075729827540377159 0 0.0034711124846882753 -0.076147373136078181 0 0.0031114569042898312 -0.077266898671899065 0 0.0041393621053172746 -0.077390790425595712 0 0.0034711124846882753 -0.076147373136078181 0 0.0031114569042898312 -0.077266898671899065 0 0.0028369605422823396 -0.076523847515048329 0 0.0031114569042898312 -0.077266898671899065 0 0.0023781138409524985 -0.077112587516699083 0 0.0028369605422823396 -0.076523847515048329 0 0.0021765734741250485 -0.076491950744733431 0 0.0023781138409524985 -0.077112587516699083 0 0.0028369605422823396 -0.076523847515048329 0 0.02792923681350961 -0.063186504836067206 0 0.027534897290238492 -0.063013826978744164 0 0.027594365594330691 -0.06325112336721142 0 0.027736995222969692 -0.063468905539732695 0 0.02792923681350961 -0.063186504836067206 0 0.027594365594330691 -0.06325112336721142 0 0.028888765265654478 -0.063818120434516762 0 0.029748945568578874 -0.064391195795898609 0 0.029832994005297268 -0.062424761231242895 0 0.018676894334398494 -0.068935094340421346 0 0.018556889387987406 -0.068501245800579258 0 0.018825088617480286 -0.068676882541922349 0 0.01969260170151094 -0.068033669986775208 0 0.020939854080743732 -0.068772024384468125 0 0.020939854080743732 -0.068772024384468125 0 0.015633963015760935 -0.070261039047166046 0 0.013783507202208604 -0.070508033068298601 0 0.015633963015760935 -0.070261039047166046 0 0.028888765265654478 -0.063818120434516762 0 0.029409067982152311 -0.062485131719469587 0 0.029832994005297268 -0.062424761231242895 0 0.028888765265654478 -0.063818120434516762 0 0.028731587193995246 -0.06293310955758831 0 0.029409067982152311 -0.062485131719469587 0 0.015633963015760935 -0.070261039047166046 0 0.016495176597752376 -0.06980011026529348 0 0.028731587193995246 -0.06293310955758831 0 0.028398380185953843 -0.062344639523553895 0 0.029409067982152311 -0.062485131719469587 0 0.028798823414413647 -0.063748113452359895 0 0.028181901072584552 -0.063152646517411967 0 0.027478496368969655 -0.062808226119899779 0 0.02792923681350961 -0.063186504836067206 0 0.027534897290238492 -0.063013826978744164 0 0.027478496368969655 -0.062808226119899779 0 0.020939854080743732 -0.068772024384468125 0 0.023764870267164565 -0.06779904189206018 0 0.028888765265654478 -0.063818120434516762 0 0.028731587193995246 -0.06293310955758831 0 0.028181901072584552 -0.063152646517411967 0 0.020939854080743732 -0.068772024384468125 0 0.021914571153422598 -0.068574434307091509 0 0.028731587193995246 -0.06293310955758831 0 0.028181901072584552 -0.063152646517411967 0 0.028398380185953843 -0.062344639523553895 0 0.028181901072584552 -0.063152646517411967 0 0.028398380185953843 -0.062344639523553895 0 0.027782126855650124 -0.062580306737865993 0 0.0286463879038956 -0.061764081383972547 0 0.028635944583656956 -0.061089441097636553 0 0.027801499233552452 -0.062094163310793343 0 0.028635689353880708 -0.062260007217346508 0 0.029100963498742655 -0.061931834606447529 0 0.029409067982152311 -0.062485131719469587 0 0.0286463879038956 -0.061764081383972547 0 0.028635689353880708 -0.062260007217346508 0 0.027801499233552452 -0.062094163310793343 0 0.031035538095288209 -0.058988119170719916 0 0.03059291195952081 -0.059268243439781799 0 0.0286463879038956 -0.061764081383972547 0 0.029100963498742655 -0.061931834606447529 0 0.029027586469799103 -0.061446495062024535 0 0.0286463879038956 -0.061764081383972547 0 0.028635689353880708 -0.062260007217346508 0 0.029100963498742655 -0.061931834606447529 0 0.029100963498742655 -0.061931834606447529 0 0.029515312228727081 -0.061582599840603408 0 0.029027586469799103 -0.061446495062024535 0 0.029100963498742655 -0.061931834606447529 0 0.029461073551037296 -0.062102045140729027 0 0.029515312228727081 -0.061582599840603408 0 0.029100963498742655 -0.061931834606447529 0 0.029409067982152311 -0.062485131719469587 0 0.029461073551037296 -0.062102045140729027 0 0.029409067982152311 -0.062485131719469587 0 0.029461073551037296 -0.062102045140729027 0 0.029832994005297268 -0.062424761231242895 0 0.029461073551037296 -0.062102045140729027 0 0.029832994005297268 -0.062424761231242895 0 0.029515312228727081 -0.061582599840603408 0 0.016495176597752376 -0.06980011026529348 0 0.016977984193563785 -0.068685058563729709 0 0.029832994005297268 -0.062424761231242895 0 0.029515312228727081 -0.061582599840603408 0 0.029828258395565126 -0.060783116391826639 0 0.029515312228727081 -0.061582599840603408 0 0.029265919257070158 -0.061033260363041693 0 0.029828258395565126 -0.060783116391826639 0 0.029515312228727081 -0.061582599840603408 0 0.029265919257070158 -0.061033260363041693 0 0.029027586469799103 -0.061446495062024535 0 0.0286463879038956 -0.061764081383972547 0 0.029027586469799103 -0.061446495062024535 0 0.028635944583656956 -0.061089441097636553 0 0.029265919257070158 -0.061033260363041693 0 0.029027586469799103 -0.061446495062024535 0 0.028635944583656956 -0.061089441097636553 0 0.029265919257070158 -0.061033260363041693 0 0.028635944583656956 -0.061089441097636553 0 0.029190590880284667 -0.060430103439541395 0 0.0031114569042898312 -0.077266898671899065 0 0.0024246425233900126 -0.077882996121523343 0 0.0028938282794948836 -0.078578318536985298 0 0.0031114569042898312 -0.077266898671899065 0 0.0023781138409524985 -0.077112587516699083 0 0.0024246425233900126 -0.077882996121523343 0 0.0031114569042898312 -0.077266898671899065 0 0.0041393621053172746 -0.077390790425595712 0 0.0028938282794948836 -0.078578318536985298 0 0.0041393621053172746 -0.077390790425595712 0 0.0028938282794948836 -0.078578318536985298 0 0.004077478010297027 -0.079011723385264604 0 0.0017555758915064183 -0.078588828019530141 0 0.0024246425233900126 -0.077882996121523343 0 0.0028938282794948836 -0.078578318536985298 0 0.0028938282794948836 -0.078578318536985298 0 0.0025717125244468894 -0.080339029833188524 0 0.004077478010297027 -0.079011723385264604 0 0.0028938282794948836 -0.078578318536985298 0 0.0025717125244468894 -0.080339029833188524 0 0.0019016286623142204 -0.079397150091466015 0 0.0040419991306844504 -0.080606300162874608 0 0.0025717125244468894 -0.080339029833188524 0 0.004077478010297027 -0.079011723385264604 0 0.017658522733654869 -0.06074580702743522 0 0.0085798599714258812 -0.063917575943609778 0 0.011725063576309735 -0.057213501147020479 0 0.011551528311119082 -0.057139920423870616 0 0.011637578638073142 -0.057220213582333049 0 0.029190590880284667 -0.060430103439541395 0 0.028621578724134799 -0.059792407781722269 0 0.027949206072097655 -0.060275663414741575 0 0.028635944583656956 -0.061089441097636553 0 0.029190590880284667 -0.060430103439541395 0 0.027849023925787489 -0.060356836814767688 0 0.031140533886448215 -0.057042437564098221 0 0.036071783101559576 -0.056124110921325361 0 0.029190590880284667 -0.060430103439541395 0 0.029828258395565126 -0.060783116391826639 0 0.029245687244530905 -0.059767448494027244 0 0.017658522733654869 -0.06074580702743522 0 0.016977984193563785 -0.068685058563729709 0 0.029265919257070158 -0.061033260363041693 0 0.029190590880284667 -0.060430103439541395 0 0.029828258395565126 -0.060783116391826639 0 0.029833168871334859 -0.059353485486137864 0 0.029828258395565126 -0.060783116391826639 0 0.029245687244530905 -0.059767448494027244 0 0.029833168871334859 -0.059353485486137864 0 0.029245687244530905 -0.059767448494027244 0 0.028883068994750141 -0.05915051942617109 0 0.029190590880284667 -0.060430103439541395 0 0.029245687244530905 -0.059767448494027244 0 0.028621578724134799 -0.059792407781722269 0 0.029245687244530905 -0.059767448494027244 0 0.028621578724134799 -0.059792407781722269 0 0.028883068994750141 -0.05915051942617109 0 0.028738770649746143 -0.050782477435509468 0 0.028492570151278134 -0.049425552300975312 0 0.027254216345071192 -0.050446390564583901 0 0.028621578724134799 -0.059792407781722269 0 0.028883068994750141 -0.05915051942617109 0 0.027964137460308257 -0.058938832081093274 0 0.030225227770580954 -0.0511231834107405 0 0.028738770649746143 -0.050782477435509468 0 0.030299188938316693 -0.049255716095771028 0 0.017658522733654869 -0.06074580702743522 0 0.028289462019153003 -0.055538266004868747 0 0.028492570151278134 -0.049425552300975312 0 0.030299188938316693 -0.049255716095771028 0 0.028702897773566743 -0.04792252080749327 0 0.028738770649746143 -0.050782477435509468 0 0.028492570151278134 -0.049425552300975312 0 0.030299188938316693 -0.049255716095771028 0 0.011551528311119082 -0.057139920423870616 0 0.011576106507989724 -0.05728265599241826 0 0.01134526703222777 -0.057278734261557607 0 0.011568142268013793 -0.057367528814531284 0 0.011576106507989724 -0.05728265599241826 0 0.01134526703222777 -0.057278734261557607 0 0.011568142268013793 -0.057367528814531284 0 0.011517657228737007 -0.057456893303260509 0 0.01134526703222777 -0.057278734261557607 0 0.011676760662809427 -0.057207333983579654 0 0.011699984237048978 -0.057201685495130557 0 0.011695454503570851 -0.057182544116868225 0 0.011676760662809427 -0.057207333983579654 0 0.011699984237048978 -0.057201685495130557 0 0.011637578638073142 -0.057220213582333049 0 0.0093547577179184261 -0.055648267819485467 0 0.0093856818712141129 -0.055741273946127337 0 0.011551528311119082 -0.057139920423870616 0 0.011637578638073142 -0.057220213582333049 0 0.011576106507989724 -0.05728265599241826 0 0.0093547577179184261 -0.055648267819485467 0 0.0094442873885946833 -0.055761159915549391 0 0.011575890081721144 -0.057373210892585381 0 0.011637578638073142 -0.057220213582333049 0 0.011576106507989724 -0.05728265599241826 0 0.017658522733654869 -0.06074580702743522 0 0.019395147899993033 -0.053641514255448462 0 0.011725063576309735 -0.057213501147020479 0 0.011683034376390157 -0.057208716561610397 0 0.011668012186636623 -0.057171739527310299 0 0.011725063576309735 -0.057213501147020479 0 0.011637578638073142 -0.057220213582333049 0 0.011683034376390157 -0.057208716561610397 0 0.011676760662809427 -0.057207333983579654 0 0.011683034376390157 -0.057208716561610397 0 0.011695454503570851 -0.057182544116868225 0 0.011676760662809427 -0.057207333983579654 0 0.011637578638073142 -0.057220213582333049 0 0.011683034376390157 -0.057208716561610397 0 0.011695454503570851 -0.057182544116868225 0 0.011668012186636623 -0.057171739527310299 0 0.011716970486706437 -0.057103551860973788 0 0.011683034376390157 -0.057208716561610397 0 0.011695454503570851 -0.057182544116868225 0 0.011668012186636623 -0.057171739527310299 0 0.0063230910308766037 -0.053830775521747837 0 0.0059895148756460197 -0.053418295195548526 0 0.0073701028001041868 -0.051789937412322219 0 0.011695454503570851 -0.057182544116868225 0 0.011722616300255463 -0.057166610440095696 0 0.011716970486706437 -0.057103551860973788 0 0.010096881160859531 -0.054545376416829071 0 0.014899820326407796 -0.051563451851759423 0 0.011699984237048978 -0.057201685495130557 0 0.011695454503570851 -0.057182544116868225 0 0.011722616300255463 -0.057166610440095696 0 0.010747214286300901 -0.056182542814078876 0 0.01109722726127638 -0.055512440489590482 0 0.010783192850531547 -0.055124128040685429 0 0.0093547577179184261 -0.055648267819485467 0 0.010096881160859531 -0.054545376416829071 0 0.0093547577179184261 -0.055648267819485467 0 0.0083488959422681058 -0.056000830875127632 0 0.0083488959422681058 -0.056000830875127632 0 0.010096881160859531 -0.054545376416829071 0 -0.014253878593390223 -0.064016252370948254 0 -0.01216343264097385 -0.063848929237442079 0 -0.013003176625684124 -0.061562693131340274 0 0.0083488959422681058 -0.056000830875127632 0 0.0023129330408867771 -0.056890061447511645 0 -0.014253878593390223 -0.064016252370948254 0 -0.01216343264097385 -0.063848929237442079 0 -0.012721529882726425 -0.065935709055529035 0 0.0083488959422681058 -0.056000830875127632 0 0.0037794070296145424 -0.059747938041348647 0 -0.01216343264097385 -0.063848929237442079 0 -0.012721529882726425 -0.065935709055529035 0 -0.01038217645433831 -0.065066058781699104 0 -0.012721529882726425 -0.065935709055529035 0 -0.01038217645433831 -0.065066058781699104 0 -0.010339063904262218 -0.066734081217061092 0 -0.01216343264097385 -0.063848929237442079 0 -0.01038217645433831 -0.065066058781699104 0 -0.010449137632269116 -0.062658610498328257 0 -0.01216343264097385 -0.063848929237442079 0 -0.010449137632269116 -0.062658610498328257 0 -0.013003176625684124 -0.061562693131340274 0 -0.010449137632269116 -0.062658610498328257 0 -0.0087901334127793752 -0.064197662289605981 0 -0.0078772373405780038 -0.062185257982141515 0 -0.01038217645433831 -0.065066058781699104 0 -0.010449137632269116 -0.062658610498328257 0 -0.0087901334127793752 -0.064197662289605981 0 -0.0060789182208571772 -0.063004193309017756 0 -0.0069437020088368396 -0.064785388431233673 0 -0.0078772373405780038 -0.062185257982141515 0 -0.0087901334127793752 -0.064197662289605981 0 -0.0069437020088368396 -0.064785388431233673 0 -0.0078772373405780038 -0.062185257982141515 0 -0.0087901334127793752 -0.064197662289605981 0 -0.0069437020088368396 -0.064785388431233673 0 -0.0086387020552980854 -0.066548835344877474 0 -0.0065024084408896983 -0.06752880208542901 0 -0.0069437020088368396 -0.064785388431233673 0 -0.0086387020552980854 -0.066548835344877474 0 -0.01038217645433831 -0.065066058781699104 0 -0.0087901334127793752 -0.064197662289605981 0 -0.0086387020552980854 -0.066548835344877474 0 -0.01038217645433831 -0.065066058781699104 0 -0.0086387020552980854 -0.066548835344877474 0 -0.010339063904262218 -0.066734081217061092 0 -0.0086387020552980854 -0.066548835344877474 0 -0.0099777655903699608 -0.068078618066622604 0 -0.010339063904262218 -0.066734081217061092 0 -0.0086387020552980854 -0.066548835344877474 0 -0.0099777655903699608 -0.068078618066622604 0 -0.0079568862768846192 -0.068680408774084697 0 -0.0065024084408896983 -0.06752880208542901 0 -0.0086387020552980854 -0.066548835344877474 0 -0.0079568862768846192 -0.068680408774084697 0 -0.0061861667755290766 -0.069595461531087852 0 -0.0065024084408896983 -0.06752880208542901 0 -0.0079568862768846192 -0.068680408774084697 0 -0.0061861667755290766 -0.069595461531087852 0 -0.0076424485682694771 -0.070051961595901435 0 -0.0079568862768846192 -0.068680408774084697 0 -0.009138269682440919 -0.070035943628382655 0 -0.0076424485682694771 -0.070051961595901435 0 -0.0079568862768846192 -0.068680408774084697 0 -0.009138269682440919 -0.070035943628382655 0 -0.0099777655903699608 -0.068078618066622604 0 -0.0079568862768846192 -0.068680408774084697 0 0.00010094980862560688 -0.078962857916747953 0 0.0010812683137291967 -0.079096032507671568 0 0.0010822828687809751 -0.080059913011586145 0 -0.009138269682440919 -0.070035943628382655 0 -0.0099777655903699608 -0.068078618066622604 0 -0.011019271244603767 -0.067858312696628592 0 -0.00081778448474069713 -0.070674664817033828 0 0.0020403526485097134 -0.064328382377259519 0 0.0010812683137291967 -0.079096032507671568 0 0.0019016286623142204 -0.079397150091466015 0 0.0010822828687809751 -0.080059913011586145 0 0.011551528311119082 -0.057139920423870616 0 0.01134526703222777 -0.057278734261557607 0 0.011124565920667838 -0.057064661325775513 0 0.0085798599714258812 -0.063917575943609778 0 0.0020403526485097134 -0.064328382377259519 0 0.0037794070296145424 -0.059747938041348647 0 0.0020403526485097134 -0.064328382377259519 0 0.0025717125244468894 -0.080339029833188524 0 0.0019016286623142204 -0.079397150091466015 0 0.0010822828687809751 -0.080059913011586145 0 -0.012721529882726425 -0.065935709055529035 0 -0.010339063904262218 -0.066734081217061092 0 -0.011167756508017912 -0.067841147623106904 0 -0.0099777655903699608 -0.068078618066622604 0 -0.010339063904262218 -0.066734081217061092 0 -0.011167756508017912 -0.067841147623106904 0 0.00035862904265694711 -0.064217227188469173 0 0.0020403526485097134 -0.064328382377259519 0 0.046106525617737301 -0.054363107824109656 0 0.045833320883544255 -0.054117318423816375 0 0.045812077758384841 -0.054608299915744306 0 0.046106525617737301 -0.054363107824109656 0 0.04637029638581152 -0.054511043537145198 0 0.045812077758384841 -0.054608299915744306 0 0.046106525617737301 -0.054363107824109656 0 0.045833320883544255 -0.054117318423816375 0 0.046373666988787178 -0.054220992244597858 0 0.04549974693445847 -0.054287361826922446 0 0.045833320883544255 -0.054117318423816375 0 0.045252640286376246 -0.054013212910902005 0 0.04549974693445847 -0.054287361826922446 0 0.045812077758384841 -0.054608299915744306 0 0.045101129481307546 -0.054408706726613583 0 0.04549974693445847 -0.054287361826922446 0 0.045833320883544255 -0.054117318423816375 0 0.045812077758384841 -0.054608299915744306 0 0.04443787680893016 -0.053804901470911159 0 0.045037046633676726 -0.054354661834649327 0 0.043795060323434019 -0.05430706680750564 0 0.045094244088481242 -0.054645149640335886 0 0.044016279646238346 -0.054857650588482319 0 0.04443787680893016 -0.053804901470911159 0 0.045230565126040248 -0.053782212729292851 0 0.045037046633676726 -0.054354661834649327 0 0.045094244088481242 -0.054645149640335886 0 0.045558027969596432 -0.054589557390648115 0 0.045830885822356213 -0.053952971542913869 0 0.046378809611532408 -0.053559242671027164 0 0.04543637623170662 -0.053210034139406837 0 0.045037046633676726 -0.054354661834649327 0 0.045830885822356213 -0.053952971542913869 0 0.046373666988787178 -0.054220992244597858 0 0.045230565126040248 -0.053782212729292851 0 0.045037046633676726 -0.054354661834649327 0 0.045830885822356213 -0.053952971542913869 0 0.045230565126040248 -0.053782212729292851 0 0.045830885822356213 -0.053952971542913869 0 0.045294235749687189 -0.05324754699350373 0 0.04467089918428619 -0.054781866838092275 0 0.044631450398721642 -0.055071085523983827 0 0.046378809611532408 -0.053559242671027164 0 0.047093630491863978 -0.053844141008834848 0 0.046373666988787178 -0.054220992244597858 0 0.045830885822356213 -0.053952971542913869 0 0.046378809611532408 -0.053559242671027164 0 0.046373666988787178 -0.054220992244597858 0 0.046320537853214001 -0.054618744169078588 0 0.050779805748129098 -0.053632757251967186 0 0.047093630491863978 -0.053844141008834848 0 0.046936683963593809 -0.054428016694326189 0 0.046373666988787178 -0.054220992244597858 0 0.046936683963593809 -0.054428016694326189 0 0.046373666988787178 -0.054220992244597858 0 0.04637029638581152 -0.054511043537145198 0 0.046936683963593809 -0.054428016694326189 0 0.04637029638581152 -0.054511043537145198 0 0.046575648438295071 -0.05484613721324641 0 0.046106525617737301 -0.054363107824109656 0 0.046373666988787178 -0.054220992244597858 0 0.04637029638581152 -0.054511043537145198 0 0.04637029638581152 -0.054511043537145198 0 0.046575648438295071 -0.05484613721324641 0 0.045812077758384841 -0.054608299915744306 0 0.062605230267554088 -0.031432345247543944 0 0.062804285252391692 -0.031712252605533564 0 0.063071872935596199 -0.031557562588185067 0 0.046936683963593809 -0.054428016694326189 0 0.046575648438295071 -0.05484613721324641 0 0.047536643192286537 -0.055027519755596048 0 0.055529277191939043 -0.042485507836624033 0 0.060935573820716286 -0.041914736213894382 0 0.062605230267554088 -0.031432345247543944 0 0.062804285252391692 -0.031712252605533564 0 0.062580481652422568 -0.031859473818885355 0 0.062605230267554088 -0.031432345247543944 0 0.062241870579776377 -0.031679997644327301 0 0.062580481652422568 -0.031859473818885355 0 0.055529277191939043 -0.042485507836624033 0 0.053900618901283927 -0.043132513986235972 0 0.062605230267554088 -0.031432345247543944 0 0.062241870579776377 -0.031679997644327301 0 0.062123629559009373 -0.031259208763546362 0 0.062123629559009373 -0.031259208763546362 0 0.061792127200556886 -0.03163110491981521 0 0.061410650769597189 -0.031400508873860707 0 0.062241870579776377 -0.031679997644327301 0 0.062123629559009373 -0.031259208763546362 0 0.061792127200556886 -0.03163110491981521 0 0.053900618901283927 -0.043132513986235972 0 0.052437952312219177 -0.043974080064755935 0 0.062241870579776377 -0.031679997644327301 0 0.061792127200556886 -0.03163110491981521 0 0.061929219052998905 -0.031890986308454217 0 0.061792127200556886 -0.03163110491981521 0 0.061597412262996441 -0.031810804021685381 0 0.061929219052998905 -0.031890986308454217 0 0.061532837740164346 -0.031646045888132544 0 0.061397354356662798 -0.031714631381939334 0 0.061410650769597189 -0.031400508873860707 0 0.061792127200556886 -0.03163110491981521 0 0.061597412262996441 -0.031810804021685381 0 0.061532837740164346 -0.031646045888132544 0 0.061597412262996441 -0.031810804021685381 0 0.061532837740164346 -0.031646045888132544 0 0.061397354356662798 -0.031714631381939334 0 0.061397354356662798 -0.031714631381939334 0 0.061165075841404015 -0.031733879484035096 0 0.061410650769597189 -0.031400508873860707 0 0.061792127200556886 -0.03163110491981521 0 0.061532837740164346 -0.031646045888132544 0 0.061410650769597189 -0.031400508873860707 0 0.05960685041197996 -0.03348859870658729 0 0.060273703131891773 -0.031658587087655614 0 0.059521293228576001 -0.032003252674241305 0 0.05960685041197996 -0.03348859870658729 0 0.059521293228576001 -0.032003252674241305 0 0.058932946931321201 -0.032561609709426891 0 0.057548929143469318 -0.031841111952293284 0 0.05936431865386111 -0.031070079567293896 0 0.060273703131891773 -0.031658587087655614 0 0.0590036492898856 -0.031102692411102584 0 0.060978429125849838 -0.030785487287946067 0 0.05960685041197996 -0.03348859870658729 0 0.060273703131891773 -0.031658587087655614 0 0.061410650769597189 -0.031400508873860707 0 0.060273703131891773 -0.031658587087655614 0 0.059521293228576001 -0.032003252674241305 0 0.0590036492898856 -0.031102692411102584 0 0.060273703131891773 -0.031658587087655614 0 0.061410650769597189 -0.031400508873860707 0 0.060978429125849838 -0.030785487287946067 0 0.062123629559009373 -0.031259208763546362 0 0.061410650769597189 -0.031400508873860707 0 0.060978429125849838 -0.030785487287946067 0 0.028492570151278134 -0.049425552300975312 0 0.027259901848899842 -0.048854352821653582 0 0.027254216345071192 -0.050446390564583901 0 0.040105514981688795 -0.045361065590617103 0 0.038092172037985393 -0.050425870720659065 0 0.043488099197963676 -0.043415355993518999 0 0.041378231543752801 -0.043662352751209506 0 0.043445200920936906 -0.050718662751521489 0 0.058345109191821565 -0.032329503554430337 0 0.057742980205940972 -0.033604545164856232 0 0.058081270003982555 -0.031789698396015614 0 0.047358542328450715 -0.040455977700925516 0 0.044961093456068586 -0.047481582239803484 0 0.05960685041197996 -0.03348859870658729 0 0.057742980205940972 -0.033604545164856232 0 0.058932946931321201 -0.032561609709426891 0 0.058345109191821565 -0.032329503554430337 0 0.057742980205940972 -0.033604545164856232 0 0.058932946931321201 -0.032561609709426891 0 0.0590036492898856 -0.031102692411102584 0 0.058081270003982555 -0.031789698396015614 0 0.058330121015449307 -0.030218091262905967 0 0.041378231543752801 -0.043662352751209506 0 0.040445036597147925 -0.050068369699197472 0 0.043445200920936906 -0.050718662751521489 0 0.044961093456068586 -0.047481582239803484 0 0.049851855790117895 -0.045699617327050641 0 0.044353909847029277 -0.054190817507993899 0 0.044268136104252426 -0.054182857776379975 0 0.044330743283323065 -0.054026207060974503 0 0.059521293228576001 -0.032003252674241305 0 0.058834748830552348 -0.031902133336072239 0 0.0590036492898856 -0.031102692411102584 0 0.058345109191821565 -0.032329503554430337 0 0.058834748830552348 -0.031902133336072239 0 0.058081270003982555 -0.031789698396015614 0 0.059521293228576001 -0.032003252674241305 0 0.058932946931321201 -0.032561609709426891 0 0.058834748830552348 -0.031902133336072239 0 0.058345109191821565 -0.032329503554430337 0 0.058932946931321201 -0.032561609709426891 0 0.058834748830552348 -0.031902133336072239 0 0.058834748830552348 -0.031902133336072239 0 0.0590036492898856 -0.031102692411102584 0 0.058081270003982555 -0.031789698396015614 0 0.028289462019153003 -0.055538266004868747 0 0.038092172037985393 -0.050425870720659065 0 0.044961093456068586 -0.047481582239803484 0 0.038092172037985393 -0.050425870720659065 0 0.038092172037985393 -0.050425870720659065 0 0.036071783101559576 -0.056124110921325361 0 0.028621578724134799 -0.059792407781722269 0 0.027964137460308257 -0.058938832081093274 0 0.027949206072097655 -0.060275663414741575 0 0.044268136104252426 -0.054182857776379975 0 0.044330743283323065 -0.054026207060974503 0 0.044227691674698616 -0.053875076851552711 0 0.044353909847029277 -0.054190817507993899 0 0.044330743283323065 -0.054026207060974503 0 0.044380712587448225 -0.054031009320856936 0 0.049851855790117895 -0.045699617327050641 0 0.049388816787098222 -0.047359870436834664 0 0.044330743283323065 -0.054026207060974503 0 0.044404796432388177 -0.054039467542658891 0 0.044463337995048112 -0.053932358359802986 0 0.049659493371456191 -0.045771873361613688 0 0.049851855790117895 -0.045699617327050641 0 0.044403716786955975 -0.05421578130065282 0 0.044463337995048112 -0.053932358359802986 0 0.044707710305893572 -0.054114306154331278 0 0.036071783101559576 -0.056124110921325361 0 0.041919673408990603 -0.05532497156135395 0 0.044463337995048112 -0.053932358359802986 0 0.044227691674698616 -0.053875076851552711 0 0.044656063534709196 -0.053920699645734767 0 0.041322853102969771 -0.054179807142503672 0 0.042576116657746105 -0.054258697692861804 0 0.041973326365409347 -0.053668965415023417 0 0.044463337995048112 -0.053932358359802986 0 0.044707710305893572 -0.054114306154331278 0 0.044656063534709196 -0.053920699645734767 0 0.042576116657746105 -0.054258697692861804 0 0.042589557451470965 -0.053501598749011829 0 0.041973326365409347 -0.053668965415023417 0 0.044330743283323065 -0.054026207060974503 0 0.044463337995048112 -0.053932358359802986 0 0.044227691674698616 -0.053875076851552711 0 0.041322853102969771 -0.054179807142503672 0 0.04133033425493831 -0.053276866691839529 0 0.041973326365409347 -0.053668965415023417 0 0.036071783101559576 -0.056124110921325361 0 0.035178761889788371 -0.05706329433463949 0 0.04549974693445847 -0.054287361826922446 0 0.045101129481307546 -0.054408706726613583 0 0.045252640286376246 -0.054013212910902005 0 0.045101129481307546 -0.054408706726613583 0 0.0449480742935605 -0.054108831291449479 0 0.045252640286376246 -0.054013212910902005 0 0.0590036492898856 -0.031102692411102584 0 0.058330121015449307 -0.030218091262905967 0 0.060978429125849838 -0.030785487287946067 0 0.049851855790117895 -0.045699617327050641 0 0.052437952312219177 -0.043974080064755935 0 0.044403716786955975 -0.05421578130065282 0 0.045101129481307546 -0.054408706726613583 0 0.044707710305893572 -0.054114306154331278 0 0.044707710305893572 -0.054114306154331278 0 0.0449480742935605 -0.054108831291449479 0 0.044656063534709196 -0.053920699645734767 0 0.045101129481307546 -0.054408706726613583 0 0.044707710305893572 -0.054114306154331278 0 0.0449480742935605 -0.054108831291449479 0 0.041919673408990603 -0.05532497156135395 0 0.044016279646238346 -0.054857650588482319 0 0.042576116657746105 -0.054258697692861804 0 0.043075169498751002 -0.053892381723697598 0 0.043795060323434019 -0.05430706680750564 0 0.0449480742935605 -0.054108831291449479 0 0.044656063534709196 -0.053920699645734767 0 0.045252640286376246 -0.054013212910902005 0 0.042576116657746105 -0.054258697692861804 0 0.043075169498751002 -0.053892381723697598 0 0.042589557451470965 -0.053501598749011829 0 0.043795060323434019 -0.05430706680750564 0 0.043975192792399261 -0.053504934189855725 0 0.043327555984824483 -0.053491356452536561 0 0.043075169498751002 -0.053892381723697598 0 0.043795060323434019 -0.05430706680750564 0 0.043327555984824483 -0.053491356452536561 0 0.04443787680893016 -0.053804901470911159 0 0.043795060323434019 -0.05430706680750564 0 0.043975192792399261 -0.053504934189855725 0 0.043964687637017233 -0.052911939165805236 0 0.043327555984824483 -0.053491356452536561 0 0.042651753651568397 -0.052626064180843084 0 0.043975192792399261 -0.053504934189855725 0 0.043964687637017233 -0.052911939165805236 0 0.043327555984824483 -0.053491356452536561 0 0.043327555984824483 -0.053491356452536561 0 0.042589557451470965 -0.053501598749011829 0 0.042651753651568397 -0.052626064180843084 0 0.043075169498751002 -0.053892381723697598 0 0.043327555984824483 -0.053491356452536561 0 0.042589557451470965 -0.053501598749011829 0 0.043964687637017233 -0.052911939165805236 0 0.043654999351378128 -0.052223389958683468 0 0.044531663255190521 -0.052359843908432291 0 0.043964687637017233 -0.052911939165805236 0 0.043001184982378995 -0.052771560108020581 0 0.043654999351378128 -0.052223389958683468 0 0.042056019993830157 -0.05565068708063433 0 0.040577655709620956 -0.056180769866885936 0 0.028635944583656956 -0.061089441097636553 0 0.027849023925787489 -0.060356836814767688 0 0.027864002341901291 -0.061131784023279019 0 0.04133033425493831 -0.053276866691839529 0 0.041974975766089891 -0.053090944918667102 0 0.041328252254566405 -0.05237836227021074 0 0.028635944583656956 -0.061089441097636553 0 0.027864002341901291 -0.061131784023279019 0 0.02798271049484246 -0.061874726394292395 0 0.031028122561192348 -0.060478593287866693 0 0.033311194224651508 -0.058254782232230816 0 0.042589557451470965 -0.053501598749011829 0 0.042651753651568397 -0.052626064180843084 0 0.041974975766089891 -0.053090944918667102 0 0.04133033425493831 -0.053276866691839529 0 0.041974975766089891 -0.053090944918667102 0 0.041973326365409347 -0.053668965415023417 0 0.042589557451470965 -0.053501598749011829 0 0.041974975766089891 -0.053090944918667102 0 0.041973326365409347 -0.053668965415023417 0 0.043001184982378995 -0.052771560108020581 0 0.042034124971394603 -0.052466782458264853 0 0.042032183329947084 -0.05260784003240003 0 0.042651753651568397 -0.052626064180843084 0 0.041974975766089891 -0.053090944918667102 0 0.041328252254566405 -0.05237836227021074 0 0.040577655709620956 -0.056180769866885936 0 0.034422525189163965 -0.057862751653947164 0 0.035178761889788371 -0.05706329433463949 0 0.034422525189163965 -0.057862751653947164 0 0.027864002341901291 -0.061131784023279019 0 0.02787643621857969 -0.061853120621168975 0 0.02798271049484246 -0.061874726394292395 0 0.028398380185953843 -0.062344639523553895 0 0.027503447871789009 -0.062213430037877777 0 0.027782126855650124 -0.062580306737865993 0 0.031035538095288209 -0.058988119170719916 0 0.033311194224651508 -0.058254782232230816 0 0.034141952912122318 -0.059850876585892346 0 0.034166888052870971 -0.055188655008235374 0 0.037415302641705957 -0.055822023736711079 0 0.034009364614783662 -0.057972254509112399 0 0.033311194224651508 -0.058254782232230816 0 0.034009364614783662 -0.057972254509112399 0 0.034422525189163965 -0.057862751653947164 0 0.034422525189163965 -0.057862751653947164 0 0.033311194224651508 -0.058254782232230816 0 0.027366392163721675 -0.06239392042694019 0 0.027503447871789009 -0.062213430037877777 0 0.027782126855650124 -0.062580306737865993 0 0.043001184982378995 -0.052771560108020581 0 0.042034124971394603 -0.052466782458264853 0 0.042799881240362117 -0.051556802847106779 0 0.028181901072584552 -0.063152646517411967 0 0.027782126855650124 -0.062580306737865993 0 0.027478496368969655 -0.062808226119899779 0 0.034009364614783662 -0.057972254509112399 0 0.033816739924631536 -0.058491791012566838 0 0.027534897290238492 -0.063013826978744164 0 0.027478496368969655 -0.062808226119899779 0 0.027414240327085664 -0.062847758213511559 0 0.027366392163721675 -0.06239392042694019 0 0.027478496368969655 -0.062808226119899779 0 0.027414240327085664 -0.062847758213511559 0 0.027366392163721675 -0.06239392042694019 0 0.027782126855650124 -0.062580306737865993 0 0.027478496368969655 -0.062808226119899779 0 0.027534897290238492 -0.063013826978744164 0 0.027414240327085664 -0.062847758213511559 0 0.027386307551721532 -0.063163205737738634 0 0.027414240327085664 -0.062847758213511559 0 0.027071085750516741 -0.063161062273391244 0 0.027386307551721532 -0.063163205737738634 0 0.034009364614783662 -0.057972254509112399 0 0.035891404471939004 -0.058558898850168663 0 0.027414212001767618 -0.06267026191518231 0 0.027414240327085664 -0.062847758213511559 0 0.027071085750516741 -0.063161062273391244 0 0.027071085750516741 -0.063161062273391244 0 0.027386307551721532 -0.063163205737738634 0 0.02738117140580466 -0.063422068880747071 0 0.027736995222969692 -0.063468905539732695 0 0.027594365594330691 -0.06325112336721142 0 0.02738117140580466 -0.063422068880747071 0 0.027386307551721532 -0.063163205737738634 0 0.027594365594330691 -0.06325112336721142 0 0.02738117140580466 -0.063422068880747071 0 0.027534897290238492 -0.063013826978744164 0 0.027386307551721532 -0.063163205737738634 0 0.027594365594330691 -0.06325112336721142 0 0.043001184982378995 -0.052771560108020581 0 0.042799881240362117 -0.051556802847106779 0 0.043654999351378128 -0.052223389958683468 0 0.043654999351378128 -0.052223389958683468 0 0.043998487441103511 -0.051528562932074105 0 0.044531663255190521 -0.052359843908432291 0 0.042799881240362117 -0.051556802847106779 0 0.043654999351378128 -0.052223389958683468 0 0.043998487441103511 -0.051528562932074105 0 0.042799881240362117 -0.051556802847106779 0 0.043998487441103511 -0.051528562932074105 0 0.043521650694526376 -0.050702529905568776 0 0.040034597994192872 -0.06246779859508423 0 0.040104128052089932 -0.062414321553414386 0 0.040040024088637591 -0.062376742052989625 0 0.040034597994192872 -0.06246779859508423 0 0.040104128052089932 -0.062414321553414386 0 0.04017003908734966 -0.062532022679975707 0 0.040104128052089932 -0.062414321553414386 0 0.040336423199678118 -0.062525630324825429 0 0.04017003908734966 -0.062532022679975707 0 0.040219599104302749 -0.06252108976605858 0 0.040303886711009485 -0.06259426637243784 0 0.04015455854416547 -0.062425676353346435 0 0.040167420256650571 -0.062539754511537857 0 0.040222192609339021 -0.06242840562447146 0 0.040104128052089932 -0.062414321553414386 0 0.04015455854416547 -0.062425676353346435 0 0.040167420256650571 -0.062539754511537857 0 0.040244515682475251 -0.062601673577785635 0 0.040169445105874557 -0.06266804500129658 0 0.040312553481283812 -0.062682451707646539 0 0.040336423199678118 -0.062525630324825429 0 0.040244515682475251 -0.062601673577785635 0 0.04017003908734966 -0.062532022679975707 0 0.040336423199678118 -0.062525630324825429 0 0.040244515682475251 -0.062601673577785635 0 0.040312553481283812 -0.062682451707646539 0 0.040034597994192872 -0.06246779859508423 0 0.04017003908734966 -0.062532022679975707 0 0.040169445105874557 -0.06266804500129658 0 0.040317847406818465 -0.058370572060922402 0 0.042569891203680758 -0.057130528082013597 0 0.040244515682475251 -0.062601673577785635 0 0.04017003908734966 -0.062532022679975707 0 0.040169445105874557 -0.06266804500129658 0 0.043964687637017233 -0.052911939165805236 0 0.044531663255190521 -0.052359843908432291 0 0.044645943140764949 -0.053089625221594341 0 0.042569891203680758 -0.057130528082013597 0 0.044631450398721642 -0.055071085523983827 0 0.040169445105874557 -0.06266804500129658 0 0.040312553481283812 -0.062682451707646539 0 0.040306189341594141 -0.062816001858669243 0 0.040312553481283812 -0.062682451707646539 0 0.040306189341594141 -0.062816001858669243 0 0.040485550821108794 -0.062764625181115474 0 0.044631450398721642 -0.055071085523983827 0 0.044585965960503786 -0.054946622921506476 0 0.045230565126040248 -0.053782212729292851 0 0.045294235749687189 -0.05324754699350373 0 0.044645943140764949 -0.053089625221594341 0 0.04443787680893016 -0.053804901470911159 0 0.045230565126040248 -0.053782212729292851 0 0.044645943140764949 -0.053089625221594341 0 0.044531663255190521 -0.052359843908432291 0 0.045103386783631925 -0.053251720838015042 0 0.044645943140764949 -0.053089625221594341 0 0.04443787680893016 -0.053804901470911159 0 0.043975192792399261 -0.053504934189855725 0 0.044645943140764949 -0.053089625221594341 0 0.043975192792399261 -0.053504934189855725 0 0.043964687637017233 -0.052911939165805236 0 0.044645943140764949 -0.053089625221594341 0 0.050779805748129098 -0.053632757251967186 0 0.046404155010748509 -0.057525703995681181 0 0.040774601649513881 -0.063333621650285638 0 0.040522850890868441 -0.06301662795811247 0 0.040884130061329599 -0.063080681919829421 0 0.040478459055752848 -0.062856468809136951 0 0.040693659598703878 -0.06288764331970495 0 0.040485550821108794 -0.062764625181115474 0 0.046320537853214001 -0.054618744169078588 0 0.044631450398721642 -0.055071085523983827 0 0.040478459055752848 -0.062856468809136951 0 0.040306189341594141 -0.062816001858669243 0 0.040485550821108794 -0.062764625181115474 0 0.045107101624152442 -0.058569209013415044 0 0.046404155010748509 -0.057525703995681181 0 0.040312553481283812 -0.062682451707646539 0 0.040522850890868441 -0.06301662795811247 0 0.040609266488571591 -0.062762661256445473 0 0.040483336690101311 -0.062751273712336672 0 0.040628217380771353 -0.062872394902662387 0 0.040522850890868441 -0.06301662795811247 0 0.040609266488571591 -0.062762661256445473 0 0.040884130061329599 -0.063080681919829421 0 0.040320895228975896 -0.062761515272217253 0 0.04047974706691982 -0.062592723059801542 0 0.040730264405921382 -0.062820952975246411 0 0.040320895228975896 -0.062761515272217253 0 0.040884130061329599 -0.063080681919829421 0 0.040730264405921382 -0.062820952975246411 0 0.040320895228975896 -0.062761515272217253 0 0.04047974706691982 -0.062592723059801542 0 0.040287504546841379 -0.062564303321253484 0 0.04047974706691982 -0.062592723059801542 0 0.040287504546841379 -0.062564303321253484 0 0.040354488559957304 -0.062517088522308514 0 0.04047974706691982 -0.062592723059801542 0 0.040354488559957304 -0.062517088522308514 0 0.040523924868984193 -0.062429528986481873 0 0.040303886711009485 -0.06259426637243784 0 0.040483336690101311 -0.062751273712336672 0 0.040167420256650571 -0.062539754511537857 0 0.040320895228975896 -0.062761515272217253 0 0.040287504546841379 -0.062564303321253484 0 0.040336423199678118 -0.062525630324825429 0 0.040312553481283812 -0.062682451707646539 0 0.040609266488571591 -0.062762661256445473 0 0.040287504546841379 -0.062564303321253484 0 0.040222192609339021 -0.06242840562447146 0 0.040354488559957304 -0.062517088522308514 0 0.040167420256650571 -0.062539754511537857 0 0.040287504546841379 -0.062564303321253484 0 0.040222192609339021 -0.06242840562447146 0 0.040134612605511391 -0.062866128392733936 0 0.040178136083595363 -0.062807335756801363 0 0.040707774716536638 -0.063014885631554621 0 0.040354488559957304 -0.062517088522308514 0 0.040270317416416762 -0.063159942893476442 0 0.040354488559957304 -0.062517088522308514 0 0.040270317416416762 -0.063159942893476442 0 0.040175501329988476 -0.062693203303869835 0 0.040270317416416762 -0.063159942893476442 0 0.039623391669347835 -0.063598007547324087 0 0.040175501329988476 -0.062693203303869835 0 0.039623391669347835 -0.063598007547324087 0 0.040366615301782829 -0.064326592783601533 0 0.038310048143431752 -0.066121576279032604 0 0.039623391669347835 -0.063598007547324087 0 0.038310048143431752 -0.066121576279032604 0 0.039063845011901244 -0.064877693442469381 0 0.040270317416416762 -0.063159942893476442 0 0.039623391669347835 -0.063598007547324087 0 0.040366615301782829 -0.064326592783601533 0 0.040366615301782829 -0.064326592783601533 0 0.040862929152807724 -0.064140921813034421 0 0.040916725944244406 -0.064830333964100428 0 0.040366615301782829 -0.064326592783601533 0 0.0406429385700691 -0.063517861960742189 0 0.040862929152807724 -0.064140921813034421 0 0.040270317416416762 -0.063159942893476442 0 0.040366615301782829 -0.064326592783601533 0 0.0406429385700691 -0.063517861960742189 0 0.040707774716536638 -0.063014885631554621 0 0.040270317416416762 -0.063159942893476442 0 0.0406429385700691 -0.063517861960742189 0 0.040134612605511391 -0.062866128392733936 0 0.039686591345653853 -0.062867228030388869 0 0.04015455854416547 -0.062425676353346435 0 0.040222192609339021 -0.06242840562447146 0 0.040122910356245801 -0.062358000222481523 0 0.040707774716536638 -0.063014885631554621 0 0.041052915647891965 -0.063541406772902986 0 0.041076733671720642 -0.063579135584037369 0 0.040707774716536638 -0.063014885631554621 0 0.0406429385700691 -0.063517861960742189 0 0.041052915647891965 -0.063541406772902986 0 0.041052915647891965 -0.063541406772902986 0 0.041076733671720642 -0.063579135584037369 0 0.040984377572716675 -0.063382021220148521 0 0.040122910356245801 -0.062358000222481523 0 0.040048812509596493 -0.062350881969979968 0 0.039999204236818256 -0.062279631976094339 0 0.039686591345653853 -0.062867228030388869 0 0.037674872231293177 -0.062242168151469872 0 0.040089544063412766 -0.062374637000827467 0 0.040048812509596493 -0.062350881969979968 0 0.040040024088637591 -0.062376742052989625 0 0.040089544063412766 -0.062374637000827467 0 0.040122910356245801 -0.062358000222481523 0 0.040048812509596493 -0.062350881969979968 0 0.040104128052089932 -0.062414321553414386 0 0.040089544063412766 -0.062374637000827467 0 0.040040024088637591 -0.062376742052989625 0 0.040104128052089932 -0.062414321553414386 0 0.04015455854416547 -0.062425676353346435 0 0.040122910356245801 -0.062358000222481523 0 0.040104128052089932 -0.062414321553414386 0 0.040089544063412766 -0.062374637000827467 0 0.040122910356245801 -0.062358000222481523 0 0.041076733671720642 -0.063579135584037369 0 0.04048287734694142 -0.063285541397641379 0 0.040138208534358746 -0.063395417535721685 0 0.04048287734694142 -0.063285541397641379 0 0.040799476374922636 -0.063269496187513707 0 0.040603076231578335 -0.063140199522798021 0 0.041076733671720642 -0.063579135584037369 0 0.04048287734694142 -0.063285541397641379 0 0.040799476374922636 -0.063269496187513707 0 0.041076733671720642 -0.063579135584037369 0 0.040799476374922636 -0.063269496187513707 0 0.040984377572716675 -0.063382021220148521 0 0.040799476374922636 -0.063269496187513707 0 0.040904098482320739 -0.063153848749328154 0 0.040984377572716675 -0.063382021220148521 0 0.040799476374922636 -0.063269496187513707 0 0.040720835292925833 -0.062971212040167993 0 0.040904098482320739 -0.063153848749328154 0 0.040720835292925833 -0.062971212040167993 0 0.040904098482320739 -0.063153848749328154 0 0.041095876294073824 -0.062973325831147967 0 0.040799476374922636 -0.063269496187513707 0 0.040720835292925833 -0.062971212040167993 0 0.040603076231578335 -0.063140199522798021 0 0.040720835292925833 -0.062971212040167993 0 0.040603076231578335 -0.063140199522798021 0 0.040402644909175861 -0.063032214383159715 0 0.04048287734694142 -0.063285541397641379 0 0.040603076231578335 -0.063140199522798021 0 0.040402644909175861 -0.063032214383159715 0 0.038290791456665585 -0.064515852365099047 0 0.037853668534091792 -0.064950729720062175 0 0.041052915647891965 -0.063541406772902986 0 0.040862929152807724 -0.064140921813034421 0 0.041317725194936386 -0.064489436633894018 0 0.041052915647891965 -0.063541406772902986 0 0.040984377572716675 -0.063382021220148521 0 0.041095876294073824 -0.062973325831147967 0 0.0406429385700691 -0.063517861960742189 0 0.041052915647891965 -0.063541406772902986 0 0.040862929152807724 -0.064140921813034421 0 0.040904098482320739 -0.063153848749328154 0 0.040984377572716675 -0.063382021220148521 0 0.041095876294073824 -0.062973325831147967 0 0.040916725944244406 -0.064830333964100428 0 0.041317725194936386 -0.064489436633894018 0 0.041462462911501893 -0.065411323793745035 0 0.037853668534091792 -0.064950729720062175 0 0.036417776919607292 -0.066672549924922747 0 0.040862929152807724 -0.064140921813034421 0 0.040916725944244406 -0.064830333964100428 0 0.041317725194936386 -0.064489436633894018 0 0.038235050024311774 -0.066824718610724823 0 0.036417776919607292 -0.066672549924922747 0 0.041095876294073824 -0.062973325831147967 0 0.040708506105782603 -0.062575027518205775 0 0.040967326813566511 -0.062171657118339399 0 0.040720835292925833 -0.062971212040167993 0 0.040708506105782603 -0.062575027518205775 0 0.040332371691844372 -0.062639905534774415 0 0.040720835292925833 -0.062971212040167993 0 0.040402644909175861 -0.063032214383159715 0 0.040332371691844372 -0.062639905534774415 0 0.040720835292925833 -0.062971212040167993 0 0.041095876294073824 -0.062973325831147967 0 0.040708506105782603 -0.062575027518205775 0 0.040708506105782603 -0.062575027518205775 0 0.040396410478931367 -0.06219641866713424 0 0.040332371691844372 -0.062639905534774415 0 0.036417776919607292 -0.066672549924922747 0 0.033649387858218145 -0.066308538615947793 0 0.040396410478931367 -0.06219641866713424 0 0.040967326813566511 -0.062171657118339399 0 0.040252574721247283 -0.061453831325016688 0 0.040708506105782603 -0.062575027518205775 0 0.040396410478931367 -0.06219641866713424 0 0.040967326813566511 -0.062171657118339399 0 0.043276518872023141 -0.06760029039115506 0 0.041189483434783132 -0.068330281736869072 0 0.043736111642339634 -0.070412665120102386 0 0.041807013010942119 -0.066005766556247278 0 0.043276518872023141 -0.06760029039115506 0 0.041189483434783132 -0.068330281736869072 0 0.033244130597607405 -0.068090047582942653 0 0.035957568681411506 -0.067029467038032253 0 0.038310048143431752 -0.066121576279032604 0 0.035533477045152848 -0.068022122381269257 0 0.035929489592607583 -0.067537606877220865 0 0.035957568681411506 -0.067029467038032253 0 0.038310048143431752 -0.066121576279032604 0 0.037861331605465842 -0.066335651116586944 0 0.035957568681411506 -0.067029467038032253 0 0.035778426705278414 -0.066797345036745934 0 0.037861331605465842 -0.066335651116586944 0 0.041189483434783132 -0.068330281736869072 0 0.038310048143431752 -0.066121576279032604 0 0.040427360622003923 -0.066203122329742681 0 0.041807013010942119 -0.066005766556247278 0 0.041189483434783132 -0.068330281736869072 0 0.040427360622003923 -0.066203122329742681 0 0.040366615301782829 -0.064326592783601533 0 0.038310048143431752 -0.066121576279032604 0 0.040427360622003923 -0.066203122329742681 0 0.038531606988100334 -0.066598742232330005 0 0.038235050024311774 -0.066824718610724823 0 0.040366615301782829 -0.064326592783601533 0 0.041807013010942119 -0.066005766556247278 0 0.040427360622003923 -0.066203122329742681 0 0.027506126151886134 -0.063734273116021964 0 0.02727695000230804 -0.063875088538601493 0 0.027428740535573322 -0.064139639976252674 0 0.02776681054673235 -0.064000379521554226 0 0.027506126151886134 -0.063734273116021964 0 0.027428740535573322 -0.064139639976252674 0 0.027506126151886134 -0.063734273116021964 0 0.02738117140580466 -0.063422068880747071 0 0.0271691227071028 -0.063605426739279117 0 0.027736995222969692 -0.063468905539732695 0 0.027506126151886134 -0.063734273116021964 0 0.02738117140580466 -0.063422068880747071 0 0.027071085750516741 -0.063161062273391244 0 0.02738117140580466 -0.063422068880747071 0 0.0271691227071028 -0.063605426739279117 0 0.027506126151886134 -0.063734273116021964 0 0.0271691227071028 -0.063605426739279117 0 0.02727695000230804 -0.063875088538601493 0 0.0271691227071028 -0.063605426739279117 0 0.02727695000230804 -0.063875088538601493 0 0.027049267609503526 -0.063815510773305287 0 0.02727695000230804 -0.063875088538601493 0 0.027049267609503526 -0.063815510773305287 0 0.027057373496542907 -0.064022437369579757 0 0.026888271941525248 -0.063926530713933297 0 0.027049267609503526 -0.063815510773305287 0 0.026734127378936382 -0.063618542657029917 0 0.034763967460560083 -0.062357227209889475 0 0.037576548660462582 -0.06134143270980412 0 0.026888271941525248 -0.063926530713933297 0 0.027049267609503526 -0.063815510773305287 0 0.027057373496542907 -0.064022437369579757 0 0.034763967460560083 -0.062357227209889475 0 0.033833220992195386 -0.06210928105677993 0 0.0271691227071028 -0.063605426739279117 0 0.027049267609503526 -0.063815510773305287 0 0.026734127378936382 -0.063618542657029917 0 0.035891404471939004 -0.058558898850168663 0 0.037576548660462582 -0.06134143270980412 0 0.027071085750516741 -0.063161062273391244 0 0.0271691227071028 -0.063605426739279117 0 0.026734127378936382 -0.063618542657029917 0 0.040034597994192872 -0.06246779859508423 0 0.03995626427194679 -0.062328676020646755 0 0.040040024088637591 -0.062376742052989625 0 0.040317847406818465 -0.058370572060922402 0 0.037576548660462582 -0.06134143270980412 0 0.03995626427194679 -0.062328676020646755 0 0.040005146199117707 -0.062326077979691454 0 0.039999204236818256 -0.062279631976094339 0 0.040048812509596493 -0.062350881969979968 0 0.040005146199117707 -0.062326077979691454 0 0.039999204236818256 -0.062279631976094339 0 0.03995626427194679 -0.062328676020646755 0 0.040040024088637591 -0.062376742052989625 0 0.040005146199117707 -0.062326077979691454 0 0.040048812509596493 -0.062350881969979968 0 0.040040024088637591 -0.062376742052989625 0 0.040005146199117707 -0.062326077979691454 0 0.036209170837102546 -0.062602380495056439 0 0.03635897453991789 -0.062877100392688345 0 0.036473174038541799 -0.062737026492050013 0 0.04048287734694142 -0.063285541397641379 0 0.040300185613963369 -0.06331715176006808 0 0.040138208534358746 -0.063395417535721685 0 0.04048287734694142 -0.063285541397641379 0 0.040300185613963369 -0.06331715176006808 0 0.040265216986148003 -0.063183630919085645 0 0.040300185613963369 -0.06331715176006808 0 0.040138208534358746 -0.063395417535721685 0 0.040265216986148003 -0.063183630919085645 0 0.037576548660462582 -0.06134143270980412 0 0.037674872231293177 -0.062242168151469872 0 0.039484777274348376 -0.063102332062025202 0 0.040138208534358746 -0.063395417535721685 0 0.039985938161157607 -0.062989124966136498 0 0.034763967460560083 -0.062357227209889475 0 0.037674872231293177 -0.062242168151469872 0 0.039985938161157607 -0.062989124966136498 0 0.040402644909175861 -0.063032214383159715 0 0.040265216986148003 -0.063183630919085645 0 0.040138208534358746 -0.063395417535721685 0 0.039985938161157607 -0.062989124966136498 0 0.040265216986148003 -0.063183630919085645 0 0.04048287734694142 -0.063285541397641379 0 0.040402644909175861 -0.063032214383159715 0 0.040265216986148003 -0.063183630919085645 0 0.040396410478931367 -0.06219641866713424 0 0.040332371691844372 -0.062639905534774415 0 0.039669734479350093 -0.06233168564644271 0 0.039985938161157607 -0.062989124966136498 0 0.040332371691844372 -0.062639905534774415 0 0.039669734479350093 -0.06233168564644271 0 0.039985938161157607 -0.062989124966136498 0 0.040402644909175861 -0.063032214383159715 0 0.040332371691844372 -0.062639905534774415 0 0.039669734479350093 -0.06233168564644271 0 0.039416214335971603 -0.061575161006131737 0 0.040252574721247283 -0.061453831325016688 0 0.040396410478931367 -0.06219641866713424 0 0.039669734479350093 -0.06233168564644271 0 0.040252574721247283 -0.061453831325016688 0 0.039669734479350093 -0.06233168564644271 0 0.038947423109016804 -0.062190132651269152 0 0.039416214335971603 -0.061575161006131737 0 0.026901750262950996 -0.063932268332067985 0 0.027057373496542907 -0.064022437369579757 0 0.027102093032049836 -0.064367895230378586 0 0.034763967460560083 -0.062357227209889475 0 0.030765577151730446 -0.06417250780071343 0 0.039484777274348376 -0.063102332062025202 0 0.039669734479350093 -0.06233168564644271 0 0.038947423109016804 -0.062190132651269152 0 0.039484777274348376 -0.063102332062025202 0 0.039985938161157607 -0.062989124966136498 0 0.039669734479350093 -0.06233168564644271 0 0.027215996478369274 -0.064101533995865934 0 0.027102093032049836 -0.064367895230378586 0 0.027428740535573322 -0.064139639976252674 0 0.027057373496542907 -0.064022437369579757 0 0.027215996478369274 -0.064101533995865934 0 0.027102093032049836 -0.064367895230378586 0 0.02727695000230804 -0.063875088538601493 0 0.027057373496542907 -0.064022437369579757 0 0.027215996478369274 -0.064101533995865934 0 0.02727695000230804 -0.063875088538601493 0 0.027215996478369274 -0.064101533995865934 0 0.027428740535573322 -0.064139639976252674 0 0.027102093032049836 -0.064367895230378586 0 0.027431191574551355 -0.064463524267593636 0 0.027316566805779246 -0.064807169014026889 0 0.027102093032049836 -0.064367895230378586 0 0.027431191574551355 -0.064463524267593636 0 0.027428740535573322 -0.064139639976252674 0 0.027761603256775031 -0.064279522150401891 0 0.027431191574551355 -0.064463524267593636 0 0.027428740535573322 -0.064139639976252674 0 0.015164427111731712 -0.069822828409212681 0 0.017883479097491991 -0.070828785457841673 0 0.016378059683969274 -0.067965680849634919 0 0.025063024050684224 -0.065881494491167522 0 0.019183464109160494 -0.066455307954699783 0 0.018422609716410136 -0.071652404720602789 0 0.018572086615979796 -0.068869431045050361 0 0.016636431680139296 -0.068313727835545096 0 0.027711242909623214 -0.064618001457096175 0 0.027431191574551355 -0.064463524267593636 0 0.027316566805779246 -0.064807169014026889 0 0.015430317194409821 -0.071982153931049203 0 0.015164427111731712 -0.069822828409212681 0 0.017883479097491991 -0.070828785457841673 0 0.021081367898933487 -0.067427173642768859 0 0.025063024050684224 -0.065881494491167522 0 0.038947423109016804 -0.062190132651269152 0 0.038413770623724364 -0.061258943500796567 0 0.039416214335971603 -0.061575161006131737 0 0.030765577151730446 -0.06417250780071343 0 0.025063024050684224 -0.065881494491167522 0 0.025063024050684224 -0.065881494491167522 0 0.029131260059210878 -0.066623292980841284 0 0.018422609716410136 -0.071652404720602789 0 0.021982113692110651 -0.069965920624614084 0 0.018572086615979796 -0.068869431045050361 0 0.038413770623724364 -0.061258943500796567 0 0.039525902048054257 -0.060734648765619278 0 0.039416214335971603 -0.061575161006131737 0 0.039525902048054257 -0.060734648765619278 0 0.039416214335971603 -0.061575161006131737 0 0.040252574721247283 -0.061453831325016688 0 0.029131260059210878 -0.066623292980841284 0 0.033649387858218145 -0.066308538615947793 0 0.023375609548514219 -0.069743321253205565 0 0.024618528296441199 -0.069152490759394308 0 0.026976157258716511 -0.072700002797329411 0 0.032056792734340818 -0.067002800834912626 0 0.031455280250592181 -0.065190515624158521 0 0.033112558013791461 -0.066547086494273378 0 0.030655027296895988 -0.065570446991091658 0 0.032056792734340818 -0.067002800834912626 0 0.031455280250592181 -0.065190515624158521 0 0.029131260059210878 -0.066623292980841284 0 0.027708985906090198 -0.067592536962567062 0 0.027708985906090198 -0.067592536962567062 0 0.027388900374934924 -0.067746708274390846 0 0.023429339315462504 -0.069625850780252546 0 0.022798397934050699 -0.067009430363988792 0 0.024402019299749441 -0.067635880938638593 0 0.023429339315462504 -0.069625850780252546 0 0.024618528296441199 -0.069152490759394308 0 0.024402019299749441 -0.067635880938638593 0 0.022798397934050699 -0.067009430363988792 0 0.024402019299749441 -0.067635880938638593 0 0.02386291177832384 -0.066085647620158519 0 0.02386291177832384 -0.066085647620158519 0 0.021439954534707147 -0.064999844495673642 0 0.024995207407261084 -0.064999300719860806 0 0.022798397934050699 -0.067009430363988792 0 0.02386291177832384 -0.066085647620158519 0 0.021439954534707147 -0.064999844495673642 0 0.024402019299749441 -0.067635880938638593 0 0.02386291177832384 -0.066085647620158519 0 0.025948549936180294 -0.066399059042755518 0 0.022798397934050699 -0.067009430363988792 0 0.021439954534707147 -0.064999844495673642 0 0.020503961922790442 -0.067117447297131844 0 0.023429339315462504 -0.069625850780252546 0 0.022798397934050699 -0.067009430363988792 0 0.020503961922790442 -0.067117447297131844 0 0.022074996226178881 -0.070076417463151769 0 0.023448143774076169 -0.069425426306706839 0 0.020624860351578098 -0.067141307687657775 0 0.022074996226178881 -0.070076417463151769 0 0.020624860351578098 -0.067141307687657775 0 0.020036783328030581 -0.067989718167973931 0 0.027708985906090198 -0.067592536962567062 0 0.021946696827758974 -0.066215781364306225 0 0.029131260059210878 -0.066623292980841284 0 0.026810509666753825 -0.065928455555264109 0 0.021982113692110651 -0.069965920624614084 0 0.018572086615979796 -0.068869431045050361 0 0.020036783328030581 -0.067989718167973931 0 0.020624860351578098 -0.067141307687657775 0 0.020036783328030581 -0.067989718167973931 0 0.018198423981863124 -0.067009707843985758 0 0.018572086615979796 -0.068869431045050361 0 0.020036783328030581 -0.067989718167973931 0 0.018198423981863124 -0.067009707843985758 0 0.020624860351578098 -0.067141307687657775 0 0.017887129288869024 -0.064999949381372976 0 0.018198423981863124 -0.067009707843985758 0 0.021439954534707147 -0.064999844495673642 0 0.020503961922790442 -0.067117447297131844 0 0.017887066175719203 -0.065000058895818252 0 0.021946696827758974 -0.066215781364306225 0 0.017891545878464841 -0.065000066154945538 0 0.014864557262982645 -0.065000014803537634 0 0.017887129288869024 -0.064999949381372976 0 0.018198423981863124 -0.067009707843985758 0 0.014864557262982645 -0.065000014803537634 0 0.018198423981863124 -0.067009707843985758 0 0.016636431680139296 -0.068313727835545096 0 0.018572086615979796 -0.068869431045050361 0 0.018198423981863124 -0.067009707843985758 0 0.016636431680139296 -0.068313727835545096 0 0.031636102964919165 -0.066542555445151488 0 0.033009590193790225 -0.067079314256058994 0 0.029900895896608756 -0.066789705282614353 0 0.031636102964919165 -0.066542555445151488 0 0.034177758517126067 -0.066537021088480308 0 0.033009590193790225 -0.067079314256058994 0 0.034177758517126067 -0.066537021088480308 0 0.035778426705278414 -0.066797345036745934 0 0.033009590193790225 -0.067079314256058994 0 0.035957568681411506 -0.067029467038032253 0 0.035778426705278414 -0.066797345036745934 0 0.033009590193790225 -0.067079314256058994 0 0.034177758517126067 -0.066537021088480308 0 0.035778426705278414 -0.066797345036745934 0 0.036415070113878692 -0.066559565809044235 0 0.033244130597607405 -0.068090047582942653 0 0.035957568681411506 -0.067029467038032253 0 0.033009590193790225 -0.067079314256058994 0 0.033244130597607405 -0.068090047582942653 0 0.033009590193790225 -0.067079314256058994 0 0.029476863587098435 -0.067733834447814917 0 0.035533477045152848 -0.068022122381269257 0 0.032859193971967092 -0.067630776291936964 0 0.033456607524086995 -0.068428235477194274 0 0.032056792734340818 -0.067002800834912626 0 0.033112558013791461 -0.066547086494273378 0 0.036417776919607292 -0.066672549924922747 0 0.032859193971967092 -0.067630776291936964 0 0.027708985906090198 -0.067592536962567062 0 0.032859193971967092 -0.067630776291936964 0 0.032859193971967092 -0.067630776291936964 0 0.031103166178797638 -0.067111428094877038 0 0.024618528296441199 -0.069152490759394308 0 0.026976157258716511 -0.072700002797329411 0 0.026409879105492119 -0.069589826308197392 0 0.029476863587098435 -0.067733834447814917 0 0.028277423082577028 -0.066864205053741563 0 0.029900895896608756 -0.066789705282614353 0 0.033009590193790225 -0.067079314256058994 0 0.029476863587098435 -0.067733834447814917 0 0.029900895896608756 -0.066789705282614353 0 0.031636102964919165 -0.066542555445151488 0 0.029900895896608756 -0.066789705282614353 0 0.029524866696958901 -0.066127856660129519 0 0.029900895896608756 -0.066789705282614353 0 0.028200711145335743 -0.066448333903654261 0 0.029524866696958901 -0.066127856660129519 0 0.028200711145335743 -0.066448333903654261 0 0.029524866696958901 -0.066127856660129519 0 0.027514097246370273 -0.065812755708545223 0 0.028277423082577028 -0.066864205053741563 0 0.028200711145335743 -0.066448333903654261 0 0.025948549936180294 -0.066399059042755518 0 0.024402019299749441 -0.067635880938638593 0 0.026409879105492119 -0.069589826308197392 0 0.025948549936180294 -0.066399059042755518 0 0.031103166178797638 -0.067111428094877038 0 0.030443766179510501 -0.066552361357409107 0 0.024618528296441199 -0.069152490759394308 0 0.024402019299749441 -0.067635880938638593 0 0.026409879105492119 -0.069589826308197392 0 0.028277423082577028 -0.066864205053741563 0 0.029900895896608756 -0.066789705282614353 0 0.028200711145335743 -0.066448333903654261 0 0.028200711145335743 -0.066448333903654261 0 0.025948549936180294 -0.066399059042755518 0 0.027514097246370273 -0.065812755708545223 0 0.02386291177832384 -0.066085647620158519 0 0.025948549936180294 -0.066399059042755518 0 0.024995207407261084 -0.064999300719860806 0 0.025948549936180294 -0.066399059042755518 0 0.024995207407261084 -0.064999300719860806 0 0.027514097246370273 -0.065812755708545223 0 0.024995207407261084 -0.064999300719860806 0 0.027514097246370273 -0.065812755708545223 0 0.028548552470645746 -0.064999001095544462 0 0.029524866696958901 -0.066127856660129519 0 0.027514097246370273 -0.065812755708545223 0 0.028548552470645746 -0.064999001095544462 0 0.028548552470645746 -0.064999001095544462 0 0.031975711813569674 -0.06594701561588244 0 0.032101369460408029 -0.064999355086285682 0 0.029524866696958901 -0.066127856660129519 0 0.028548552470645746 -0.064999001095544462 0 0.031975711813569674 -0.06594701561588244 0 0.031636102964919165 -0.066542555445151488 0 0.034177758517126067 -0.066537021088480308 0 0.031975711813569674 -0.06594701561588244 0 0.031636102964919165 -0.066542555445151488 0 0.029524866696958901 -0.066127856660129519 0 0.031975711813569674 -0.06594701561588244 0 0.034177758517126067 -0.066537021088480308 0 0.031975711813569674 -0.06594701561588244 0 0.035073509910441232 -0.066004272521908131 0 0.031975711813569674 -0.06594701561588244 0 0.032101369460408029 -0.064999355086285682 0 0.035073509910441232 -0.066004272521908131 0 0.032101369460408029 -0.064999355086285682 0 0.035652824750558039 -0.064997317986282832 0 0.035073509910441232 -0.066004272521908131 0 0.035652824750558039 -0.064997317986282832 0 0.036861243808525769 -0.065614489898972755 0 0.035073509910441232 -0.066004272521908131 0 0.036861243808525769 -0.065614489898972755 0 0.035073509910441232 -0.066004272521908131 0 0.037274225771720418 -0.066256952993164753 0 0.034177758517126067 -0.066537021088480308 0 0.035073509910441232 -0.066004272521908131 0 0.036415070113878692 -0.066559565809044235 0 0.035073509910441232 -0.066004272521908131 0 0.037274225771720418 -0.066256952993164753 0 0.036415070113878692 -0.066559565809044235 0 0.037274225771720418 -0.066256952993164753 0 0.037885921088488546 -0.066468587997996847 0 0.036415070113878692 -0.066559565809044235 0 0.035778426705278414 -0.066797345036745934 0 0.036415070113878692 -0.066559565809044235 0 0.037861331605465842 -0.066335651116586944 0 0.037885921088488546 -0.066468587997996847 0 0.036415070113878692 -0.066559565809044235 0 0.037861331605465842 -0.066335651116586944 0 0.038550243580126368 -0.066536618321293803 0 0.040166938934257275 -0.06664111388333073 0 0.039370966495676625 -0.066718059942209862 0 0.040166938934257275 -0.06664111388333073 0 0.039951506018849114 -0.067071664034535752 0 0.039370966495676625 -0.066718059942209862 0 0.037274225771720418 -0.066256952993164753 0 0.037885921088488546 -0.066468587997996847 0 0.038550243580126368 -0.066536618321293803 0 0.037885921088488546 -0.066468587997996847 0 0.038550243580126368 -0.066536618321293803 0 0.039297077990653649 -0.066120606159128931 0 0.036861243808525769 -0.065614489898972755 0 0.037274225771720418 -0.066256952993164753 0 0.03841322550022068 -0.065852034529375658 0 0.037274225771720418 -0.066256952993164753 0 0.038550243580126368 -0.066536618321293803 0 0.03841322550022068 -0.065852034529375658 0 0.038550243580126368 -0.066536618321293803 0 0.03841322550022068 -0.065852034529375658 0 0.040166938934257275 -0.06664111388333073 0 0.03841322550022068 -0.065852034529375658 0 0.040089341063467211 -0.065021145499997615 0 0.040166938934257275 -0.06664111388333073 0 0.038119730729429126 -0.065784289457588338 0 0.040097703056192063 -0.066390035179713577 0 0.03565224234647825 -0.065000041848381804 0 0.038567484531031981 -0.066480571508751654 0 0.039931246007315777 -0.064999485947275171 0 0.03841322550022068 -0.065852034529375658 0 0.037998066405672305 -0.064793516083259325 0 0.040089341063467211 -0.065021145499997615 0 0.036861243808525769 -0.065614489898972755 0 0.03841322550022068 -0.065852034529375658 0 0.037998066405672305 -0.064793516083259325 0 0.035652824750558039 -0.064997317986282832 0 0.036861243808525769 -0.065614489898972755 0 0.037998066405672305 -0.064793516083259325 0 0.035655643667167169 -0.065000322191140977 0 0.038119730729429126 -0.065784289457588338 0 0.038567484531031981 -0.066480571508751654 0 0.039931246007315777 -0.064999485947275171 0 0.041479810989598187 -0.067291269130308987 0 0.039931246007315777 -0.064999485947275171 0 0.043488582832721404 -0.066762190705890956 0 0.045806155461549987 -0.064998777868107649 0 0.039931246007315777 -0.064999485947275171 0 0.043488582832721404 -0.066762190705890956 0 0.041479810989598187 -0.067291269130308987 0 0.043488582832721404 -0.066762190705890956 0 0.045806155461549987 -0.064998777868107649 0 0.047009324915551563 -0.06810537166854122 0 0.045806155461549987 -0.064998777868107649 0 0.047009324915551563 -0.06810537166854122 0 0.051046927684698984 -0.067485781322064314 0 0.04778048694512297 -0.063782202665416787 0 0.04919794792992236 -0.067233382101307512 0 0.051493337743742228 -0.065352591475310834 0 0.04778048694512297 -0.063782202665416787 0 0.045451951969031693 -0.066533191044605575 0 0.04348404241451715 -0.066672799864682109 0 0.043488582832721404 -0.066762190705890956 0 0.047009324915551563 -0.06810537166854122 0 0.04348404241451715 -0.066672799864682109 0 0.04852025009823082 -0.066005227036451092 0 0.04681678337874208 -0.066287338717183647 0 0.045451951969031693 -0.066533191044605575 0 0.04919794792992236 -0.067233382101307512 0 0.045575613009994624 -0.068264413253473613 0 0.044256118907519432 -0.067137521447302159 0 0.045451951969031693 -0.066533191044605575 0 0.043852977329500199 -0.066773329306333021 0 0.045451951969031693 -0.066533191044605575 0 0.04348404241451715 -0.066672799864682109 0 0.043852977329500199 -0.066773329306333021 0 0.044256118907519432 -0.067137521447302159 0 0.045451951969031693 -0.066533191044605575 0 0.045575613009994624 -0.068264413253473613 0 0.044256118907519432 -0.067137521447302159 0 0.042907631279498842 -0.067521053408794801 0 0.045575613009994624 -0.068264413253473613 0 0.04778048694512297 -0.063782202665416787 0 0.045451951969031693 -0.066533191044605575 0 0.04919794792992236 -0.067233382101307512 0 0.040089341063467211 -0.065021145499997615 0 0.041409778285743756 -0.066286576804855696 0 0.040166938934257275 -0.06664111388333073 0 0.040089341063467211 -0.065021145499997615 0 0.041409778285743756 -0.066286576804855696 0 0.043298154033593751 -0.066634706135122901 0 0.040097703056192063 -0.066390035179713577 0 0.041120294382896667 -0.066747530252929468 0 0.041409778285743756 -0.066286576804855696 0 0.042431998255160065 -0.066626499537821557 0 0.041213546654691333 -0.066882115951890544 0 0.043488582832721404 -0.066762190705890956 0 0.04348404241451715 -0.066672799864682109 0 0.043298154033593751 -0.066634706135122901 0 0.043488582832721404 -0.066762190705890956 0 0.041479810989598187 -0.067291269130308987 0 0.043298154033593751 -0.066634706135122901 0 0.04348404241451715 -0.066672799864682109 0 0.043148199220358632 -0.066679449111490652 0 0.043852977329500199 -0.066773329306333021 0 0.04348404241451715 -0.066672799864682109 0 0.043298154033593751 -0.066634706135122901 0 0.043148199220358632 -0.066679449111490652 0 0.041409778285743756 -0.066286576804855696 0 0.043298154033593751 -0.066634706135122901 0 0.042431998255160065 -0.066626499537821557 0 0.043148199220358632 -0.066679449111490652 0 0.042431998255160065 -0.066626499537821557 0 0.042953654790725632 -0.066758945920797064 0 0.043298154033593751 -0.066634706135122901 0 0.043148199220358632 -0.066679449111490652 0 0.042431998255160065 -0.066626499537821557 0 0.042431998255160065 -0.066626499537821557 0 0.042375472738280462 -0.06693795649383083 0 0.041213546654691333 -0.066882115951890544 0 0.042431998255160065 -0.066626499537821557 0 0.042375472738280462 -0.06693795649383083 0 0.042953654790725632 -0.066758945920797064 0 0.043148199220358632 -0.066679449111490652 0 0.043852977329500199 -0.066773329306333021 0 0.042953654790725632 -0.066758945920797064 0 0.043852977329500199 -0.066773329306333021 0 0.042953654790725632 -0.066758945920797064 0 0.043194864846441368 -0.066985884787630928 0 0.042375472738280462 -0.06693795649383083 0 0.042953654790725632 -0.066758945920797064 0 0.043194864846441368 -0.066985884787630928 0 0.044256118907519432 -0.067137521447302159 0 0.043852977329500199 -0.066773329306333021 0 0.043194864846441368 -0.066985884787630928 0 0.044256118907519432 -0.067137521447302159 0 0.043194864846441368 -0.066985884787630928 0 0.042907631279498842 -0.067521053408794801 0 0.042375472738280462 -0.06693795649383083 0 0.043194864846441368 -0.066985884787630928 0 0.042907631279498842 -0.067521053408794801 0 0.042375472738280462 -0.06693795649383083 0 0.042907631279498842 -0.067521053408794801 0 0.041332029737679875 -0.067375384666413712 0 0.042375472738280462 -0.06693795649383083 0 0.041332029737679875 -0.067375384666413712 0 0.041213546654691333 -0.066882115951890544 0 0.041332029737679875 -0.067375384666413712 0 0.041213546654691333 -0.066882115951890544 0 0.039951506018849114 -0.067071664034535752 0 0.041409778285743756 -0.066286576804855696 0 0.041213546654691333 -0.066882115951890544 0 0.040166938934257275 -0.06664111388333073 0 0.041213546654691333 -0.066882115951890544 0 0.040166938934257275 -0.06664111388333073 0 0.039951506018849114 -0.067071664034535752 0 0.041332029737679875 -0.067375384666413712 0 0.04218425071518471 -0.068479494427520854 0 0.039142768405963597 -0.067103874246921824 0 0.041332029737679875 -0.067375384666413712 0 0.039951506018849114 -0.067071664034535752 0 0.039142768405963597 -0.067103874246921824 0 0.042907631279498842 -0.067521053408794801 0 0.041332029737679875 -0.067375384666413712 0 0.04218425071518471 -0.068479494427520854 0 0.042907631279498842 -0.067521053408794801 0 0.04218425071518471 -0.068479494427520854 0 0.045575613009994624 -0.068264413253473613 0 0.035231358412257115 -0.066074888375723312 0 0.039142768405963597 -0.067103874246921824 0 0.035983082821288197 -0.063527446947534802 0 0.043347089626061652 -0.063861705145113232 0 0.041953255457923076 -0.064357836026806753 0 0.04218425071518471 -0.068479494427520854 0 0.04299414648992099 -0.071032811407523405 0 0.039142768405963597 -0.067103874246921824 0 0.04218425071518471 -0.068479494427520854 0 0.04299414648992099 -0.071032811407523405 0 0.045451496523825116 -0.07028917598341354 0 0.045575613009994624 -0.068264413253473613 0 0.045451496523825116 -0.07028917598341354 0 0.049778205181143662 -0.070160690224162742 0 0.04919794792992236 -0.067233382101307512 0 0.045575613009994624 -0.068264413253473613 0 0.049778205181143662 -0.070160690224162742 0 0.04218425071518471 -0.068479494427520854 0 0.045575613009994624 -0.068264413253473613 0 0.045451496523825116 -0.07028917598341354 0 0.04299414648992099 -0.071032811407523405 0 0.045451496523825116 -0.07028917598341354 0 0.046937653087745085 -0.072651534048219377 0 0.043347089626061652 -0.063861705145113232 0 0.050562991183154077 -0.062420961504820557 0 0.060924464171237092 -0.059871411761962097 0 0.060308328801717874 -0.060729352812310095 0 0.059896370154305573 -0.05962000698910077 0 0.050562991183154077 -0.062420961504820557 0 0.053163754066138318 -0.063450000355701419 0 0.045451496523825116 -0.07028917598341354 0 0.046937653087745085 -0.072651534048219377 0 0.049778205181143662 -0.070160690224162742 0 0.058983317826596965 -0.059407502727490305 0 0.058990753525035189 -0.059399647960802639 0 0.058986044788834249 -0.059424782807134376 0 0.050562991183154077 -0.062420961504820557 0 0.056623765717501967 -0.06197597761989454 0 0.058990753525035189 -0.059399647960802639 0 0.058999977774759571 -0.059377384989626344 0 0.058986044788834249 -0.059424782807134376 0 0.031570366493748767 -0.065129551075220796 0 0.034256458332999319 -0.06166878787815256 0 0.035983082821288197 -0.063527446947534802 0 0.058983317826596965 -0.059407502727490305 0 0.058990753525035189 -0.059399647960802639 0 0.058974458762742245 -0.059396128013131808 0 0.050562991183154077 -0.062420961504820557 0 0.048914065083620333 -0.060770240344464987 0 0.035231358412257115 -0.066074888375723312 0 0.031570366493748767 -0.065129551075220796 0 0.035983082821288197 -0.063527446947534802 0 0.048914065083620333 -0.060770240344464987 0 0.057055982858567389 -0.059291585296470682 0 0.055349031594282241 -0.055022599358604637 0 0.05286256634144406 -0.054262949715665657 0 0.053160227757544268 -0.057095509340009766 0 0.058990753525035189 -0.059399647960802639 0 0.058974458762742245 -0.059396128013131808 0 0.058999977774759571 -0.059377384989626344 0 0.053493839881254078 -0.053409666251373701 0 0.055349031594282241 -0.055022599358604637 0 0.059633573470060833 -0.053002742924053124 0 0.048914065083620333 -0.060770240344464987 0 0.048979265089456089 -0.060681665610821618 0 0.053493839881254078 -0.053409666251373701 0 0.055349031594282241 -0.055022599358604637 0 0.05286256634144406 -0.054262949715665657 0 0.039142768405963597 -0.067103874246921824 0 0.038433340735588864 -0.062800259051811969 0 0.035983082821288197 -0.063527446947534802 0 0.034256458332999319 -0.06166878787815256 0 0.038433340735588864 -0.062800259051811969 0 0.035983082821288197 -0.063527446947534802 0 0.048914065083620333 -0.060770240344464987 0 0.044934588900453071 -0.060274575214477544 0 0.05286256634144406 -0.054262949715665657 0 0.048805013305912054 -0.057137919665686099 0 0.053160227757544268 -0.057095509340009766 0 0.053292666621885858 -0.053648415119402944 0 0.046439797151213283 -0.056490953379866551 0 0.05286256634144406 -0.054262949715665657 0 0.046439797151213283 -0.056490953379866551 0 0.05286256634144406 -0.054262949715665657 0 0.048805013305912054 -0.057137919665686099 0 0.046439797151213283 -0.056490953379866551 0 0.048805013305912054 -0.057137919665686099 0 0.044131275835690459 -0.059392661255233792 0 0.039142768405963597 -0.067103874246921824 0 0.038433340735588864 -0.062800259051811969 0 0.041000749430900978 -0.062429839625823026 0 0.046439797151213283 -0.056490953379866551 0 0.044131275835690459 -0.059392661255233792 0 0.041000749430900978 -0.062429839625823026 0 0.044934588900453071 -0.060274575214477544 0 0.044200338531196086 -0.060568306902175871 0 0.041000749430900978 -0.062429839625823026 0 0.041497622483282696 -0.061493708657242054 0 0.040153117090808411 -0.063181957436801134 0 0.041497622483282696 -0.061493708657242054 0 0.04060331505924996 -0.062223425181337104 0 0.042107275519715569 -0.061245850834392795 0 0.044131275835690459 -0.059392661255233792 0 0.041000749430900978 -0.062429839625823026 0 0.041497622483282696 -0.061493708657242054 0 0.044131275835690459 -0.059392661255233792 0 0.041497622483282696 -0.061493708657242054 0 0.042107275519715569 -0.061245850834392795 0 0.041497622483282696 -0.061493708657242054 0 0.04060331505924996 -0.062223425181337104 0 0.040153117090808411 -0.063181957436801134 0 0.039623391669347835 -0.063598007547324087 0 0.04060331505924996 -0.062223425181337104 0 0.040153117090808411 -0.063181957436801134 0 0.039623391669347835 -0.063598007547324087 0 0.04060331505924996 -0.062223425181337104 0 0.040175501329988476 -0.062693203303869835 0 0.039623391669347835 -0.063598007547324087 0 0.040153117090808411 -0.063181957436801134 0 0.039063845011901244 -0.064877693442469381 0 0.041000749430900978 -0.062429839625823026 0 0.040153117090808411 -0.063181957436801134 0 0.039479199182512872 -0.064848753480541407 0 0.040153117090808411 -0.063181957436801134 0 0.039479199182512872 -0.064848753480541407 0 0.039063845011901244 -0.064877693442469381 0 0.038310048143431752 -0.066121576279032604 0 0.039063845011901244 -0.064877693442469381 0 0.037861331605465842 -0.066335651116586944 0 0.039479199182512872 -0.064848753480541407 0 0.039063845011901244 -0.064877693442469381 0 0.037861331605465842 -0.066335651116586944 0 0.039479199182512872 -0.064848753480541407 0 0.037861331605465842 -0.066335651116586944 0 0.039297077990653649 -0.066120606159128931 0 0.037885921088488546 -0.066468587997996847 0 0.037861331605465842 -0.066335651116586944 0 0.039297077990653649 -0.066120606159128931 0 0.038550243580126368 -0.066536618321293803 0 0.039297077990653649 -0.066120606159128931 0 0.039370966495676625 -0.066718059942209862 0 0.039951506018849114 -0.067071664034535752 0 0.039142768405963597 -0.067103874246921824 0 0.039598640054530745 -0.066235116974648026 0 0.039297077990653649 -0.066120606159128931 0 0.039370966495676625 -0.066718059942209862 0 0.039598640054530745 -0.066235116974648026 0 0.039951506018849114 -0.067071664034535752 0 0.039370966495676625 -0.066718059942209862 0 0.039598640054530745 -0.066235116974648026 0 0.039142768405963597 -0.067103874246921824 0 0.041000749430900978 -0.062429839625823026 0 0.039598640054530745 -0.066235116974648026 0 0.041000749430900978 -0.062429839625823026 0 0.039479199182512872 -0.064848753480541407 0 0.039297077990653649 -0.066120606159128931 0 0.041000749430900978 -0.062429839625823026 0 0.039297077990653649 -0.066120606159128931 0 0.039598640054530745 -0.066235116974648026 0 0.064995678008059596 -0.064997062068796435 0 0.059806053511817413 -0.065188948999941057 0 0.053896356029617454 -0.064995556785233125 0 0.064995678008059596 -0.064997062068796435 0 0.064925351881364099 -0.062728387623286058 0 0.064996284995020734 -0.052024875395892699 0 0.066387418302202059 -0.058164439563444172 0 0.064925351881364099 -0.062728387623286058 0 0.064996284995020734 -0.052024875395892699 0 0.066387418302202059 -0.058164439563444172 0 0.066083685660831754 -0.060174151540393177 0 0.064925351881364099 -0.062728387623286058 0 0.064995678008059596 -0.064997062068796435 0 0.064925351881364099 -0.062728387623286058 0 0.059806053511817413 -0.065188948999941057 0 0.061098011314611018 -0.066046163975443453 0 0.064925351881364099 -0.062728387623286058 0 0.059806053511817413 -0.065188948999941057 0 0.062629640173287718 -0.062420990910628325 0 0.063190873169952991 -0.062455243113075161 0 0.059806053511817413 -0.065188948999941057 0 0.057343054364093857 -0.065644199701571704 0 0.056726381272051853 -0.065639800672965348 0 0.062629640173287718 -0.062420990910628325 0 0.061666706163603785 -0.062109887215892001 0 0.061098011314611018 -0.066046163975443453 0 0.059806053511817413 -0.065188948999941057 0 0.057343054364093857 -0.065644199701571704 0 0.066387418302202059 -0.058164439563444172 0 0.066083685660831754 -0.060174151540393177 0 0.064600543960846912 -0.057937269843960242 0 0.066387418302202059 -0.058164439563444172 0 0.064600543960846912 -0.057937269843960242 0 0.063993363201132678 -0.059153535660167143 0 0.064600543960846912 -0.057937269843960242 0 0.061281495262955045 -0.06024242515532674 0 0.063993363201132678 -0.059153535660167143 0 0.061666706163603785 -0.062109887215892001 0 0.061116566091702608 -0.061928241732435711 0 0.064600543960846912 -0.057937269843960242 0 0.058849484753690819 -0.060915068413896795 0 0.061281495262955045 -0.06024242515532674 0 0.057343054364093857 -0.065644199701571704 0 0.058849484753690819 -0.060915068413896795 0 0.057344089617439524 -0.064344134422386803 0 0.058849484753690819 -0.060915068413896795 0 0.057924675485368608 -0.062870562627348067 0 0.057344089617439524 -0.064344134422386803 0 0.058849484753690819 -0.060915068413896795 0 0.057924675485368608 -0.062870562627348067 0 0.058694754580925136 -0.061511478532318205 0 0.058849484753690819 -0.060915068413896795 0 0.058694754580925136 -0.061511478532318205 0 0.059498489404591785 -0.060832865609505696 0 0.057924675485368608 -0.062870562627348067 0 0.057344089617439524 -0.064344134422386803 0 0.056877130034524132 -0.064254635058577272 0 0.057344089617439524 -0.064344134422386803 0 0.055887434821976466 -0.065878687137815806 0 0.056877130034524132 -0.064254635058577272 0 0.057344089617439524 -0.064344134422386803 0 0.056726381272051853 -0.065639800672965348 0 0.055887434821976466 -0.065878687137815806 0 0.057343054364093857 -0.065644199701571704 0 0.057344089617439524 -0.064344134422386803 0 0.056726381272051853 -0.065639800672965348 0 0.053896356029617454 -0.064995556785233125 0 0.055887434821976466 -0.065878687137815806 0 0.051046927684698984 -0.067485781322064314 0 0.059806053511817413 -0.065188948999941057 0 0.056726381272051853 -0.065639800672965348 0 0.053896356029617454 -0.064995556785233125 0 0.056726381272051853 -0.065639800672965348 0 0.053896356029617454 -0.064995556785233125 0 0.055887434821976466 -0.065878687137815806 0 0.045806155461549987 -0.064998777868107649 0 0.053896356029617454 -0.064995556785233125 0 0.051046927684698984 -0.067485781322064314 0 0.053032040895797113 -0.06544180588453459 0 0.051532153618449511 -0.065583345021215142 0 0.04778048694512297 -0.063782202665416787 0 0.051493337743742228 -0.065352591475310834 0 0.054745414926032784 -0.062981446058530774 0 0.051493337743742228 -0.065352591475310834 0 0.054745414926032784 -0.062981446058530774 0 0.053605074654809397 -0.067404418001051833 0 0.04852025009823082 -0.066005227036451092 0 0.051532153618449511 -0.065583345021215142 0 0.055887434821976466 -0.065878687137815806 0 0.054745414926032784 -0.062981446058530774 0 0.056877130034524132 -0.064254635058577272 0 0.054745414926032784 -0.062981446058530774 0 0.056877130034524132 -0.064254635058577272 0 0.053605074654809397 -0.067404418001051833 0 0.055500247326911591 -0.063315541057942334 0 0.054913098898254999 -0.063412382461651234 0 0.057924675485368608 -0.062870562627348067 0 0.058694754580925136 -0.061511478532318205 0 0.059760390140466933 -0.061812409493896096 0 0.057924675485368608 -0.062870562627348067 0 0.056877130034524132 -0.064254635058577272 0 0.059760390140466933 -0.061812409493896096 0 0.04919794792992236 -0.067233382101307512 0 0.053605074654809397 -0.067404418001051833 0 0.049778205181143662 -0.070160690224162742 0 0.04919794792992236 -0.067233382101307512 0 0.051493337743742228 -0.065352591475310834 0 0.053605074654809397 -0.067404418001051833 0 0.059760390140466933 -0.061812409493896096 0 0.060308328801717874 -0.060729352812310095 0 0.059362318463279592 -0.060732958829885053 0 0.054913098898254999 -0.063412382461651234 0 0.053163754066138318 -0.063450000355701419 0 0.058694754580925136 -0.061511478532318205 0 0.059760390140466933 -0.061812409493896096 0 0.059362318463279592 -0.060732958829885053 0 0.058694754580925136 -0.061511478532318205 0 0.059362318463279592 -0.060732958829885053 0 0.058717750290279015 -0.060096420857522821 0 0.059412529998094973 -0.060108945595954741 0 0.058881383733654355 -0.059503634348689029 0 0.058717750290279015 -0.060096420857522821 0 0.059362318463279592 -0.060732958829885053 0 0.059412529998094973 -0.060108945595954741 0 0.058717750290279015 -0.060096420857522821 0 0.060308328801717874 -0.060729352812310095 0 0.059412529998094973 -0.060108945595954741 0 0.059896370154305573 -0.05962000698910077 0 0.060308328801717874 -0.060729352812310095 0 0.059362318463279592 -0.060732958829885053 0 0.059412529998094973 -0.060108945595954741 0 0.059633573470060833 -0.053002742924053124 0 0.064522144084837044 -0.05361394432581517 0 0.064108772171811906 -0.053854487464527916 0 0.058999977774759571 -0.059377384989626344 0 0.058968039213743106 -0.059387123841286776 0 0.058975667571896734 -0.059309328415834299 0 0.057055982858567389 -0.059291585296470682 0 0.061182651945523699 -0.058300429040440298 0 0.058999977774759571 -0.059377384989626344 0 0.058986044788834249 -0.059424782807134376 0 0.058968039213743106 -0.059387123841286776 0 0.062449527521291022 -0.05861931774772134 0 0.061182651945523699 -0.058300429040440298 0 0.058968039213743106 -0.059387123841286776 0 0.058881383733654355 -0.059503634348689029 0 0.058748352845339531 -0.059246712428618155 0 0.062859831445673031 -0.057674548475206644 0 0.062907087265549708 -0.058070113468519799 0 0.062362663889498023 -0.057918248752644688 0 0.058968039213743106 -0.059387123841286776 0 0.058748352845339531 -0.059246712428618155 0 0.058975667571896734 -0.059309328415834299 0 0.058986044788834249 -0.059424782807134376 0 0.058968039213743106 -0.059387123841286776 0 0.058881383733654355 -0.059503634348689029 0 0.059412529998094973 -0.060108945595954741 0 0.059896370154305573 -0.05962000698910077 0 0.058881383733654355 -0.059503634348689029 0 0.056623765717501967 -0.06197597761989454 0 0.057674531647835647 -0.061681566654742996 0 0.062449527521291022 -0.05861931774772134 0 0.060838548350267189 -0.0602738135765018 0 0.058881383733654355 -0.059503634348689029 0 0.058748352845339531 -0.059246712428618155 0 0.058717750290279015 -0.060096420857522821 0 0.060519883929035255 -0.061871678339223676 0 0.059778195025410284 -0.063207229455406702 0 0.059601245214115701 -0.060938082966473628 0 0.062449527521291022 -0.05861931774772134 0 0.063738988836555141 -0.057586831753552288 0 0.067449266911982289 -0.057368794165569677 0 0.066484697024250874 -0.056974992482218198 0 0.067350549912589971 -0.056386542974196187 0 0.067449266911982289 -0.057368794165569677 0 0.066484697024250874 -0.056974992482218198 0 0.066516797484327428 -0.057953999657741131 0 0.066484697024250874 -0.056974992482218198 0 0.066516797484327428 -0.057953999657741131 0 0.066149353852773207 -0.057192540010208036 0 0.062449527521291022 -0.05861931774772134 0 0.06346976850797402 -0.059052160853268663 0 0.060519883929035255 -0.061871678339223676 0 0.059778195025410284 -0.063207229455406702 0 0.061967061527755801 -0.062311289295848962 0 0.060519883929035255 -0.061871678339223676 0 0.061967061527755801 -0.062311289295848962 0 0.061143785791652472 -0.061045803848383623 0 0.061967061527755801 -0.062311289295848962 0 0.061143785791652472 -0.061045803848383623 0 0.062983104271950571 -0.059993399316173431 0 0.061143785791652472 -0.061045803848383623 0 0.06080191357445297 -0.060593053886624872 0 0.062983104271950571 -0.059993399316173431 0 0.060519883929035255 -0.061871678339223676 0 0.061143785791652472 -0.061045803848383623 0 0.059601245214115701 -0.060938082966473628 0 0.061143785791652472 -0.061045803848383623 0 0.059601245214115701 -0.060938082966473628 0 0.06080191357445297 -0.060593053886624872 0 0.058694754580925136 -0.061511478532318205 0 0.059601245214115701 -0.060938082966473628 0 0.059498489404591785 -0.060832865609505696 0 0.060341927778935621 -0.06067257364188388 0 0.060838548350267189 -0.0602738135765018 0 0.059601245214115701 -0.060938082966473628 0 0.059498489404591785 -0.060832865609505696 0 0.06080191357445297 -0.060593053886624872 0 0.061281495262955045 -0.06024242515532674 0 0.06080191357445297 -0.060593053886624872 0 0.063993363201132678 -0.059153535660167143 0 0.058849484753690819 -0.060915068413896795 0 0.059498489404591785 -0.060832865609505696 0 0.061281495262955045 -0.06024242515532674 0 0.059498489404591785 -0.060832865609505696 0 0.061281495262955045 -0.06024242515532674 0 0.06080191357445297 -0.060593053886624872 0 0.06080191357445297 -0.060593053886624872 0 0.063993363201132678 -0.059153535660167143 0 0.062983104271950571 -0.059993399316173431 0 0.066387418302202059 -0.058164439563444172 0 0.0654953223080076 -0.05820191638675698 0 0.066514229064622968 -0.057019534171511836 0 0.066387418302202059 -0.058164439563444172 0 0.063993363201132678 -0.059153535660167143 0 0.0654953223080076 -0.05820191638675698 0 0.063993363201132678 -0.059153535660167143 0 0.0654953223080076 -0.05820191638675698 0 0.06488172369951703 -0.058568237683539782 0 0.06488172369951703 -0.058568237683539782 0 0.066514229064622968 -0.057019534171511836 0 0.065164789317263189 -0.05893188519465721 0 0.0654953223080076 -0.05820191638675698 0 0.06488172369951703 -0.058568237683539782 0 0.066514229064622968 -0.057019534171511836 0 0.066514229064622968 -0.057019534171511836 0 0.065164789317263189 -0.05893188519465721 0 0.064559815013897681 -0.058706892218283686 0 0.063993363201132678 -0.059153535660167143 0 0.06488172369951703 -0.058568237683539782 0 0.062983104271950571 -0.059993399316173431 0 0.06488172369951703 -0.058568237683539782 0 0.065164789317263189 -0.05893188519465721 0 0.062983104271950571 -0.059993399316173431 0 0.061967061527755801 -0.062311289295848962 0 0.065164789317263189 -0.05893188519465721 0 0.062983104271950571 -0.059993399316173431 0 0.066516797484327428 -0.057953999657741131 0 0.0658003319706362 -0.057954418185655811 0 0.066149353852773207 -0.057192540010208036 0 0.066516797484327428 -0.057953999657741131 0 0.065164789317263189 -0.05893188519465721 0 0.0658003319706362 -0.057954418185655811 0 0.06346976850797402 -0.059052160853268663 0 0.063906348650916475 -0.05904594476545922 0 0.0658003319706362 -0.057954418185655811 0 0.066149353852773207 -0.057192540010208036 0 0.066106803680004392 -0.056818032083941213 0 0.066149353852773207 -0.057192540010208036 0 0.066106803680004392 -0.056818032083941213 0 0.065814196289088508 -0.056607397463825676 0 0.066484697024250874 -0.056974992482218198 0 0.066149353852773207 -0.057192540010208036 0 0.065814196289088508 -0.056607397463825676 0 0.066106803680004392 -0.056818032083941213 0 0.064559815013897681 -0.058706892218283686 0 0.063426762610245976 -0.054050375811682108 0 0.0658003319706362 -0.057954418185655811 0 0.066106803680004392 -0.056818032083941213 0 0.064559815013897681 -0.058706892218283686 0 0.066259930127590641 -0.053559227247348636 0 0.066203831368745331 -0.050893110952232264 0 0.065164789317263189 -0.05893188519465721 0 0.0658003319706362 -0.057954418185655811 0 0.064559815013897681 -0.058706892218283686 0 0.066298819359387945 -0.054587002543899421 0 0.066259930127590641 -0.053559227247348636 0 0.066514229064622968 -0.057019534171511836 0 0.068099374897102563 -0.051964730106878153 0 0.064996284995020734 -0.052024875395892699 0 0.068099374897102563 -0.051964730106878153 0 0.064996284995020734 -0.052024875395892699 0 0.068289941850185013 -0.048498017818105171 0 0.066387418302202059 -0.058164439563444172 0 0.066514229064622968 -0.057019534171511836 0 0.064996284995020734 -0.052024875395892699 0 0.064996284995020734 -0.052024875395892699 0 0.064999378491125484 -0.042308883281498136 0 0.066673157248729159 -0.044929672310849017 0 0.064999378491125484 -0.042308883281498136 0 0.066673157248729159 -0.044929672310849017 0 0.066187423058130038 -0.040652683826519029 0 0.066673157248729159 -0.044929672310849017 0 0.066729302416869751 -0.042712132783019607 0 0.066187423058130038 -0.040652683826519029 0 0.066673157248729159 -0.044929672310849017 0 0.068067841165004278 -0.045269528930933854 0 0.066729302416869751 -0.042712132783019607 0 0.064996284995020734 -0.052024875395892699 0 0.066673157248729159 -0.044929672310849017 0 0.068289941850185013 -0.048498017818105171 0 0.066673157248729159 -0.044929672310849017 0 0.068067841165004278 -0.045269528930933854 0 0.068289941850185013 -0.048498017818105171 0 0.064310321672523346 -0.047118258270039598 0 0.063426762610245976 -0.054050375811682108 0 0.068587149725883756 -0.048398747362186335 0 0.064310321672523346 -0.047118258270039598 0 0.068587149725883756 -0.048398747362186335 0 0.066846999160352638 -0.044838183694155695 0 0.066106803680004392 -0.056818032083941213 0 0.063426762610245976 -0.054050375811682108 0 0.068587149725883756 -0.048398747362186335 0 0.0662402395600903 -0.047799428324007319 0 0.066203831368745331 -0.050893110952232264 0 0.065617910936046631 -0.056104563308458928 0 0.065814196289088508 -0.056607397463825676 0 0.064625227755022496 -0.05583449332312939 0 0.065979202305942578 -0.053602270309242396 0 0.066036528500954192 -0.051418829812464178 0 0.066484697024250874 -0.056974992482218198 0 0.065617910936046631 -0.056104563308458928 0 0.065814196289088508 -0.056607397463825676 0 0.066106803680004392 -0.056818032083941213 0 0.065814196289088508 -0.056607397463825676 0 0.064625227755022496 -0.05583449332312939 0 0.065617910936046631 -0.056104563308458928 0 0.064625227755022496 -0.05583449332312939 0 0.065467887967918581 -0.05492181594602745 0 0.063008972309406261 -0.052488214081415845 0 0.065705351889712993 -0.052923588915824195 0 0.065467887967918581 -0.05492181594602745 0 0.068587149725883756 -0.048398747362186335 0 0.066846999160352638 -0.044838183694155695 0 0.067963186118951732 -0.042211042957568466 0 0.064625227755022496 -0.05583449332312939 0 0.063008972309406261 -0.052488214081415845 0 0.065467887967918581 -0.05492181594602745 0 0.066036528500954192 -0.051418829812464178 0 0.065936530235652185 -0.048109848877018725 0 0.0662402395600903 -0.047799428324007319 0 0.066290767218211075 -0.046248934519378088 0 0.064310321672523346 -0.047118258270039598 0 0.066846999160352638 -0.044838183694155695 0 0.066729302416869751 -0.042712132783019607 0 0.066846999160352638 -0.044838183694155695 0 0.066729302416869751 -0.042712132783019607 0 0.067963186118951732 -0.042211042957568466 0 0.066729302416869751 -0.042712132783019607 0 0.067130400979780847 -0.041742927589348375 0 0.066187423058130038 -0.040652683826519029 0 0.066729302416869751 -0.042712132783019607 0 0.067963186118951732 -0.042211042957568466 0 0.067130400979780847 -0.041742927589348375 0 0.063008972309406261 -0.052488214081415845 0 0.06541084166164389 -0.050603506205178034 0 0.065757348165966373 -0.047369765370516993 0 0.063008972309406261 -0.052488214081415845 0 0.065705351889712993 -0.052923588915824195 0 0.06541084166164389 -0.050603506205178034 0 0.065705351889712993 -0.052923588915824195 0 0.067001853546354892 -0.052893411918849338 0 0.066457956372049348 -0.049674743395870143 0 0.065705351889712993 -0.052923588915824195 0 0.06541084166164389 -0.050603506205178034 0 0.066457956372049348 -0.049674743395870143 0 0.06541084166164389 -0.050603506205178034 0 0.066457956372049348 -0.049674743395870143 0 0.065757348165966373 -0.047369765370516993 0 0.067001853546354892 -0.052893411918849338 0 0.067465004636145548 -0.050531161208807164 0 0.066457956372049348 -0.049674743395870143 0 0.067001853546354892 -0.052893411918849338 0 0.068024306213214064 -0.05356907946264805 0 0.067465004636145548 -0.050531161208807164 0 0.068024306213214064 -0.05356907946264805 0 0.068406089821160546 -0.05101692377471187 0 0.067465004636145548 -0.050531161208807164 0 0.067001853546354892 -0.052893411918849338 0 0.066937717277875966 -0.054767902163257685 0 0.068024306213214064 -0.05356907946264805 0 0.065705351889712993 -0.052923588915824195 0 0.067001853546354892 -0.052893411918849338 0 0.066667698006984091 -0.054818499083636632 0 0.067001853546354892 -0.052893411918849338 0 0.066937717277875966 -0.054767902163257685 0 0.066667698006984091 -0.054818499083636632 0 0.066937717277875966 -0.054767902163257685 0 0.066667698006984091 -0.054818499083636632 0 0.066255873919043279 -0.055375946749461412 0 0.065705351889712993 -0.052923588915824195 0 0.066667698006984091 -0.054818499083636632 0 0.065467887967918581 -0.05492181594602745 0 0.066667698006984091 -0.054818499083636632 0 0.065467887967918581 -0.05492181594602745 0 0.066150261864662302 -0.055602311783082808 0 0.065617910936046631 -0.056104563308458928 0 0.065467887967918581 -0.05492181594602745 0 0.066150261864662302 -0.055602311783082808 0 0.066484697024250874 -0.056974992482218198 0 0.065617910936046631 -0.056104563308458928 0 0.067350549912589971 -0.056386542974196187 0 0.065617910936046631 -0.056104563308458928 0 0.066150261864662302 -0.055602311783082808 0 0.066763372252817185 -0.05639903215456394 0 0.065008584626516 -0.057486919415377126 0 0.063738988836555141 -0.057586831753552288 0 0.066667698006984091 -0.054818499083636632 0 0.066150261864662302 -0.055602311783082808 0 0.066763372252817185 -0.05639903215456394 0 0.066667698006984091 -0.054818499083636632 0 0.066488118583832093 -0.054825675758551594 0 0.066255873919043279 -0.055375946749461412 0 0.064467325355181196 -0.055937350234716215 0 0.063738988836555141 -0.057586831753552288 0 0.066488118583832093 -0.054825675758551594 0 0.066255873919043279 -0.055375946749461412 0 0.065505311714321696 -0.05538228775904968 0 0.066255873919043279 -0.055375946749461412 0 0.065579562664612207 -0.055822866853252391 0 0.065505311714321696 -0.05538228775904968 0 0.065579562664612207 -0.055822866853252391 0 0.064337603225945686 -0.056449674052109031 0 0.066037421927627696 -0.055889584281008819 0 0.065579562664612207 -0.055822866853252391 0 0.065505311714321696 -0.05538228775904968 0 0.064337603225945686 -0.056449674052109031 0 0.066488118583832093 -0.054825675758551594 0 0.065505311714321696 -0.05538228775904968 0 0.064701828858407376 -0.054632108156834801 0 0.063738988836555141 -0.057586831753552288 0 0.061182651945523699 -0.058300429040440298 0 0.066488118583832093 -0.054825675758551594 0 0.064701828858407376 -0.054632108156834801 0 0.064411318878777143 -0.053811397944546049 0 0.065505311714321696 -0.05538228775904968 0 0.064701828858407376 -0.054632108156834801 0 0.063819808109712065 -0.055621974743460756 0 0.059633573470060833 -0.053002742924053124 0 0.06161526615811623 -0.054947553626918562 0 0.064108772171811906 -0.053854487464527916 0 0.06161526615811623 -0.054947553626918562 0 0.064108772171811906 -0.053854487464527916 0 0.063425245045318226 -0.054984237457906815 0 0.064701828858407376 -0.054632108156834801 0 0.064108772171811906 -0.053854487464527916 0 0.063425245045318226 -0.054984237457906815 0 0.064701828858407376 -0.054632108156834801 0 0.064411318878777143 -0.053811397944546049 0 0.064108772171811906 -0.053854487464527916 0 0.061182651945523699 -0.058300429040440298 0 0.061207858728055176 -0.058282703733665245 0 0.064701828858407376 -0.054632108156834801 0 0.063425245045318226 -0.054984237457906815 0 0.063819808109712065 -0.055621974743460756 0 0.063425245045318226 -0.054984237457906815 0 0.062677431720639387 -0.055594487578336876 0 0.063819808109712065 -0.055621974743460756 0 0.06161526615811623 -0.054947553626918562 0 0.063425245045318226 -0.054984237457906815 0 0.062677431720639387 -0.055594487578336876 0 0.06161526615811623 -0.054947553626918562 0 0.062677431720639387 -0.055594487578336876 0 0.061912447168179077 -0.056635533252862483 0 0.062677431720639387 -0.055594487578336876 0 0.063819808109712065 -0.055621974743460756 0 0.061912447168179077 -0.056635533252862483 0 0.063819808109712065 -0.055621974743460756 0 0.064337603225945686 -0.056449674052109031 0 0.061912447168179077 -0.056635533252862483 0 0.065505311714321696 -0.05538228775904968 0 0.063819808109712065 -0.055621974743460756 0 0.064337603225945686 -0.056449674052109031 0 0.064337603225945686 -0.056449674052109031 0 0.061987925361600818 -0.057733236019961227 0 0.061912447168179077 -0.056635533252862483 0 0.064337603225945686 -0.056449674052109031 0 0.0634818704970668 -0.058331764518951112 0 0.061987925361600818 -0.057733236019961227 0 0.064337603225945686 -0.056449674052109031 0 0.0634818704970668 -0.058331764518951112 0 0.066037421927627696 -0.055889584281008819 0 0.0634818704970668 -0.058331764518951112 0 0.066037421927627696 -0.055889584281008819 0 0.068024306213214064 -0.05356907946264805 0 0.066937717277875966 -0.054767902163257685 0 0.066037421927627696 -0.055889584281008819 0 0.068024306213214064 -0.05356907946264805 0 0.066937717277875966 -0.054767902163257685 0 0.066255873919043279 -0.055375946749461412 0 0.066037421927627696 -0.055889584281008819 0 0.066255873919043279 -0.055375946749461412 0 0.065579562664612207 -0.055822866853252391 0 0.066037421927627696 -0.055889584281008819 0 0.065394746980858939 -0.057258875014720677 0 0.068024306213214064 -0.05356907946264805 0 0.068806161233033653 -0.053556821536233125 0 0.068024306213214064 -0.05356907946264805 0 0.068806161233033653 -0.053556821536233125 0 0.068406089821160546 -0.05101692377471187 0 0.062531191737003694 -0.05789484519710373 0 0.064413626177766622 -0.057453036422348801 0 0.068806161233033653 -0.053556821536233125 0 0.073156802965105058 -0.050108113107779316 0 0.075498762110694298 -0.052472230359646453 0 0.065394746980858939 -0.057258875014720677 0 0.068806161233033653 -0.053556821536233125 0 0.062544055374456786 -0.0608552931266216 0 0.066338181963696119 -0.055558262795245089 0 0.066613343025914179 -0.05613127218926036 0 0.073156802965105058 -0.050108113107779316 0 0.069924047373257872 -0.048547230631421065 0 0.072184974855229248 -0.046594511517311518 0 0.068806161233033653 -0.053556821536233125 0 0.073156802965105058 -0.050108113107779316 0 0.069924047373257872 -0.048547230631421065 0 0.068806161233033653 -0.053556821536233125 0 0.068406089821160546 -0.05101692377471187 0 0.069924047373257872 -0.048547230631421065 0 0.068406089821160546 -0.05101692377471187 0 0.069924047373257872 -0.048547230631421065 0 0.068175559660686683 -0.047816859340693185 0 0.072240904585853569 -0.044077291596475603 0 0.068268622075069105 -0.041809665289728223 0 0.069924047373257872 -0.048547230631421065 0 0.068541862513953236 -0.043449630695299557 0 0.068175559660686683 -0.047816859340693185 0 0.069924047373257872 -0.048547230631421065 0 0.072184974855229248 -0.046594511517311518 0 0.068541862513953236 -0.043449630695299557 0 0.071316421322743698 -0.04191148547559484 0 0.071755840614791927 -0.037747457273714265 0 0.06895155880934109 -0.036966647108750583 0 0.071316421322743698 -0.04191148547559484 0 0.071755840614791927 -0.037747457273714265 0 0.074623368019658048 -0.040004706594210501 0 0.071755840614791927 -0.037747457273714265 0 0.074500652578898 -0.035309054196863268 0 0.069567463939736202 -0.03405646661255339 0 0.071755840614791927 -0.037747457273714265 0 0.06895155880934109 -0.036966647108750583 0 0.069567463939736202 -0.03405646661255339 0 0.071316421322743698 -0.04191148547559484 0 0.06895155880934109 -0.036966647108750583 0 0.067892783953981614 -0.039308987928918578 0 0.06895155880934109 -0.036966647108750583 0 0.067225265767379971 -0.036707872805425722 0 0.068082762139802577 -0.033387741563123283 0 0.06895155880934109 -0.036966647108750583 0 0.067892783953981614 -0.039308987928918578 0 0.067225265767379971 -0.036707872805425722 0 0.067225265767379971 -0.036707872805425722 0 0.065685521856299445 -0.038975183855793481 0 0.065532669023269055 -0.036265999158591515 0 0.068541862513953236 -0.043449630695299557 0 0.065685521856299445 -0.038975183855793481 0 0.066661656341867548 -0.042571291586262161 0 0.068268622075069105 -0.041809665289728223 0 0.066310495912465864 -0.040654447381655683 0 0.067892783953981614 -0.039308987928918578 0 0.067225265767379971 -0.036707872805425722 0 0.065685521856299445 -0.038975183855793481 0 0.065685521856299445 -0.038975183855793481 0 0.066661656341867548 -0.042571291586262161 0 0.065721590053153908 -0.041078743076996695 0 0.066661656341867548 -0.042571291586262161 0 0.066270251195584759 -0.043537416664806206 0 0.065721590053153908 -0.041078743076996695 0 0.066270251195584759 -0.043537416664806206 0 0.066094643751226048 -0.042657996192785951 0 0.065721590053153908 -0.041078743076996695 0 0.066270251195584759 -0.043537416664806206 0 0.066042279622983535 -0.044147783952624364 0 0.066507870609201269 -0.045871116022799537 0 0.066270251195584759 -0.043537416664806206 0 0.066042279622983535 -0.044147783952624364 0 0.066094643751226048 -0.042657996192785951 0 0.066270251195584759 -0.043537416664806206 0 0.067155140618588557 -0.045110217141079087 0 0.066507870609201269 -0.045871116022799537 0 0.066661656341867548 -0.042571291586262161 0 0.066270251195584759 -0.043537416664806206 0 0.067155140618588557 -0.045110217141079087 0 0.068541862513953236 -0.043449630695299557 0 0.066661656341867548 -0.042571291586262161 0 0.067155140618588557 -0.045110217141079087 0 0.068541862513953236 -0.043449630695299557 0 0.067155140618588557 -0.045110217141079087 0 0.068175559660686683 -0.047816859340693185 0 0.067155140618588557 -0.045110217141079087 0 0.067044550390797958 -0.048009928032037213 0 0.068175559660686683 -0.047816859340693185 0 0.067044550390797958 -0.048009928032037213 0 0.068175559660686683 -0.047816859340693185 0 0.067465004636145548 -0.050531161208807164 0 0.068406089821160546 -0.05101692377471187 0 0.068175559660686683 -0.047816859340693185 0 0.067465004636145548 -0.050531161208807164 0 0.067044550390797958 -0.048009928032037213 0 0.067465004636145548 -0.050531161208807164 0 0.066457956372049348 -0.049674743395870143 0 0.067044550390797958 -0.048009928032037213 0 0.066457956372049348 -0.049674743395870143 0 0.066507870609201269 -0.045871116022799537 0 0.066457956372049348 -0.049674743395870143 0 0.065757348165966373 -0.047369765370516993 0 0.066507870609201269 -0.045871116022799537 0 0.066042279622983535 -0.044147783952624364 0 0.065757348165966373 -0.047369765370516993 0 0.066507870609201269 -0.045871116022799537 0 0.067155140618588557 -0.045110217141079087 0 0.067044550390797958 -0.048009928032037213 0 0.066507870609201269 -0.045871116022799537 0 0.067963186118951732 -0.042211042957568466 0 0.067130400979780847 -0.041742927589348375 0 0.065559849937101344 -0.043126136325845776 0 0.065936530235652185 -0.048109848877018725 0 0.065925869747214635 -0.046217038445878794 0 0.063008972309406261 -0.052488214081415845 0 0.065757348165966373 -0.047369765370516993 0 0.065559849937101344 -0.043126136325845776 0 0.067130400979780847 -0.041742927589348375 0 0.066649192824468378 -0.041793370212093124 0 0.065559849937101344 -0.043126136325845776 0 0.066042279622983535 -0.044147783952624364 0 0.065757348165966373 -0.047369765370516993 0 0.065559849937101344 -0.043126136325845776 0 0.067130400979780847 -0.041742927589348375 0 0.066730087931534204 -0.040727376704730665 0 0.066187423058130038 -0.040652683826519029 0 0.067130400979780847 -0.041742927589348375 0 0.066730087931534204 -0.040727376704730665 0 0.066649192824468378 -0.041793370212093124 0 0.066635372658108039 -0.04119767534300954 0 0.067111191437823778 -0.039116845527960235 0 0.066443655299117346 -0.038327209802320003 0 0.066730087931534204 -0.040727376704730665 0 0.066635372658108039 -0.04119767534300954 0 0.066443655299117346 -0.038327209802320003 0 0.066730087931534204 -0.040727376704730665 0 0.066649192824468378 -0.041793370212093124 0 0.066635372658108039 -0.04119767534300954 0 0.066635372658108039 -0.04119767534300954 0 0.066094643751226048 -0.042657996192785951 0 0.067111191437823778 -0.039116845527960235 0 0.066649192824468378 -0.041793370212093124 0 0.066635372658108039 -0.04119767534300954 0 0.065559849937101344 -0.043126136325845776 0 0.066635372658108039 -0.04119767534300954 0 0.065559849937101344 -0.043126136325845776 0 0.066094643751226048 -0.042657996192785951 0 0.066042279622983535 -0.044147783952624364 0 0.065559849937101344 -0.043126136325845776 0 0.066094643751226048 -0.042657996192785951 0 0.066586570115820962 -0.038530843066570251 0 0.066444367367041623 -0.036455794622136717 0 0.065685521856299445 -0.038975183855793481 0 0.065721590053153908 -0.041078743076996695 0 0.063813645979238637 -0.038051636760857294 0 0.066094643751226048 -0.042657996192785951 0 0.069227023237356758 -0.035870204480114729 0 0.067111191437823778 -0.039116845527960235 0 0.066094643751226048 -0.042657996192785951 0 0.065721590053153908 -0.041078743076996695 0 0.063813645979238637 -0.038051636760857294 0 0.065685521856299445 -0.038975183855793481 0 0.063813645979238637 -0.038051636760857294 0 0.065532669023269055 -0.036265999158591515 0 0.069227023237356758 -0.035870204480114729 0 0.067189371390593014 -0.035940428509988548 0 0.068275971518635459 -0.031182515375217008 0 0.069227023237356758 -0.035870204480114729 0 0.067189371390593014 -0.035940428509988548 0 0.067111191437823778 -0.039116845527960235 0 0.067189371390593014 -0.035940428509988548 0 0.067111191437823778 -0.039116845527960235 0 0.066443655299117346 -0.038327209802320003 0 0.066443655299117346 -0.038327209802320003 0 0.066410412473310768 -0.033874251278386308 0 0.064996810537694905 -0.035109205374565779 0 0.067189371390593014 -0.035940428509988548 0 0.066443655299117346 -0.038327209802320003 0 0.066410412473310768 -0.033874251278386308 0 0.064999378491125484 -0.042308883281498136 0 0.064996810537694905 -0.035109205374565779 0 0.066187423058130038 -0.040652683826519029 0 0.066443655299117346 -0.038327209802320003 0 0.064996810537694905 -0.035109205374565779 0 0.066187423058130038 -0.040652683826519029 0 0.066730087931534204 -0.040727376704730665 0 0.066443655299117346 -0.038327209802320003 0 0.066187423058130038 -0.040652683826519029 0 0.041917960205800221 -0.063086524882184455 0 0.041457127311408264 -0.062905855719256693 0 0.041592276276960355 -0.062495083124343986 0 0.063070619421040572 -0.054317227302060171 0 0.061760554028451146 -0.054266839492381855 0 0.063070619421040572 -0.054317227302060171 0 0.065883143744743092 -0.056511636074651241 0 0.042090545696717226 -0.063794328278131668 0 0.046702678996939376 -0.063915552953004551 0 0.044412151097147294 -0.062780473756657712 0 0.091901340507303503 -0.05512418156949949 0 0.085569648954920641 -0.053756481502465404 0 0.089438197953617321 -0.051882092383271669 0 0.085569648954920641 -0.053756481502465404 0 0.089438197953617321 -0.051882092383271669 0 0.087470565017138999 -0.048595680689640097 0 0.090141350097885389 -0.049373690768678868 0 0.089438197953617321 -0.051882092383271669 0 0.087470565017138999 -0.048595680689640097 0 0.090141350097885389 -0.049373690768678868 0 0.089438197953617321 -0.051882092383271669 0 0.092841196548191382 -0.050012750780260781 0 0.091901340507303503 -0.05512418156949949 0 0.089438197953617321 -0.051882092383271669 0 0.092841196548191382 -0.050012750780260781 0 0.063070619421040572 -0.054317227302060171 0 0.064996777752939078 -0.054608914326290454 0 0.0415144905936344 -0.062910287419203112 0 0.041353275194081246 -0.063182807018822229 0 0.041348417650304892 -0.063025817013523264 0 0.041353275194081246 -0.063182807018822229 0 0.04126697669103626 -0.063206593869052169 0 0.041267518641448848 -0.063125938764746772 0 0.04126697669103626 -0.063206593869052169 0 0.041124803959340324 -0.063123734083992036 0 0.041029135526586276 -0.06326296460607643 0 0.04126697669103626 -0.063206593869052169 0 0.041124803959340324 -0.063123734083992036 0 0.041267518641448848 -0.063125938764746772 0 0.041124803959340324 -0.063123734083992036 0 0.0412230290134179 -0.063049407669779942 0 0.041267518641448848 -0.063125938764746772 0 0.041124803959340324 -0.063123734083992036 0 0.0412230290134179 -0.063049407669779942 0 0.041023292932311078 -0.062999651055590689 0 0.0412230290134179 -0.063049407669779942 0 0.041267518641448848 -0.063125938764746772 0 0.041348417650304892 -0.063025817013523264 0 0.041353275194081246 -0.063182807018822229 0 0.041267518641448848 -0.063125938764746772 0 0.041348417650304892 -0.063025817013523264 0 0.040774601649513881 -0.063333621650285638 0 0.040884130061329599 -0.063080681919829421 0 0.041029135526586276 -0.06326296460607643 0 0.041124803959340324 -0.063123734083992036 0 0.040884130061329599 -0.063080681919829421 0 0.041029135526586276 -0.06326296460607643 0 0.041124803959340324 -0.063123734083992036 0 0.040884130061329599 -0.063080681919829421 0 0.041023292932311078 -0.062999651055590689 0 0.040884130061329599 -0.063080681919829421 0 0.041023292932311078 -0.062999651055590689 0 0.040730264405921382 -0.062820952975246411 0 0.041023292932311078 -0.062999651055590689 0 0.040730264405921382 -0.062820952975246411 0 0.041005089983237951 -0.062847535545714081 0 0.040730264405921382 -0.062820952975246411 0 0.041005089983237951 -0.062847535545714081 0 0.040789062427731594 -0.062635924883750665 0 0.041348417650304892 -0.063025817013523264 0 0.04123611315661864 -0.062953961607157896 0 0.041457127311408264 -0.062905855719256693 0 0.0415144905936344 -0.062910287419203112 0 0.041348417650304892 -0.063025817013523264 0 0.041457127311408264 -0.062905855719256693 0 0.0412230290134179 -0.063049407669779942 0 0.041348417650304892 -0.063025817013523264 0 0.04123611315661864 -0.062953961607157896 0 0.0412230290134179 -0.063049407669779942 0 0.041023292932311078 -0.062999651055590689 0 0.04123611315661864 -0.062953961607157896 0 0.041023292932311078 -0.062999651055590689 0 0.04123611315661864 -0.062953961607157896 0 0.041005089983237951 -0.062847535545714081 0 0.041178537877537134 -0.062688260632208628 0 0.041005089983237951 -0.062847535545714081 0 0.040789062427731594 -0.062635924883750665 0 0.04123611315661864 -0.062953961607157896 0 0.041178537877537134 -0.062688260632208628 0 0.041005089983237951 -0.062847535545714081 0 0.04123611315661864 -0.062953961607157896 0 0.041178537877537134 -0.062688260632208628 0 0.041457127311408264 -0.062905855719256693 0 0.041178537877537134 -0.062688260632208628 0 0.041457127311408264 -0.062905855719256693 0 0.041592276276960355 -0.062495083124343986 0 0.041178537877537134 -0.062688260632208628 0 0.041592276276960355 -0.062495083124343986 0 0.041121034514601119 -0.062189060245170735 0 0.041178537877537134 -0.062688260632208628 0 0.041121034514601119 -0.062189060245170735 0 0.040789062427731594 -0.062635924883750665 0 0.041592276276960355 -0.062495083124343986 0 0.041121034514601119 -0.062189060245170735 0 0.042333878890808939 -0.061951568890150639 0 0.04047974706691982 -0.062592723059801542 0 0.040730264405921382 -0.062820952975246411 0 0.040789062427731594 -0.062635924883750665 0 0.041121034514601119 -0.062189060245170735 0 0.040789062427731594 -0.062635924883750665 0 0.040523924868984193 -0.062429528986481873 0 0.04047974706691982 -0.062592723059801542 0 0.040789062427731594 -0.062635924883750665 0 0.040523924868984193 -0.062429528986481873 0 0.04060331505924996 -0.062223425181337104 0 0.040175501329988476 -0.062693203303869835 0 0.040523924868984193 -0.062429528986481873 0 0.040354488559957304 -0.062517088522308514 0 0.040175501329988476 -0.062693203303869835 0 0.040523924868984193 -0.062429528986481873 0 0.04060331505924996 -0.062223425181337104 0 0.041121034514601119 -0.062189060245170735 0 0.040523924868984193 -0.062429528986481873 0 0.04060331505924996 -0.062223425181337104 0 0.041121034514601119 -0.062189060245170735 0 0.042107275519715569 -0.061245850834392795 0 0.042107275519715569 -0.061245850834392795 0 0.042333878890808939 -0.061951568890150639 0 0.044193919924107809 -0.060786307507773682 0 0.041121034514601119 -0.062189060245170735 0 0.042107275519715569 -0.061245850834392795 0 0.042333878890808939 -0.061951568890150639 0 0.063070619421040572 -0.054317227302060171 0 0.060526276830061516 -0.057759814331658839 0 0.041917960205800221 -0.063086524882184455 0 0.041592276276960355 -0.062495083124343986 0 0.042333878890808939 -0.061951568890150639 0 0.042090545696717226 -0.063794328278131668 0 0.044412151097147294 -0.062780473756657712 0 0.042333878890808939 -0.061951568890150639 0 0.044412151097147294 -0.062780473756657712 0 0.044193919924107809 -0.060786307507773682 0 0.049069100569025623 -0.059159130781553236 0 0.044412151097147294 -0.062780473756657712 0 0.042333878890808939 -0.061951568890150639 0 0.044193919924107809 -0.060786307507773682 0 0.044131275835690459 -0.059392661255233792 0 0.042107275519715569 -0.061245850834392795 0 0.044193919924107809 -0.060786307507773682 0 0.044131275835690459 -0.059392661255233792 0 0.044193919924107809 -0.060786307507773682 0 0.049069100569025623 -0.059159130781553236 0 0.048805013305912054 -0.057137919665686099 0 0.044131275835690459 -0.059392661255233792 0 0.049069100569025623 -0.059159130781553236 0 0.048805013305912054 -0.057137919665686099 0 0.049069100569025623 -0.059159130781553236 0 0.053160227757544268 -0.057095509340009766 0 0.054434331355677636 -0.05728169161403298 0 0.057717871801383519 -0.057760963123144972 0 0.049069100569025623 -0.059159130781553236 0 0.05687304248794061 -0.057886001496633699 0 0.051849431731949544 -0.060684445241186165 0 0.049069100569025623 -0.059159130781553236 0 0.053160227757544268 -0.057095509340009766 0 0.056503017862112641 -0.059841493402372554 0 0.046702678996939376 -0.063915552953004551 0 0.044412151097147294 -0.062780473756657712 0 0.049069100569025623 -0.059159130781553236 0 0.046702678996939376 -0.063915552953004551 0 0.049069100569025623 -0.059159130781553236 0 0.051849431731949544 -0.060684445241186165 0 0.055349031594282241 -0.055022599358604637 0 0.059633573470060833 -0.053002742924053124 0 0.058108926932538156 -0.056189654598847297 0 0.06161526615811623 -0.054947553626918562 0 0.058108926932538156 -0.056189654598847297 0 0.061912447168179077 -0.056635533252862483 0 0.059633573470060833 -0.053002742924053124 0 0.06161526615811623 -0.054947553626918562 0 0.058108926932538156 -0.056189654598847297 0 0.053160227757544268 -0.057095509340009766 0 0.058108926932538156 -0.056189654598847297 0 0.056503017862112641 -0.059841493402372554 0 0.055349031594282241 -0.055022599358604637 0 0.053160227757544268 -0.057095509340009766 0 0.058108926932538156 -0.056189654598847297 0 0.058108926932538156 -0.056189654598847297 0 0.056503017862112641 -0.059841493402372554 0 0.061912447168179077 -0.056635533252862483 0 0.056503017862112641 -0.059841493402372554 0 0.061987925361600818 -0.057733236019961227 0 0.061912447168179077 -0.056635533252862483 0 0.065394746980858939 -0.057258875014720677 0 0.058238163592813488 -0.060339848789037018 0 0.062544055374456786 -0.0608552931266216 0 0.062531191737003694 -0.05789484519710373 0 0.057717871801383519 -0.057760963123144972 0 0.0634818704970668 -0.058331764518951112 0 0.056503017862112641 -0.059841493402372554 0 0.061987925361600818 -0.057733236019961227 0 0.065394746980858939 -0.057258875014720677 0 0.05687304248794061 -0.057886001496633699 0 0.058238163592813488 -0.060339848789037018 0 0.05687304248794061 -0.057886001496633699 0 0.058238163592813488 -0.060339848789037018 0 0.051849431731949544 -0.060684445241186165 0 0.058238163592813488 -0.060339848789037018 0 0.062544055374456786 -0.0608552931266216 0 0.053499656651679668 -0.063571722882562659 0 0.066613343025914179 -0.05613127218926036 0 0.066323409590592172 -0.056707590515204964 0 0.077953551081190661 -0.051017843753596838 0 0.075498762110694298 -0.052472230359646453 0 0.07982263110779643 -0.052480181152629118 0 0.065883143744743092 -0.056511636074651241 0 0.066323409590592172 -0.056707590515204964 0 0.046702678996939376 -0.063915552953004551 0 0.051849431731949544 -0.060684445241186165 0 0.053499656651679668 -0.063571722882562659 0 0.058238163592813488 -0.060339848789037018 0 0.051849431731949544 -0.060684445241186165 0 0.053499656651679668 -0.063571722882562659 0 0.077953551081190661 -0.051017843753596838 0 0.07982263110779643 -0.052480181152629118 0 0.081915258630917046 -0.049061410380845952 0 0.085569648954920641 -0.053756481502465404 0 0.07982263110779643 -0.052480181152629118 0 0.081915258630917046 -0.049061410380845952 0 0.085569648954920641 -0.053756481502465404 0 0.081915258630917046 -0.049061410380845952 0 0.087470565017138999 -0.048595680689640097 0 0.081915258630917046 -0.049061410380845952 0 0.08492873628295014 -0.04522761919559793 0 0.087470565017138999 -0.048595680689640097 0 0.081915258630917046 -0.049061410380845952 0 0.080935660099329246 -0.043857723555934085 0 0.08492873628295014 -0.04522761919559793 0 0.081915258630917046 -0.049061410380845952 0 0.080935660099329246 -0.043857723555934085 0 0.075789587108457582 -0.045055934181925973 0 0.079663104285645187 -0.0477047149272165 0 0.076825063740050298 -0.046406755576295131 0 0.080935660099329246 -0.043857723555934085 0 0.077602242451064202 -0.041446436523707601 0 0.079751398621954739 -0.039327049774385246 0 0.080935660099329246 -0.043857723555934085 0 0.08492873628295014 -0.04522761919559793 0 0.084711217022538324 -0.041205687900383273 0 0.080935660099329246 -0.043857723555934085 0 0.084711217022538324 -0.041205687900383273 0 0.079751398621954739 -0.039327049774385246 0 0.073156802965105058 -0.050108113107779316 0 0.072184974855229248 -0.046594511517311518 0 0.077316370758475056 -0.048589443198180253 0 0.073156802965105058 -0.050108113107779316 0 0.075498762110694298 -0.052472230359646453 0 0.077316370758475056 -0.048589443198180253 0 0.077953551081190661 -0.051017843753596838 0 0.075498762110694298 -0.052472230359646453 0 0.077316370758475056 -0.048589443198180253 0 0.077953551081190661 -0.051017843753596838 0 0.081915258630917046 -0.049061410380845952 0 0.077316370758475056 -0.048589443198180253 0 0.075789587108457582 -0.045055934181925973 0 0.077602242451064202 -0.041446436523707601 0 0.074623368019658048 -0.040004706594210501 0 0.080935660099329246 -0.043857723555934085 0 0.075789587108457582 -0.045055934181925973 0 0.077602242451064202 -0.041446436523707601 0 0.071316421322743698 -0.04191148547559484 0 0.075789587108457582 -0.045055934181925973 0 0.074623368019658048 -0.040004706594210501 0 0.072240904585853569 -0.044077291596475603 0 0.076825063740050298 -0.046406755576295131 0 0.077602242451064202 -0.041446436523707601 0 0.074623368019658048 -0.040004706594210501 0 0.077174476006459033 -0.038540803092795374 0 0.077602242451064202 -0.041446436523707601 0 0.077174476006459033 -0.038540803092795374 0 0.079751398621954739 -0.039327049774385246 0 0.077174476006459033 -0.038540803092795374 0 0.079072279864009137 -0.036887675298143914 0 0.074500652578898 -0.035309054196863268 0 0.071791165793934728 -0.035099200065645091 0 0.070732244478206335 -0.034390010183623268 0 0.071755840614791927 -0.037747457273714265 0 0.074623368019658048 -0.040004706594210501 0 0.074500652578898 -0.035309054196863268 0 0.074623368019658048 -0.040004706594210501 0 0.077174476006459033 -0.038540803092795374 0 0.074500652578898 -0.035309054196863268 0 0.079566617089735267 -0.04586750599507898 0 0.079398314383256133 -0.044799826649000236 0 0.08094066463471368 -0.039373241516272292 0 0.079751398621954739 -0.039327049774385246 0 0.081252101151204667 -0.038317416160863135 0 0.077174476006459033 -0.038540803092795374 0 0.079751398621954739 -0.039327049774385246 0 0.079072279864009137 -0.036887675298143914 0 0.079751398621954739 -0.039327049774385246 0 0.079072279864009137 -0.036887675298143914 0 0.081252101151204667 -0.038317416160863135 0 0.066188071922296934 -0.031214184962259153 0 0.064938401000607868 -0.030955963868589492 0 0.065529612149236652 -0.031736234035681314 0 0.071791165793934728 -0.035099200065645091 0 0.071946479937819038 -0.036364496068293145 0 0.081252101151204667 -0.038317416160863135 0 0.081519805489167638 -0.038986326187006148 0 0.081448209575914032 -0.039035183444091612 0 0.064938401000607868 -0.030955963868589492 0 0.063986370311354429 -0.030859928933722969 0 0.064282151773817575 -0.031355575633110422 0 0.071946479937819038 -0.036364496068293145 0 0.07008477584527098 -0.038502276280970901 0 0.063986370311354429 -0.030859928933722969 0 0.063684823073832497 -0.031366244606335421 0 0.064282151773817575 -0.031355575633110422 0 0.081519805489167638 -0.038986326187006148 0 0.081496759446993083 -0.039074239040294528 0 0.081457384131012958 -0.03910859191096356 0 0.081519805489167638 -0.038986326187006148 0 0.081496759446993083 -0.039074239040294528 0 0.081448209575914032 -0.039035183444091612 0 0.081483905134640405 -0.0391528511053362 0 0.081448209575914032 -0.039035183444091612 0 0.081410945195566353 -0.039272834424928224 0 0.081496759446993083 -0.039074239040294528 0 0.081483905134640405 -0.0391528511053362 0 0.081448209575914032 -0.039035183444091612 0 0.081496759446993083 -0.039074239040294528 0 0.081483905134640405 -0.0391528511053362 0 0.081490266463308828 -0.039144322600275609 0 0.08094066463471368 -0.039373241516272292 0 0.081252101151204667 -0.038317416160863135 0 0.081448209575914032 -0.039035183444091612 0 0.08094066463471368 -0.039373241516272292 0 0.081448209575914032 -0.039035183444091612 0 0.081410945195566353 -0.039272834424928224 0 0.079566617089735267 -0.04586750599507898 0 0.077469490561618393 -0.048506144751474869 0 0.08492873628295014 -0.04522761919559793 0 0.084711217022538324 -0.041205687900383273 0 0.089290327939814396 -0.043108527883690906 0 0.089290327939814396 -0.043108527883690906 0 0.090828888782231429 -0.046995164887891613 0 0.093762021939165816 -0.044857840636413862 0 0.081483905134640405 -0.0391528511053362 0 0.081410945195566353 -0.039272834424928224 0 0.081514802935017769 -0.039229036715868401 0 0.077469490561618393 -0.048506144751474869 0 0.066487621757140097 -0.051518224575393651 0 0.081483905134640405 -0.0391528511053362 0 0.081514802935017769 -0.039229036715868401 0 0.081490266463308828 -0.039144322600275609 0 0.092841196548191382 -0.050012750780260781 0 0.090828888782231429 -0.046995164887891613 0 0.093762021939165816 -0.044857840636413862 0 0.090141350097885389 -0.049373690768678868 0 0.092841196548191382 -0.050012750780260781 0 0.090828888782231429 -0.046995164887891613 0 0.090141350097885389 -0.049373690768678868 0 0.090828888782231429 -0.046995164887891613 0 0.087470565017138999 -0.048595680689640097 0 0.089290327939814396 -0.043108527883690906 0 0.090828888782231429 -0.046995164887891613 0 0.087470565017138999 -0.048595680689640097 0 0.08492873628295014 -0.04522761919559793 0 0.089290327939814396 -0.043108527883690906 0 0.087470565017138999 -0.048595680689640097 0 0.040774601649513881 -0.063333621650285638 0 0.041029135526586276 -0.06326296460607643 0 0.041178614547194667 -0.063496510035082318 0 0.050779805748129098 -0.053632757251967186 0 0.060063529037169543 -0.052055512311573786 0 0.04126697669103626 -0.063206593869052169 0 0.041335751436148593 -0.06319713536906954 0 0.041351183610149271 -0.063208421333868586 0 0.057486074245666444 -0.05636099317225203 0 0.060063529037169543 -0.052055512311573786 0 0.04126697669103626 -0.063206593869052169 0 0.041029135526586276 -0.06326296460607643 0 0.041178614547194667 -0.063496510035082318 0 0.064996777752939078 -0.054608914326290454 0 0.066487621757140097 -0.051518224575393651 0 0.041353275194081246 -0.063182807018822229 0 0.04126697669103626 -0.063206593869052169 0 0.041351183610149271 -0.063208421333868586 0 0.060063529037169543 -0.052055512311573786 0 0.060364839025078852 -0.0493226330487525 0 0.060063529037169543 -0.052055512311573786 0 0.066487621757140097 -0.051518224575393651 0 0.081514802935017769 -0.039229036715868401 0 0.081490266463308828 -0.039144322600275609 0 0.081457384131012958 -0.03910859191096356 0 0.081226944021246833 -0.039721288354258859 0 0.0816297410906663 -0.039494798978449298 0 0.081445767101039721 -0.039211785425465891 0 0.081517763672376828 -0.039850587230435726 0 0.081226944021246833 -0.039721288354258859 0 0.0816297410906663 -0.039494798978449298 0 0.066487621757140097 -0.051518224575393651 0 0.069857239457681269 -0.044601118712582037 0 0.060364839025078852 -0.0493226330487525 0 0.062424264637345184 -0.049496901179035768 0 0.050779805748129098 -0.053632757251967186 0 0.060364839025078852 -0.0493226330487525 0 0.055404676613473661 -0.052085932588121053 0 0.05774430306269094 -0.052930063582255764 0 0.05740609371640578 -0.054238226106362877 0 0.047093630491863978 -0.053844141008834848 0 0.046936683963593809 -0.054428016694326189 0 0.047687256095447952 -0.054463945601081427 0 0.060364839025078852 -0.0493226330487525 0 0.060935573820716286 -0.041914736213894382 0 0.046936683963593809 -0.054428016694326189 0 0.047687256095447952 -0.054463945601081427 0 0.047536643192286537 -0.055027519755596048 0 0.081519805489167638 -0.038986326187006148 0 0.08142933258344158 -0.039169677002188222 0 0.081457384131012958 -0.03910859191096356 0 0.081413128482658748 -0.039219973288292388 0 0.08142933258344158 -0.039169677002188222 0 0.081445767101039721 -0.039211785425465891 0 0.07008477584527098 -0.038502276280970901 0 0.060935573820716286 -0.041914736213894382 0 0.081226944021246833 -0.039721288354258859 0 0.081445767101039721 -0.039211785425465891 0 0.081457384131012958 -0.03910859191096356 0 0.081496759446993083 -0.039074239040294528 0 0.081490266463308828 -0.039144322600275609 0 0.081457384131012958 -0.03910859191096356 0 0.08142933258344158 -0.039169677002188222 0 0.081445767101039721 -0.039211785425465891 0 0.081457384131012958 -0.03910859191096356 0 0.063986370311354429 -0.030859928933722969 0 0.063171716403510048 -0.030766351296847044 0 0.063684823073832497 -0.031366244606335421 0 0.060935573820716286 -0.041914736213894382 0 0.062827456437408738 -0.033504410895894718 0 0.063171716403510048 -0.030766351296847044 0 0.06297750723117479 -0.031583739708069353 0 0.063684823073832497 -0.031366244606335421 0 0.062804285252391692 -0.031712252605533564 0 0.063071872935596199 -0.031557562588185067 0 0.062951076012632154 -0.031989242807377513 0 0.06297750723117479 -0.031583739708069353 0 0.063684823073832497 -0.031366244606335421 0 0.063650242785330921 -0.031841513531914077 0 0.063650242785330921 -0.031841513531914077 0 0.063342207090969188 -0.032213287040965703 0 0.063940406247766368 -0.032232868436685359 0 0.06297750723117479 -0.031583739708069353 0 0.063650242785330921 -0.031841513531914077 0 0.063342207090969188 -0.032213287040965703 0 0.06297750723117479 -0.031583739708069353 0 0.063342207090969188 -0.032213287040965703 0 0.062836487514760356 -0.032361024879955472 0 0.063342207090969188 -0.032213287040965703 0 0.063092148183481384 -0.032556078383179261 0 0.062836487514760356 -0.032361024879955472 0 0.063342207090969188 -0.032213287040965703 0 0.063621260258052995 -0.032461961210074081 0 0.063092148183481384 -0.032556078383179261 0 0.063342207090969188 -0.032213287040965703 0 0.063621260258052995 -0.032461961210074081 0 0.063940406247766368 -0.032232868436685359 0 0.063621260258052995 -0.032461961210074081 0 0.063092148183481384 -0.032556078383179261 0 0.063760694883786204 -0.032728952484513442 0 0.063092148183481384 -0.032556078383179261 0 0.062836487514760356 -0.032361024879955472 0 0.062762723095235548 -0.03260793471606567 0 0.063092148183481384 -0.032556078383179261 0 0.062762723095235548 -0.03260793471606567 0 0.0626411152807647 -0.032640858814826132 0 0.064447871126977738 -0.032815556057137756 0 0.064055034947944497 -0.032545062765816521 0 0.064550216118831383 -0.032347117160535274 0 0.063621260258052995 -0.032461961210074081 0 0.064055034947944497 -0.032545062765816521 0 0.063760694883786204 -0.032728952484513442 0 0.064447871126977738 -0.032815556057137756 0 0.064055034947944497 -0.032545062765816521 0 0.063760694883786204 -0.032728952484513442 0 0.064055034947944497 -0.032545062765816521 0 0.063940406247766368 -0.032232868436685359 0 0.064550216118831383 -0.032347117160535274 0 0.063621260258052995 -0.032461961210074081 0 0.064055034947944497 -0.032545062765816521 0 0.063940406247766368 -0.032232868436685359 0 0.064447871126977738 -0.032815556057137756 0 0.064550216118831383 -0.032347117160535274 0 0.065214012148314265 -0.032701697147826579 0 0.064550216118831383 -0.032347117160535274 0 0.064120345168334772 -0.031810696914267196 0 0.06478118344958024 -0.031773914906715439 0 0.064550216118831383 -0.032347117160535274 0 0.06478118344958024 -0.031773914906715439 0 0.065354371246621232 -0.032313918148124468 0 0.063940406247766368 -0.032232868436685359 0 0.064550216118831383 -0.032347117160535274 0 0.064120345168334772 -0.031810696914267196 0 0.063650242785330921 -0.031841513531914077 0 0.063940406247766368 -0.032232868436685359 0 0.064120345168334772 -0.031810696914267196 0 0.063684823073832497 -0.031366244606335421 0 0.064120345168334772 -0.031810696914267196 0 0.064282151773817575 -0.031355575633110422 0 0.063684823073832497 -0.031366244606335421 0 0.063650242785330921 -0.031841513531914077 0 0.064120345168334772 -0.031810696914267196 0 0.064120345168334772 -0.031810696914267196 0 0.064282151773817575 -0.031355575633110422 0 0.06478118344958024 -0.031773914906715439 0 0.064938401000607868 -0.030955963868589492 0 0.064282151773817575 -0.031355575633110422 0 0.06478118344958024 -0.031773914906715439 0 0.064938401000607868 -0.030955963868589492 0 0.06478118344958024 -0.031773914906715439 0 0.065529612149236652 -0.031736234035681314 0 0.066188071922296934 -0.031214184962259153 0 0.065529612149236652 -0.031736234035681314 0 0.066595610730653967 -0.032418820601052022 0 0.065529612149236652 -0.031736234035681314 0 0.065354371246621232 -0.032313918148124468 0 0.066595610730653967 -0.032418820601052022 0 0.065354371246621232 -0.032313918148124468 0 0.066595610730653967 -0.032418820601052022 0 0.065950754955594687 -0.032718554491251668 0 0.06478118344958024 -0.031773914906715439 0 0.065529612149236652 -0.031736234035681314 0 0.065354371246621232 -0.032313918148124468 0 0.067795552823941202 -0.031952624782608977 0 0.066595610730653967 -0.032418820601052022 0 0.068091586469882837 -0.032980825762551826 0 0.066188071922296934 -0.031214184962259153 0 0.067795552823941202 -0.031952624782608977 0 0.066595610730653967 -0.032418820601052022 0 0.068091586469882837 -0.032980825762551826 0 0.067509217815971731 -0.033443645072875582 0 0.06895474126151746 -0.033278286521524578 0 0.066595610730653967 -0.032418820601052022 0 0.068091586469882837 -0.032980825762551826 0 0.067509217815971731 -0.033443645072875582 0 0.066595610730653967 -0.032418820601052022 0 0.067509217815971731 -0.033443645072875582 0 0.065950754955594687 -0.032718554491251668 0 0.067509217815971731 -0.033443645072875582 0 0.065950754955594687 -0.032718554491251668 0 0.065955695722260593 -0.032873145249133352 0 0.067448878869259113 -0.031735645372513402 0 0.065955695722260593 -0.032873145249133352 0 0.06701474962664257 -0.033156383773842439 0 0.067625786191288825 -0.032707123493294889 0 0.067172991815297178 -0.032821209691742625 0 0.067448878869259113 -0.031735645372513402 0 0.06773423766769833 -0.032254164005109137 0 0.06701474962664257 -0.033156383773842439 0 0.065354371246621232 -0.032313918148124468 0 0.065214012148314265 -0.032701697147826579 0 0.065950754955594687 -0.032718554491251668 0 0.064550216118831383 -0.032347117160535274 0 0.065354371246621232 -0.032313918148124468 0 0.065214012148314265 -0.032701697147826579 0 0.065214012148314265 -0.032701697147826579 0 0.065950754955594687 -0.032718554491251668 0 0.065955695722260593 -0.032873145249133352 0 0.065214012148314265 -0.032701697147826579 0 0.065955695722260593 -0.032873145249133352 0 0.065006861094692905 -0.033076681520850859 0 0.064447871126977738 -0.032815556057137756 0 0.065214012148314265 -0.032701697147826579 0 0.065006861094692905 -0.033076681520850859 0 0.065006861094692905 -0.033076681520850859 0 0.065420312025378582 -0.033358035898984235 0 0.065101631787438538 -0.033442843083430707 0 0.065955695722260593 -0.032873145249133352 0 0.065006861094692905 -0.033076681520850859 0 0.065420312025378582 -0.033358035898984235 0 0.06349809288558271 -0.033418994378742795 0 0.062995157334815047 -0.033447690196996165 0 0.065420312025378582 -0.033358035898984235 0 0.065101631787438538 -0.033442843083430707 0 0.064955522238002897 -0.033099780738355386 0 0.065006861094692905 -0.033076681520850859 0 0.065101631787438538 -0.033442843083430707 0 0.064257910876476587 -0.033086484375126179 0 0.064474448305565299 -0.033707558018858663 0 0.06275395616118723 -0.03374416264757607 0 0.063362129893199767 -0.033247707701773273 0 0.064474448305565299 -0.033707558018858663 0 0.064955522238002897 -0.033099780738355386 0 0.063362129893199767 -0.033247707701773273 0 0.065363592526047232 -0.032481289102994533 0 0.065098245284974252 -0.031838463896517011 0 0.06773423766769833 -0.032254164005109137 0 0.06701474962664257 -0.033156383773842439 0 0.068152885836425703 -0.032230402828890836 0 0.065420312025378582 -0.033358035898984235 0 0.064474448305565299 -0.033707558018858663 0 0.064955522238002897 -0.033099780738355386 0 0.065383846169301055 -0.032673643519414874 0 0.065363592526047232 -0.032481289102994533 0 0.065955695722260593 -0.032873145249133352 0 0.065420312025378582 -0.033358035898984235 0 0.06701474962664257 -0.033156383773842439 0 0.061169874351473752 -0.033669079690265988 0 0.061238060624195685 -0.033520280492173794 0 0.06118837571116862 -0.033457395826304095 0 0.062995157334815047 -0.033447690196996165 0 0.06239419825966494 -0.033518711762455744 0 0.061169874351473752 -0.033669079690265988 0 0.061238060624195685 -0.033520280492173794 0 0.061321791132070334 -0.03340887470770143 0 0.061238060624195685 -0.033520280492173794 0 0.061280685892057409 -0.033493892496401959 0 0.06118837571116862 -0.033457395826304095 0 0.061169874351473752 -0.033669079690265988 0 0.06118837571116862 -0.033457395826304095 0 0.061140389444721818 -0.033356963771417461 0 0.06118837571116862 -0.033457395826304095 0 0.061140389444721818 -0.033356963771417461 0 0.061244074054829609 -0.033550477430557175 0 0.062135388867005571 -0.031449752448217384 0 0.062036516492896453 -0.030235843721001871 0 0.061140389444721818 -0.033356963771417461 0 0.05959977396851722 -0.031857496998768005 0 0.060966444822430597 -0.031350725631971332 0 0.061318088886645056 -0.033529076877882438 0 0.061314028140201961 -0.033555960130617145 0 0.061244074054829609 -0.033550477430557175 0 0.061280685892057409 -0.033493892496401959 0 0.06118837571116862 -0.033457395826304095 0 0.061244074054829609 -0.033550477430557175 0 0.061280685892057409 -0.033493892496401959 0 0.061318088886645056 -0.033529076877882438 0 0.061244074054829609 -0.033550477430557175 0 0.062045251209173209 -0.033902724492593621 0 0.062040204622601389 -0.032980404306898636 0 0.063891466431072297 -0.033425901850839983 0 0.06349809288558271 -0.033418994378742795 0 0.063737070009911467 -0.033377859418182221 0 0.062045251209173209 -0.033902724492593621 0 0.061140389444721818 -0.033356963771417461 0 0.062040204622601389 -0.032980404306898636 0 0.062045251209173209 -0.033902724492593621 0 0.061169874351473752 -0.033669079690265988 0 0.061140389444721818 -0.033356963771417461 0 0.062040204622601389 -0.032980404306898636 0 0.062550118934337762 -0.032068225361548838 0 0.060966444822430597 -0.031350725631971332 0 0.061140389444721818 -0.033356963771417461 0 0.062040204622601389 -0.032980404306898636 0 0.060966444822430597 -0.031350725631971332 0 0.062040204622601389 -0.032980404306898636 0 0.063891466431072297 -0.033425901850839983 0 0.062550118934337762 -0.032068225361548838 0 0.063891466431072297 -0.033425901850839983 0 0.064009515576943496 -0.032902841137463751 0 0.063651656725068687 -0.032025092356538817 0 0.063891466431072297 -0.033425901850839983 0 0.063651656725068687 -0.032025092356538817 0 0.062550118934337762 -0.032068225361548838 0 0.063891466431072297 -0.033425901850839983 0 0.063848600772058131 -0.033142215500755356 0 0.063746649501761593 -0.03298376563205254 0 0.063891466431072297 -0.033425901850839983 0 0.064009515576943496 -0.032902841137463751 0 0.063848600772058131 -0.033142215500755356 0 0.063990452322278471 -0.032933298670935252 0 0.064009515576943496 -0.032902841137463751 0 0.063848600772058131 -0.033142215500755356 0 0.063990452322278471 -0.032933298670935252 0 0.064009515576943496 -0.032902841137463751 0 0.0644860765345137 -0.032038697333335593 0 0.059488476230801696 -0.030431638091772753 0 0.05930635374618571 -0.030609648426251471 0 0.057542815665182566 -0.028780765988151498 0 0.063990452322278471 -0.032933298670935252 0 0.06367133221662058 -0.033263215995715717 0 0.0644860765345137 -0.032038697333335593 0 0.061390292147147536 -0.031128659506102697 0 0.060820861654362082 -0.029943976617701599 0 0.060056550573058386 -0.029732943194238928 0 0.060779854254803901 -0.029052425819646809 0 0.059488476230801696 -0.030431638091772753 0 0.061624954532094274 -0.029250893842886708 0 0.061915993556440466 -0.030906638899266408 0 0.059488476230801696 -0.030431638091772753 0 0.062243295896630947 -0.032607326594521834 0 0.061915993556440466 -0.030906638899266408 0 0.059488476230801696 -0.030431638091772753 0 0.05930635374618571 -0.030609648426251471 0 0.062243295896630947 -0.032607326594521834 0 0.061390292147147536 -0.031128659506102697 0 0.061686786479829767 -0.031640966897578969 0 0.06367133221662058 -0.033263215995715717 0 0.063848600772058131 -0.033142215500755356 0 0.062243295896630947 -0.032607326594521834 0 0.063990452322278471 -0.032933298670935252 0 0.06367133221662058 -0.033263215995715717 0 0.063848600772058131 -0.033142215500755356 0 0.063848600772058131 -0.033142215500755356 0 0.062243295896630947 -0.032607326594521834 0 0.063746649501761593 -0.03298376563205254 0 0.062243295896630947 -0.032607326594521834 0 0.063025675551820648 -0.032660599886824224 0 0.063746649501761593 -0.03298376563205254 0 0.062243295896630947 -0.032607326594521834 0 0.063025675551820648 -0.032660599886824224 0 0.0626411152807647 -0.032640858814826132 0 0.063092148183481384 -0.032556078383179261 0 0.063025675551820648 -0.032660599886824224 0 0.0626411152807647 -0.032640858814826132 0 0.063092148183481384 -0.032556078383179261 0 0.063025675551820648 -0.032660599886824224 0 0.063760694883786204 -0.032728952484513442 0 0.063025675551820648 -0.032660599886824224 0 0.063760694883786204 -0.032728952484513442 0 0.063746649501761593 -0.03298376563205254 0 0.063760694883786204 -0.032728952484513442 0 0.064257910876476587 -0.033086484375126179 0 0.063746649501761593 -0.03298376563205254 0 0.064447871126977738 -0.032815556057137756 0 0.065006861094692905 -0.033076681520850859 0 0.064257910876476587 -0.033086484375126179 0 0.064447871126977738 -0.032815556057137756 0 0.063760694883786204 -0.032728952484513442 0 0.064257910876476587 -0.033086484375126179 0 0.063891466431072297 -0.033425901850839983 0 0.064257910876476587 -0.033086484375126179 0 0.063746649501761593 -0.03298376563205254 0 0.065101631787438538 -0.033442843083430707 0 0.063891466431072297 -0.033425901850839983 0 0.064257910876476587 -0.033086484375126179 0 0.064996810537694905 -0.035109205374565779 0 0.064998927498792575 -0.025798818462746086 0 0.066397099472868967 -0.030127678380175132 0 0.065000765282003312 -0.025793944698014302 0 0.065957907918941516 -0.026487888942127401 0 0.06500003337530591 -0.025791501619214924 0 0.067424122423910757 -0.024953534053713734 0 0.066270372949124037 -0.024038304706393426 0 0.066102100521308035 -0.027899853501931415 0 0.066397099472868967 -0.030127678380175132 0 0.06637449730622047 -0.029542002437380324 0 0.064998927498792575 -0.025798818462746086 0 0.066102100521308035 -0.027899853501931415 0 0.066397099472868967 -0.030127678380175132 0 0.066410412473310768 -0.033874251278386308 0 0.064996810537694905 -0.035109205374565779 0 0.066397099472868967 -0.030127678380175132 0 0.066410412473310768 -0.033874251278386308 0 0.066397099472868967 -0.030127678380175132 0 0.068275971518635459 -0.031182515375217008 0 0.066397099472868967 -0.030127678380175132 0 0.068275971518635459 -0.031182515375217008 0 0.06637449730622047 -0.029542002437380324 0 0.066247810342661653 -0.033527841205703672 0 0.066137022253448002 -0.032056259932074699 0 0.067189371390593014 -0.035940428509988548 0 0.066410412473310768 -0.033874251278386308 0 0.068275971518635459 -0.031182515375217008 0 0.063813645979238637 -0.038051636760857294 0 0.065532669023269055 -0.036265999158591515 0 0.064322165995998173 -0.03325001940797042 0 0.066444367367041623 -0.036455794622136717 0 0.066247810342661653 -0.033527841205703672 0 0.065532669023269055 -0.036265999158591515 0 0.064322165995998173 -0.03325001940797042 0 0.066519694490939238 -0.034659561479295345 0 0.064322165995998173 -0.03325001940797042 0 0.066143784410832698 -0.030982024426808159 0 0.066699367823532169 -0.032641379631473025 0 0.064322165995998173 -0.03325001940797042 0 0.066699367823532169 -0.032641379631473025 0 0.066519694490939238 -0.034659561479295345 0 0.066529058974139202 -0.03086459850671738 0 0.066143784410832698 -0.030982024426808159 0 0.066834254301628843 -0.031424160965417398 0 0.066529058974139202 -0.03086459850671738 0 0.066396392309748323 -0.030403435891088702 0 0.066743709383943445 -0.030720474936073012 0 0.066529058974139202 -0.03086459850671738 0 0.066143784410832698 -0.030982024426808159 0 0.066396392309748323 -0.030403435891088702 0 0.066143784410832698 -0.030982024426808159 0 0.066396392309748323 -0.030403435891088702 0 0.066308712659265259 -0.030028419752570191 0 0.066143784410832698 -0.030982024426808159 0 0.06637449730622047 -0.029542002437380324 0 0.066308712659265259 -0.030028419752570191 0 0.064322165995998173 -0.03325001940797042 0 0.066143784410832698 -0.030982024426808159 0 0.06637449730622047 -0.029542002437380324 0 0.066102100521308035 -0.027899853501931415 0 0.06637449730622047 -0.029542002437380324 0 0.066311505712732435 -0.02965822197088578 0 0.065957907918941516 -0.026487888942127401 0 0.066907919301029586 -0.027173795818686185 0 0.067424122423910757 -0.024953534053713734 0 0.068986799342011657 -0.024211190850434584 0 0.069381406498917414 -0.024369773439735121 0 0.06637449730622047 -0.029542002437380324 0 0.066311505712732435 -0.02965822197088578 0 0.066308712659265259 -0.030028419752570191 0 0.068986799342011657 -0.024211190850434584 0 0.069381406498917414 -0.024369773439735121 0 0.069392386901924924 -0.023850167764513382 0 0.069381406498917414 -0.024369773439735121 0 0.069392386901924924 -0.023850167764513382 0 0.070081833287661224 -0.023822842398523305 0 0.066311505712732435 -0.02965822197088578 0 0.066492431065288807 -0.030161134574529229 0 0.066739208791130392 -0.030404603121907965 0 0.066907919301029586 -0.027173795818686185 0 0.066693604844244178 -0.028051932102539062 0 0.069381406498917414 -0.024369773439735121 0 0.070081833287661224 -0.023822842398523305 0 0.071594653955047924 -0.024007845495289986 0 0.066663216563601607 -0.030400221456374294 0 0.066492431065288807 -0.030161134574529229 0 0.066721895501604914 -0.030398963938740767 0 0.066492431065288807 -0.030161134574529229 0 0.066721895501604914 -0.030398963938740767 0 0.066739208791130392 -0.030404603121907965 0 0.066663216563601607 -0.030400221456374294 0 0.066584870811076668 -0.030404688635101269 0 0.066492431065288807 -0.030161134574529229 0 0.066584870811076668 -0.030404688635101269 0 0.066396392309748323 -0.030403435891088702 0 0.066492431065288807 -0.030161134574529229 0 0.066584870811076668 -0.030404688635101269 0 0.066396392309748323 -0.030403435891088702 0 0.066743709383943445 -0.030720474936073012 0 0.066663216563601607 -0.030400221456374294 0 0.066584870811076668 -0.030404688635101269 0 0.066782443623927573 -0.030559786915740721 0 0.066396392309748323 -0.030403435891088702 0 0.066308712659265259 -0.030028419752570191 0 0.066492431065288807 -0.030161134574529229 0 0.066311505712732435 -0.02965822197088578 0 0.066308712659265259 -0.030028419752570191 0 0.066492431065288807 -0.030161134574529229 0 0.066810417390010396 -0.030344792336727565 0 0.067356197038110077 -0.030864561870534754 0 0.067972638917156408 -0.031154273183997074 0 0.066693604844244178 -0.028051932102539062 0 0.064920883521732808 -0.030562737458050309 0 0.067190135659777592 -0.030884542037804941 0 0.067356197038110077 -0.030864561870534754 0 0.067504884320316899 -0.031125357175364347 0 0.067190135659777592 -0.030884542037804941 0 0.067504884320316899 -0.031125357175364347 0 0.067158321178364663 -0.031089293053694907 0 0.067190135659777592 -0.030884542037804941 0 0.066962823818341968 -0.030759339408364512 0 0.067158321178364663 -0.031089293053694907 0 0.066743709383943445 -0.030720474936073012 0 0.066962823818341968 -0.030759339408364512 0 0.067158321178364663 -0.031089293053694907 0 0.066584870811076668 -0.030404688635101269 0 0.066743709383943445 -0.030720474936073012 0 0.066782443623927573 -0.030559786915740721 0 0.066743709383943445 -0.030720474936073012 0 0.066782443623927573 -0.030559786915740721 0 0.066962823818341968 -0.030759339408364512 0 0.066782443623927573 -0.030559786915740721 0 0.066962823818341968 -0.030759339408364512 0 0.066945455831266862 -0.030559989878186537 0 0.067190135659777592 -0.030884542037804941 0 0.066962823818341968 -0.030759339408364512 0 0.066945455831266862 -0.030559989878186537 0 0.066945455831266862 -0.030559989878186537 0 0.066810417390010396 -0.030344792336727565 0 0.067356197038110077 -0.030864561870534754 0 0.066663216563601607 -0.030400221456374294 0 0.066782443623927573 -0.030559786915740721 0 0.066782830609554505 -0.030484570232462926 0 0.066663216563601607 -0.030400221456374294 0 0.066782830609554505 -0.030484570232462926 0 0.066721895501604914 -0.030398963938740767 0 0.066782443623927573 -0.030559786915740721 0 0.066945455831266862 -0.030559989878186537 0 0.066782830609554505 -0.030484570232462926 0 0.066945455831266862 -0.030559989878186537 0 0.066818135435727247 -0.030452217225123521 0 0.066810417390010396 -0.030344792336727565 0 0.066782830609554505 -0.030484570232462926 0 0.066818135435727247 -0.030452217225123521 0 0.066721895501604914 -0.030398963938740767 0 0.066945455831266862 -0.030559989878186537 0 0.066782830609554505 -0.030484570232462926 0 0.066818135435727247 -0.030452217225123521 0 0.066687935867248499 -0.028065510522170139 0 0.066693604844244178 -0.028051932102539062 0 0.066818135435727247 -0.030452217225123521 0 0.066721895501604914 -0.030398963938740767 0 0.066810417390010396 -0.030344792336727565 0 0.067190135659777592 -0.030884542037804941 0 0.066945455831266862 -0.030559989878186537 0 0.067356197038110077 -0.030864561870534754 0 0.067356197038110077 -0.030864561870534754 0 0.067691335361162092 -0.031130394294135621 0 0.067972638917156408 -0.031154273183997074 0 0.067356197038110077 -0.030864561870534754 0 0.067691335361162092 -0.031130394294135621 0 0.067504884320316899 -0.031125357175364347 0 0.067879573719481029 -0.031341470392192317 0 0.068037866461462149 -0.031468544465303165 0 0.067972638917156408 -0.031154273183997074 0 0.067691335361162092 -0.031130394294135621 0 0.067879573719481029 -0.031341470392192317 0 0.067972638917156408 -0.031154273183997074 0 0.067879573719481029 -0.031341470392192317 0 0.067757433649802301 -0.031481492519683039 0 0.068148534700790728 -0.031677816333971681 0 0.067504884320316899 -0.031125357175364347 0 0.067757433649802301 -0.031481492519683039 0 0.067158321178364663 -0.031089293053694907 0 0.067691335361162092 -0.031130394294135621 0 0.067879573719481029 -0.031341470392192317 0 0.067504884320316899 -0.031125357175364347 0 0.067879573719481029 -0.031341470392192317 0 0.067504884320316899 -0.031125357175364347 0 0.067757433649802301 -0.031481492519683039 0 0.067757433649802301 -0.031481492519683039 0 0.067788178538535457 -0.032009161478022477 0 0.067158321178364663 -0.031089293053694907 0 0.067757433649802301 -0.031481492519683039 0 0.067788178538535457 -0.032009161478022477 0 0.068148534700790728 -0.031677816333971681 0 0.067788178538535457 -0.032009161478022477 0 0.067158321178364663 -0.031089293053694907 0 0.066834254301628843 -0.031424160965417398 0 0.067788178538535457 -0.032009161478022477 0 0.066834254301628843 -0.031424160965417398 0 0.066699367823532169 -0.032641379631473025 0 0.066529058974139202 -0.03086459850671738 0 0.066743709383943445 -0.030720474936073012 0 0.066834254301628843 -0.031424160965417398 0 0.066743709383943445 -0.030720474936073012 0 0.067158321178364663 -0.031089293053694907 0 0.066834254301628843 -0.031424160965417398 0 0.066143784410832698 -0.030982024426808159 0 0.066834254301628843 -0.031424160965417398 0 0.066699367823532169 -0.032641379631473025 0 0.066699367823532169 -0.032641379631473025 0 0.066519694490939238 -0.034659561479295345 0 0.068082762139802577 -0.033387741563123283 0 0.067225265767379971 -0.036707872805425722 0 0.065532669023269055 -0.036265999158591515 0 0.066519694490939238 -0.034659561479295345 0 0.067225265767379971 -0.036707872805425722 0 0.066519694490939238 -0.034659561479295345 0 0.068082762139802577 -0.033387741563123283 0 0.067788178538535457 -0.032009161478022477 0 0.066699367823532169 -0.032641379631473025 0 0.068082762139802577 -0.033387741563123283 0 0.068082762139802577 -0.033387741563123283 0 0.069567463939736202 -0.03405646661255339 0 0.06895474126151746 -0.033278286521524578 0 0.067788178538535457 -0.032009161478022477 0 0.068082762139802577 -0.033387741563123283 0 0.068446620669446831 -0.03191203572575186 0 0.067914059319996181 -0.032927073702295508 0 0.06802964648019369 -0.032733984562147059 0 0.06895155880934109 -0.036966647108750583 0 0.068082762139802577 -0.033387741563123283 0 0.069567463939736202 -0.03405646661255339 0 0.070732244478206335 -0.034390010183623268 0 0.069976240084662897 -0.034168625401425824 0 0.067795552823941202 -0.031952624782608977 0 0.068091586469882837 -0.032980825762551826 0 0.069567463939736202 -0.03405646661255339 0 0.068091586469882837 -0.032980825762551826 0 0.069567463939736202 -0.03405646661255339 0 0.06895474126151746 -0.033278286521524578 0 0.067448878869259113 -0.031735645372513402 0 0.068446620669446831 -0.03191203572575186 0 0.068138032952204608 -0.031898868634275927 0 0.067625786191288825 -0.032707123493294889 0 0.06802964648019369 -0.032733984562147059 0 0.067788178538535457 -0.032009161478022477 0 0.068446620669446831 -0.03191203572575186 0 0.068148534700790728 -0.031677816333971681 0 0.068446620669446831 -0.03191203572575186 0 0.068148534700790728 -0.031677816333971681 0 0.068138032952204608 -0.031898868634275927 0 0.068148534700790728 -0.031677816333971681 0 0.068126206504862091 -0.03170505932645476 0 0.068138032952204608 -0.031898868634275927 0 0.067879573719481029 -0.031341470392192317 0 0.068148534700790728 -0.031677816333971681 0 0.068037866461462149 -0.031468544465303165 0 0.068148534700790728 -0.031677816333971681 0 0.068037866461462149 -0.031468544465303165 0 0.068126206504862091 -0.03170505932645476 0 0.068037866461462149 -0.031468544465303165 0 0.068126206504862091 -0.03170505932645476 0 0.067972638917156408 -0.031154273183997074 0 0.067448878869259113 -0.031735645372513402 0 0.06773423766769833 -0.032254164005109137 0 0.068138032952204608 -0.031898868634275927 0 0.06773423766769833 -0.032254164005109137 0 0.068138032952204608 -0.031898868634275927 0 0.068152885836425703 -0.032230402828890836 0 0.068126206504862091 -0.03170505932645476 0 0.068138032952204608 -0.031898868634275927 0 0.068152885836425703 -0.032230402828890836 0 0.06239419825966494 -0.033518711762455744 0 0.062052734569536576 -0.033590981521969418 0 0.06275395616118723 -0.03374416264757607 0 0.063362129893199767 -0.033247707701773273 0 0.061717034497142491 -0.033542721351580568 0 0.061321791132070334 -0.03340887470770143 0 0.061717034497142491 -0.033542721351580568 0 0.061491381967476069 -0.033474646286513206 0 0.068126206504862091 -0.03170505932645476 0 0.068152885836425703 -0.032230402828890836 0 0.067972638917156408 -0.031154273183997074 0 0.065098245284974252 -0.031838463896517011 0 0.064920883521732808 -0.030562737458050309 0 0.06275395616118723 -0.03374416264757607 0 0.061717034497142491 -0.033542721351580568 0 0.061268598712751671 -0.033646832316669081 0 0.061717034497142491 -0.033542721351580568 0 0.061491381967476069 -0.033474646286513206 0 0.061488986521321759 -0.033451925820601393 0 0.061717034497142491 -0.033542721351580568 0 0.061488986521321759 -0.033451925820601393 0 0.061449664319775971 -0.033538647436013036 0 0.061491381967476069 -0.033474646286513206 0 0.061488986521321759 -0.033451925820601393 0 0.061445538899790743 -0.033470315983615689 0 0.061488986521321759 -0.033451925820601393 0 0.061445538899790743 -0.033470315983615689 0 0.061443568721005967 -0.033461306954045637 0 0.061491381967476069 -0.033474646286513206 0 0.061445538899790743 -0.033470315983615689 0 0.061365142543614012 -0.033495197374295752 0 0.061321791132070334 -0.03340887470770143 0 0.061491381967476069 -0.033474646286513206 0 0.061365142543614012 -0.033495197374295752 0 0.061238060624195685 -0.033520280492173794 0 0.061321791132070334 -0.03340887470770143 0 0.061365142543614012 -0.033495197374295752 0 0.061238060624195685 -0.033520280492173794 0 0.061280685892057409 -0.033493892496401959 0 0.061365142543614012 -0.033495197374295752 0 0.061280685892057409 -0.033493892496401959 0 0.061365142543614012 -0.033495197374295752 0 0.061381241632041866 -0.033491981321522889 0 0.061280685892057409 -0.033493892496401959 0 0.061381241632041866 -0.033491981321522889 0 0.061318088886645056 -0.033529076877882438 0 0.061445538899790743 -0.033470315983615689 0 0.061365142543614012 -0.033495197374295752 0 0.061381241632041866 -0.033491981321522889 0 0.061381241632041866 -0.033491981321522889 0 0.061318088886645056 -0.033529076877882438 0 0.061376602448438254 -0.033543392120683094 0 0.061318088886645056 -0.033529076877882438 0 0.061376602448438254 -0.033543392120683094 0 0.061314028140201961 -0.033555960130617145 0 0.061381241632041866 -0.033491981321522889 0 0.061443568721005967 -0.033461306954045637 0 0.061376602448438254 -0.033543392120683094 0 0.065609671682241272 -0.016102490673495552 0 0.065712682486587459 -0.017420068630272123 0 0.064931399368923171 -0.017164493674922544 0 0.064091761592714527 -0.025261428056160391 0 0.062756494313031028 -0.025156600438521446 0 0.061445538899790743 -0.033470315983615689 0 0.061381241632041866 -0.033491981321522889 0 0.061443568721005967 -0.033461306954045637 0 0.065609671682241272 -0.016102490673495552 0 0.066408230338091664 -0.016888200669793862 0 0.065712682486587459 -0.017420068630272123 0 0.066408230338091664 -0.016888200669793862 0 0.066878800079678058 -0.015823977758197817 0 0.067525589307937561 -0.01656560660872854 0 0.065609671682241272 -0.016102490673495552 0 0.066408230338091664 -0.016888200669793862 0 0.066878800079678058 -0.015823977758197817 0 0.065609671682241272 -0.016102490673495552 0 0.066878800079678058 -0.015823977758197817 0 0.066258646473505795 -0.01508005035534663 0 0.066312165439505716 -0.021541298925544142 0 0.065642670204250839 -0.025860246156865489 0 0.071493585296098186 -0.020001468869512297 0 0.072930138822344601 -0.021764027861823156 0 0.071128336843875414 -0.021441290219961127 0 0.072930138822344601 -0.021764027861823156 0 0.071473006371769579 -0.022617604035606448 0 0.071128336843875414 -0.021441290219961127 0 0.061488986521321759 -0.033451925820601393 0 0.061443568721005967 -0.033461306954045637 0 0.061408637042854361 -0.033455741132678143 0 0.064091761592714527 -0.025261428056160391 0 0.065642670204250839 -0.025860246156865489 0 0.061443568721005967 -0.033461306954045637 0 0.061389890331302086 -0.033446034576845682 0 0.061408637042854361 -0.033455741132678143 0 0.065642670204250839 -0.025860246156865489 0 0.065708677881245361 -0.026927077075210686 0 0.061214550247124681 -0.033588013845481483 0 0.06132247581658766 -0.033544575451831281 0 0.061268598712751671 -0.033646832316669081 0 0.061389890331302086 -0.033446034576845682 0 0.061408637042854361 -0.033455741132678143 0 0.06132247581658766 -0.033544575451831281 0 0.061488986521321759 -0.033451925820601393 0 0.061408637042854361 -0.033455741132678143 0 0.06132247581658766 -0.033544575451831281 0 0.061488986521321759 -0.033451925820601393 0 0.06132247581658766 -0.033544575451831281 0 0.061449664319775971 -0.033538647436013036 0 0.061717034497142491 -0.033542721351580568 0 0.061449664319775971 -0.033538647436013036 0 0.061268598712751671 -0.033646832316669081 0 0.06132247581658766 -0.033544575451831281 0 0.061449664319775971 -0.033538647436013036 0 0.061268598712751671 -0.033646832316669081 0 0.066693604844244178 -0.028051932102539062 0 0.065642670204250839 -0.025860246156865489 0 0.061214550247124681 -0.033588013845481483 0 0.061283045847812662 -0.03347400418355876 0 0.06132247581658766 -0.033544575451831281 0 0.071594653955047924 -0.024007845495289986 0 0.072930138822344601 -0.021764027861823156 0 0.071473006371769579 -0.022617604035606448 0 0.071594653955047924 -0.024007845495289986 0 0.071473006371769579 -0.022617604035606448 0 0.071060552295383175 -0.023191329033594818 0 0.069968358621833635 -0.022813971355958012 0 0.07068383328908015 -0.022559514890020695 0 0.070486728481211722 -0.023407457173278141 0 0.069968358621833635 -0.022813971355958012 0 0.069388055129175008 -0.022720601067134045 0 0.069898300374205302 -0.02201152547487624 0 0.069968358621833635 -0.022813971355958012 0 0.07068383328908015 -0.022559514890020695 0 0.069898300374205302 -0.02201152547487624 0 0.071473006371769579 -0.022617604035606448 0 0.07068383328908015 -0.022559514890020695 0 0.071128336843875414 -0.021441290219961127 0 0.071473006371769579 -0.022617604035606448 0 0.07068383328908015 -0.022559514890020695 0 0.071060552295383175 -0.023191329033594818 0 0.071594653955047924 -0.024007845495289986 0 0.071060552295383175 -0.023191329033594818 0 0.070486728481211722 -0.023407457173278141 0 0.070081833287661224 -0.023822842398523305 0 0.071594653955047924 -0.024007845495289986 0 0.070486728481211722 -0.023407457173278141 0 0.07068383328908015 -0.022559514890020695 0 0.071060552295383175 -0.023191329033594818 0 0.070486728481211722 -0.023407457173278141 0 0.070081833287661224 -0.023822842398523305 0 0.070486728481211722 -0.023407457173278141 0 0.069613755269451988 -0.023409791655030474 0 0.069968358621833635 -0.022813971355958012 0 0.070486728481211722 -0.023407457173278141 0 0.069613755269451988 -0.023409791655030474 0 0.068986799342011657 -0.024211190850434584 0 0.069392386901924924 -0.023850167764513382 0 0.068820972062673666 -0.023055417779627045 0 0.069392386901924924 -0.023850167764513382 0 0.070081833287661224 -0.023822842398523305 0 0.069613755269451988 -0.023409791655030474 0 0.068986799342011657 -0.024211190850434584 0 0.068820972062673666 -0.023055417779627045 0 0.066938465863283572 -0.022112547064348523 0 0.069392386901924924 -0.023850167764513382 0 0.069613755269451988 -0.023409791655030474 0 0.068820972062673666 -0.023055417779627045 0 0.069613755269451988 -0.023409791655030474 0 0.068820972062673666 -0.023055417779627045 0 0.069388055129175008 -0.022720601067134045 0 0.069968358621833635 -0.022813971355958012 0 0.069613755269451988 -0.023409791655030474 0 0.069388055129175008 -0.022720601067134045 0 0.068820972062673666 -0.023055417779627045 0 0.069388055129175008 -0.022720601067134045 0 0.068564174589522672 -0.021998467115193408 0 0.069388055129175008 -0.022720601067134045 0 0.068564174589522672 -0.021998467115193408 0 0.069898300374205302 -0.02201152547487624 0 0.068564174589522672 -0.021998467115193408 0 0.069838006040669948 -0.020543352179452367 0 0.068440518206093745 -0.019601085118403513 0 0.068564174589522672 -0.021998467115193408 0 0.069838006040669948 -0.020543352179452367 0 0.069898300374205302 -0.02201152547487624 0 0.071493585296098186 -0.020001468869512297 0 0.069838006040669948 -0.020543352179452367 0 0.071128336843875414 -0.021441290219961127 0 0.069838006040669948 -0.020543352179452367 0 0.069898300374205302 -0.02201152547487624 0 0.071128336843875414 -0.021441290219961127 0 0.07068383328908015 -0.022559514890020695 0 0.069898300374205302 -0.02201152547487624 0 0.071128336843875414 -0.021441290219961127 0 0.071493585296098186 -0.020001468869512297 0 0.069838006040669948 -0.020543352179452367 0 0.069894319742396308 -0.018321565403061176 0 0.066312165439505716 -0.021541298925544142 0 0.066821432612475376 -0.019745620794740303 0 0.067525589307937561 -0.01656560660872854 0 0.068268754351119842 -0.017357709566023598 0 0.06710204841659019 -0.017224306950437335 0 0.066408230338091664 -0.016888200669793862 0 0.067525589307937561 -0.01656560660872854 0 0.06710204841659019 -0.017224306950437335 0 0.066821432612475376 -0.019745620794740303 0 0.066970442646888312 -0.019240302326619954 0 0.069894319742396308 -0.018321565403061176 0 0.068385192156679986 -0.018247352129254261 0 0.068268754351119842 -0.017357709566023598 0 0.069894319742396308 -0.018321565403061176 0 0.068385192156679986 -0.018247352129254261 0 0.068440518206093745 -0.019601085118403513 0 0.069838006040669948 -0.020543352179452367 0 0.069894319742396308 -0.018321565403061176 0 0.068440518206093745 -0.019601085118403513 0 0.068440518206093745 -0.019601085118403513 0 0.066803476214956484 -0.02027367462082633 0 0.067201615822352748 -0.018439391131223202 0 0.068385192156679986 -0.018247352129254261 0 0.068440518206093745 -0.019601085118403513 0 0.067201615822352748 -0.018439391131223202 0 0.068385192156679986 -0.018247352129254261 0 0.067201615822352748 -0.018439391131223202 0 0.067464618008346133 -0.017048931192888417 0 0.067201615822352748 -0.018439391131223202 0 0.065001137071343584 -0.017659209375439751 0 0.067464618008346133 -0.017048931192888417 0 0.065001886412548573 -0.017655840825856445 0 0.066786577229366428 -0.016515038690981899 0 0.066803476214956484 -0.02027367462082633 0 0.067201615822352748 -0.018439391131223202 0 0.065001137071343584 -0.017659209375439751 0 0.066803476214956484 -0.02027367462082633 0 0.065001137071343584 -0.017659209375439751 0 0.064999037170949778 -0.02021130485296142 0 0.066803476214956484 -0.02027367462082633 0 0.064999037170949778 -0.02021130485296142 0 0.066938465863283572 -0.022112547064348523 0 0.065000024410042712 -0.020213066160801412 0 0.067281430179397167 -0.022602644510326179 0 0.06499986634773286 -0.023002585472731846 0 0.065001789974506563 -0.020214736097097612 0 0.066870736555771693 -0.022015007628321454 0 0.068564174589522672 -0.021998467115193408 0 0.066803476214956484 -0.02027367462082633 0 0.066938465863283572 -0.022112547064348523 0 0.068564174589522672 -0.021998467115193408 0 0.068440518206093745 -0.019601085118403513 0 0.066803476214956484 -0.02027367462082633 0 0.067880512775733939 -0.022976174056696545 0 0.066870736555771693 -0.022015007628321454 0 0.068820972062673666 -0.023055417779627045 0 0.068564174589522672 -0.021998467115193408 0 0.066938465863283572 -0.022112547064348523 0 0.067424122423910757 -0.024953534053713734 0 0.068986799342011657 -0.024211190850434584 0 0.067281430179397167 -0.022602644510326179 0 0.067424122423910757 -0.024953534053713734 0 0.067281430179397167 -0.022602644510326179 0 0.066270372949124037 -0.024038304706393426 0 0.06500003337530591 -0.025791501619214924 0 0.066270372949124037 -0.024038304706393426 0 0.06499986634773286 -0.023002585472731846 0 0.067281430179397167 -0.022602644510326179 0 0.066270372949124037 -0.024038304706393426 0 0.06499986634773286 -0.023002585472731846 0 0.066854746002162707 -0.0097622139848330299 0 0.065000118737509091 -0.0092365296417655871 0 0.067487942506009591 -0.0081480717796504516 0 0.065002571659222352 -0.0092349080216435914 0 0.067394220836123994 -0.0080078303085478111 0 0.066854746002162707 -0.0097622139848330299 0 0.068606002710260655 -0.0080640740363112137 0 0.067487942506009591 -0.0081480717796504516 0 0.066849332955019006 -0.0099660884270261416 0 0.068720931817800854 -0.0096684315313639337 0 0.068606002710260655 -0.0080640740363112137 0 0.066849332955019006 -0.0099660884270261416 0 0.068720931817800854 -0.0096684315313639337 0 0.068093505139002933 -0.010915835571067466 0 0.066508996698362341 -0.010244952460550313 0 0.067303525600624234 -0.0093828356755814423 0 0.066849332955019006 -0.0099660884270261416 0 0.068093505139002933 -0.010915835571067466 0 0.067305493534215319 -0.012344755191632308 0 0.068093505139002933 -0.010915835571067466 0 0.067305493534215319 -0.012344755191632308 0 0.069643395027041824 -0.012964605864102372 0 0.066849332955019006 -0.0099660884270261416 0 0.064999993619986929 -0.011889489161298722 0 0.067305493534215319 -0.012344755191632308 0 0.066508996698362341 -0.010244952460550313 0 0.065001764799258524 -0.011887249252144072 0 0.066854746002162707 -0.0097622139848330299 0 0.065000118737509091 -0.0092365296417655871 0 0.064999917829862724 -0.011888858286640049 0 0.064999924432355069 -0.014772680471767602 0 0.067403601758672688 -0.015272415440497643 0 0.067305493534215319 -0.012344755191632308 0 0.064999993619986929 -0.011889489161298722 0 0.064999924432355069 -0.014772680471767602 0 0.067305493534215319 -0.012344755191632308 0 0.065000014825826291 -0.017656564995113661 0 0.064999924432355069 -0.014772680471767602 0 0.067403601758672688 -0.015272415440497643 0 0.067403601758672688 -0.015272415440497643 0 0.067305493534215319 -0.012344755191632308 0 0.069643395027041824 -0.012964605864102372 0 0.066786577229366428 -0.016515038690981899 0 0.068082097929795971 -0.01566549496130511 0 0.068378058700073199 -0.018154913333583763 0 0.068268754351119842 -0.017357709566023598 0 0.067327469315073898 -0.017855012977666767 0 0.067464618008346133 -0.017048931192888417 0 0.068378058700073199 -0.018154913333583763 0 0.068268754351119842 -0.017357709566023598 0 0.068385192156679986 -0.018247352129254261 0 0.067464618008346133 -0.017048931192888417 0 0.068268754351119842 -0.017357709566023598 0 0.068268754351119842 -0.017357709566023598 0 0.06710204841659019 -0.017224306950437335 0 0.067327469315073898 -0.017855012977666767 0 0.068378058700073199 -0.018154913333583763 0 0.067327469315073898 -0.017855012977666767 0 0.067071887810463193 -0.020316644652412459 0 0.068082097929795971 -0.01566549496130511 0 0.068540847715538533 -0.015176144610231408 0 0.068093505139002933 -0.010915835571067466 0 0.069643395027041824 -0.012964605864102372 0 0.069619416727933398 -0.010583729076961803 0 0.069643395027041824 -0.012964605864102372 0 0.071722168566167713 -0.010840323347912791 0 0.069619416727933398 -0.010583729076961803 0 0.068720931817800854 -0.0096684315313639337 0 0.068093505139002933 -0.010915835571067466 0 0.069619416727933398 -0.010583729076961803 0 0.068720931817800854 -0.0096684315313639337 0 0.069619416727933398 -0.010583729076961803 0 0.070490797619139067 -0.0088980279874674804 0 0.068720931817800854 -0.0096684315313639337 0 0.070490797619139067 -0.0088980279874674804 0 0.068606002710260655 -0.0080640740363112137 0 0.071722168566167713 -0.010840323347912791 0 0.069619416727933398 -0.010583729076961803 0 0.070490797619139067 -0.0088980279874674804 0 0.071722168566167713 -0.010840323347912791 0 0.070490797619139067 -0.0088980279874674804 0 0.07374452981348574 -0.0088750468045883085 0 0.067071887810463193 -0.020316644652412459 0 0.065179005679125421 -0.022373750544408617 0 0.064510122159525077 -0.020278955103382384 0 0.068540847715538533 -0.015176144610231408 0 0.068196623281084945 -0.014725365420548055 0 0.065179005679125421 -0.022373750544408617 0 0.064510122159525077 -0.020278955103382384 0 0.063532626789699495 -0.021787707250114287 0 0.067071887810463193 -0.020316644652412459 0 0.064510122159525077 -0.020278955103382384 0 0.06535466099552284 -0.018211211073427668 0 0.066288273011224058 -0.020066354680979101 0 0.065588205843917641 -0.020535984631681513 0 0.067327469315073898 -0.017855012977666767 0 0.067071887810463193 -0.020316644652412459 0 0.06535466099552284 -0.018211211073427668 0 0.06710204841659019 -0.017224306950437335 0 0.067327469315073898 -0.017855012977666767 0 0.066349606596849825 -0.018028166581557304 0 0.066408230338091664 -0.016888200669793862 0 0.06710204841659019 -0.017224306950437335 0 0.066349606596849825 -0.018028166581557304 0 0.066408230338091664 -0.016888200669793862 0 0.066349606596849825 -0.018028166581557304 0 0.065712682486587459 -0.017420068630272123 0 0.065588205843917641 -0.020535984631681513 0 0.063960326721068467 -0.022008633743097566 0 0.066349606596849825 -0.018028166581557304 0 0.065712682486587459 -0.017420068630272123 0 0.065335641660245469 -0.018191053827138003 0 0.064510122159525077 -0.020278955103382384 0 0.06535466099552284 -0.018211211073427668 0 0.063313635066686205 -0.018569769385286278 0 0.065335641660245469 -0.018191053827138003 0 0.064776127773862616 -0.017897077637258382 0 0.064246529830589635 -0.018267570973262291 0 0.063313635066686205 -0.018569769385286278 0 0.061005939016852931 -0.018725095370239045 0 0.062488255140792377 -0.020536831600080116 0 0.063960326721068467 -0.022008633743097566 0 0.061131135368711058 -0.025018805730100357 0 0.065712682486587459 -0.017420068630272123 0 0.065335641660245469 -0.018191053827138003 0 0.064776127773862616 -0.017897077637258382 0 0.065712682486587459 -0.017420068630272123 0 0.064776127773862616 -0.017897077637258382 0 0.064931399368923171 -0.017164493674922544 0 0.061376602448438254 -0.033543392120683094 0 0.061314028140201961 -0.033555960130617145 0 0.061317438997533349 -0.033607228088470088 0 0.064776127773862616 -0.017897077637258382 0 0.064931399368923171 -0.017164493674922544 0 0.064246529830589635 -0.018267570973262291 0 0.062756494313031028 -0.025156600438521446 0 0.061131135368711058 -0.025018805730100357 0 0.061314028140201961 -0.033555960130617145 0 0.061317438997533349 -0.033607228088470088 0 0.061244074054829609 -0.033550477430557175 0 0.058359762781939113 -0.030347461250605268 0 0.058433280819084846 -0.030230082282383403 0 0.05929747662420657 -0.030837647328380839 0 0.06113381861838061 -0.018913309402096339 0 0.061026973440223863 -0.019070717348521175 0 0.061183507079190701 -0.019844280537031706 0 0.061131135368711058 -0.025018805730100357 0 0.060733321739329327 -0.025400915527416801 0 0.061026973440223863 -0.019070717348521175 0 0.061183507079190701 -0.019844280537031706 0 0.059655887678304868 -0.021409886814365731 0 0.061131135368711058 -0.025018805730100357 0 0.060567549029156453 -0.023274357428157658 0 0.06113381861838061 -0.018913309402096339 0 0.061183507079190701 -0.019844280537031706 0 0.062488255140792377 -0.020536831600080116 0 0.06117360552299405 -0.020796147370036912 0 0.06125497800010405 -0.021574500095390428 0 0.059655887678304868 -0.021409886814365731 0 0.061183507079190701 -0.019844280537031706 0 0.06117360552299405 -0.020796147370036912 0 0.059655887678304868 -0.021409886814365731 0 0.062488255140792377 -0.020536831600080116 0 0.062380510419245999 -0.021673207421782605 0 0.06125497800010405 -0.021574500095390428 0 0.06117360552299405 -0.020796147370036912 0 0.062488255140792377 -0.020536831600080116 0 0.06125497800010405 -0.021574500095390428 0 0.061183507079190701 -0.019844280537031706 0 0.06117360552299405 -0.020796147370036912 0 0.062488255140792377 -0.020536831600080116 0 0.064510122159525077 -0.020278955103382384 0 0.063313635066686205 -0.018569769385286278 0 0.062488255140792377 -0.020536831600080116 0 0.064510122159525077 -0.020278955103382384 0 0.062488255140792377 -0.020536831600080116 0 0.063532626789699495 -0.021787707250114287 0 0.062488255140792377 -0.020536831600080116 0 0.062380510419245999 -0.021673207421782605 0 0.063532626789699495 -0.021787707250114287 0 0.062380510419245999 -0.021673207421782605 0 0.063532626789699495 -0.021787707250114287 0 0.062269690101587866 -0.022732007216261525 0 0.065637324525167601 -0.018534804393987258 0 0.066075891201688136 -0.017887538777862477 0 0.06125497800010405 -0.021574500095390428 0 0.062225928406268838 -0.023294110909886576 0 0.06021771489112844 -0.023378861112477979 0 0.062380510419245999 -0.021673207421782605 0 0.06125497800010405 -0.021574500095390428 0 0.062269690101587866 -0.022732007216261525 0 0.060598552676410233 -0.024311248764181562 0 0.061494868826660685 -0.024780021139406239 0 0.059875899637844593 -0.024948413653787291 0 0.060598552676410233 -0.024311248764181562 0 0.062225928406268838 -0.023294110909886576 0 0.061494868826660685 -0.024780021139406239 0 0.060598552676410233 -0.024311248764181562 0 0.062225928406268838 -0.023294110909886576 0 0.06021771489112844 -0.023378861112477979 0 0.063532626789699495 -0.021787707250114287 0 0.062269690101587866 -0.022732007216261525 0 0.063273021080055239 -0.024137845094148794 0 0.062225928406268838 -0.023294110909886576 0 0.063120050974884989 -0.02467661079773055 0 0.061494868826660685 -0.024780021139406239 0 0.066075891201688136 -0.017887538777862477 0 0.066480082854662351 -0.014288263518027443 0 0.066480082854662351 -0.014288263518027443 0 0.062501837913305269 -0.015269482387864332 0 0.066381222426034545 -0.0083645315841991089 0 0.065176715641712235 -0.0094500265591792882 0 0.066254520782929954 -0.0094596581432323818 0 0.061494868826660685 -0.024780021139406239 0 0.061202147968445982 -0.026328326461648396 0 0.059875899637844593 -0.024948413653787291 0 0.063120050974884989 -0.02467661079773055 0 0.061494868826660685 -0.024780021139406239 0 0.061202147968445982 -0.026328326461648396 0 0.065176715641712235 -0.0094500265591792882 0 0.064930147905283148 -0.010400929134231631 0 0.065904456567252051 -0.010464576859454868 0 0.064487896625901084 -0.011259188478893753 0 0.064930147905283148 -0.010400929134231631 0 0.065904456567252051 -0.010464576859454868 0 0.063325974821253531 -0.0036694727422606427 0 0.069425488097433513 -0.0047513424259393372 0 0.080346204857402792 0.00015610345138910878 0 0.078000779429966013 0.00070560353030460509 0 0.077561149993261427 -0.0014526287228247298 0 0.076288864891349076 8.563020939838629e-05 0 0.077561149993261427 -0.0014526287228247298 0 0.075281244957646126 -0.0011202813984409158 0 0.078000779429966013 0.00070560353030460509 0 0.076288864891349076 8.563020939838629e-05 0 0.077561149993261427 -0.0014526287228247298 0 0.065904456567252051 -0.010464576859454868 0 0.066254520782929954 -0.0094596581432323818 0 0.067307109975068224 -0.0096715654950822339 0 0.065176715641712235 -0.0094500265591792882 0 0.065904456567252051 -0.010464576859454868 0 0.066254520782929954 -0.0094596581432323818 0 0.069425488097433513 -0.0047513424259393372 0 0.070143751572187801 -0.0072700138972030788 0 0.077561149993261427 -0.0014526287228247298 0 0.074823156661500745 -0.0030340488645734711 0 0.075281244957646126 -0.0011202813984409158 0 0.074823156661500745 -0.0030340488645734711 0 0.075281244957646126 -0.0011202813984409158 0 0.073698470896745416 -0.0014115628851807413 0 0.074061295838960386 0.00096928878137376474 0 0.075281244957646126 -0.0011202813984409158 0 0.073698470896745416 -0.0014115628851807413 0 0.070143751572187801 -0.0072700138972030788 0 0.071258806260785096 -0.0062001576017631493 0 0.07492894124884214 -0.0031686414816353139 0 0.072490982923889849 -0.0046023073401691436 0 0.072328975168324594 -0.0026983699955311765 0 0.07492894124884214 -0.0031686414816353139 0 0.073698470896745416 -0.0014115628851807413 0 0.072328975168324594 -0.0026983699955311765 0 0.070143751572187801 -0.0072700138972030788 0 0.070282377876676336 -0.0062516823884594926 0 0.074116332950620978 -0.0046655711212445182 0 0.073665527448713478 -0.0066852565955756909 0 0.071986024546783184 -0.0058547744374372306 0 0.073665527448713478 -0.0066852565955756909 0 0.071977094560251031 -0.007448743689430562 0 0.071986024546783184 -0.0058547744374372306 0 0.066480082854662351 -0.014288263518027443 0 0.070143751572187801 -0.0072700138972030788 0 0.066381222426034545 -0.0083645315841991089 0 0.066254520782929954 -0.0094596581432323818 0 0.067307109975068224 -0.0096715654950822339 0 0.075737146555293927 -0.0069976955026600524 0 0.074116332950620978 -0.0046655711212445182 0 0.073665527448713478 -0.0066852565955756909 0 0.065179005679125421 -0.022373750544408617 0 0.063532626789699495 -0.021787707250114287 0 0.063273021080055239 -0.024137845094148794 0 0.068196623281084945 -0.014725365420548055 0 0.066480082854662351 -0.014288263518027443 0 0.07374452981348574 -0.0088750468045883085 0 0.075737146555293927 -0.0069976955026600524 0 0.073665527448713478 -0.0066852565955756909 0 0.07374452981348574 -0.0088750468045883085 0 0.073665527448713478 -0.0066852565955756909 0 0.071977094560251031 -0.007448743689430562 0 0.070490797619139067 -0.0088980279874674804 0 0.07374452981348574 -0.0088750468045883085 0 0.071977094560251031 -0.007448743689430562 0 0.070490797619139067 -0.0088980279874674804 0 0.071977094560251031 -0.007448743689430562 0 0.069793526879914122 -0.0070206389167941545 0 0.070490797619139067 -0.0088980279874674804 0 0.069793526879914122 -0.0070206389167941545 0 0.068606002710260655 -0.0080640740363112137 0 0.070066230116383604 -0.0060940516593359483 0 0.070367120565899166 -0.0030864657820698724 0 0.067790447082434674 -0.0041415748227026598 0 0.06965644805597021 -0.0068757357414283259 0 0.071258806260785096 -0.0062001576017631493 0 0.071977094560251031 -0.007448743689430562 0 0.069793526879914122 -0.0070206389167941545 0 0.071986024546783184 -0.0058547744374372306 0 0.070066230116383604 -0.0060940516593359483 0 0.072490982923889849 -0.0046023073401691436 0 0.070367120565899166 -0.0030864657820698724 0 0.072490982923889849 -0.0046023073401691436 0 0.072328975168324594 -0.0026983699955311765 0 0.070367120565899166 -0.0030864657820698724 0 0.071207967188931992 -2.9469227071230971e-05 0 0.073698470896745416 -0.0014115628851807413 0 0.072328975168324594 -0.0026983699955311765 0 0.071207967188931992 -2.9469227071230971e-05 0 0.072328975168324594 -0.0026983699955311765 0 0.070367120565899166 -0.0030864657820698724 0 0.071203138211212935 0.00010147735382975971 0 0.068587934397736014 -0.00079432005699980879 0 0.071207967188931992 -2.9469227071230971e-05 0 0.070367120565899166 -0.0030864657820698724 0 0.068263673586876378 -0.0010109312595310005 0 0.070367120565899166 -0.0030864657820698724 0 0.068263673586876378 -0.0010109312595310005 0 0.067790447082434674 -0.0041415748227026598 0 0.068263673586876378 -0.0010109312595310005 0 0.065230147905496513 -0.0019615289244339635 0 0.067790447082434674 -0.0041415748227026598 0 0.065000003773124773 0.0019783292273539408 0 0.066416634200550731 -0.0002906042650467142 0 0.064999979595651139 -0.0017598449574840246 0 0.068319814033791545 -0.00081376377856526695 0 0.066416634200550731 -0.0002906042650467142 0 0.065230147905496513 -0.0019615289244339635 0 0.068587934397736014 -0.00079432005699980879 0 0.067110001810875133 -0.0012985564794878212 0 0.066416634200550731 -0.0002906042650467142 0 0.065230147905496513 -0.0019615289244339635 0 0.064999979595651139 -0.0017598449574840246 0 0.065230147905496513 -0.0019615289244339635 0 0.064999979595651139 -0.0017598449574840246 0 0.064999951112861706 -0.0054978832390709526 0 0.065230147905496513 -0.0019615289244339635 0 0.064999951112861706 -0.0054978832390709526 0 0.067790447082434674 -0.0041415748227026598 0 0.064999951112861706 -0.0054978832390709526 0 0.067790447082434674 -0.0041415748227026598 0 0.06757176984176376 -0.0076496636139550545 0 0.070066230116383604 -0.0060940516593359483 0 0.067790447082434674 -0.0041415748227026598 0 0.06757176984176376 -0.0076496636139550545 0 0.069793526879914122 -0.0070206389167941545 0 0.068606002710260655 -0.0080640740363112137 0 0.067487942506009591 -0.0081480717796504516 0 0.06965644805597021 -0.0068757357414283259 0 0.067394220836123994 -0.0080078303085478111 0 0.064999974870638022 -0.009235964153327645 0 0.064999951112861706 -0.0054978832390709526 0 0.06757176984176376 -0.0076496636139550545 0 0.05743011784306986 -0.026077923367290149 0 0.056488880274033815 -0.025901927461277539 0 0.056441055318882112 -0.02722011813119276 0 0.05743011784306986 -0.026077923367290149 0 0.05814658414704435 -0.027212546517186069 0 0.056441055318882112 -0.02722011813119276 0 0.056488880274033815 -0.025901927461277539 0 0.056441055318882112 -0.02722011813119276 0 0.055520663192197069 -0.025837855307856684 0 0.060048207648769503 -0.028346827718120408 0 0.058992320009817072 -0.026406687462427757 0 0.056488880274033815 -0.025901927461277539 0 0.055520663192197069 -0.025837855307856684 0 0.05602817409556788 -0.024880499563171697 0 0.056488880274033815 -0.025901927461277539 0 0.056855321443865285 -0.025526930086426598 0 0.05602817409556788 -0.024880499563171697 0 0.056855321443865285 -0.025526930086426598 0 0.057475028296577524 -0.025241863302298377 0 0.05602817409556788 -0.024880499563171697 0 0.05743011784306986 -0.026077923367290149 0 0.056488880274033815 -0.025901927461277539 0 0.056855321443865285 -0.025526930086426598 0 0.05743011784306986 -0.026077923367290149 0 0.056855321443865285 -0.025526930086426598 0 0.057475028296577524 -0.025241863302298377 0 0.057061083981668231 -0.024716429011618909 0 0.057751428623951127 -0.024954481417322674 0 0.05743011784306986 -0.026077923367290149 0 0.057475028296577524 -0.025241863302298377 0 0.058730297980631695 -0.025451753051413055 0 0.058730297980631695 -0.025451753051413055 0 0.05814658414704435 -0.027212546517186069 0 0.059644872558740326 -0.027336117056972357 0 0.05743011784306986 -0.026077923367290149 0 0.058730297980631695 -0.025451753051413055 0 0.05814658414704435 -0.027212546517186069 0 0.05814658414704435 -0.027212546517186069 0 0.059041516432253811 -0.028589105319890281 0 0.057542815665182566 -0.028780765988151498 0 0.05814658414704435 -0.027212546517186069 0 0.059644872558740326 -0.027336117056972357 0 0.059041516432253811 -0.028589105319890281 0 0.059488476230801696 -0.030431638091772753 0 0.059041516432253811 -0.028589105319890281 0 0.0601241817695106 -0.028911861095308668 0 0.059644872558740326 -0.027336117056972357 0 0.059041516432253811 -0.028589105319890281 0 0.0601241817695106 -0.028911861095308668 0 0.059488476230801696 -0.030431638091772753 0 0.059041516432253811 -0.028589105319890281 0 0.057542815665182566 -0.028780765988151498 0 0.064009515576943496 -0.032902841137463751 0 0.0644860765345137 -0.032038697333335593 0 0.063651656725068687 -0.032025092356538817 0 0.0644860765345137 -0.032038697333335593 0 0.064171874609109253 -0.030004953544395307 0 0.063651656725068687 -0.032025092356538817 0 0.060820861654362082 -0.029943976617701599 0 0.060048207648769503 -0.028346827718120408 0 0.05814658414704435 -0.027212546517186069 0 0.057542815665182566 -0.028780765988151498 0 0.056441055318882112 -0.02722011813119276 0 0.064171874609109253 -0.030004953544395307 0 0.063651656725068687 -0.032025092356538817 0 0.062637209939298014 -0.03064166093141597 0 0.063651656725068687 -0.032025092356538817 0 0.062550118934337762 -0.032068225361548838 0 0.062637209939298014 -0.03064166093141597 0 0.062550118934337762 -0.032068225361548838 0 0.062637209939298014 -0.03064166093141597 0 0.060966444822430597 -0.031350725631971332 0 0.061235952239762838 -0.029734780813702791 0 0.062637209939298014 -0.03064166093141597 0 0.060966444822430597 -0.031350725631971332 0 0.061235952239762838 -0.029734780813702791 0 0.062637209939298014 -0.03064166093141597 0 0.062080042535976446 -0.028755067191218828 0 0.064171874609109253 -0.030004953544395307 0 0.062637209939298014 -0.03064166093141597 0 0.062080042535976446 -0.028755067191218828 0 0.061131135368711058 -0.025018805730100357 0 0.062036516492896453 -0.030235843721001871 0 0.058359762781939113 -0.030347461250605268 0 0.05959977396851722 -0.031857496998768005 0 0.05929747662420657 -0.030837647328380839 0 0.05959977396851722 -0.031857496998768005 0 0.060966444822430597 -0.031350725631971332 0 0.05929747662420657 -0.030837647328380839 0 0.060966444822430597 -0.031350725631971332 0 0.059949099087440248 -0.030038703212152251 0 0.05929747662420657 -0.030837647328380839 0 0.061235952239762838 -0.029734780813702791 0 0.060966444822430597 -0.031350725631971332 0 0.059949099087440248 -0.030038703212152251 0 0.059922972174032821 -0.027673095220138423 0 0.0595028415917234 -0.027239888790047649 0 0.060733321739329327 -0.025400915527416801 0 0.0595028415917234 -0.027239888790047649 0 0.058433280819084846 -0.030230082282383403 0 0.059949099087440248 -0.030038703212152251 0 0.05929747662420657 -0.030837647328380839 0 0.05502353584560047 -0.030529482056610883 0 0.058097429779761345 -0.030159356650512507 0 0.056778348946034791 -0.027597926002929672 0 0.060733321739329327 -0.025400915527416801 0 0.059667001586518123 -0.025093841205358004 0 0.061235952239762838 -0.029734780813702791 0 0.058097429779761345 -0.030159356650512507 0 0.059661655602479907 -0.028392052874198243 0 0.056778348946034791 -0.027597926002929672 0 0.059661655602479907 -0.028392052874198243 0 0.058719276614772588 -0.026666095362844377 0 0.058097429779761345 -0.030159356650512507 0 0.056778348946034791 -0.027597926002929672 0 0.059661655602479907 -0.028392052874198243 0 0.056778348946034791 -0.027597926002929672 0 0.058719276614772588 -0.026666095362844377 0 0.058761406737640368 -0.024378968543263286 0 0.059661655602479907 -0.028392052874198243 0 0.058719276614772588 -0.026666095362844377 0 0.0605760913249297 -0.026879821900965956 0 0.059346395222066001 -0.025534435382133527 0 0.058719276614772588 -0.026666095362844377 0 0.0605760913249297 -0.026879821900965956 0 0.059346395222066001 -0.025534435382133527 0 0.058719276614772588 -0.026666095362844377 0 0.058761406737640368 -0.024378968543263286 0 0.059667001586518123 -0.025093841205358004 0 0.059497316952819776 -0.024850186969610156 0 0.06125497800010405 -0.021574500095390428 0 0.059655887678304868 -0.021409886814365731 0 0.06021771489112844 -0.023378861112477979 0 0.059655887678304868 -0.021409886814365731 0 0.06021771489112844 -0.023378861112477979 0 0.058761406737640368 -0.024378968543263286 0 0.064171874609109253 -0.030004953544395307 0 0.062080042535976446 -0.028755067191218828 0 0.0632095984704516 -0.027316090511588797 0 0.061235952239762838 -0.029734780813702791 0 0.059661655602479907 -0.028392052874198243 0 0.062080042535976446 -0.028755067191218828 0 0.059661655602479907 -0.028392052874198243 0 0.062080042535976446 -0.028755067191218828 0 0.0605760913249297 -0.026879821900965956 0 0.0605760913249297 -0.026879821900965956 0 0.0632095984704516 -0.027316090511588797 0 0.061290143251513975 -0.024210370371102304 0 0.059346395222066001 -0.025534435382133527 0 0.0605760913249297 -0.026879821900965956 0 0.060044619480679323 -0.025211466579125565 0 0.058992320009817072 -0.026406687462427757 0 0.057480057297311274 -0.024001862414677898 0 0.062080042535976446 -0.028755067191218828 0 0.0605760913249297 -0.026879821900965956 0 0.0632095984704516 -0.027316090511588797 0 0.057480057297311274 -0.024001862414677898 0 0.056258467695177845 -0.024267686229441567 0 0.053255494415762827 -0.023992748306880085 0 0.054216660736959028 -0.023471777911006159 0 0.054844891956897124 -0.024400510003874595 0 0.055520663192197069 -0.025837855307856684 0 0.054603288393732484 -0.024533425533034395 0 0.05602817409556788 -0.024880499563171697 0 0.057480057297311274 -0.024001862414677898 0 0.058004844732865081 -0.023478384845331352 0 0.0605760913249297 -0.026879821900965956 0 0.060044619480679323 -0.025211466579125565 0 0.061290143251513975 -0.024210370371102304 0 0.060044619480679323 -0.025211466579125565 0 0.061290143251513975 -0.024210370371102304 0 0.059195875480208361 -0.024379896787658104 0 0.057140842769574547 -0.023670799288374681 0 0.057357550144315816 -0.023969553260381898 0 0.057658759629462118 -0.023794100262797001 0 0.053255494415762827 -0.023992748306880085 0 0.052690031939537744 -0.023204325472517641 0 0.054216660736959028 -0.023471777911006159 0 0.057433976835777167 -0.022795069158938041 0 0.055793689691724449 -0.022745672848506263 0 0.054139128297346586 -0.022243708909492548 0 0.054872198781532697 -0.0218223141063008 0 0.05428767634249558 -0.021660424072313892 0 0.057480057297311274 -0.024001862414677898 0 0.057433976835777167 -0.022795069158938041 0 0.052690031939537744 -0.023204325472517641 0 0.054216660736959028 -0.023471777911006159 0 0.053893890292531284 -0.02249066561563361 0 0.054216660736959028 -0.023471777911006159 0 0.053893890292531284 -0.02249066561563361 0 0.054843207087002591 -0.022779807427806682 0 0.06021771489112844 -0.023378861112477979 0 0.05945297351627888 -0.024247562672122785 0 0.058761406737640368 -0.024378968543263286 0 0.060598552676410233 -0.024311248764181562 0 0.05945297351627888 -0.024247562672122785 0 0.059875899637844593 -0.024948413653787291 0 0.060598552676410233 -0.024311248764181562 0 0.06021771489112844 -0.023378861112477979 0 0.05945297351627888 -0.024247562672122785 0 0.05945297351627888 -0.024247562672122785 0 0.058892666029655802 -0.024250544987967235 0 0.059875899637844593 -0.024948413653787291 0 0.061290143251513975 -0.024210370371102304 0 0.058974054278071848 -0.023988625819996012 0 0.059195875480208361 -0.024379896787658104 0 0.05945297351627888 -0.024247562672122785 0 0.059042968267105478 -0.024285052749861192 0 0.058892666029655802 -0.024250544987967235 0 0.059042968267105478 -0.024285052749861192 0 0.058892666029655802 -0.024250544987967235 0 0.059195875480208361 -0.024379896787658104 0 0.058892666029655802 -0.024250544987967235 0 0.058974054278071848 -0.023988625819996012 0 0.059195875480208361 -0.024379896787658104 0 0.058012356387895682 -0.023476798555100032 0 0.058004844732865081 -0.023478384845331352 0 0.05945297351627888 -0.024247562672122785 0 0.059042968267105478 -0.024285052749861192 0 0.058761406737640368 -0.024378968543263286 0 0.059042968267105478 -0.024285052749861192 0 0.058761406737640368 -0.024378968543263286 0 0.059195875480208361 -0.024379896787658104 0 0.059346395222066001 -0.025534435382133527 0 0.058761406737640368 -0.024378968543263286 0 0.059195875480208361 -0.024379896787658104 0 0.059346395222066001 -0.025534435382133527 0 0.060044619480679323 -0.025211466579125565 0 0.059195875480208361 -0.024379896787658104 0 0.058892666029655802 -0.024250544987967235 0 0.058746291904540587 -0.024311273773793121 0 0.059875899637844593 -0.024948413653787291 0 0.057433976835777167 -0.022795069158938041 0 0.058004844732865081 -0.023478384845331352 0 0.05743628545315254 -0.02520279003721276 0 0.058463792689018641 -0.024605877970473863 0 0.05837009505749937 -0.02527912810858781 0 0.05743628545315254 -0.02520279003721276 0 0.05837009505749937 -0.02527912810858781 0 0.058629479716253777 -0.025958670310512102 0 0.05743628545315254 -0.02520279003721276 0 0.058629479716253777 -0.025958670310512102 0 0.058398221366559117 -0.026530230655925142 0 0.057433976835777167 -0.022795069158938041 0 0.058679872369971839 -0.018934681538077144 0 0.05837009505749937 -0.02527912810858781 0 0.058629479716253777 -0.025958670310512102 0 0.058950902246439972 -0.025349019402459781 0 0.058463792689018641 -0.024605877970473863 0 0.05837009505749937 -0.02527912810858781 0 0.058950902246439972 -0.025349019402459781 0 0.061202147968445982 -0.026328326461648396 0 0.05964876214236025 -0.025856010415547876 0 0.059875899637844593 -0.024948413653787291 0 0.058463792689018641 -0.024605877970473863 0 0.058950902246439972 -0.025349019402459781 0 0.059875899637844593 -0.024948413653787291 0 0.058004844732865081 -0.023478384845331352 0 0.058599446310962255 -0.023721368107078162 0 0.058950902246439972 -0.025349019402459781 0 0.05964876214236025 -0.025856010415547876 0 0.059875899637844593 -0.024948413653787291 0 0.058629479716253777 -0.025958670310512102 0 0.058950902246439972 -0.025349019402459781 0 0.05964876214236025 -0.025856010415547876 0 0.062501837913305269 -0.015269482387864332 0 0.061058559946465668 -0.011777537120373233 0 0.061202147968445982 -0.026328326461648396 0 0.059629515252850311 -0.026707076503790186 0 0.059382243245471637 -0.027901213176225407 0 0.061202147968445982 -0.026328326461648396 0 0.05964876214236025 -0.025856010415547876 0 0.059629515252850311 -0.026707076503790186 0 0.065176715641712235 -0.0094500265591792882 0 0.064930147905283148 -0.010400929134231631 0 0.063963284178855287 -0.010540897067725654 0 0.058629479716253777 -0.025958670310512102 0 0.05964876214236025 -0.025856010415547876 0 0.059629515252850311 -0.026707076503790186 0 0.059629515252850311 -0.026707076503790186 0 0.058396558283223689 -0.026544283601244952 0 0.059382243245471637 -0.027901213176225407 0 0.058679872369971839 -0.018934681538077144 0 0.057129292856641055 -0.016594635000910851 0 0.053687501594590674 -0.021617583052093162 0 0.053968193312702875 -0.02088182276315155 0 0.05428767634249558 -0.021660424072313892 0 0.058679872369971839 -0.018934681538077144 0 0.061058559946465668 -0.011777537120373233 0 0.058629479716253777 -0.025958670310512102 0 0.059629515252850311 -0.026707076503790186 0 0.058396558283223689 -0.026544283601244952 0 0.05853376355558302 -0.019438085247990695 0 0.058679872369971839 -0.018934681538077144 0 0.056982883634189414 -0.012070964720014217 0 0.061058559946465668 -0.011777537120373233 0 0.057927282604669138 -0.013349758193617311 0 0.057893955491186866 -0.013580572998380107 0 0.057658449192259126 -0.01361044789027901 0 0.057806594637816427 -0.013823081352207819 0 0.057893955491186866 -0.013580572998380107 0 0.057658449192259126 -0.01361044789027901 0 0.064487896625901084 -0.011259188478893753 0 0.064930147905283148 -0.010400929134231631 0 0.063963284178855287 -0.010540897067725654 0 0.059368380090931046 -0.0068381625977955787 0 0.060943127033745943 -0.0062544881825633298 0 0.059875952387529907 -0.0047866689131376271 0 0.063325974821253531 -0.0036694727422606427 0 0.061058559946465668 -0.011777537120373233 0 0.055793689691724449 -0.022745672848506263 0 0.055828399213767206 -0.022246492130987765 0 0.054872198781532697 -0.0218223141063008 0 0.055128793880946013 -0.021199407728688172 0 0.055623828426568489 -0.0214155956303815 0 0.054872198781532697 -0.0218223141063008 0 0.054581998909297713 -0.021176422646705037 0 0.055128793880946013 -0.021199407728688172 0 0.054872198781532697 -0.0218223141063008 0 0.05428767634249558 -0.021660424072313892 0 0.054581998909297713 -0.021176422646705037 0 0.053968193312702875 -0.02088182276315155 0 0.05428767634249558 -0.021660424072313892 0 0.054581998909297713 -0.021176422646705037 0 0.054139128297346586 -0.022243708909492548 0 0.053687501594590674 -0.021617583052093162 0 0.05428767634249558 -0.021660424072313892 0 0.053968193312702875 -0.02088182276315155 0 0.054581998909297713 -0.021176422646705037 0 0.054411287828357018 -0.020710996128604251 0 0.05425084721204268 -0.020130573052959046 0 0.053968193312702875 -0.02088182276315155 0 0.054411287828357018 -0.020710996128604251 0 0.054581998909297713 -0.021176422646705037 0 0.054411287828357018 -0.020710996128604251 0 0.054878972733874938 -0.020647094632814462 0 0.054878972733874938 -0.020647094632814462 0 0.055128793880946013 -0.021199407728688172 0 0.055800757892627992 -0.020675200960717784 0 0.054581998909297713 -0.021176422646705037 0 0.054878972733874938 -0.020647094632814462 0 0.055128793880946013 -0.021199407728688172 0 0.055800757892627992 -0.020675200960717784 0 0.056414675155194612 -0.021047119424128596 0 0.055623828426568489 -0.0214155956303815 0 0.055128793880946013 -0.021199407728688172 0 0.055800757892627992 -0.020675200960717784 0 0.055623828426568489 -0.0214155956303815 0 0.056758227287139175 -0.020469789225376234 0 0.055800757892627992 -0.020675200960717784 0 0.056414675155194612 -0.021047119424128596 0 0.056073475006759473 -0.021965370916644734 0 0.055828399213767206 -0.022246492130987765 0 0.056414675155194612 -0.021047119424128596 0 0.055138481304219375 -0.021758793883326379 0 0.05699767451379624 -0.022693768707993531 0 0.053893890292531284 -0.02249066561563361 0 0.055138481304219375 -0.021758793883326379 0 0.054843207087002591 -0.022779807427806682 0 0.055138481304219375 -0.021758793883326379 0 0.054843207087002591 -0.022779807427806682 0 0.055766505880877643 -0.023379063575922315 0 0.054216660736959028 -0.023471777911006159 0 0.054843207087002591 -0.022779807427806682 0 0.055766505880877643 -0.023379063575922315 0 0.055138481304219375 -0.021758793883326379 0 0.055766505880877643 -0.023379063575922315 0 0.05699767451379624 -0.022693768707993531 0 0.055766505880877643 -0.023379063575922315 0 0.056244402997726428 -0.024710335420155775 0 0.05699767451379624 -0.022693768707993531 0 0.057061083981668231 -0.024716429011618909 0 0.056258467695177845 -0.024267686229441567 0 0.056555822270037949 -0.023492162995975258 0 0.056943995043070232 -0.02231961878467385 0 0.056478412824205217 -0.024863209827065601 0 0.056244402997726428 -0.024710335420155775 0 0.054844891956897124 -0.024400510003874595 0 0.055766505880877643 -0.023379063575922315 0 0.056244402997726428 -0.024710335420155775 0 0.054844891956897124 -0.024400510003874595 0 0.054216660736959028 -0.023471777911006159 0 0.055766505880877643 -0.023379063575922315 0 0.054844891956897124 -0.024400510003874595 0 0.058730297980631695 -0.025451753051413055 0 0.057715544138243688 -0.023827169506938771 0 0.059365778876024053 -0.023433222476024022 0 0.056478412824205217 -0.024863209827065601 0 0.058730297980631695 -0.025451753051413055 0 0.057715544138243688 -0.023827169506938771 0 0.056244402997726428 -0.024710335420155775 0 0.057715544138243688 -0.023827169506938771 0 0.056940711219539121 -0.022322812945036245 0 0.056478412824205217 -0.024863209827065601 0 0.056244402997726428 -0.024710335420155775 0 0.057715544138243688 -0.023827169506938771 0 0.057715544138243688 -0.023827169506938771 0 0.056940711219539121 -0.022322812945036245 0 0.058335049275775444 -0.022357802405951425 0 0.057715544138243688 -0.023827169506938771 0 0.058335049275775444 -0.022357802405951425 0 0.059365778876024053 -0.023433222476024022 0 0.058335049275775444 -0.022357802405951425 0 0.059295757340176336 -0.021385686135522747 0 0.059365778876024053 -0.023433222476024022 0 0.058335049275775444 -0.022357802405951425 0 0.057550111700262994 -0.019871158599317269 0 0.059295757340176336 -0.021385686135522747 0 0.056414675155194612 -0.021047119424128596 0 0.05699767451379624 -0.022693768707993531 0 0.057551369091935235 -0.02087641682691254 0 0.056940711219539121 -0.022322812945036245 0 0.058335049275775444 -0.022357802405951425 0 0.057550111700262994 -0.019871158599317269 0 0.056943995043070232 -0.02231961878467385 0 0.057570443263696147 -0.020334277347144897 0 0.056758227287139175 -0.020469789225376234 0 0.056414675155194612 -0.021047119424128596 0 0.057551369091935235 -0.02087641682691254 0 0.057550111700262994 -0.019871158599317269 0 0.059405717901993893 -0.019844451613016435 0 0.059295757340176336 -0.021385686135522747 0 0.058968360033512975 -0.018636760949113734 0 0.057550111700262994 -0.019871158599317269 0 0.059405717901993893 -0.019844451613016435 0 0.059405717901993893 -0.019844451613016435 0 0.060390925490901075 -0.019650356312497445 0 0.060489116557599941 -0.021074741743342021 0 0.059766927461136071 -0.018592415763271739 0 0.059405717901993893 -0.019844451613016435 0 0.060390925490901075 -0.019650356312497445 0 0.06110221516023482 -0.01872151616461986 0 0.060390925490901075 -0.019650356312497445 0 0.061550547792951292 -0.020463918323044443 0 0.060390925490901075 -0.019650356312497445 0 0.060489116557599941 -0.021074741743342021 0 0.061550547792951292 -0.020463918323044443 0 0.060489116557599941 -0.021074741743342021 0 0.061503183089160016 -0.021901418308418213 0 0.061550547792951292 -0.020463918323044443 0 0.060489116557599941 -0.021074741743342021 0 0.061503183089160016 -0.021901418308418213 0 0.060760823908727807 -0.022990728877256127 0 0.059405717901993893 -0.019844451613016435 0 0.060489116557599941 -0.021074741743342021 0 0.059295757340176336 -0.021385686135522747 0 0.060489116557599941 -0.021074741743342021 0 0.059295757340176336 -0.021385686135522747 0 0.060760823908727807 -0.022990728877256127 0 0.06110221516023482 -0.01872151616461986 0 0.063008804378520439 -0.019738006643383967 0 0.061550547792951292 -0.020463918323044443 0 0.063008804378520439 -0.019738006643383967 0 0.061550547792951292 -0.020463918323044443 0 0.062883058427869315 -0.02164544222970426 0 0.061503183089160016 -0.021901418308418213 0 0.061550547792951292 -0.020463918323044443 0 0.062883058427869315 -0.02164544222970426 0 0.062883058427869315 -0.02164544222970426 0 0.064260063386434807 -0.022350699152444375 0 0.06463135551969254 -0.021084878085588794 0 0.063008804378520439 -0.019738006643383967 0 0.062883058427869315 -0.02164544222970426 0 0.06463135551969254 -0.021084878085588794 0 0.062672580093386748 -0.023661993824934686 0 0.064904748500403411 -0.023816362057658455 0 0.064260063386434807 -0.022350699152444375 0 0.062883058427869315 -0.02164544222970426 0 0.062672580093386748 -0.023661993824934686 0 0.064260063386434807 -0.022350699152444375 0 0.061503183089160016 -0.021901418308418213 0 0.062883058427869315 -0.02164544222970426 0 0.062672580093386748 -0.023661993824934686 0 0.061503183089160016 -0.021901418308418213 0 0.062672580093386748 -0.023661993824934686 0 0.060760823908727807 -0.022990728877256127 0 0.062672580093386748 -0.023661993824934686 0 0.060958989069076569 -0.024576332753932673 0 0.06232331496641904 -0.025163149216368648 0 0.062672580093386748 -0.023661993824934686 0 0.064408045835504676 -0.025330813809329698 0 0.064904748500403411 -0.023816362057658455 0 0.062672580093386748 -0.023661993824934686 0 0.06232331496641904 -0.025163149216368648 0 0.064408045835504676 -0.025330813809329698 0 0.058730297980631695 -0.025451753051413055 0 0.059365778876024053 -0.023433222476024022 0 0.060958989069076569 -0.024576332753932673 0 0.059295757340176336 -0.021385686135522747 0 0.059365778876024053 -0.023433222476024022 0 0.060760823908727807 -0.022990728877256127 0 0.062672580093386748 -0.023661993824934686 0 0.060760823908727807 -0.022990728877256127 0 0.060958989069076569 -0.024576332753932673 0 0.059365778876024053 -0.023433222476024022 0 0.060760823908727807 -0.022990728877256127 0 0.060958989069076569 -0.024576332753932673 0 0.058730297980631695 -0.025451753051413055 0 0.060958989069076569 -0.024576332753932673 0 0.060736541475740036 -0.026247030603926479 0 0.058730297980631695 -0.025451753051413055 0 0.059644872558740326 -0.027336117056972357 0 0.060736541475740036 -0.026247030603926479 0 0.059644872558740326 -0.027336117056972357 0 0.060736541475740036 -0.026247030603926479 0 0.061230258748315607 -0.027740333321988171 0 0.060736541475740036 -0.026247030603926479 0 0.062660885690203241 -0.026566809474665366 0 0.061230258748315607 -0.027740333321988171 0 0.060958989069076569 -0.024576332753932673 0 0.060736541475740036 -0.026247030603926479 0 0.06232331496641904 -0.025163149216368648 0 0.060736541475740036 -0.026247030603926479 0 0.06232331496641904 -0.025163149216368648 0 0.062660885690203241 -0.026566809474665366 0 0.063095320893134979 -0.026798512969745027 0 0.063789515403086014 -0.026133256352280896 0 0.06232331496641904 -0.025163149216368648 0 0.062660885690203241 -0.026566809474665366 0 0.064408045835504676 -0.025330813809329698 0 0.064520912067775493 -0.027383891671121804 0 0.063402711959049479 -0.026945192795358456 0 0.064408045835504676 -0.025330813809329698 0 0.063095320893134979 -0.026798512969745027 0 0.061942139125068081 -0.027925257973250274 0 0.063402711959049479 -0.026945192795358456 0 0.063670008248970039 -0.028358560396007676 0 0.062541179756678764 -0.028241050640494241 0 0.064520912067775493 -0.027383891671121804 0 0.063670008248970039 -0.028358560396007676 0 0.065291031086044435 -0.028835496985876573 0 0.064520912067775493 -0.027383891671121804 0 0.063402711959049479 -0.026945192795358456 0 0.063670008248970039 -0.028358560396007676 0 0.063670008248970039 -0.028358560396007676 0 0.065291031086044435 -0.028835496985876573 0 0.064083720090869226 -0.029627091430387588 0 0.063670008248970039 -0.028358560396007676 0 0.062933098070433791 -0.02989164261595666 0 0.064083720090869226 -0.029627091430387588 0 0.063670008248970039 -0.028358560396007676 0 0.062541179756678764 -0.028241050640494241 0 0.062933098070433791 -0.02989164261595666 0 0.061624954532094274 -0.029250893842886708 0 0.062541179756678764 -0.028241050640494241 0 0.062933098070433791 -0.02989164261595666 0 0.060779854254803901 -0.029052425819646809 0 0.061942139125068081 -0.027925257973250274 0 0.059644872558740326 -0.027336117056972357 0 0.0601241817695106 -0.028911861095308668 0 0.061230258748315607 -0.027740333321988171 0 0.067062304700521269 -0.027817556984200437 0 0.067224147441647411 -0.02896038172927707 0 0.066441750407977132 -0.028575115497281253 0 0.067062304700521269 -0.027817556984200437 0 0.068308357514434426 -0.027788454070219057 0 0.067224147441647411 -0.02896038172927707 0 0.045887908293673736 -0.020333360136906564 0 0.050672454764577129 -0.019894534245346381 0 0.067884014146663285 -0.02797749414044863 0 0.067769489353972728 -0.028280877932354689 0 0.067224147441647411 -0.02896038172927707 0 0.032151134636814106 -0.023646909224500134 0 0.03274865714826182 -0.022875093789249127 0 0.033701069196910134 -0.024248633533001999 0 0.045887908293673736 -0.020333360136906564 0 0.039865217579282616 -0.01799530109020506 0 0.03936240153371702 -0.015713510367751066 0 0.039991827790500492 -0.014904545742480098 0 0.039605342540939628 -0.014832081810528251 0 0.032151134636814106 -0.023646909224500134 0 0.032140633197356154 -0.024833834722856402 0 0.033701069196910134 -0.024248633533001999 0 0.067884014146663285 -0.02797749414044863 0 0.067769489353972728 -0.028280877932354689 0 0.067888191360066671 -0.028509693698142387 0 0.045887908293673736 -0.020333360136906564 0 0.048004406938212979 -0.024855785074238541 0 0.048344467870610905 -0.025177721196673351 0 0.048004406938212979 -0.024855785074238541 0 0.067925707492009157 -0.028526151649577003 0 0.067224147441647411 -0.02896038172927707 0 0.067952956347510821 -0.030203503224291599 0 0.048239514541165041 -0.027525520183613792 0 0.048879907831333794 -0.02867998197155118 0 0.048233427859830938 -0.029181431931847777 0 0.067769489353972728 -0.028280877932354689 0 0.067925707492009157 -0.028526151649577003 0 0.067224147441647411 -0.02896038172927707 0 0.032140633197356154 -0.024833834722856402 0 0.033701069196910134 -0.024248633533001999 0 0.033486099014773556 -0.027285575224189607 0 0.048004406938212979 -0.024855785074238541 0 0.044403361965937166 -0.026904819573134044 0 0.048004406938212979 -0.024855785074238541 0 0.053346496853188929 -0.029115317728064874 0 0.067224147441647411 -0.02896038172927707 0 0.066441750407977132 -0.028575115497281253 0 0.066692951606304701 -0.029858325139238875 0 0.066441750407977132 -0.028575115497281253 0 0.065291031086044435 -0.028835496985876573 0 0.066692951606304701 -0.029858325139238875 0 0.064520912067775493 -0.027383891671121804 0 0.065291031086044435 -0.028835496985876573 0 0.06595912607832502 -0.027202217813624689 0 0.066441750407977132 -0.028575115497281253 0 0.065291031086044435 -0.028835496985876573 0 0.06595912607832502 -0.027202217813624689 0 0.067062304700521269 -0.027817556984200437 0 0.066441750407977132 -0.028575115497281253 0 0.06595912607832502 -0.027202217813624689 0 0.067062304700521269 -0.027817556984200437 0 0.06595912607832502 -0.027202217813624689 0 0.067198409469762729 -0.026317535605334119 0 0.06595912607832502 -0.027202217813624689 0 0.066100461495558815 -0.025127131126119282 0 0.067198409469762729 -0.026317535605334119 0 0.064520912067775493 -0.027383891671121804 0 0.06595912607832502 -0.027202217813624689 0 0.064408045835504676 -0.025330813809329698 0 0.06595912607832502 -0.027202217813624689 0 0.064408045835504676 -0.025330813809329698 0 0.066100461495558815 -0.025127131126119282 0 0.066100461495558815 -0.025127131126119282 0 0.067198409469762729 -0.026317535605334119 0 0.067277238047715029 -0.024343985021706899 0 0.067198409469762729 -0.026317535605334119 0 0.068462916544895003 -0.025441247125888251 0 0.067277238047715029 -0.024343985021706899 0 0.067062304700521269 -0.027817556984200437 0 0.068308357514434426 -0.027788454070219057 0 0.067198409469762729 -0.026317535605334119 0 0.068308357514434426 -0.027788454070219057 0 0.067198409469762729 -0.026317535605334119 0 0.068462916544895003 -0.025441247125888251 0 0.03936240153371702 -0.015713510367751066 0 0.039605342540939628 -0.014832081810528251 0 0.039378378786133338 -0.011704945285659128 0 0.045887908293673736 -0.020333360136906564 0 0.046525637241262303 -0.017469810970199704 0 0.039605342540939628 -0.014832081810528251 0 0.039378378786133338 -0.011704945285659128 0 0.041437802393882159 -0.012998609280431435 0 0.039985758081147522 -0.014901087875962796 0 0.039605342540939628 -0.014832081810528251 0 0.041437802393882159 -0.012998609280431435 0 0.039865217579282616 -0.01799530109020506 0 0.039857684448414303 -0.017983219394057219 0 0.039378378786133338 -0.011704945285659128 0 0.041146448175524972 -0.0094208347679774034 0 0.041211178537523471 -0.011307026604488062 0 0.039378378786133338 -0.011704945285659128 0 0.039414528553483472 -0.0077307586478499966 0 0.041146448175524972 -0.0094208347679774034 0 0.068462916544895003 -0.025441247125888251 0 0.067277238047715029 -0.024343985021706899 0 0.068545224939749377 -0.022915558128627764 0 0.046525637241262303 -0.017469810970199704 0 0.041116138565593527 -0.0088248834731659738 0 0.067277238047715029 -0.024343985021706899 0 0.066926617681337328 -0.022858568870512411 0 0.066255293623694436 -0.023596177506692243 0 0.067277238047715029 -0.024343985021706899 0 0.066926617681337328 -0.022858568870512411 0 0.068545224939749377 -0.022915558128627764 0 0.066926617681337328 -0.022858568870512411 0 0.068545224939749377 -0.022915558128627764 0 0.066847395012383515 -0.02114376203218923 0 0.02376245041688628 0.012865071390308923 0 0.023556614985144657 0.01349192547899076 0 0.025374452310125667 0.011607716620110429 0 0.040966234708536629 -0.0080645429843911737 0 0.041116138565593527 -0.0088248834731659738 0 0.02376245041688628 0.012865071390308923 0 0.023133266817222369 0.011968216750953505 0 0.022928353889360868 0.012675770295983678 0 0.02376245041688628 0.012865071390308923 0 0.023741903117409389 0.012952180954974867 0 0.022928353889360868 0.012675770295983678 0 0.041116138565593527 -0.0088248834731659738 0 0.032690638186842924 -0.0040357224955975086 0 0.023741903117409389 0.012952180954974867 0 0.022705076349774797 0.013737740059658089 0 0.022928353889360868 0.012675770295983678 0 0.064408045835504676 -0.025330813809329698 0 0.066100461495558815 -0.025127131126119282 0 0.064904748500403411 -0.023816362057658455 0 0.066100461495558815 -0.025127131126119282 0 0.064904748500403411 -0.023816362057658455 0 0.066255293623694436 -0.023596177506692243 0 0.066100461495558815 -0.025127131126119282 0 0.067277238047715029 -0.024343985021706899 0 0.066255293623694436 -0.023596177506692243 0 0.064904748500403411 -0.023816362057658455 0 0.066255293623694436 -0.023596177506692243 0 0.065686377298323773 -0.022263393191571505 0 0.066926617681337328 -0.022858568870512411 0 0.066255293623694436 -0.023596177506692243 0 0.065686377298323773 -0.022263393191571505 0 0.064904748500403411 -0.023816362057658455 0 0.065686377298323773 -0.022263393191571505 0 0.064260063386434807 -0.022350699152444375 0 0.065686377298323773 -0.022263393191571505 0 0.064260063386434807 -0.022350699152444375 0 0.06463135551969254 -0.021084878085588794 0 0.065686377298323773 -0.022263393191571505 0 0.06463135551969254 -0.021084878085588794 0 0.066847395012383515 -0.02114376203218923 0 0.066926617681337328 -0.022858568870512411 0 0.065686377298323773 -0.022263393191571505 0 0.066847395012383515 -0.02114376203218923 0 0.065040484414618072 -0.019291536308289541 0 0.06463135551969254 -0.021084878085588794 0 0.066847395012383515 -0.02114376203218923 0 0.051304076153955692 -0.0090038000141965894 0 0.046658852163672611 -0.0077184689919540901 0 0.03930551970394118 0.0047140381354909867 0 0.028819470391854545 0.011861283246170914 0 0.029385765713720893 0.0062471391504466721 0 0.065040484414618072 -0.019291536308289541 0 0.063008804378520439 -0.019738006643383967 0 0.06463135551969254 -0.021084878085588794 0 0.023103088086574873 0.01088024627677101 0 0.025374452310125667 0.011607716620110429 0 0.023810123217753696 0.0092299369098708464 0 0.023103088086574873 0.01088024627677101 0 0.023803048935959917 0.011873349616462889 0 0.025374452310125667 0.011607716620110429 0 0.02376245041688628 0.012865071390308923 0 0.023133266817222369 0.011968216750953505 0 0.023803048935959917 0.011873349616462889 0 0.023103088086574873 0.01088024627677101 0 0.023133266817222369 0.011968216750953505 0 0.023803048935959917 0.011873349616462889 0 0.02376245041688628 0.012865071390308923 0 0.023803048935959917 0.011873349616462889 0 0.025374452310125667 0.011607716620110429 0 0.041116138565593527 -0.0088248834731659738 0 0.046658852163672611 -0.0077184689919540901 0 0.028819470391854545 0.011861283246170914 0 0.025374452310125667 0.011607716620110429 0 0.023810123217753696 0.0092299369098708464 0 0.023556614985144657 0.01349192547899076 0 0.028819470391854545 0.011861283246170914 0 0.025374452310125667 0.011607716620110429 0 0.028819470391854545 0.011861283246170914 0 0.029385765713720893 0.0062471391504466721 0 0.023810123217753696 0.0092299369098708464 0 0.023103088086574873 0.01088024627677101 0 0.023810123217753696 0.0092299369098708464 0 0.022421381965973562 0.0097583568481845774 0 0.023103088086574873 0.01088024627677101 0 0.022421381965973562 0.0097583568481845774 0 0.021978696587078159 0.010543669105583893 0 0.023103088086574873 0.01088024627677101 0 0.02219088880885417 0.011391318157493308 0 0.021978696587078159 0.010543669105583893 0 0.023103088086574873 0.01088024627677101 0 0.023133266817222369 0.011968216750953505 0 0.02219088880885417 0.011391318157493308 0 0.021978696587078159 0.010543669105583893 0 0.021523225719618479 0.010557009551767979 0 0.021761518395190308 0.011269424718208477 0 0.02219088880885417 0.011391318157493308 0 0.021978696587078159 0.010543669105583893 0 0.021761518395190308 0.011269424718208477 0 0.021523225719618479 0.010557009551767979 0 0.021395113701638605 0.010943325781684119 0 0.021761518395190308 0.011269424718208477 0 0.021978696587078159 0.010543669105583893 0 0.021707510183482239 0.010020495930910398 0 0.021523225719618479 0.010557009551767979 0 0.022421381965973562 0.0097583568481845774 0 0.021978696587078159 0.010543669105583893 0 0.021707510183482239 0.010020495930910398 0 0.021707510183482239 0.010020495930910398 0 0.021182121869634824 0.010219895467766096 0 0.021523225719618479 0.010557009551767979 0 0.021182121869634824 0.010219895467766096 0 0.020910405263088228 0.010306062991897827 0 0.021244788116116891 0.010487335112855245 0 0.021182121869634824 0.010219895467766096 0 0.021523225719618479 0.010557009551767979 0 0.021244788116116891 0.010487335112855245 0 0.021182121869634824 0.010219895467766096 0 0.020910405263088228 0.010306062991897827 0 0.020912582585354774 0.010350330763497957 0 0.020910405263088228 0.010306062991897827 0 0.020912582585354774 0.010350330763497957 0 0.021363916498200654 0.0097510143053630999 0 0.020910405263088228 0.010306062991897827 0 0.01995670535314591 0.0089515398474650891 0 0.021363916498200654 0.0097510143053630999 0 0.02400424900824814 0.0070340767191146812 0 0.024614360148191509 0.0055415378769056159 0 0.020910405263088228 0.010306062991897827 0 0.021395113701638605 0.010943325781684119 0 0.0213316317366554 0.011456145076613286 0 0.020910405263088228 0.010306062991897827 0 0.021244788116116891 0.010487335112855245 0 0.021395113701638605 0.010943325781684119 0 0.021523225719618479 0.010557009551767979 0 0.021244788116116891 0.010487335112855245 0 0.021395113701638605 0.010943325781684119 0 0.020910405263088228 0.010306062991897827 0 0.01995670535314591 0.0089515398474650891 0 0.019089853736369542 0.0087356820210264027 0 0.021395113701638605 0.010943325781684119 0 0.0213316317366554 0.011456145076613286 0 0.021575990329052785 0.011352108911331645 0 0.01995670535314591 0.0089515398474650891 0 0.019089853736369542 0.0087356820210264027 0 0.02002393893921188 0.006743723284686174 0 0.017450677376931466 -0.00026311272288024261 0 0.018853773358301861 0.0051889269606942559 0 0.01995670535314591 0.0089515398474650891 0 0.02132496241278109 0.0072420939276079521 0 0.021363916498200654 0.0097510143053630999 0 0.017138163161655093 0.0032298044369899635 0 0.017450677376931466 -0.00026311272288024261 0 0.023175082444617561 0.0054354571555252692 0 0.02002393893921188 0.006743723284686174 0 0.019941110850770438 0.0050842679322011409 0 0.01995670535314591 0.0089515398474650891 0 0.023175082444617561 0.0054354571555252692 0 0.02002393893921188 0.006743723284686174 0 0.019089853736369542 0.0087356820210264027 0 0.02002393893921188 0.006743723284686174 0 0.018422474009413228 0.0049811606736639034 0 0.02002393893921188 0.006743723284686174 0 0.019941110850770438 0.0050842679322011409 0 0.018422474009413228 0.0049811606736639034 0 0.021878799034046433 0.012064037131770304 0 0.021716660233776577 0.011540649752610125 0 0.022009004731204963 0.011590989771482863 0 0.026854346248542049 -1.1906641339667946e-05 0 0.02419860843170699 0.0073379683431223867 0 0.019089853736369542 0.0087356820210264027 0 0.018422474009413228 0.0049811606736639034 0 0.016102097031256188 0.0051151500756565181 0 0.02140295234548888 0.014271768525143389 0 0.02193293024561422 0.013801808511347442 0 0.021743364425826976 0.013094153690249971 0 0.024614360148191509 0.0055415378769056159 0 0.026854346248542049 -1.1906641339667946e-05 0 0.0213316317366554 0.011456145076613286 0 0.021878799034046433 0.012064037131770304 0 0.021716660233776577 0.011540649752610125 0 0.02140295234548888 0.014271768525143389 0 0.02193293024561422 0.013801808511347442 0 0.021681772984897478 0.014636281615727267 0 0.041146448175524972 -0.0094208347679774034 0 0.041211178537523471 -0.011307026604488062 0 0.042876602271071929 -0.011108106635243958 0 0.032690638186842924 -0.0040357224955975086 0 0.028105325316376849 -0.0045152692508069435 0 0.022705076349774797 0.013737740059658089 0 0.02193293024561422 0.013801808511347442 0 0.021681772984897478 0.014636281615727267 0 0.022705076349774797 0.013737740059658089 0 0.02193293024561422 0.013801808511347442 0 0.021743364425826976 0.013094153690249971 0 0.02219088880885417 0.011391318157493308 0 0.022928353889360868 0.012675770295983678 0 0.021743364425826976 0.013094153690249971 0 0.023598636456585876 0.0089372750276295702 0 0.02419860843170699 0.0073379683431223867 0 0.022705076349774797 0.013737740059658089 0 0.022928353889360868 0.012675770295983678 0 0.021743364425826976 0.013094153690249971 0 0.023133266817222369 0.011968216750953505 0 0.02219088880885417 0.011391318157493308 0 0.022928353889360868 0.012675770295983678 0 0.02219088880885417 0.011391318157493308 0 0.021761518395190308 0.011269424718208477 0 0.022009004731204963 0.011590989771482863 0 0.021575990329052785 0.011352108911331645 0 0.021761518395190308 0.011269424718208477 0 0.021716660233776577 0.011540649752610125 0 0.021395113701638605 0.010943325781684119 0 0.021575990329052785 0.011352108911331645 0 0.021761518395190308 0.011269424718208477 0 0.0213316317366554 0.011456145076613286 0 0.021575990329052785 0.011352108911331645 0 0.021716660233776577 0.011540649752610125 0 0.021761518395190308 0.011269424718208477 0 0.021716660233776577 0.011540649752610125 0 0.022009004731204963 0.011590989771482863 0 0.025474205196079132 0.0026105578600912182 0 0.023085193402103868 0.0023477074941069239 0 0.023795419994218168 0.0049759466100335829 0 0.023085193402103868 0.0023477074941069239 0 0.023795419994218168 0.0049759466100335829 0 0.021750529334333059 0.003723619476994349 0 0.023795419994218168 0.0049759466100335829 0 0.021952454894110341 0.0055116507047191475 0 0.021750529334333059 0.003723619476994349 0 0.023085193402103868 0.0023477074941069239 0 0.021750529334333059 0.003723619476994349 0 0.021514580087954358 0.0014952224684554316 0 0.021750529334333059 0.003723619476994349 0 0.019379852659030309 0.0024312757680722756 0 0.021514580087954358 0.0014952224684554316 0 0.021750529334333059 0.003723619476994349 0 0.019379852659030309 0.0024312757680722756 0 0.01937655934300472 0.0048488470010194969 0 0.019379852659030309 0.0024312757680722756 0 0.01937655934300472 0.0048488470010194969 0 0.018225875229262726 0.003898463798109156 0 0.021300513955990537 0.0055738556909057813 0 0.020722399704370328 0.0061247417528125948 0 0.021450885619290438 0.0067747617184363432 0 0.021952454894110341 0.0055116507047191475 0 0.021051465191242784 0.0051352436445642477 0 0.021952454894110341 0.0055116507047191475 0 0.021750529334333059 0.003723619476994349 0 0.021051465191242784 0.0051352436445642477 0 0.01937655934300472 0.0048488470010194969 0 0.017115598610490858 0.0059860872249238176 0 0.018225875229262726 0.003898463798109156 0 0.017115598610490858 0.0059860872249238176 0 0.018225875229262726 0.003898463798109156 0 0.017039093037538949 0.0023379616540636972 0 0.020722399704370328 0.0061247417528125948 0 0.019922239163325001 0.0072906535628291273 0 0.019922239163325001 0.0072906535628291273 0 0.018853773358301861 0.0051889269606942559 0 0.019379852659030309 0.0024312757680722756 0 0.018225875229262726 0.003898463798109156 0 0.017039093037538949 0.0023379616540636972 0 0.019379852659030309 0.0024312757680722756 0 0.017039093037538949 0.0023379616540636972 0 0.018576435802093064 0.00057811025710552302 0 0.017026213030834642 -0.0010634450239462173 0 0.017039093037538949 0.0023379616540636972 0 0.018576435802093064 0.00057811025710552302 0 0.017026213030834642 -0.0010634450239462173 0 0.018576435802093064 0.00057811025710552302 0 0.019644049585828639 -0.0012323621035758843 0 0.019644049585828639 -0.0012323621035758843 0 0.020197218469858075 0.00041808907262610935 0 0.021611338983163222 -0.00048951210133193297 0 0.018576435802093064 0.00057811025710552302 0 0.019644049585828639 -0.0012323621035758843 0 0.020197218469858075 0.00041808907262610935 0 0.019379852659030309 0.0024312757680722756 0 0.018576435802093064 0.00057811025710552302 0 0.020197218469858075 0.00041808907262610935 0 0.019379852659030309 0.0024312757680722756 0 0.020197218469858075 0.00041808907262610935 0 0.021514580087954358 0.0014952224684554316 0 0.020197218469858075 0.00041808907262610935 0 0.021514580087954358 0.0014952224684554316 0 0.021611338983163222 -0.00048951210133193297 0 0.021514580087954358 0.0014952224684554316 0 0.021611338983163222 -0.00048951210133193297 0 0.022593634181715588 0.00068796736437798302 0 0.023085193402103868 0.0023477074941069239 0 0.021514580087954358 0.0014952224684554316 0 0.022593634181715588 0.00068796736437798302 0 0.019644049585828639 -0.0012323621035758843 0 0.021611338983163222 -0.00048951210133193297 0 0.021052680066029148 -0.0026582686191080839 0 0.021611338983163222 -0.00048951210133193297 0 0.023046249371847686 -0.00017720297118647323 0 0.022593634181715588 0.00068796736437798302 0 0.021611338983163222 -0.00048951210133193297 0 0.023046249371847686 -0.00017720297118647323 0 0.022570313498043601 -0.0019374815547149487 0 0.023046249371847686 -0.00017720297118647323 0 0.023615118030703722 0.00051696306040920949 0 0.022593634181715588 0.00068796736437798302 0 0.025474205196079132 0.0026105578600912182 0 0.023085193402103868 0.0023477074941069239 0 0.023615118030703722 0.00051696306040920949 0 0.023469687447142697 2.0892100736144147e-05 0 0.023046249371847686 -0.00017720297118647323 0 0.023615118030703722 0.00051696306040920949 0 0.023085193402103868 0.0023477074941069239 0 0.023615118030703722 0.00051696306040920949 0 0.022593634181715588 0.00068796736437798302 0 0.024320858560226411 -0.0029046673377965747 0 0.0225892951532598 -0.0035724650416524223 0 0.023226121959754608 -0.0053136682266686818 0 0.021742564928474477 -0.0030595624221653713 0 0.021956327480922213 -0.0020920264462741429 0 0.024320858560226411 -0.0029046673377965747 0 0.023046249371847686 -0.00017720297118647323 0 0.022570313498043601 -0.0019374815547149487 0 0.024320858560226411 -0.0029046673377965747 0 0.0225892951532598 -0.0035724650416524223 0 0.022570313498043601 -0.0019374815547149487 0 0.0225892951532598 -0.0035724650416524223 0 0.022570313498043601 -0.0019374815547149487 0 0.021052680066029148 -0.0026582686191080839 0 0.021611338983163222 -0.00048951210133193297 0 0.022570313498043601 -0.0019374815547149487 0 0.021052680066029148 -0.0026582686191080839 0 0.0225892951532598 -0.0035724650416524223 0 0.020570772515831115 -0.0052996742099586866 0 0.023226121959754608 -0.0053136682266686818 0 0.0225892951532598 -0.0035724650416524223 0 0.021052680066029148 -0.0026582686191080839 0 0.020570772515831115 -0.0052996742099586866 0 0.013707707801512163 -0.011283894914196695 0 0.014034349851322072 -0.014894020059647498 0 0.016575805957132161 -0.01489484301438841 0 0.021052680066029148 -0.0026582686191080839 0 0.018865797064985076 -0.0032152874585864317 0 0.020570772515831115 -0.0052996742099586866 0 0.017676300439658951 -0.0057988391286118114 0 0.018352354426766665 -0.010091473798597934 0 0.019644049585828639 -0.0012323621035758843 0 0.021052680066029148 -0.0026582686191080839 0 0.018865797064985076 -0.0032152874585864317 0 0.017450677376931466 -0.00026311272288024261 0 0.017676300439658951 -0.0057988391286118114 0 0.017026213030834642 -0.0010634450239462173 0 0.019644049585828639 -0.0012323621035758843 0 0.018865797064985076 -0.0032152874585864317 0 0.010807809773339169 -0.0076479510844085826 0 0.013707707801512163 -0.011283894914196695 0 0.010643602664345169 -0.011982517540530842 0 0.013707707801512163 -0.011283894914196695 0 0.012100539099733167 -0.014212048477068391 0 0.010643602664345169 -0.011982517540530842 0 0.013707707801512163 -0.011283894914196695 0 0.012100539099733167 -0.014212048477068391 0 0.014034349851322072 -0.014894020059647498 0 0.012100539099733167 -0.014212048477068391 0 0.010643602664345169 -0.011982517540530842 0 0.010490197884318736 -0.016501402371956266 0 0.012100539099733167 -0.014212048477068391 0 0.012458292529094962 -0.01665631778567336 0 0.014034349851322072 -0.014894020059647498 0 0.012100539099733167 -0.014212048477068391 0 0.012458292529094962 -0.01665631778567336 0 0.010490197884318736 -0.016501402371956266 0 0.017753994263958753 -0.014626820256174504 0 0.018946797467030985 -0.014598535979968442 0 0.012458292529094962 -0.01665631778567336 0 0.013552483715452165 -0.019511572759066589 0 0.010508047860436303 -0.016499519238116385 0 0.016987911246554285 -0.016886623057981952 0 0.018946797467030985 -0.014598535979968442 0 0.012458292529094962 -0.01665631778567336 0 0.013552483715452165 -0.019511572759066589 0 0.015048797932623707 -0.017277788461185543 0 0.013661556578943823 -0.019892449700239838 0 0.010767009417016703 -0.01707306154166123 0 0.010581217066258829 -0.022019224997916233 0 0.013552483715452165 -0.019511572759066589 0 0.015048797932623707 -0.017277788461185543 0 0.016645408354533257 -0.019770080245018886 0 0.015048797932623707 -0.017277788461185543 0 0.014034349851322072 -0.014894020059647498 0 0.016575805957132161 -0.01489484301438841 0 0.012458292529094962 -0.01665631778567336 0 0.015048797932623707 -0.017277788461185543 0 0.014034349851322072 -0.014894020059647498 0 0.018352354426766665 -0.010091473798597934 0 0.018689531599333033 -0.014115081927159668 0 0.020570772515831115 -0.0052996742099586866 0 0.022229088242705791 -0.0073921415754341652 0 0.023226121959754608 -0.0053136682266686818 0 0.015048797932623707 -0.017277788461185543 0 0.016575805957132161 -0.01489484301438841 0 0.01945070307188957 -0.018499904924541285 0 0.015048797932623707 -0.017277788461185543 0 0.016645408354533257 -0.019770080245018886 0 0.01945070307188957 -0.018499904924541285 0 0.016645408354533257 -0.019770080245018886 0 0.01945070307188957 -0.018499904924541285 0 0.018600462189609489 -0.021068682520378603 0 0.024481107507380449 -0.0075271278477273829 0 0.022229088242705791 -0.0073921415754341652 0 0.023226121959754608 -0.0053136682266686818 0 0.024481107507380449 -0.0075271278477273829 0 0.023880580313510921 -0.009490447491081808 0 0.022229088242705791 -0.0073921415754341652 0 0.026473232770875214 -0.0050569759640780605 0 0.027634891303388639 -0.0094554243274462477 0 0.028295346932377424 -0.01182188162262573 0 0.028138184735574532 -0.013206866493829957 0 0.027309412240496524 -0.010748174862876466 0 0.028775515668663081 -0.012299906340136372 0 0.028295346932377424 -0.01182188162262573 0 0.028138184735574532 -0.013206866493829957 0 0.028775515668663081 -0.012299906340136372 0 0.028295346932377424 -0.01182188162262573 0 0.02896074374552866 -0.011029706484148367 0 0.030906168628471946 -0.011390500634324544 0 0.029887665653484011 -0.012662001811103749 0 0.02896074374552866 -0.011029706484148367 0 0.028775515668663081 -0.012299906340136372 0 0.029887665653484011 -0.012662001811103749 0 0.02896074374552866 -0.011029706484148367 0 0.039865217579282616 -0.01799530109020506 0 0.034150553284336069 -0.011488254753446048 0 0.034150553284336069 -0.011488254753446048 0 0.028105325316376849 -0.0045152692508069435 0 0.028775515668663081 -0.012299906340136372 0 0.029887665653484011 -0.012662001811103749 0 0.028883800897321833 -0.013920934681102205 0 0.041437802393882159 -0.012998609280431435 0 0.041211178537523471 -0.011307026604488062 0 0.042876602271071929 -0.011108106635243958 0 0.039378378786133338 -0.011704945285659128 0 0.041437802393882159 -0.012998609280431435 0 0.041211178537523471 -0.011307026604488062 0 0.026854346248542049 -1.1906641339667946e-05 0 0.028105325316376849 -0.0045152692508069435 0 0.026854346248542049 -1.1906641339667946e-05 0 0.026473232770875214 -0.0050569759640780605 0 0.028105325316376849 -0.0045152692508069435 0 0.026473232770875214 -0.0050569759640780605 0 0.028775515668663081 -0.012299906340136372 0 0.028883800897321833 -0.013920934681102205 0 0.028138184735574532 -0.013206866493829957 0 0.025541185720588371 -0.0064631602862611813 0 0.02633278842765947 -0.0054491387589463182 0 0.024679156066434806 -0.0038597839115940133 0 0.018422474009413228 0.0049811606736639034 0 0.016102097031256188 0.0051151500756565181 0 0.016843357870004669 0.0028083514680817671 0 0.018422474009413228 0.0049811606736639034 0 0.016843357870004669 0.0028083514680817671 0 0.019778156707072208 0.0026145206249572773 0 0.019941110850770438 0.0050842679322011409 0 0.018422474009413228 0.0049811606736639034 0 0.019778156707072208 0.0026145206249572773 0 0.017450677376931466 -0.00026311272288024261 0 0.017933984614509384 -0.0061677778437038994 0 0.023175082444617561 0.0054354571555252692 0 0.019778156707072208 0.0026145206249572773 0 0.023079872452453177 0.0012324830866220703 0 0.023175082444617561 0.0054354571555252692 0 0.019941110850770438 0.0050842679322011409 0 0.019778156707072208 0.0026145206249572773 0 0.019778156707072208 0.0026145206249572773 0 0.023079872452453177 0.0012324830866220703 0 0.019722985827552889 -5.1409115253094186e-05 0 0.023079872452453177 0.0012324830866220703 0 0.019722985827552889 -5.1409115253094186e-05 0 0.022660580728825926 -0.0029527851254829407 0 0.016843357870004669 0.0028083514680817671 0 0.019778156707072208 0.0026145206249572773 0 0.019722985827552889 -5.1409115253094186e-05 0 0.026473232770875214 -0.0050569759640780605 0 0.022501552582554145 -0.0083541818124929189 0 0.027897450205297429 -0.012665307026991264 0 0.026726638756432084 -0.011557151293813446 0 0.027309412240496524 -0.010748174862876466 0 0.026726638756432084 -0.011557151293813446 0 0.027061958692583571 -0.010649347766014556 0 0.025481067584543025 -0.010412153031633902 0 0.026726638756432084 -0.011557151293813446 0 0.027309412240496524 -0.010748174862876466 0 0.027061958692583571 -0.010649347766014556 0 0.017270641539610294 -0.018049238559913392 0 0.01939862908948535 -0.019506888199944932 0 0.021887786634406665 -0.018811930105715132 0 0.022501552582554145 -0.0083541818124929189 0 0.019931728637162277 -0.014503710903607074 0 0.023079872452453177 0.0012324830866220703 0 0.022931852299255425 -0.0032175585013602044 0 0.022660580728825926 -0.0029527851254829407 0 0.017933984614509384 -0.0061677778437038994 0 0.018946797467030985 -0.014598535979968442 0 0.027315233726554207 -0.019755055231957835 0 0.019931728637162277 -0.014503710903607074 0 0.01939862908948535 -0.019506888199944932 0 0.022214572160588208 -0.019128036690042195 0 0.021887786634406665 -0.018811930105715132 0 0.018946797467030985 -0.014598535979968442 0 0.019931728637162277 -0.014503710903607074 0 0.018946797467030985 -0.014598535979968442 0 0.016797255058366923 -0.023185991986129237 0 0.01939862908948535 -0.019506888199944932 0 0.022214572160588208 -0.019128036690042195 0 0.019967716421401133 -0.022694234591254983 0 0.022214572160588208 -0.019128036690042195 0 0.019967716421401133 -0.022694234591254983 0 0.021990500112439106 -0.025352316288793409 0 0.017270641539610294 -0.018049238559913392 0 0.01939862908948535 -0.019506888199944932 0 0.017080423746188997 -0.023577287954522932 0 0.027315233726554207 -0.019755055231957835 0 0.026990129314766236 -0.025168429339551684 0 0.01939862908948535 -0.019506888199944932 0 0.019967716421401133 -0.022694234591254983 0 0.017080423746188997 -0.023577287954522932 0 0.038086232962681092 -0.02390937951992016 0 0.035820514905365357 -0.025701639718671027 0 0.038005730461893913 -0.027192794787489143 0 0.038086232962681092 -0.02390937951992016 0 0.035820514905365357 -0.025701639718671027 0 0.035425768772234627 -0.023371697335383076 0 0.027315233726554207 -0.019755055231957835 0 0.032797891725978766 -0.018507626099015462 0 0.028295346932377424 -0.01182188162262573 0 0.027309412240496524 -0.010748174862876466 0 0.02896074374552866 -0.011029706484148367 0 0.027309412240496524 -0.010748174862876466 0 0.027061958692583571 -0.010649347766014556 0 0.02896074374552866 -0.011029706484148367 0 0.03274865714826182 -0.022875093789249127 0 0.035425768772234627 -0.023371697335383076 0 0.033701069196910134 -0.024248633533001999 0 0.039865217579282616 -0.01799530109020506 0 0.032797891725978766 -0.018507626099015462 0 0.035820514905365357 -0.025701639718671027 0 0.035425768772234627 -0.023371697335383076 0 0.033701069196910134 -0.024248633533001999 0 0.035820514905365357 -0.025701639718671027 0 0.033701069196910134 -0.024248633533001999 0 0.033486099014773556 -0.027285575224189607 0 0.033486099014773556 -0.027285575224189607 0 0.034843288503072757 -0.029775074468001105 0 0.036143042586808886 -0.028398178842416334 0 0.044403361965937166 -0.026904819573134044 0 0.042647057076681726 -0.02942768552896453 0 0.035820514905365357 -0.025701639718671027 0 0.033486099014773556 -0.027285575224189607 0 0.036143042586808886 -0.028398178842416334 0 0.048879907831333794 -0.02867998197155118 0 0.049501176843523814 -0.029819179296173257 0 0.048674803835362282 -0.029904351373749239 0 0.049501176843523814 -0.029819179296173257 0 0.049197556985447061 -0.030629547818819054 0 0.048674803835362282 -0.029904351373749239 0 0.036603852833162046 -0.030353793007033645 0 0.036143042586808886 -0.028398178842416334 0 0.037932943325200273 -0.030523570852381256 0 0.034843288503072757 -0.029775074468001105 0 0.036603852833162046 -0.030353793007033645 0 0.036231880880652823 -0.032275049740574976 0 0.034843288503072757 -0.029775074468001105 0 0.036603852833162046 -0.030353793007033645 0 0.036143042586808886 -0.028398178842416334 0 0.035820514905365357 -0.025701639718671027 0 0.036143042586808886 -0.028398178842416334 0 0.038005730461893913 -0.027192794787489143 0 0.017080423746188997 -0.023577287954522932 0 0.019152915798463045 -0.025913587286482461 0 0.016887043893162566 -0.029125566844047199 0 0.026990129314766236 -0.025168429339551684 0 0.02636543223020656 -0.029875974752511764 0 0.036143042586808886 -0.028398178842416334 0 0.038005730461893913 -0.027192794787489143 0 0.037932943325200273 -0.030523570852381256 0 0.019967716421401133 -0.022694234591254983 0 0.017080423746188997 -0.023577287954522932 0 0.019152915798463045 -0.025913587286482461 0 0.019967716421401133 -0.022694234591254983 0 0.019152915798463045 -0.025913587286482461 0 0.021990500112439106 -0.025352316288793409 0 0.016797255058366923 -0.023185991986129237 0 0.01507791766168402 -0.029602250313737311 0 0.021990500112439106 -0.025352316288793409 0 0.019618466543912735 -0.028864201132404937 0 0.021753530201205303 -0.031597384632953189 0 0.010581217066258829 -0.022019224997916233 0 0.010634596660900959 -0.026567270085897925 0 0.011214840860245601 -0.026018551112068487 0 0.019152915798463045 -0.025913587286482461 0 0.021990500112439106 -0.025352316288793409 0 0.019618466543912735 -0.028864201132404937 0 0.019152915798463045 -0.025913587286482461 0 0.019618466543912735 -0.028864201132404937 0 0.016887043893162566 -0.029125566844047199 0 0.036603852833162046 -0.030353793007033645 0 0.037932943325200273 -0.030523570852381256 0 0.037810039421544095 -0.030963147737862944 0 0.037932943325200273 -0.030523570852381256 0 0.037810039421544095 -0.030963147737862944 0 0.037704734949683981 -0.034338644276723541 0 0.02636543223020656 -0.029875974752511764 0 0.025144369450903051 -0.034719888671655035 0 0.037810039421544095 -0.030963147737862944 0 0.037340409727676334 -0.032880500755220671 0 0.037704734949683981 -0.034338644276723541 0 0.016887043893162566 -0.029125566844047199 0 0.018935248921896991 -0.031848444246167611 0 0.016704395311952572 -0.03468065931129842 0 0.019618466543912735 -0.028864201132404937 0 0.016887043893162566 -0.029125566844047199 0 0.018935248921896991 -0.031848444246167611 0 0.019618466543912735 -0.028864201132404937 0 0.018935248921896991 -0.031848444246167611 0 0.021753530201205303 -0.031597384632953189 0 0.018935248921896991 -0.031848444246167611 0 0.021753530201205303 -0.031597384632953189 0 0.019406787655398852 -0.034655486254256324 0 0.010634596660900959 -0.026567270085897925 0 0.011374288313801533 -0.026960658318761016 0 0.01087369098015897 -0.027915554784666681 0 0.01507791766168402 -0.029602250313737311 0 0.012391853877392622 -0.040187484521507978 0 0.021753530201205303 -0.031597384632953189 0 0.019406787655398852 -0.034655486254256324 0 0.021507549701494454 -0.037829039654627111 0 0.019406787655398852 -0.034655486254256324 0 0.018854303410868148 -0.03726844335875059 0 0.021507549701494454 -0.037829039654627111 0 0.037340409727676334 -0.032880500755220671 0 0.037704734949683981 -0.034338644276723541 0 0.037200650346554377 -0.033597789921344393 0 0.037704734949683981 -0.034338644276723541 0 0.037015339809581299 -0.034329530405428625 0 0.037200650346554377 -0.033597789921344393 0 0.018935248921896991 -0.031848444246167611 0 0.019406787655398852 -0.034655486254256324 0 0.016704395311952572 -0.03468065931129842 0 0.019406787655398852 -0.034655486254256324 0 0.017994806058335474 -0.036205522893812465 0 0.018854303410868148 -0.03726844335875059 0 0.019406787655398852 -0.034655486254256324 0 0.016704395311952572 -0.03468065931129842 0 0.017994806058335474 -0.036205522893812465 0 0.036930512104832024 -0.034951290419794154 0 0.036179545287508094 -0.035056886291778833 0 0.036971402305216873 -0.035850443444706587 0 0.037015339809581299 -0.034329530405428625 0 0.036179545287508094 -0.035056886291778833 0 0.036370554522398874 -0.033193879382402439 0 0.036179545287508094 -0.035056886291778833 0 0.034807748967238407 -0.034609379025121914 0 0.036370554522398874 -0.033193879382402439 0 0.036930512104832024 -0.034951290419794154 0 0.037015339809581299 -0.034329530405428625 0 0.036179545287508094 -0.035056886291778833 0 0.037704734949683981 -0.034338644276723541 0 0.036930512104832024 -0.034951290419794154 0 0.036971402305216873 -0.035850443444706587 0 0.037704734949683981 -0.034338644276723541 0 0.036930512104832024 -0.034951290419794154 0 0.037015339809581299 -0.034329530405428625 0 0.037015339809581299 -0.034329530405428625 0 0.037200650346554377 -0.033597789921344393 0 0.035936992437914206 -0.032528530365666573 0 0.040678263233697914 -0.031783882135788838 0 0.041009692746840819 -0.031664339476080876 0 0.036179545287508094 -0.035056886291778833 0 0.034807748967238407 -0.034609379025121914 0 0.035646332884055623 -0.035775808325454871 0 0.044314566381858544 -0.03342315386127228 0 0.041009692746840819 -0.031664339476080876 0 0.049174643468376904 -0.031744663791392014 0 0.049197556985447061 -0.030629547818819054 0 0.050112147099548386 -0.030937415434792375 0 0.049501176843523814 -0.029819179296173257 0 0.049197556985447061 -0.030629547818819054 0 0.050112147099548386 -0.030937415434792375 0 0.049174643468376904 -0.031744663791392014 0 0.049197556985447061 -0.030629547818819054 0 0.048519989154326454 -0.030729968874586303 0 0.042647057076681726 -0.02942768552896453 0 0.041009692746840819 -0.031664339476080876 0 0.037810039421544095 -0.030963147737862944 0 0.037340409727676334 -0.032880500755220671 0 0.035936992437914206 -0.032528530365666573 0 0.036603852833162046 -0.030353793007033645 0 0.037810039421544095 -0.030963147737862944 0 0.036231880880652823 -0.032275049740574976 0 0.040167179190108225 -0.032046298113248349 0 0.041009692746840819 -0.031664339476080876 0 0.037340409727676334 -0.032880500755220671 0 0.037200650346554377 -0.033597789921344393 0 0.035936992437914206 -0.032528530365666573 0 0.017070402955084857 -0.017893373264141754 0 0.01520626690946413 -0.021270340548492639 0 0.012440458269882994 -0.027176788160428476 0 0.012389576372370202 -0.027183440510484849 0 0.012414659819460761 -0.027203025718373228 0 0.01520238658020932 -0.018448181521476641 0 0.012259317072311655 -0.023574827084483004 0 0.015212236976891272 -0.025012687153421146 0 0.013531066349275563 -0.02522775463590116 0 0.013680934844371113 -0.026051123277662243 0 0.015212236976891272 -0.025012687153421146 0 0.014949411443492818 -0.024688016624781026 0 0.013531066349275563 -0.02522775463590116 0 0.017070402955084857 -0.017893373264141754 0 0.018689531599333033 -0.014115081927159668 0 0.022349999955731344 -0.022098432780911257 0 0.01945070307188957 -0.018499904924541285 0 0.018600462189609489 -0.021068682520378603 0 0.022349999955731344 -0.022098432780911257 0 0.018600462189609489 -0.021068682520378603 0 0.018529912790535542 -0.023493117369907932 0 0.018600462189609489 -0.021068682520378603 0 0.016618553797987958 -0.022593031291153805 0 0.018529912790535542 -0.023493117369907932 0 0.016645408354533257 -0.019770080245018886 0 0.018600462189609489 -0.021068682520378603 0 0.016618553797987958 -0.022593031291153805 0 0.013531066349275563 -0.02522775463590116 0 0.012180170067370204 -0.025769731240097352 0 0.013680934844371113 -0.026051123277662243 0 0.016618553797987958 -0.022593031291153805 0 0.018529912790535542 -0.023493117369907932 0 0.014783397826617322 -0.024822211622302765 0 0.01520626690946413 -0.021270340548492639 0 0.01338862023086013 -0.023191131685214948 0 0.014783397826617322 -0.024822211622302765 0 0.013999112402028018 -0.02233651653823001 0 0.012543312669506278 -0.023768112221314773 0 0.016618553797987958 -0.022593031291153805 0 0.014783397826617322 -0.024822211622302765 0 0.013999112402028018 -0.02233651653823001 0 0.013661556578943823 -0.019892449700239838 0 0.016618553797987958 -0.022593031291153805 0 0.013999112402028018 -0.02233651653823001 0 0.013552483715452165 -0.019511572759066589 0 0.016645408354533257 -0.019770080245018886 0 0.016618553797987958 -0.022593031291153805 0 0.016987911246554285 -0.016886623057981952 0 0.017349839062939642 -0.018433407138419799 0 0.013661556578943823 -0.019892449700239838 0 0.010581217066258829 -0.022019224997916233 0 0.013999112402028018 -0.02233651653823001 0 0.010581217066258829 -0.022019224997916233 0 0.013999112402028018 -0.02233651653823001 0 0.012543312669506278 -0.023768112221314773 0 0.010581217066258829 -0.022019224997916233 0 0.012543312669506278 -0.023768112221314773 0 0.011214840860245601 -0.026018551112068487 0 0.014783397826617322 -0.024822211622302765 0 0.012543312669506278 -0.023768112221314773 0 0.011214840860245601 -0.026018551112068487 0 0.012180170067370204 -0.025769731240097352 0 0.011214840860245601 -0.026018551112068487 0 0.011743469129695469 -0.026429938290903999 0 0.011743469129695469 -0.026429938290903999 0 0.011374288313801533 -0.026960658318761016 0 0.012181779712050136 -0.027013817810768049 0 0.01338862023086013 -0.023191131685214948 0 0.012423640743410517 -0.023903092104986989 0 0.010634596660900959 -0.026567270085897925 0 0.011214840860245601 -0.026018551112068487 0 0.011374288313801533 -0.026960658318761016 0 0.011214840860245601 -0.026018551112068487 0 0.011743469129695469 -0.026429938290903999 0 0.011374288313801533 -0.026960658318761016 0 0.011374288313801533 -0.026960658318761016 0 0.011669845265970008 -0.027465560640745797 0 0.012181779712050136 -0.027013817810768049 0 0.011374288313801533 -0.026960658318761016 0 0.011669845265970008 -0.027465560640745797 0 0.01087369098015897 -0.027915554784666681 0 0.012181779712050136 -0.027013817810768049 0 0.012260189988790277 -0.02729576786164481 0 0.012352322754576426 -0.027248949462124254 0 0.011669845265970008 -0.027465560640745797 0 0.012181779712050136 -0.027013817810768049 0 0.012117694395325673 -0.027481039763600872 0 0.012181779712050136 -0.027013817810768049 0 0.012117694395325673 -0.027481039763600872 0 0.012260189988790277 -0.02729576786164481 0 0.012117694395325673 -0.027481039763600872 0 0.012260189988790277 -0.02729576786164481 0 0.012280084561161121 -0.02742977608767596 0 0.012180170067370204 -0.025769731240097352 0 0.012181779712050136 -0.027013817810768049 0 0.013680934844371113 -0.026051123277662243 0 0.012180170067370204 -0.025769731240097352 0 0.011743469129695469 -0.026429938290903999 0 0.012181779712050136 -0.027013817810768049 0 0.011708810860204125 -0.024791196653423029 0 0.012259317072311655 -0.023574827084483004 0 0.012181779712050136 -0.027013817810768049 0 0.012367604585098863 -0.027185765943727621 0 0.012352322754576426 -0.027248949462124254 0 0.012181779712050136 -0.027013817810768049 0 0.012389576372370202 -0.027183440510484849 0 0.012367604585098863 -0.027185765943727621 0 0.012367604585098863 -0.027185765943727621 0 0.012352322754576426 -0.027248949462124254 0 0.012410805056531436 -0.027232734215229985 0 0.012260189988790277 -0.02729576786164481 0 0.012359224345609593 -0.027379453206905904 0 0.012352322754576426 -0.027248949462124254 0 0.012260189988790277 -0.02729576786164481 0 0.012280084561161121 -0.02742977608767596 0 0.012359224345609593 -0.027379453206905904 0 0.012359224345609593 -0.027379453206905904 0 0.012352322754576426 -0.027248949462124254 0 0.012412036625859853 -0.027291915057655679 0 0.012352322754576426 -0.027248949462124254 0 0.012412036625859853 -0.027291915057655679 0 0.012410805056531436 -0.027232734215229985 0 0.012412036625859853 -0.027291915057655679 0 0.01243384598996738 -0.027270232919449192 0 0.012410805056531436 -0.027232734215229985 0 0.012359224345609593 -0.027379453206905904 0 0.012412036625859853 -0.027291915057655679 0 0.012449766710714466 -0.027318451934582114 0 0.012412036625859853 -0.027291915057655679 0 0.01243384598996738 -0.027270232919449192 0 0.012449766710714466 -0.027318451934582114 0 0.012430475632989175 -0.02722836127212962 0 0.01243384598996738 -0.027270232919449192 0 0.012410805056531436 -0.027232734215229985 0 0.012367604585098863 -0.027185765943727621 0 0.012410805056531436 -0.027232734215229985 0 0.012414659819460761 -0.027203025718373228 0 0.012389576372370202 -0.027183440510484849 0 0.012367604585098863 -0.027185765943727621 0 0.012414659819460761 -0.027203025718373228 0 0.012430475632989175 -0.02722836127212962 0 0.012410805056531436 -0.027232734215229985 0 0.012414659819460761 -0.027203025718373228 0 0.012430475632989175 -0.02722836127212962 0 0.012432274876596063 -0.027206441938689985 0 0.012414659819460761 -0.027203025718373228 0 -0.0053539793955822111 -0.05787111265295123 0 -0.0070816025497733477 -0.057332794440363093 0 -0.0068670401899436403 -0.058786952424026012 0 -0.0070816025497733477 -0.057332794440363093 0 -0.0068670401899436403 -0.058786952424026012 0 -0.0090531637635516138 -0.059003079384415444 0 -0.0052376850437990431 -0.057315935425512249 0 -0.0050783882802430558 -0.056662812118879725 0 -0.0060514197611497194 -0.056847923238632581 0 -0.0052376850437990431 -0.057315935425512249 0 -0.0060514197611497194 -0.056847923238632581 0 -0.0061588550412574406 -0.057059100404719697 0 0.0031681743178267599 -0.041384499368816434 0 0.0026456489214361704 -0.045568708056601417 0 -0.0040951255409370328 -0.052657953585694008 0 0.0013621868525385561 -0.048672426342262189 0 0.012359224345609593 -0.027379453206905904 0 0.012449766710714466 -0.027318451934582114 0 0.012289451122023811 -0.027596109055156005 0 0.012280084561161121 -0.02742977608767596 0 0.012359224345609593 -0.027379453206905904 0 0.012289451122023811 -0.027596109055156005 0 -0.0070816025497733477 -0.057332794440363093 0 -0.01043616198065234 -0.056605995097916792 0 -0.0090531637635516138 -0.059003079384415444 0 0.0013621868525385561 -0.048672426342262189 0 0.0006621790857905738 -0.054072461916461333 0 -0.01043616198065234 -0.056605995097916792 0 -0.011732845484471665 -0.059082573174157708 0 -0.0090531637635516138 -0.059003079384415444 0 0.0094392692044863759 -0.047741942394724533 0 0.0079806850114208915 -0.047430103340068537 0 0.0084068217062031689 -0.04975600014213101 0 0.0026456489214361704 -0.045568708056601417 0 0.0075217702898433304 -0.04432216147787521 0 0.012117694395325673 -0.027481039763600872 0 0.012289451122023811 -0.027596109055156005 0 0.011701647861796836 -0.027955283855508547 0 0.00021653531182525576 -0.046035749833498188 0 0.0012050978075524592 -0.044153783845558632 0 0.0056959196683963251 -0.045096909106510465 0 0.0026456489214361704 -0.045568708056601417 0 0.0013621868525385561 -0.048672426342262189 0 0.012117694395325673 -0.027481039763600872 0 0.012280084561161121 -0.02742977608767596 0 0.012289451122023811 -0.027596109055156005 0 0.011669845265970008 -0.027465560640745797 0 0.012117694395325673 -0.027481039763600872 0 0.011701647861796836 -0.027955283855508547 0 0.0013621868525385561 -0.048672426342262189 0 0.0075217702898433304 -0.04432216147787521 0 0.0089941851509847594 -0.04312448812869521 0 0.013466735467493286 -0.044056290320579151 0 0.013526861759241076 -0.042340367234789116 0 0.0079806850114208915 -0.047430103340068537 0 0.0071637253618198858 -0.048870877857873259 0 0.0061822587951657704 -0.047736748412770237 0 0.0075217702898433304 -0.04432216147787521 0 0.012582255944920026 -0.042734083484556568 0 0.0075217702898433304 -0.04432216147787521 0 0.012391853877392622 -0.040187484521507978 0 0.011669845265970008 -0.027465560640745797 0 0.011701647861796836 -0.027955283855508547 0 0.01087369098015897 -0.027915554784666681 0 0.0079806850114208915 -0.047430103340068537 0 0.0071637253618198858 -0.048870877857873259 0 0.0084068217062031689 -0.04975600014213101 0 0.0073701028001041868 -0.051789937412322219 0 0.0084068217062031689 -0.04975600014213101 0 0.006081203254869977 -0.050565454859531067 0 0.0071637253618198858 -0.048870877857873259 0 0.0084068217062031689 -0.04975600014213101 0 0.006081203254869977 -0.050565454859531067 0 0.0023129330408867771 -0.056890061447511645 0 0.0006621790857905738 -0.054072461916461333 0 -0.010449137632269116 -0.062658610498328257 0 -0.013003176625684124 -0.061562693131340274 0 -0.010852112941230606 -0.060731717081325007 0 -0.010449137632269116 -0.062658610498328257 0 -0.010852112941230606 -0.060731717081325007 0 -0.0091864343462532676 -0.060990191569037698 0 -0.011732845484471665 -0.059082573174157708 0 -0.010852112941230606 -0.060731717081325007 0 -0.0090531637635516138 -0.059003079384415444 0 -0.013003176625684124 -0.061562693131340274 0 -0.011732845484471665 -0.059082573174157708 0 -0.010852112941230606 -0.060731717081325007 0 -0.0090531637635516138 -0.059003079384415444 0 -0.0091864343462532676 -0.060990191569037698 0 -0.0072881055042435007 -0.060191890281214723 0 -0.010852112941230606 -0.060731717081325007 0 -0.0090531637635516138 -0.059003079384415444 0 -0.0091864343462532676 -0.060990191569037698 0 -0.010449137632269116 -0.062658610498328257 0 -0.0091864343462532676 -0.060990191569037698 0 -0.0078772373405780038 -0.062185257982141515 0 -0.0053748043420329015 -0.061139400940477234 0 -0.0078772373405780038 -0.062185257982141515 0 -0.0072881055042435007 -0.060191890281214723 0 -0.0091864343462532676 -0.060990191569037698 0 -0.0078772373405780038 -0.062185257982141515 0 -0.0072881055042435007 -0.060191890281214723 0 -0.0068670401899436403 -0.058786952424026012 0 -0.0090531637635516138 -0.059003079384415444 0 -0.0072881055042435007 -0.060191890281214723 0 -0.0056020565582587615 -0.059569739109199403 0 -0.0068670401899436403 -0.058786952424026012 0 -0.0072881055042435007 -0.060191890281214723 0 0.03043479628593505 -0.041644235265890894 0 0.022705967975537922 -0.040775034115676644 0 0.03043479628593505 -0.041644235265890894 0 0.020153562431971674 -0.048158738236430958 0 0.022183708525241267 -0.04238505281390343 0 0.023429046887655437 -0.042221080984759296 0 0.023369143280760646 -0.043888131575293796 0 0.028083501616347435 -0.04647837139313795 0 0.028982292600545533 -0.045627982231868459 0 0.02901661514856535 -0.046632659249929112 0 0.034382187885259596 -0.038114388011816158 0 0.03434379216453181 -0.037358711065987656 0 0.035444080298904834 -0.037107605094726208 0 0.035932536740927598 -0.04124608221138195 0 0.03043479628593505 -0.041644235265890894 0 0.03434379216453181 -0.037358711065987656 0 0.035492995887708149 -0.037084159879325923 0 0.034805433467484312 -0.036224040567408779 0 0.031588511049863814 -0.041142133890691983 0 0.03043479628593505 -0.041644235265890894 0 0.034807748967238407 -0.034609379025121914 0 0.034805433467484312 -0.036224040567408779 0 0.033357449020049085 -0.03594058095615104 0 0.03043479628593505 -0.041644235265890894 0 0.030599716407275598 -0.041223021029632573 0 0.034807748967238407 -0.034609379025121914 0 0.034805433467484312 -0.036224040567408779 0 0.035646332884055623 -0.035775808325454871 0 0.035511013900696352 -0.037132952387847619 0 0.034805433467484312 -0.036224040567408779 0 0.035646332884055623 -0.035775808325454871 0 0.035219050438325225 -0.03747782091482111 0 0.036971402305216873 -0.035850443444706587 0 0.037520921483937507 -0.03713937412730664 0 0.036179545287508094 -0.035056886291778833 0 0.035646332884055623 -0.035775808325454871 0 0.036971402305216873 -0.035850443444706587 0 0.035511013900696352 -0.037132952387847619 0 0.035646332884055623 -0.035775808325454871 0 0.036971402305216873 -0.035850443444706587 0 0.03043479628593505 -0.041644235265890894 0 0.033233041187370527 -0.039069413387645663 0 0.017994806058335474 -0.036205522893812465 0 0.018854303410868148 -0.03726844335875059 0 0.016546860946990326 -0.040187394465632291 0 0.037704734949683981 -0.034338644276723541 0 0.036971402305216873 -0.035850443444706587 0 0.037520921483937507 -0.03713937412730664 0 0.025144369450903051 -0.034719888671655035 0 0.022705967975537922 -0.040775034115676644 0 0.016704395311952572 -0.03468065931129842 0 0.017994806058335474 -0.036205522893812465 0 0.016546860946990326 -0.040187394465632291 0 0.012582255944920026 -0.042734083484556568 0 0.022705967975537922 -0.040775034115676644 0 0.018854303410868148 -0.03726844335875059 0 0.021419045686224557 -0.039335937404246124 0 0.016546860946990326 -0.040187394465632291 0 0.018854303410868148 -0.03726844335875059 0 0.021467987384154757 -0.037831558068730418 0 0.021419045686224557 -0.039335937404246124 0 0.013849964267346688 -0.040233387884457801 0 0.012391853877392622 -0.040187484521507978 0 0.012391853877392622 -0.040187484521507978 0 0.012582255944920026 -0.042734083484556568 0 0.012582255944920026 -0.042734083484556568 0 0.011253510623581695 -0.048750288936831691 0 0.016130537245918508 -0.042881131604044567 0 0.014216425183607696 -0.045415969690566022 0 0.015983359419466749 -0.04701550748017172 0 0.0071637253618198858 -0.048870877857873259 0 0.0061822587951657704 -0.047736748412770237 0 0.006081203254869977 -0.050565454859531067 0 0.016130537245918508 -0.042881131604044567 0 0.012871016793769249 -0.043446329682822436 0 0.014216425183607696 -0.045415969690566022 0 0.012871016793769249 -0.043446329682822436 0 0.014216425183607696 -0.045415969690566022 0 0.012742967047125627 -0.047297286917042533 0 0.022705967975537922 -0.040775034115676644 0 0.020153562431971674 -0.048158738236430958 0 0.014216425183607696 -0.045415969690566022 0 0.012742967047125627 -0.047297286917042533 0 0.015983359419466749 -0.04701550748017172 0 0.0059895148756460197 -0.053418295195548526 0 0.0073701028001041868 -0.051789937412322219 0 0.006081203254869977 -0.050565454859531067 0 0.010096881160859531 -0.054545376416829071 0 0.011253510623581695 -0.048750288936831691 0 0.015823473380614465 -0.051152952590567131 0 0.015983359419466749 -0.04701550748017172 0 0.014282975200100429 -0.049224093523986774 0 0.019395147899993033 -0.053641514255448462 0 0.020153562431971674 -0.048158738236430958 0 0.012742967047125627 -0.047297286917042533 0 0.015983359419466749 -0.04701550748017172 0 0.014282975200100429 -0.049224093523986774 0 0.011668012186636623 -0.057171739527310299 0 0.011680688949227127 -0.057014723931515729 0 0.011716970486706437 -0.057103551860973788 0 0.020153562431971674 -0.048158738236430958 0 0.014899820326407796 -0.051563451851759423 0 0.030299188938316693 -0.049255716095771028 0 0.030367059464072674 -0.047379874999954226 0 0.028702897773566743 -0.04792252080749327 0 0.028982292600545533 -0.045627982231868459 0 0.030367059464072674 -0.047379874999954226 0 0.02901661514856535 -0.046632659249929112 0 0.030367059464072674 -0.047379874999954226 0 0.02901661514856535 -0.046632659249929112 0 0.028702897773566743 -0.04792252080749327 0 0.028083501616347435 -0.04647837139313795 0 0.02901661514856535 -0.046632659249929112 0 0.028702897773566743 -0.04792252080749327 0 0.028083501616347435 -0.04647837139313795 0 0.028702897773566743 -0.04792252080749327 0 0.027270479387699224 -0.04725239659998632 0 0.028492570151278134 -0.049425552300975312 0 0.027259901848899842 -0.048854352821653582 0 0.028702897773566743 -0.04792252080749327 0 0.043488099197963676 -0.043415355993518999 0 0.041378231543752801 -0.043662352751209506 0 0.042301005982904483 -0.037252079745946701 0 0.027259901848899842 -0.048854352821653582 0 0.028702897773566743 -0.04792252080749327 0 0.027270479387699224 -0.04725239659998632 0 0.040105514981688795 -0.045361065590617103 0 0.044094370741710867 -0.038628587585971097 0 0.043488099197963676 -0.043415355993518999 0 0.042301005982904483 -0.037252079745946701 0 0.04351766567865667 -0.036106851699572048 0 0.047358542328450715 -0.040455977700925516 0 0.048679532397234868 -0.036529679757957824 0 0.057548929143469318 -0.031841111952293284 0 0.048679532397234868 -0.036529679757957824 0 0.061165075841404015 -0.031733879484035096 0 0.060635958660568659 -0.032101385243335695 0 0.061075035215809821 -0.032101215891436594 0 0.05960685041197996 -0.03348859870658729 0 0.057742980205940972 -0.033604545164856232 0 0.057432960525502313 -0.035526786064732092 0 0.060920020659089531 -0.032235153271017752 0 0.060772845730199032 -0.032387291649567718 0 0.061162634254501066 -0.032356620601670459 0 0.060920020659089531 -0.032235153271017752 0 0.060635958660568659 -0.032101385243335695 0 0.061075035215809821 -0.032101215891436594 0 0.060920020659089531 -0.032235153271017752 0 0.060772845730199032 -0.032387291649567718 0 0.060635958660568659 -0.032101385243335695 0 0.048679532397234868 -0.036529679757957824 0 0.051231596652674571 -0.033751539994160785 0 0.044094370741710867 -0.038628587585971097 0 0.047222773995746016 -0.035743417360590952 0 0.060425138156062298 -0.032331637412321042 0 0.060392522440431015 -0.03238067083074439 0 0.060473878560006564 -0.032617739682088337 0 0.034382187885259596 -0.038114388011816158 0 0.033411871910900018 -0.039048838844087989 0 0.033386728624097119 -0.037522259745688687 0 0.060772845730199032 -0.032387291649567718 0 0.060635958660568659 -0.032101385243335695 0 0.060486572535758724 -0.032656210739516522 0 0.048679532397234868 -0.036529679757957824 0 0.044094370741710867 -0.038628587585971097 0 0.035932536740927598 -0.04124608221138195 0 0.044094370741710867 -0.038628587585971097 0 0.060425138156062298 -0.032331637412321042 0 0.060486572535758724 -0.032656210739516522 0 0.060473878560006564 -0.032617739682088337 0 0.03434379216453181 -0.037358711065987656 0 0.033386728624097119 -0.037522259745688687 0 0.033357449020049085 -0.03594058095615104 0 0.034382187885259596 -0.038114388011816158 0 0.03434379216453181 -0.037358711065987656 0 0.033386728624097119 -0.037522259745688687 0 0.060486572535758724 -0.032656210739516522 0 0.060473878560006564 -0.032617739682088337 0 0.060459721127553046 -0.033015339277660059 0 0.060772845730199032 -0.032387291649567718 0 0.061001710917819731 -0.032587567778783348 0 0.061162634254501066 -0.032356620601670459 0 0.060772845730199032 -0.032387291649567718 0 0.060486572535758724 -0.032656210739516522 0 0.061001710917819731 -0.032587567778783348 0 0.060486572535758724 -0.032656210739516522 0 0.061001710917819731 -0.032587567778783348 0 0.060459721127553046 -0.033015339277660059 0 0.061001710917819731 -0.032587567778783348 0 0.061015117807678952 -0.03301544561070649 0 0.060545686726677206 -0.03293180460965766 0 0.055377648336159241 -0.031261173134554329 0 0.050425519761786837 -0.033677143750602052 0 0.03434379216453181 -0.037358711065987656 0 0.034805433467484312 -0.036224040567408779 0 0.033357449020049085 -0.03594058095615104 0 0.047222773995746016 -0.035743417360590952 0 0.050425519761786837 -0.033677143750602052 0 0.061521508487543279 -0.032634971681703401 0 0.062004686526989532 -0.032856855815118741 0 0.061463636407010233 -0.033093153817700893 0 0.061001710917819731 -0.032587567778783348 0 0.061015117807678952 -0.03301544561070649 0 0.061521508487543279 -0.032634971681703401 0 0.061015117807678952 -0.03301544561070649 0 0.061521508487543279 -0.032634971681703401 0 0.061463636407010233 -0.033093153817700893 0 0.061001710917819731 -0.032587567778783348 0 0.061521508487543279 -0.032634971681703401 0 0.061162634254501066 -0.032356620601670459 0 0.061521508487543279 -0.032634971681703401 0 0.061469285556561365 -0.032240023191404649 0 0.061162634254501066 -0.032356620601670459 0 0.061521508487543279 -0.032634971681703401 0 0.061469285556561365 -0.032240023191404649 0 0.061841377391416479 -0.03232609340759765 0 0.061469285556561365 -0.032240023191404649 0 0.061691174046063516 -0.032056797748323679 0 0.061841377391416479 -0.03232609340759765 0 0.061469285556561365 -0.032240023191404649 0 0.061162634254501066 -0.032356620601670459 0 0.061075035215809821 -0.032101215891436594 0 0.061469285556561365 -0.032240023191404649 0 0.061075035215809821 -0.032101215891436594 0 0.061359887781863069 -0.031952182373998904 0 0.060920020659089531 -0.032235153271017752 0 0.061162634254501066 -0.032356620601670459 0 0.061075035215809821 -0.032101215891436594 0 0.061165075841404015 -0.031733879484035096 0 0.061075035215809821 -0.032101215891436594 0 0.061359887781863069 -0.031952182373998904 0 0.061397354356662798 -0.031714631381939334 0 0.061165075841404015 -0.031733879484035096 0 0.061359887781863069 -0.031952182373998904 0 0.061469285556561365 -0.032240023191404649 0 0.061359887781863069 -0.031952182373998904 0 0.061691174046063516 -0.032056797748323679 0 0.061597412262996441 -0.031810804021685381 0 0.061397354356662798 -0.031714631381939334 0 0.061359887781863069 -0.031952182373998904 0 0.061597412262996441 -0.031810804021685381 0 0.061359887781863069 -0.031952182373998904 0 0.061691174046063516 -0.032056797748323679 0 0.061597412262996441 -0.031810804021685381 0 0.061691174046063516 -0.032056797748323679 0 0.061929219052998905 -0.031890986308454217 0 0.061691174046063516 -0.032056797748323679 0 0.061929219052998905 -0.031890986308454217 0 0.061996471066281325 -0.032131226061951935 0 0.061929219052998905 -0.031890986308454217 0 0.062259781498192009 -0.03201565909309307 0 0.061996471066281325 -0.032131226061951935 0 0.062241870579776377 -0.031679997644327301 0 0.061929219052998905 -0.031890986308454217 0 0.062259781498192009 -0.03201565909309307 0 0.062241870579776377 -0.031679997644327301 0 0.062259781498192009 -0.03201565909309307 0 0.062580481652422568 -0.031859473818885355 0 0.062222730492970786 -0.032317621269754709 0 0.06255870859160223 -0.032204485577861493 0 0.062491944287834812 -0.032492542145145943 0 0.062259781498192009 -0.03201565909309307 0 0.062222730492970786 -0.032317621269754709 0 0.061996471066281325 -0.032131226061951935 0 0.062259781498192009 -0.03201565909309307 0 0.062222730492970786 -0.032317621269754709 0 0.06255870859160223 -0.032204485577861493 0 0.062222730492970786 -0.032317621269754709 0 0.061841377391416479 -0.03232609340759765 0 0.061996471066281325 -0.032131226061951935 0 0.061691174046063516 -0.032056797748323679 0 0.061841377391416479 -0.03232609340759765 0 0.061996471066281325 -0.032131226061951935 0 0.062951076012632154 -0.031989242807377513 0 0.062580481652422568 -0.031859473818885355 0 0.06255870859160223 -0.032204485577861493 0 0.062804285252391692 -0.031712252605533564 0 0.062951076012632154 -0.031989242807377513 0 0.062580481652422568 -0.031859473818885355 0 0.062259781498192009 -0.03201565909309307 0 0.062580481652422568 -0.031859473818885355 0 0.06255870859160223 -0.032204485577861493 0 0.062951076012632154 -0.031989242807377513 0 0.06255870859160223 -0.032204485577861493 0 0.062836487514760356 -0.032361024879955472 0 0.062827456437408738 -0.033504410895894718 0 0.062984625699863919 -0.032600822787076912 0 0.062836487514760356 -0.032361024879955472 0 0.062639915810883975 -0.032727878422143433 0 0.062762723095235548 -0.03260793471606567 0 0.06255870859160223 -0.032204485577861493 0 0.062836487514760356 -0.032361024879955472 0 0.062491944287834812 -0.032492542145145943 0 0.062836487514760356 -0.032361024879955472 0 0.062491944287834812 -0.032492542145145943 0 0.062639915810883975 -0.032727878422143433 0 0.062639915810883975 -0.032727878422143433 0 0.062762723095235548 -0.03260793471606567 0 0.062740040831720995 -0.032647779905481566 0 0.062491944287834812 -0.032492542145145943 0 0.062639915810883975 -0.032727878422143433 0 0.062422903402365053 -0.032713941888714376 0 0.061521508487543279 -0.032634971681703401 0 0.061841377391416479 -0.03232609340759765 0 0.062113811678974382 -0.032578334945360388 0 0.062222730492970786 -0.032317621269754709 0 0.061841377391416479 -0.03232609340759765 0 0.062113811678974382 -0.032578334945360388 0 0.062222730492970786 -0.032317621269754709 0 0.062491944287834812 -0.032492542145145943 0 0.062113811678974382 -0.032578334945360388 0 0.062491944287834812 -0.032492542145145943 0 0.062113811678974382 -0.032578334945360388 0 0.062422903402365053 -0.032713941888714376 0 0.062422903402365053 -0.032713941888714376 0 0.062004686526989532 -0.032856855815118741 0 0.062652793490746581 -0.032866944928621487 0 0.062639915810883975 -0.032727878422143433 0 0.062422903402365053 -0.032713941888714376 0 0.062652793490746581 -0.032866944928621487 0 0.062113811678974382 -0.032578334945360388 0 0.062422903402365053 -0.032713941888714376 0 0.062004686526989532 -0.032856855815118741 0 0.061521508487543279 -0.032634971681703401 0 0.062113811678974382 -0.032578334945360388 0 0.062004686526989532 -0.032856855815118741 0 0.064434544267602645 -0.032833914929340083 0 0.062652793490746581 -0.032866944928621487 0 0.063564100843380003 -0.032259940514488585 0 0.062004686526989532 -0.032856855815118741 0 0.061861357460941187 -0.033281559589826211 0 0.062652793490746581 -0.032866944928621487 0 0.062806902294320927 -0.032185024659301967 0 0.06276810258290362 -0.03238914355931944 0 0.062652793490746581 -0.032866944928621487 0 0.062691124119835379 -0.032698254590623643 0 0.063564100843380003 -0.032259940514488585 0 0.062691124119835379 -0.032698254590623643 0 0.063564100843380003 -0.032259940514488585 0 0.063327845717726261 -0.031128155178717157 0 0.063082586499013008 -0.032184365888738652 0 0.06345461684561933 -0.031299779659794844 0 0.063163369762669952 -0.032558430630810486 0 0.063108134379384298 -0.032016500306243582 0 0.06381145402831391 -0.03135249152135397 0 0.063564100843380003 -0.032259940514488585 0 0.063327845717726261 -0.031128155178717157 0 0.064832188568063484 -0.031344496498665331 0 0.064434544267602645 -0.032833914929340083 0 0.063564100843380003 -0.032259940514488585 0 0.064832188568063484 -0.031344496498665331 0 0.062762723095235548 -0.03260793471606567 0 0.0626411152807647 -0.032640858814826132 0 0.062740040831720995 -0.032647779905481566 0 0.0626411152807647 -0.032640858814826132 0 0.062740040831720995 -0.032647779905481566 0 0.06278162699692677 -0.032411059595390888 0 0.062939058943379936 -0.032472365298061481 0 0.063082586499013008 -0.032184365888738652 0 0.062639915810883975 -0.032727878422143433 0 0.063163369762669952 -0.032558430630810486 0 0.062740040831720995 -0.032647779905481566 0 0.062639915810883975 -0.032727878422143433 0 0.062652793490746581 -0.032866944928621487 0 0.062691124119835379 -0.032698254590623643 0 0.063163369762669952 -0.032558430630810486 0 0.062740040831720995 -0.032647779905481566 0 0.06278162699692677 -0.032411059595390888 0 0.063108134379384298 -0.032016500306243582 0 0.06278162699692677 -0.032411059595390888 0 0.06274311035805151 -0.031669929394913754 0 0.063163369762669952 -0.032558430630810486 0 0.063108134379384298 -0.032016500306243582 0 0.06278162699692677 -0.032411059595390888 0 0.062243295896630947 -0.032607326594521834 0 0.0626411152807647 -0.032640858814826132 0 0.06278162699692677 -0.032411059595390888 0 0.062243295896630947 -0.032607326594521834 0 0.06278162699692677 -0.032411059595390888 0 0.06274311035805151 -0.031669929394913754 0 0.062243295896630947 -0.032607326594521834 0 0.061915993556440466 -0.030906638899266408 0 0.06274311035805151 -0.031669929394913754 0 0.061915993556440466 -0.030906638899266408 0 0.06274311035805151 -0.031669929394913754 0 0.062933098070433791 -0.02989164261595666 0 0.06274311035805151 -0.031669929394913754 0 0.062933098070433791 -0.02989164261595666 0 0.06381145402831391 -0.03135249152135397 0 0.063108134379384298 -0.032016500306243582 0 0.06274311035805151 -0.031669929394913754 0 0.06381145402831391 -0.03135249152135397 0 0.061624954532094274 -0.029250893842886708 0 0.061915993556440466 -0.030906638899266408 0 0.062933098070433791 -0.02989164261595666 0 0.063327845717726261 -0.031128155178717157 0 0.064083720090869226 -0.029627091430387588 0 0.064832188568063484 -0.031344496498665331 0 0.06345461684561933 -0.031299779659794844 0 0.063703963897654078 -0.030651645378907806 0 0.062933098070433791 -0.02989164261595666 0 0.06381145402831391 -0.03135249152135397 0 0.064083720090869226 -0.029627091430387588 0 0.065291031086044435 -0.028835496985876573 0 0.064083720090869226 -0.029627091430387588 0 0.065552094157837082 -0.030222122215779149 0 0.064083720090869226 -0.029627091430387588 0 0.065552094157837082 -0.030222122215779149 0 0.064832188568063484 -0.031344496498665331 0 0.065552094157837082 -0.030222122215779149 0 0.064832188568063484 -0.031344496498665331 0 0.066570711056896339 -0.031063298576725351 0 0.065291031086044435 -0.028835496985876573 0 0.065552094157837082 -0.030222122215779149 0 0.066692951606304701 -0.029858325139238875 0 0.065552094157837082 -0.030222122215779149 0 0.066570711056896339 -0.031063298576725351 0 0.066692951606304701 -0.029858325139238875 0 0.066570711056896339 -0.031063298576725351 0 0.066692951606304701 -0.029858325139238875 0 0.067952956347510821 -0.030203503224291599 0 0.067224147441647411 -0.02896038172927707 0 0.066692951606304701 -0.029858325139238875 0 0.067952956347510821 -0.030203503224291599 0 0.048879907831333794 -0.02867998197155118 0 0.048233427859830938 -0.029181431931847777 0 0.048674803835362282 -0.029904351373749239 0 0.053346496853188929 -0.029115317728064874 0 0.055508312304479029 -0.031108931650413736 0 0.048233427859830938 -0.029181431931847777 0 0.048674803835362282 -0.029904351373749239 0 0.04823856107740624 -0.03080300722135916 0 0.066570711056896339 -0.031063298576725351 0 0.067952956347510821 -0.030203503224291599 0 0.067929156330717957 -0.031947986225525526 0 0.055508312304479029 -0.031108931650413736 0 0.062016684111300444 -0.031553713236401063 0 0.066570711056896339 -0.031063298576725351 0 0.067929156330717957 -0.031947986225525526 0 0.066231444151483312 -0.032391856836202423 0 0.049174643468376904 -0.031744663791392014 0 0.048519989154326454 -0.030729968874586303 0 0.048242286517786538 -0.030801899382675944 0 0.049197556985447061 -0.030629547818819054 0 0.048674803835362282 -0.029904351373749239 0 0.048519989154326454 -0.030729968874586303 0 0.048674803835362282 -0.029904351373749239 0 0.048519989154326454 -0.030729968874586303 0 0.04823856107740624 -0.03080300722135916 0 0.055246220540638248 -0.031153848659485259 0 0.055508312304479029 -0.031108931650413736 0 0.050425519761786837 -0.033677143750602052 0 0.055508312304479029 -0.031108931650413736 0 0.044314566381858544 -0.03342315386127228 0 0.050425519761786837 -0.033677143750602052 0 0.049174643468376904 -0.031744663791392014 0 0.04823830994984362 -0.032552385679484444 0 0.048242286517786538 -0.030801899382675944 0 0.061015117807678952 -0.03301544561070649 0 0.060528113192519314 -0.033617095984163112 0 0.061173849622287904 -0.03346394933507043 0 0.061015117807678952 -0.03301544561070649 0 0.060545686726677206 -0.03293180460965766 0 0.060528113192519314 -0.033617095984163112 0 0.061015117807678952 -0.03301544561070649 0 0.061463636407010233 -0.033093153817700893 0 0.061173849622287904 -0.03346394933507043 0 0.061861357460941187 -0.033281559589826211 0 0.061463636407010233 -0.033093153817700893 0 0.061173849622287904 -0.03346394933507043 0 0.062806902294320927 -0.032185024659301967 0 0.062016684111300444 -0.031553713236401063 0 0.062004686526989532 -0.032856855815118741 0 0.061861357460941187 -0.033281559589826211 0 0.061463636407010233 -0.033093153817700893 0 0.064434544267602645 -0.032833914929340083 0 0.064832188568063484 -0.031344496498665331 0 0.066231444151483312 -0.032391856836202423 0 0.064832188568063484 -0.031344496498665331 0 0.066570711056896339 -0.031063298576725351 0 0.066231444151483312 -0.032391856836202423 0 
</DataArray>
</PointData>
<CellData Scalars="region_id,cross_section_updated," Vectors="" Tensors="stress,">
<DataArray type="Float64" Name="region_id" format="ascii">
5 5 6 5 5 5 5 6 5 5 5 5 5 5 5 5 5 5 5 5 6 5 5 5 5 6 5 5 5 5 5 5 5 6 5 5 5 5 5 5 5 5 6 5 5 5 5 5 5 5 5 5 5 5 6 6 5 5 5 5 5 5 5 5 6 5 5 5 5 5 5 5 5 5 5 5 5 5 5 5 5 5 5 5 5 5 5 6 5 5 5 5 5 5 5 5 5 5 5 6 5 5 5 6 5 5 5 5 5 5 5 5 5 5 5 5 5 5 5 5 5 5 5 5 5 5 5 5 5 5 5 5 5 5 5 5 5 5 5 5 5 5 5 5 5 5 5 5 5 6 5 6 5 5 5 5 5 5 5 5 5 5 5 5 5 5 5 5 5 5 5 5 5 5 5 5 5 5 6 5 5 6 5 6 5 5 5 5 5 5 5 5 5 5 5 5 5 5 6 5 6 5 5 5 5 5 5 5 6 5 6 5 5 5 5 5 5 6 5 5 6 5 5 5 5 5 5 6 6 5 5 6 5 6 5 6 6 5 5 5 6 5 5 5 5 5 5 5 5 5 5 5 5 5 6 5 5 5 5 5 5 5 6 5 5 5 5 5 5 5 6 5 5 5 5 6 5 5 5 5 5 5 6 5 5 5 6 5 5 5 5 5 5 5 6 5 5 5 5 5 5 6 5 5 5 5 5 5 6 5 5 5 5 5 5 5 6 5 5 5 5 5 5 5 5 5 5 5 5 5 5 5 5 5 5 5 5 5 6 6 5 5 5 5 5 6 5 5 5 5 5 5 5 6 5 6 5 5 5 6 5 5 5 6 5 6 5 5 5 5 5 5 5 6 5 5 5 5 5 5 5 6 5 5 5 6 5 5 5 5 5 5 5 5 5 5 5 5 5 5 5 5 5 5 5 5 5 5 5 5 5 5 5 5 5 5 5 5 6 5 5 5 5 5 5 5 5 5 5 5 5 5 5 5 5 5 5 5 5 5 5 5 5 5 5 5 5 5 5 5 5 6 5 5 5 5 5 5 5 5 5 5 5 5 5 5 5 5 5 5 5 5 6 5 5 5 5 5 5 5 6 5 5 5 5 5 6 5 5 6 5 6 5 5 5 5 6 5 5 6 5 5 5 5 5 5 6 5 5 5 5 5 5 5 5 5 5 5 5 5 5 5 5 5 5 5 6 5 5 5 5 5 5 5 5 5 5 5 6 6 5 5 5 5 5 5 5 5 5 5 5 5 5 5 5 5 5 5 5 5 5 6 5 6 6 5 5 6 5 5 5 5 5 5 5 5 5 5 5 5 5 6 5 5 5 5 5 5 5 6 6 5 5 5 5 5 5 5 5 6 6 5 5 5 6 5 5 5 5 5 5 5 5 5 5 5 5 5 5 5 5 5 5 5 5 5 5 5 5 5 5 5 5 5 5 5 5 5 5 5 6 5 5 6 5 5 5 5 6 5 5 5 6 5 5 5 6 5 5 6 5 5 5 5 5 5 5 5 5 5 5 5 5 5 5 5 5 5 5 5 5 6 5 5 5 6 5 5 5 5 5 6 5 5 5 5 5 5 6 5 5 5 5 5 5 5 5 5 5 5 5 5 5 5 5 5 5 6 5 5 5 5 5 5 5 5 5 5 5 5 5 5 5 5 5 5 5 5 5 6 5 5 5 5 5 5 5 5 5 5 5 5 5 5 5 6 5 5 5 5 5 5 5 5 5 5 5 5 5 5 5 5 5 5 6 5 5 5 5 5 5 5 6 5 5 5 5 5 5 5 5 5 5 5 5 5 5 5 5 5 5 5 5 5 6 5 5 5 5 5 5 5 5 5 6 5 5 5 5 5 5 5 5 6 5 5 5 5 5 5 5 5 5 5 5 5 5 5 5 5 5 5 5 6 5 5 5 5 5 6 5 5 5 6 5 5 5 5 5 5 6 5 5 5 5 5 5 5 5 5 5 6 5 5 5 5 5 5 5 5 5 5 5 5 6 5 6 5 5 5 5 5 5 5 6 5 6 5 5 5 5 5 5 5 5 5 5 5 5 5 5 5 5 5 5 5 5 5 5 5 5 5 5 5 5 5 5 5 5 5 5 5 5 5 5 5 5 5 5 5 5 5 6 6 5 5 6 5 5 5 5 5 5 5 5 5 5 5 5 5 5 5 5 6 5 5 5 5 6 5 5 6 5 5 5 5 5 5 6 5 6 5 5 6 5 5 5 5 5 5 5 5 5 5 6 5 5 5 5 5 6 6 5 5 5 5 6 5 5 6 5 6 5 5 5 5 5 6 5 5 6 5 5 5 5 5 5 5 5 5 5 5 5 6 5 5 5 5 5 5 5 5 5 5 5 5 5 5 5 6 5 6 5 6 6 5 6 5 5 6 5 5 5 5 5 5 6 5 6 5 5 6 5 5 5 6 5 5 6 5 5 5 5 5 6 5 5 6 5 5 5 5 5 6 5 6 5 5 6 5 5 6 5 5 5 5 5 5 5 5 6 5 5 5 5 5 5 5 5 5 5 6 5 5 5 5 6 5 5 6 5 5 5 5 5 6 5 5 5 5 5 6 5 6 5 5 5 5 5 5 6 5 5 5 5 5 5 5 5 6 6 6 5 5 5 5 6 5 6 5 5 5 6 6 5 5 5 6 5 5 5 6 5 6 5 6 6 5 6 5 5 5 5 6 5 5 5 6 5 6 5 6 5 5 5 5 5 5 5 6 5 5 5 5 6 5 5 5 5 5 5 5 5 6 5 6 6 5 5 5 6 5 5 5 5 6 6 5 5 6 6 5 5 5 5 5 6 5 5 5 5 5 5 5 5 6 5 6 5 5 5 5 5 5 5 5 5 5 5 5 5 5 5 5 5 6 5 5 5 5 5 5 5 5 5 5 5 5 5 5 5 5 5 5 5 5 5 5 5 5 5 6 5 6 5 5 5 5 5 6 6 5 5 5 5 6 6 5 6 5 5 6 5 5 6 5 5 5 5 6 6 5 5 5 5 5 5 5 5 6 5 5 6 5 5 5 6 5 5 6 5 5 5 5 5 5 6 5 5 5 5 5 5 6 5 5 5 5 5 6 5 5 6 6 5 5 6 5 5 6 5 5 5 5 5 5 5 5 5 5 5 5 6 5 6 5 5 6 5 5 5 5 5 5 6 5 5 5 6 6 6 5 5 5 6 6 5 6 6 5 5 6 5 5 6 5 6 5 6 5 5 5 6 6 5 5 6 6 6 6 5 5 5 6 6 5 5 6 6 6 5 6 6 5 5 6 5 6 6 5 6 5 5 6 5 6 6 5 5 5 5 6 6 5 5 6 5 5 5 6 5 5 5 5 5 5 5 5 5 5 5 5 5 5 5 5 5 5 5 5 5 5 5 5 5 5 5 5 5 5 5 5 5 5 5 5 5 5 5 5 5 5 5 5 5 5 5 5 5 5 5 5 5 5 5 5 5 5 6 5 6 5 5 5 5 5 5 5 5 5 5 5 5 5 5 6 5 5 5 5 5 5 5 5 5 5 6 5 5 5 5 5 5 5 5 5 5 5 5 5 5 5 5 5 5 5 5 5 5 5 5 5 5 5 5 5 5 5 5 5 5 5 5 5 5 5 5 5 5 5 5 5 5 6 5 5 5 6 5 6 5 5 5 5 5 6 5 6 5 5 5 5 5 5 5 5 5 5 5 5 5 5 5 5 5 5 5 5 5 5 5 5 5 6 5 5 5 5 5 5 6 5 6 5 5 5 6 5 5 6 5 5 5 5 5 5 5 5 5 5 5 5 5 5 5 5 5 5 5 5 5 5 5 5 5 5 5 5 5 5 5 5 5 5 5 5 5 6 5 6 5 5 5 5 5 5 5 5 5 5 6 5 5 5 5 5 5 5 5 5 5 5 5 5 5 5 5 5 6 5 5 5 6 6 5 6 5 5 5 5 5 5 5 5 6 5 5 5 5 6 5 5 5 5 5 5 5 6 5 5 6 5 6 5 5 6 5 5 6 6 5 5 5 5 5 5 5 5 5 5 5 5 5 5 5 6 5 6 5 5 5 6 5 6 5 5 5 5 5 5 5 5 5 5 5 5 6 5 6 5 5 5 5 5 5 5 5 6 5 5 6 5 5 5 6 6 5 5 5 5 5 5 5 5 5 5 5 5 5 5 5 5 5 5 5 5 5 6 5 5 5 5 5 6 5 6 5 5 5 5 6 5 5 6 5 5 5 5 5 6 5 5 5 5 6 5 5 5 5 5 5 5 6 5 5 5 6 5 5 5 5 5 5 5 5 5 5 5 6 5 5 5 5 5 5 5 5 6 5 5 5 5 5 5 6 5 5 5 5 5 5 6 5 5 5 5 5 5 5 5 5 5 5 6 5 5 5 6 5 5 5 6 5 6 5 5 5 5 5 5 6 5 5 5 5 5 5 5 5 5 5 5 5 5 5 5 6 5 5 5 5 5 6 5 5 5 5 5 5 5 5 6 5 5 5 5 5 5 5 5 5 5 5 5 5 5 5 5 6 5 5 5 5 6 5 5 5 5 5 5 5 5 5 5 5 5 5 5 5 5 5 5 5 5 5 5 5 5 5 5 6 5 5 5 6 5 6 5 5 5 5 6 5 6 5 5 5 5 5 6 5 5 5 5 5 5 5 5 5 6 5 5 5 5 5 5 5 5 5 5 5 5 5 5 5 5 5 5 5 5 5 5 5 5 6 6 5 5 5 5 5 6 5 5 5 6 5 5 5 6 5 5 6 5 6 5 5 5 5 6 5 5 5 5 6 6 5 5 5 5 5 5 5 5 5 5 5 5 6 5 5 5 5 6 5 5 5 5 5 6 5 5 6 5 5 5 5 5 5 5 5 5 5 5 5 5 5 5 5 6 5 5 6 5 5 5 6 5 5 5 5 5 5 5 5 5 5 5 6 5 5 5 5 5 5 5 5 5 5 5 5 5 5 5 5 6 5 5 6 5 6 5 5 6 5 6 5 6 5 5 5 5 5 5 5 5 5 5 5 5 5 6 5 6 6 5 5 6 6 5 5 6 6 5 5 5 6 5 6 5 5 6 5 5 5 5 6 6 5 6 5 5 6 6 5 5 6 5 5 5 6 5 5 5 6 6 6 5 5 6 5 6 6 5 5 5 5 5 5 5 5 5 5 5 6 6 5 6 5 6 5 6 5 5 5 6 5 5 5 5 5 6 5 5 5 5 5 5 5 5 5 5 5 5 5 5 5 5 5 5 5 5 5 5 5 5 6 5 5 5 5 5 5 5 5 5 5 5 5 5 5 5 5 5 5 6 5 5 5 5 5 5 5 5 5 5 5 6 5 5 5 5 5 6 5 5 5 5 5 5 5 5 5 5 5 5 5 5 6 5 5 5 5 5 5 5 5 5 5 5 5 5 5 6 5 6 5 5 5 5 6 5 5 5 5 5 5 5 5 5 5 5 5 6 5 6 5 5 5 5 6 5 5 5 5 5 5 5 6 5 5 5 5 5 5 5 6 5 5 5 6 5 6 5 5 5 5 5 5 5 5 5 6 5 5 5 5 5 5 5 5 5 5 5 5 5 5 5 5 5 5 5 5 5 5 5 5 5 5 5 5 5 5 5 5 5 5 5 5 5 5 5 5 5 5 5 6 5 5 6 5 5 5 5 5 5 5 5 5 5 6 5 5 5 5 5 6 5 5 6 5 5 5 5 5 5 6 5 5 5 5 6 5 5 6 5 6 5 5 5 5 5 5 5 5 5 5 5 6 5 6 5 5 5 5 6 5 5 5 5 5 5 5 5 5 5 5 5 5 5 5 5 5 5 5 5 5 6 5 5 5 5 6 5 5 5 5 5 5 5 6 5 5 5 5 5 6 5 5 5 6 5 5 5 6 5 5 6 5 5 5 6 5 5 6 5 5 5 5 5 5 5 5 5 5 5 5 5 5 5 5 5 5 5 5 5 5 5 5 5 5 5 5 5 5 5 6 5 5 5 5 5 5 5 5 5 5 5 6 5 5 5 5 5 5 5 5 5 5 5 5 5 5 5 6 6 5 5 5 6 5 5 5 5 6 5 5 6 5 5 5 5 5 5 5 5 5 5 5 5 5 6 6 5 5 5 5 5 5 5 5 5 5 5 6 5 5 6 5 5 5 5 5 5 5 5 5 5 5 5 5 5 5 5 5 5 5 6 5 5 5 6 5 5 5 5 5 6 5 5 5 5 5 5 5 5 5 5 5 5 5 5 5 5 5 5 5 5 6 5 5 6 5 5 5 5 5 5 5 5 5 5 5 5 5 5 5 5 5 5 5 6 5 5 5 5 5 5 5 5 5 5 5 5 5 5 5 5 5 5 5 5 5 5 5 5 5 5 5 5 5 5 5 5 6 5 5 5 5 5 5 6 5 5 5 5 5 6 5 5 5 5 6 5 5 5 5 5 5 5 5 5 5 5 5 5 5 5 5 5 5 5 5 5 5 6 5 5 5 5 5 5 5 6 5 5 6 5 5 6 5 5 5 5 5 5 6 5 5 5 5 5 5 5 5 5 5 6 5 6 5 5 5 5 5 5 5 5 6 5 5 6 5 5 5 6 5 5 5 6 5 5 5 6 6 5 5 6 5 5 6 5 5 6 5 5 5 5 5 5 5 5 5 6 5 5 5 6 5 5 5 6 5 5 5 6 5 6 5 5 6 5 5 5 5 5 5 5 5 6 5 5 6 5 5 5 5 5 5 5 5 5 5 5 5 5 6 5 6 5 5 5 6 6 5 6 5 5 5 5 6 5 6 5 5 5 5 5 5 5 5 5 6 5 5 5 5 5 5 5 5 5 5 5 5 5 5 5 5 5 5 5 5 5 5 5 5 5 5 5 5 6 5 5 5 5 5 5 6 5 5 5 5 5 5 6 5 5 5 5 5 5 6 5 5 5 6 5 5 5 6 5 5 6 5 5 5 5 5 5 6 5 5 5 6 6 5 5 5 5 5 5 5 5 5 5 5 5 5 5 5 5 5 6 5 5 5 5 5 5 5 6 5 5 5 5 5 6 5 5 5 5 5 6 5 5 6 5 5 5 5 6 5 5 5 5 5 5 6 5 6 5 6 6 5 6 5 5 5 6 5 5 5 5 5 6 5 5 5 6 5 5 5 5 6 6 6 5 5 5 5 6 6 5 6 5 5 5 5 5 5 6 5 6 5 5 6 5 5 5 6 5 5 6 5 5 5 5 5 5 5 5 5 5 5 5 6 5 5 5 5 6 5 5 5 5 6 5 5 5 5 5 5 5 5 5 6 6 6 5 5 5 6 6 5 5 6 5 6 5 5 5 5 5 5 5 6 5 5 5 5 5 5 5 5 5 5 5 5 5 5 5 5 6 5 5 5 5 5 5 5 5 5 6 5 5 6 5 6 5 6 5 5 6 5 5 5 6 6 5 5 6 5 5 5 6 5 5 5 5 6 5 5 5 5 5 5 5 5 5 5 5 6 6 5 5 5 5 5 5 5 5 5 5 5 5 5 5 5 5 5 5 5 5 5 5 5 5 5 5 5 5 5 5 5 5 6 5 5 5 5 5 5 5 5 5 5 5 5 5 5 5 5 5 5 5 6 5 5 5 5 5 5 6 6 5 5 6 6 5 5 5 6 5 5 5 5 5 5 5 5 5 5 5 5 5 5 5 5 5 5 5 5 5 5 5 6 5 6 5 6 5 5 5 5 5 5 6 5 6 6 5 5 6 5 5 5 5 5 5 6 6 5 5 6 6 5 5 6 6 5 5 5 5 5 5 5 5 6 5 5 5 5 5 6 5 5 6 5 5 5 6 5 5 5 5 5 5 5 5 5 5 5 5 5 5 5 5 5 5 5 5 5 5 5 5 5 5 5 5 5 5 5 5 5 5 6 5 5 6 5 6 6 5 5 5 5 5 5 5 5 5 6 5 5 5 5 5 6 5 5 5 5 5 5 5 6 5 5 5 5 5 5 5 5 6 5 5 5 5 5 6 5 5 5 5 5 5 5 5 5 5 5 5 5 5 5 5 5 5 5 5 5 5 5 5 5 5 5 5 5 5 6 6 5 5 5 5 5 5 5 6 5 5 5 6 5 6 5 5 5 5 5 5 5 5 5 5 5 5 5 5 5 5 5 5 5 5 5 6 5 5 5 5 5 5 6 5 5 5 5 5 5 5 6 5 5 6 5 5 5 5 5 5 6 5 5 5 6 5 5 6 6 5 5 5 5 5 5 5 5 5 5 5 5 5 5 5 5 5 5 5 5 5 5 5 5 5 5 5 5 6 5 5 5 5 5 5 5 5 5 5 5 5 5 5 5 5 5 5 5 6 5 5 5 6 6 5 5 5 5 5 6 5 5 5 6 5 5 5 5 5 6 5 5 5 5 5 5 5 5 5 5 5 5 5 5 5 5 5 5 5 5 5 6 5 5 5 5 5 5 6 5 5 5 5 5 5 5 5 5 5 5 5 6 5 5 5 5 6 5 6 5 5 5 5 5 5 5 5 5 5 5 5 5 6 5 5 5 5 5 6 5 5 5 5 5 5 6 5 5 5 5 5 5 5 5 5 5 5 5 6 5 5 6 5 5 6 5 5 6 5 5 5 5 5 5 5 5 5 5 6 5 5 5 5 5 5 5 5 6 5 5 5 6 5 5 5 6 5 5 6 5 5 5 6 5 5 5 5 5 6 5 6 5 5 5 5 6 6 5 5 5 6 5 5 5 5 6 5 5 5 5 5 5 5 5 5 5 5 5 5 5 5 6 5 5 6 6 5 5 5 5 6 5 5 5 5 5 5 6 5 5 5 5 5 5 6 5 5 5 5 5 5 5 5 6 5 5 5 5 5 5 5 5 5 5 6 5 5 6 5 5 6 5 5 5 5 5 6 6 5 5 6 6 5 6 5 6 5 6 6 5 5 6 5 6 5 6 5 6 5 6 5 5 6 5 6 5 6 5 5 5 5 5 5 6 5 5 5 6 5 5 5 5 5 5 5 5 5 6 5 5 6 5 6 5 6 5 5 5 6 6 5 5 5 5 5 5 5 5 5 5 5 6 5 5 5 5 5 6 5 5 5 5 5 5 5 5 5 5 5 5 5 5 5 5 5 6 5 5 5 5 5 5 6 5 5 5 6 5 5 6 5 5 5 6 5 6 6 5 5 5 5 5 5 5 5 5 6 5 5 5 5 5 5 5 6 5 6 5 6 5 5 5 5 5 5 5 5 5 5 5 5 5 5 5 5 5 5 5 5 5 5 5 5 5 5 5 5 5 5 5 5 5 5 5 5 5 6 5 5 6 6 5 5 5 5 6 5 5 5 5 5 6 5 5 6 6 5 5 5 5 5 5 6 5 6 5 5 6 6 5 6 5 5 5 6 5 5 5 5 6 5 5 5 6 5 5 6 6 5 5 5 6 5 5 5 5 6 5 5 6 5 5 5 6 5 5 6 5 5 5 6 5 6 5 5 6 5 5 6 6 5 5 6 5 6 6 5 5 5 5 6 5 5 5 5 6 5 5 5 5 5 5 5 5 5 5 5 5 6 5 5 5 5 6 5 6 5 5 5 5 5 6 6 6 5 5 5 5 5 5 5 5 6 5 5 5 5 5 5 6 5 5 5 5 6 5 5 5 5 5 5 5 5 5 5 5 5 5 5 5 5 5 5 6 5 6 5 5 6 6 5 6 5 5 6 5 6 5 6 5 6 5 5 5 5 6 5 5 5 6 5 5 5 5 5 5 5 5 5 5 5 5 5 5 5 5 5 5 5 5 5 5 5 5 5 6 5 5 5 5 5 6 5 5 5 5 5 5 5 5 5 5 5 6 5 5 5 5 5 6 5 5 6 6 5 5 5 6 5 5 6 6 5 6 5 5 5 5 5 5 5 5 5 5 5 5 5 5 5 5 6 5 5 5 5 6 5 5 5 5 5 5 5 5 6 6 5 5 6 5 5 5 5 5 5 5 5 5 6 6 5 5 6 5 5 5 6 5 5 5 5 5 5 5 5 5 5 5 5 5 5 5 5 5 5 5 5 5 5 5 5 5 5 6 5 5 5 5 5 5 5 5 5 5 5 5 5 5 5 5 5 5 5 5 6 5 5 5 6 6 5 5 5 6 5 5 6 5 5 5 5 5 6 5 6 5 5 5 5 5 5 5 5 6 5 5 5 6 5 5 6 5 6 5 5 5 6 5 5 5 6 5 5 5 5 5 5 5 5 5 5 5 5 5 5 5 5 5 6 5 5 5 5 5 5 5 5 5 6 5 5 5 5 5 5 5 5 6 5 5 5 5 5 5 5 5 5 5 5 5 5 6 5 5 5 6 5 5 5 5 5 5 5 5 5 5 5 5 5 5 5 5 5 5 5 6 5 5 5 6 5 6 5 5 5 6 5 5 5 6 6 5 5 5 5 5 5 5 5 5 5 5 5 5 5 5 5 5 5 5 5 5 5 6 5 5 5 5 6 5 5 5 5 6 5 5 5 5 5 5 5 6 5 5 5 5 6 5 5 5 5 5 5 6 5 5 5 5 5 5 6 5 5 5 6 5 5 5 5 5 5 5 5 5 6 5 5 5 5 5 5 6 5 5 5 5 5 5 5 5 5 5 5 6 5 5 6 5 5 5 5 5 6 5 5 6 5 5 5 5 5 5 5 6 6 5 5 5 5 6 5 5 5 5 5 5 6 5 5 5 5 5 5 5 5 5 5 6 5 5 5 5 5 5 5 5 5 5 5 5 6 5 6 5 5 5 6 5 5 6 5 5 5 5 6 5 5 5 5 5 6 5 5 5 5 5 5 5 5 6 5 5 5 5 6 5 5 5 5 5 5 5 6 5 5 5 5 5 5 5 5 5 5 6 5 5 5 6 5 6 5 5 5 5 5 5 6 5 6 5 6 5 5 5 5 6 5 5 5 5 5 5 5 5 5 5 5 5 5 5 6 5 6 5 5 5 5 5 5 5 6 5 5 5 5 5 5 5 5 5 5 5 5 5 6 5 5 5 5 6 5 5 5 5 5 5 5 5 5 5 5 5 5 5 5 5 5 5 5 5 5 5 5 5 6 5 5 5 5 6 5 5 5 6 5 5 6 5 5 6 5 5 5 5 5 5 5 5 5 5 5 5 5 5 5 6 5 5 6 5 5 5 5 5 5 5 6 5 5 5 5 5 6 5 5 5 6 5 5 5 6 5 5 5 5 5 5 5 6 5 5 5 6 5 6 6 5 5 5 5 5 6 5 5 5 5 5 5 5 5 5 5 6 5 5 5 5 5 5 5 5 5 5 5 5 5 5 5 5 5 5 5 5 5 5 5 5 5 5 5 5 5 5 5 5 5 5 5 5 5 6 5 5 5 5 5 5 5 5 5 5 5 5 5 5 5 5 6 5 5 5 5 5 5 5 5 5 6 5 5 5 5 5 5 5 6 5 5 5 5 5 5 5 5 5 5 5 5 5 5 5 5 5 5 5 5 5 6 5 5 5 5 5 5 5 5 5 5 5 5 5 5 5 5 5 6 5 5 5 5 5 5 5 5 5 5 5 5 5 5 5 5 5 5 5 5 5 5 5 5 5 5 5 5 5 5 5 5 5 5 5 5 5 5 5 5 5 5 5 5 5 5 6 5 5 5 5 5 5 5 5 5 5 5 5 5 6 5 6 5 5 5 5 5 6 5 5 5 5 5 6 6 5 5 5 5 5 5 5 5 5 5 5 5 5 5 5 5 5 6 6 5 5 5 5 5 5 6 5 6 5 5 5 5 5 5 5 5 5 6 5 5 5 5 5 5 5 5 5 5 5 5 5 5 5 5 5 5 5 6 5 5 5 5 5 6 5 6 5 5 5 5 5 5 5 6 5 5 5 6 5 5 5 6 5 5 6 5 5 5 6 5 5 6 5 6 5 6 5 5 6 5 5 5 5 5 5 5 5 5 5 5 5 5 5 5 5 5 5 5 5 5 6 5 6 5 5 5 5 5 5 5 6 5 5 5 5 5 5 5 5 5 5 5 5 5 5 5 5 5 5 5 6 5 5 5 6 5 5 5 5 5 5 5 5 5 5 6 5 5 5 5 6 5 5 6 5 5 5 5 5 6 5 5 5 5 6 5 6 5 5 6 5 5 5 5 5 5 5 6 5 5 6 5 6 5 5 5 5 5 5 5 5 5 5 5 5 5 5 5 5 5 5 6 5 5 5 5 5 5 5 6 5 5 5 5 6 5 5 5 5 5 5 5 5 5 6 5 5 5 5 6 5 5 5 5 5 5 5 5 5 5 5 5 6 5 5 5 5 5 5 5 5 5 6 5 5 5 5 5 5 5 5 5 5 5 5 6 5 5 6 5 5 5 5 5 5 5 5 5 6 6 6 5 5 5 6 5 5 5 5 5 5 6 5 5 5 6 6 5 5 5 5 5 5 5 5 5 5 5 5 6 5 5 5 6 6 5 5 5 5 5 6 5 5 5 5 6 5 5 5 5 6 5 5 5 5 5 6 6 6 5 5 5 6 6 5 5 5 5 5 5 5 5 5 6 6 5 5 5 6 6 5 5 5 5 5 5 5 5 5 5 5 5 5 5 5 5 5 6 5 6 5 5 5 5 6 5 5 5 5 5 5 5 6 5 5 5 5 5 5 5 6 5 5 6 5 6 6 5 5 5 6 6 5 5 5 6 6 5 5 5 5 5 5 5 5 5 5 6 5 5 5 5 5 5 5 6 5 5 5 5 6 5 5 5 5 5 5 6 5 5 5 5 6 5 6 5 5 5 5 5 5 5 5 5 5 5 5 5 5 6 5 5 5 5 5 5 5 6 5 5 5 5 6 5 5 5 6 5 5 5 5 5 5 5 5 5 5 5 5 5 5 5 5 5 5 5 5 5 5 6 5 6 5 5 6 5 5 5 6 5 5 6 5 5 5 5 5 5 5 5 5 5 5 5 5 5 5 5 5 5 5 5 6 6 6 5 5 5 5 5 5 5 5 5 5 5 5 5 6 5 5 5 6 5 5 6 5 5 5 5 6 5 5 6 6 5 5 5 5 6 5 5 6 5 6 5 5 5 5 5 5 5 5 5 5 5 5 6 5 5 5 5 5 5 5 6 5 6 5 5 5 5 6 5 5 5 5 5 5 5 5 5 5 5 5 5 5 5 5 5 5 5 5 5 5 5 6 5 5 5 6 5 6 5 5 5 6 5 5 5 5 5 6 5 5 6 5 5 5 5 5 5 5 5 6 5 5 5 5 5 6 5 5 5 5 5 5 5 5 5 5 5 5 5 5 6 5 5 5 5 6 5 5 5 5 5 5 5 5 5 5 5 5 6 5 5 5 5 6 5 5 5 5 5 5 5 5 5 5 5 5 5 6 5 5 6 5 5 5 6 5 5 5 5 5 5 5 5 5 5 5 5 5 6 6 5 6 6 5 5 5 6 6 5 6 5 6 5 6 5 5 5 6 5 6 5 5 5 5 6 5 5 5 5 5 5 6 5 5 5 5 5 6 5 5 6 5 5 6 5 5 6 5 5 5 5 5 6 5 6 5 5 5 5 5 5 5 5 5 5 5 5 5 6 5 5 6 5 5 5 5 5 5 5 5 5 6 5 5 5 5 5 5 5 5 5 6 5 5 6 5 6 5 5 5 5 5 5 5 6 5 5 5 5 5 5 5 6 5 6 5 5 6 5 5 5 6 5 5 5 5 6 5 5 5 5 5 6 5 5 5 5 5 5 5 5 5 5 5 5 5 5 5 5 5 5 5 5 5 6 5 5 6 5 5 5 6 5 5 5 5 6 5 5 5 5 5 5 5 5 5 5 5 5 5 5 5 5 5 5 5 5 5 5 5 6 5 5 5 5 5 5 6 5 5 5 5 5 5 5 5 5 5 5 5 5 6 5 6 5 5 6 5 5 5 5 6 6 5 6 5 6 5 5 5 5 5 6 5 5 6 6 5 5 5 5 5 6 5 5 6 5 5 5 5 5 5 5 5 6 6 5 5 5 6 5 6 5 5 5 5 5 6 5 6 5 5 5 5 5 6 6 5 5 5 5 6 5 5 5 5 6 5 5 5 5 5 5 5 5 5 5 5 5 5 5 5 5 5 6 5 5 6 5 5 5 6 5 5 5 5 5 5 5 5 5 5 5 5 5 5 5 5 5 5 5 6 5 5 5 5 5 5 5 5 5 5 5 5 5 5 6 6 5 5 5 6 5 5 5 5 5 6 5 5 5 5 5 5 5 5 5 5 5 6 5 5 6 5 5 5 5 5 5 5 5 5 5 6 5 5 5 6 5 6 5 6 5 5 5 6 6 5 6 5 5 6 5 5 6 6 5 5 5 6 5 5 6 5 6 5 5 5 6 5 5 6 6 5 6 5 5 6 5 6 5 5 5 5 5 5 5 5 5 6 5 5 5 5 5 6 5 5 5 5 5 5 5 5 5 5 6 5 5 5 5 6 6 5 5 6 5 6 5 5 5 5 5 6 5 5 6 5 6 5 5 5 5 5 5 5 6 5 5 5 5 5 5 5 5 5 6 5 6 5 6 5 6 5 5 5 5 6 5 5 5 5 5 6 6 5 5 5 5 5 5 6 5 5 5 5 5 6 5 5 5 5 6 5 5 6 5 6 5 5 5 6 5 6 5 5 6 6 6 5 5 5 5 5 5 6 6 6 5 5 5 5 6 5 6 5 6 5 5 5 5 5 5 6 5 5 5 5 5 5 5 5 5 5 5 5 5 5 5 5 5 5 5 5 5 5 5 5 5 5 5 5 5 5 5 5 5 5 5 5 5 5 5 5 5 5 5 5 5 5 5 5 5 6 5 5 5 6 6 5 5 5 5 5 5 5 5 5 5 5 5 5 5 5 5 5 5 5 6 5 5 5 5 5 5 5 6 5 5 6 5 5 6 5 5 6 5 6 5 5 6 5 5 5 6 5 6 5 6 6 5 5 5 6 6 5 5 6 5 5 6 5 5 5 5 5 5 5 5 5 5 5 5 6 5 5 5 5 6 5 5 5 5 6 5 5 5 5 5 5 5 5 5 6 5 6 5 5 5 5 6 5 5 5 6 5 5 5 5 5 5 6 5 5 6 5 5 5 6 5 5 5 5 5 5 5 6 5 5 5 5 5 6 5 5 5 5 5 5 5 5 5 5 5 5 5 5 5 6 5 5 5 5 5 6 5 5 6 5 6 5 5 5 5 6 6 5 5 6 5 5 5 5 5 5 5 5 5 5 5 6 5 6 5 5 5 5 5 6 5 5 5 6 5 5 5 6 5 5 5 5 5 5 5 5 5 5 5 5 5 6 5 5 5 5 5 5 5 6 5 6 5 5 5 5 5 5 5 6 6 5 5 5 5 5 5 5 5 5 6 5 5 5 5 5 5 6 6 6 5 6 5 5 5 5 5 5 6 5 6 5 6 5 6 5 5 5 5 5 5 6 5 5 6 5 5 5 5 6 5 5 5 5 5 5 5 5 5 5 5 5 5 5 5 5 5 5 5 5 5 6 5 6 5 5 5 5 5 5 5 5 5 5 5 5 5 5 5 5 5 5 5 5 5 5 5 5 5 5 5 5 5 5 5 5 5 5 5 5 5 5 5 5 5 5 5 5 5 5 5 5 5 5 5 5 5 5 5 5 5 5 6 5 5 5 5 5 5 5 5 5 5 5 5 5 5 5 5 5 5 5 5 5 5 5 6 5 5 5 6 5 6 5 5 5 5 5 5 5 5 5 5 5 5 5 5 5 5 5 5 5 5 5 5 5 5 5 5 5 5 5 5 5 5 5 5 5 5 5 5 5 6 5 6 5 5 5 5 5 5 5 5 5 5 5 5 5 5 5 5 5 5 5 5 5 5 5 5 5 6 5 5 5 5 5 5 5 5 5 5 5 5 5 5 5 5 5 5 5 5 5 5 5 5 5 5 5 5 5 5 5 5 5 5 5 5 5 5 5 5 5 5 5 5 5 5 5 5 5 5 5 5 5 5 5 5 5 5 5 5 5 5 5 5 5 5 5 5 5 6 5 5 5 5 5 5 5 6 5 5 6 5 5 5 5 5 5 5 5 5 5 5 5 5 5 5 5 5 5 5 5 6 5 5 5 5 5 5 5 5 5 5 5 5 5 5 5 5 5 5 5 5 5 5 5 5 5 5 5 5 5 5 5 5 6 5 5 5 5 6 5 6 5 5 5 5 5 5 6 5 5 6 5 5 6 6 5 6 5 5 5 6 5 5 5 5 5 5 5 5 5 5 5 5 5 5 5 6 5 5 5 5 5 5 5 5 6 5 5 5 5 5 5 5 5 5 5 5 5 5 5 5 5 5 5 5 5 5 5 5 5 5 5 5 5 5 5 5 5 5 5 5 5 6 5 5 5 5 5 5 5 6 5 5 6 5 6 5 5 5 5 5 5 5 5 5 5 5 6 6 5 5 6 5 5 6 6 5 5 5 5 6 5 6 5 5 6 5 6 6 5 6 5 6 5 5 5 5 5 5 5 6 5 6 5 5 5 5 5 6 5 5 5 6 5 5 6 5 6 5 6 6 5 5 6 5 5 5 5 5 5 6 5 5 5 5 5 5 5 5 6 6 5 5 5 6 5 5 5 5 6 6 5 6 5 5 5 6 5 5 5 5 5 5 5 5 5 5 5 5 5 5 5 5 6 5 5 5 5 5 5 6 5 6 5 5 5 6 6 5 5 6 5 6 5 5 5 5 5 5 5 5 5 5 5 5 6 6 5 5 5 5 5 6 5 5 5 5 5 5 5 6 5 5 5 6 5 6 5 5 6 5 5 5 5 5 5 5 5 5 6 5 5 6 5 5 5 5 5 5 5 5 5 5 5 6 5 5 5 5 5 5 5 5 5 5 5 5 5 5 5 5 5 5 5 5 5 5 6 5 5 5 5 5 5 5 5 5 5 5 6 5 5 5 5 6 5 5 5 5 5 5 5 5 5 5 5 6 5 5 5 5 5 6 5 6 5 5 5 5 5 5 5 5 5 6 5 5 6 5 5 6 5 5 5 5 6 5 5 5 5 5 5 5 5 5 5 5 5 5 5 5 5 5 5 5 5 5 6 5 5 6 5 6 5 5 5 5 5 5 5 5 5 6 5 5 6 6 6 5 5 5 6 5 5 5 5 5 5 6 6 5 6 5 5 6 5 5 6 5 5 5 5 6 5 5 5 5 6 5 5 5 5 5 5 5 5 5 5 5 6 5 5 6 5 6 6 5 5 6 6 6 5 5 5 5 5 5 5 5 5 5 6 5 5 5 5 5 5 5 5 5 6 5 5 5 5 5 6 5 5 5 5 5 5 5 5 5 5 6 5 5 5 5 5 5 5 5 5 5 5 5 5 5 5 5 5 5 5 5 5 5 5 5 6 6 5 5 5 5 5 5 5 5 6 5 5 5 5 5 5 5 5 5 5 5 5 5 5 5 5 6 5 5 5 5 6 5 5 5 6 6 5 5 5 5 5 5 6 5 6 5 5 5 6 5 5 5 5 5 5 5 5 6 5 6 6 5 5 5 5 5 5 5 5 5 5 5 5 6 5 5 6 5 6 5 5 5 5 5 5 5 5 5 5 5 5 5 5 5 5 5 5 5 5 5 5 5 6 5 5 5 5 5 6 5 5 5 5 5 5 5 5 5 5 6 5 5 5 6 5 5 5 5 5 5 5 5 5 5 5 6 6 5 5 5 5 5 6 5 5 5 6 5 5 5 5 5 5 5 5 5 5 6 5 5 5 5 5 5 5 6 6 5 6 5 5 5 5 6 5 5 5 5 5 6 5 5 5 5 5 5 5 5 5 5 6 5 5 5 5 5 5 5 5 5 5 6 5 5 5 5 5 5 5 6 5 5 5 5 5 5 5 5 5 5 5 5 5 5 5 5 5 5 5 5 6 5 5 5 6 5 5 5 5 5 5 5 5 5 5 5 5 5 6 5 6 6 5 6 6 5 5 5 5 5 6 5 5 5 5 5 5 5 6 5 5 6 5 5 6 5 5 6 5 5 6 6 6 6 5 5 6 6 5 5 6 5 5 6 5 5 5 5 6 6 6 6 5 5 5 6 5 6 5 6 5 6 6 5 5 5 5 5 5 5 6 5 5 6 5 6 5 5 6 6 5 5 5 5 5 5 5 5 5 5 5 5 5 5 5 5 5 6 5 5 5 5 5 5 5 5 5 5 5 5 5 5 5 5 5 6 5 5 5 5 5 5 5 5 5 5 5 5 5 5 6 6 5 5 5 5 6 5 6 5 5 5 6 6 5 6 5 5 5 5 5 5 5 5 5 5 5 5 5 5 5 5 5 5 5 6 5 6 5 5 5 5 6 5 5 5 5 5 5 5 5 5 5 5 5 5 5 5 5 5 5 5 5 6 5 5 5 5 5 5 5 5 5 5 5 5 5 5 6 5 5 5 5 5 5 5 5 5 5 5 5 5 5 5 5 5 5 5 5 5 5 5 5 5 5 5 5 5 5 5 5 5 5 5 5 5 5 5 5 5 5 5 5 5 5 5 5 5 5 5 5 5 5 5 5 5 5 5 5 5 5 6 5 5 5 6 5 5 6 5 5 5 5 5 5 5 5 5 5 5 6 5 5 5 5 6 5 5 5 5 5 5 5 5 5 5 5 5 5 5 5 5 5 5 5 5 5 5 5 5 5 5 5 5 5 6 5 5 5 5 6 5 5 5 5 5 5 5 5 5 5 6 5 5 6 5 5 5 5 5 5 5 5 5 5 5 5 6 5 5 5 5 5 5 5 5 6 5 5 5 5 5 5 5 5 5 5 6 5 6 5 5 5 6 5 5 5 6 5 6 5 6 6 5 5 5 5 5 6 5 5 5 5 5 5 5 5 5 5 5 5 5 5 5 5 5 5 5 5 5 5 5 6 5 5 6 5 5 5 6 5 6 5 5 5 5 5 5 5 5 5 5 5 5 6 5 5 5 5 5 5 5 5 5 5 5 5 5 5 5 5 5 5 5 6 5 5 5 5 5 5 5 5 5 5 5 5 5 5 5 5 5 5 5 5 5 5 5 5 5 5 5 6 5 5 5 5 5 5 5 5 5 5 5 5 5 5 5 5 5 5 6 5 5 5 6 5 5 5 6 6 5 5 5 5 5 6 5 5 5 5 5 5 5 6 6 5 5 5 6 5 6 5 5 5 5 5 5 6 6 5 5 6 6 5 5 5 5 5 5 5 5 5 5 6 5 5 5 5 5 5 6 5 5 5 5 5 5 5 5 5 5 5 5 5 5 5 5 5 6 5 5 5 5 6 5 5 6 5 5 5 5 5 5 5 5 5 5 5 6 5 6 5 6 5 5 5 5 5 5 5 5 5 5 5 5 5 5 5 5 5 5 5 6 5 5 6 5 5 5 6 5 5 6 5 5 5 5 6 5 5 5 5 5 5 5 6 5 5 5 5 5 5 5 5 5 5 5 5 5 5 5 5 5 5 5 5 5 5 5 5 5 5 5 5 5 6 5 5 5 5 5 5 5 5 5 5 5 5 5 5 5 5 5 5 5 5 5 5 5 5 5 5 5 5 5 5 5 5 5 5 5 5 5 6 6 6 5 5 6 5 5 5 6 5 6 5 5 5 5 5 6 5 5 5 5 5 5 5 6 5 5 5 5 5 5 5 5 5 5 5 5 5 5 6 5 5 5 6 5 6 5 5 5 5 5 5 5 5 6 5 5 5 5 5 5 5 6 5 6 5 6 5 5 5 5 5 5 5 5 6 5 5 6 6 6 5 6 5 6 5 5 5 5 5 5 5 5 5 5 5 5 5 5 5 5 5 5 5 5 5 6 5 5 6 6 5 5 5 6 5 5 5 5 5 5 5 6 5 6 5 5 5 5 6 5 5 6 5 5 5 5 5 5 5 6 5 5 6 5 5 5 6 5 5 5 5 5 5 5 5 5 6 5 5 5 5 5 5 6 5 5 6 5 5 5 5 6 5 5 5 5 5 5 6 6 6 5 5 5 6 5 6 5 6 5 5 5 5 5 5 6 5 5 5 6 5 5 5 6 5 5 5 5 5 5 5 5 5 5 5 5 6 5 5 5 6 5 5 5 5 5 6 6 5 5 6 5 6 6 6 5 5 5 6 5 5 5 5 5 6 5 5 5 5 5 5 5 5 5 5 5 5 6 5 5 5 5 5 5 6 5 5 6 5 5 6 5 5 5 5 5 6 5 5 6 5 6 5 6 5 5 5 5 5 5 6 5 5 5 5 6 5 5 5 5 5 5 5 5 5 5 6 5 5 5 5 5 6 5 5 5 5 5 5 5 5 5 5 5 5 5 5 5 6 5 5 5 5 5 6 5 6 5 5 5 5 5 6 5 5 5 5 5 6 5 5 5 5 5 6 5 5 5 5 5 5 5 5 5 5 6 5 6 5 6 5 5 6 5 5 5 5 5 5 5 5 6 5 6 5 5 5 5 5 5 5 5 5 5 6 5 5 5 5 5 5 5 5 5 5 6 5 5 5 6 5 6 6 5 5 5 6 5 5 5 6 6 5 5 5 5 5 5 5 5 5 5 6 6 5 5 5 5 5 6 5 5 5 5 5 5 5 5 5 5 6 5 6 6 6 5 5 5 5 5 5 5 5 6 5 5 5 5 5 5 5 5 5 5 5 5 5 5 5 5 5 5 5 5 5 5 5 5 5 5 5 5 5 6 5 5 5 5 6 5 5 5 5 5 5 5 5 6 5 5 5 5 5 5 5 5 6 5 5 5 5 5 5 5 5 5 5 5 5 5 5 5 5 5 5 5 5 5 5 5 5 5 5 6 5 5 5 5 5 5 6 5 6 5 5 6 5 5 5 6 5 6 5 5 5 6 5 5 5 6 5 5 5 5 5 5 6 5 5 5 5 5 5 5 5 5 5 5 5 5 5 5 5 5 5 5 5 5 5 5 5 5 5 5 6 5 6 5 5 5 5 6 5 5 5 5 5 5 5 5 5 5 5 5 5 6 5 5 6 5 5 6 5 5 5 5 5 6 5 5 5 5 5 5 5 5 6 5 6 5 5 5 5 5 6 6 5 5 6 5 5 5 6 5 5 5 5 5 5 5 6 5 5 5 5 5 5 5 5 5 5 5 5 5 5 5 5 6 5 5 5 5 5 6 5 6 5 5 5 5 5 5 5 5 5 5 5 5 6 5 6 5 5 5 5 5 5 6 6 5 5 5 5 5 5 5 5 5 5 5 5 5 5 5 5 5 5 5 5 5 6 5 5 6 5 5 5 5 5 6 5 5 5 5 5 5 6 5 5 5 5 5 5 5 5 5 5 5 5 5 5 5 5 6 5 5 6 5 5 5 5 6 5 5 5 5 5 5 5 5 5 5 5 6 5 5 5 5 5 5 5 5 5 5 5 5 5 5 5 5 5 5 5 6 5 5 5 5 5 5 5 5 5 5 5 5 6 5 5 5 5 5 5 5 5 5 5 5 5 5 6 6 5 5 5 5 5 5 6 5 5 5 5 5 5 5 5 5 5 5 5 5 5 5 5 5 5 5 5 5 5 5 5 5 5 5 5 5 5 5 5 5 5 5 6 5 5 5 5 5 5 5 5 6 5 5 5 5 5 5 5 5 5 5 5 5 6 5 5 5 5 6 5 6 5 5 5 5 5 5 5 5 6 5 5 5 5 5 5 5 5 5 5 6 5 5 5 6 5 5 6 5 5 5 5 6 5 5 6 5 5 5 5 5 5 5 5 6 5 5 5 6 5 5 5 5 5 5 5 6 5 6 5 6 5 6 6 5 5 5 6 6 6 5 5 6 5 5 5 6 5 5 5 5 6 5 5 5 5 5 5 5 5 5 5 5 5 5 5 5 5 5 5 5 5 5 5 5 5 5 5 5 5 5 5 5 5 5 5 5 5 5 5 6 5 5 5 5 5 5 5 5 6 5 5 5 5 6 5 5 6 5 5 6 5 5 5 5 6 5 5 5 5 5 6 5 5 5 5 5 5 5 5 5 5 5 5 5 6 6 5 5 5 6 5 5 5 5 5 5 5 5 5 5 5 5 5 5 6 5 5 5 5 5 5 6 5 5 6 5 5 5 5 5 5 5 5 5 5 6 5 5 5 5 5 6 5 5 5 5 5 5 5 5 5 5 6 5 5 5 5 5 5 5 5 5 5 5 5 5 5 5 6 5 5 5 5 5 5 5 5 5 5 5 5 5 5 5 5 5 5 5 5 5 5 5 6 5 6 5 5 5 6 5 5 5 5 5 5 5 5 5 6 5 5 5 6 5 5 5 5 5 5 5 5 5 5 5 5 5 5 5 5 6 5 5 5 5 5 6 5 5 5 6 5 6 5 5 5 5 5 5 6 5 5 5 5 5 5 5 5 5 5 5 5 5 5 5 5 5 5 5 5 5 5 5 5 5 5 5 6 5 5 6 5 5 5 5 5 5 5 6 5 5 5 5 6 5 5 6 5 5 5 5 5 5 6 5 5 5 6 5 5 5 6 5 5 5 5 5 6 5 5 5 5 5 6 5 5 5 5 5 5 5 5 6 5 5 6 5 5 5 5 6 5 5 5 5 6 5 5 5 5 6 5 5 5 6 5 6 5 5 5 5 5 5 5 5 5 5 6 5 5 5 5 5 5 5 6 6 5 5 5 5 5 6 5 5 5 5 5 6 5 5 5 6 5 5 6 5 5 6 5 5 5 6 5 5 5 5 5 5 6 5 5 5 5 5 6 5 5 5 5 5 6 5 5 5 5 5 5 6 5 5 5 5 6 5 5 5 5 5 6 5 5 5 5 5 5 5 5 5 5 6 5 5 5 5 5 5 5 6 5 5 5 5 6 6 5 5 6 5 5 5 5 5 5 5 6 5 5 5 5 5 5 5 6 5 6 5 5 6 5 5 5 5 6 5 6 5 5 5 5 5 5 5 5 5 5 6 5 5 5 5 5 6 5 5 5 6 5 5 5 5 6 5 5 6 5 5 5 5 5 6 5 6 5 6 6 5 5 5 5 6 6 5 5 5 5 5 5 5 5 5 5 5 5 5 6 5 5 5 5 5 5 6 6 5 5 5 5 5 5 5 5 5 5 5 5 5 6 5 5 5 5 5 5 5 5 5 5 5 5 5 5 5 5 5 5 5 5 5 5 5 5 5 5 5 5 5 5 5 5 5 6 5 5 6 5 5 5 5 5 5 5 6 5 5 5 6 5 5 6 5 5 5 6 6 5 5 5 5 6 6 5 5 5 5 5 5 5 5 5 5 5 5 5 5 6 5 5 6 5 5 5 6 5 5 5 5 6 5 5 6 5 5 5 5 5 5 5 5 5 5 5 6 5 5 5 5 5 5 5 6 5 5 5 5 5 5 5 5 5 5 5 5 5 5 5 5 5 5 6 5 5 5 5 5 5 6 5 6 5 5 5 5 5 6 5 5 6 5 5 5 6 5 5 5 6 5 5 5 5 5 5 5 5 5 5 5 5 5 5 6 5 5 5 5 6 6 5 5 5 5 5 5 5 5 5 5 5 5 5 5 5 5 5 5 5 6 5 5 5 5 5 5 5 5 6 5 6 5 5 5 5 5 5 5 6 5 6 5 5 5 5 5 6 5 5 5 5 5 5 6 5 5 5 5 5 6 6 5 5 5 6 6 6 5 5 5 5 5 6 5 5 5 5 5 6 5 5 5 5 6 5 6 6 5 6 6 5 5 5 6 5 5 5 6 5 5 5 6 5 5 5 6 5 5 5 5 5 5 5 5 6 5 5 5 6 5 5 5 5 5 5 6 5 5 5 5 5 5 6 5 5 5 5 5 5 5 5 5 5 5 5 5 5 6 5 6 5 5 5 6 5 5 6 5 6 5 6 5 5 6 5 5 5 5 5 5 6 5 5 5 5 6 5 5 5 5 5 5 6 5 5 5 5 5 5 5 5 5 5 6 5 5 5 5 5 5 5 5 5 5 5 5 5 5 5 5 5 5 5 6 6 5 5 5 6 5 5 6 5 5 6 5 5 6 5 5 6 6 5 5 5 5 6 5 5 5 5 5 5 5 5 5 5 5 6 6 5 5 5 6 5 6 5 6 5 5 5 5 5 6 5 5 6 5 6 5 5 6 6 6 5 5 5 5 6 5 5 6 5 6 5 5 6 5 5 5 5 5 5 5 5 6 5 6 6 5 5 5 5 5 6 6 5 5 5 6 6 5 5 5 5 5 5 5 5 6 5 6 5 5 5 5 5 5 5 5 5 5 5 5 5 5 5 5 5 5 5 5 5 5 5 5 5 5 5 5 5 6 5 5 5 5 5 5 5 5 5 5 5 5 5 5 5 6 5 5 6 5 5 5 5 5 6 5 5 5 5 5 5 5 5 5 5 5 5 5 6 5 5 5 5 5 5 5 5 5 6 5 5 6 5 5 5 5 6 6 6 5 5 5 5 5 6 5 5 5 
</DataArray>
<DataArray type="Float64" Name="stress" NumberOfComponents="9" format="ascii">
2309581536.0060577 -3842798967.780098 0 -3842798967.780098 -1945625.0240546176 0 0 0 0 3700932.4327392578 -820921158.75296783 0 -820921158.75296783 1358288041.520813 0 0 0 0 1774438.395694755 -5187642.7755461484 0 -5187642.7755461484 2140575.8987825662 0 0 0 0 -1914115781.8894653 -2602376081.1534882 0 -2602376081.1534882 1152855858.6217194 0 0 0 0 486070710.44718933 -3917213684.0497208 0 -3917213684.0497208 821494.81196594238 0 0 0 0 496701134.67082977 -2964859341.0841103 0 -2964859341.0841103 900253763.07452393 0 0 0 0 1441922579.4403687 -2140134348.2120819 0 -2140134348.2120819 1197047570.3174973 0 0 0 0 1991502.0482086614 -5084591.2216629535 0 -5084591.2216629535 2039912.6720890701 0 0 0 0 3480502791.7113037 -3108788541.5350113 0 -3108788541.5350113 279949408.20368958 0 0 0 0 1228612981.9571533 -3411793550.6483154 0 -3411793550.6483154 355060183.21875 0 0 0 0 1236300750.0170672 -2503543456.7993302 0 -2503543456.7993302 621619828.21536255 0 0 0 0 414350557.09321594 -2613977201.4005356 0 -2613977201.4005356 885464446.03395844 0 0 0 0 356961392.82417297 -2960292200.3369446 0 -2960292200.3369446 1192679895.9733658 0 0 0 0 359092988.78955078 -3010915753.6392441 0 -3010915753.6392441 1995851000.3475189 0 0 0 0 8019264.3053359985 -3582297953.532959 0 -3582297953.532959 1148284318.439743 0 0 0 0 -334566669.07015991 -2647302110.2380981 0 -2647302110.2380981 1911900478.9607658 0 0 0 0 501374113.3684845 -2388288595.8208771 0 -2388288595.8208771 1199636105.658534 0 0 0 0 -422043248.87513733 -2139362564.7355194 0 -2139362564.7355194 1235579011.0910711 0 0 0 0 -587057550.98635864 -1246043451.1664848 0 -1246043451.1664848 278220091.59136963 0 0 0 0 -2098397633.3386841 -2093379508.4517632 0 -2093379508.4517632 1750347078.7240601 0 0 0 0 882077.33838599548 -2429170.4749619476 0 -2429170.4749619476 2213855.1448273361 0 0 0 0 1775555979.4874725 -2041933139.834465 0 -2041933139.834465 -337203066.28183746 0 0 0 0 780717076.49536133 -3165844334.1941528 0 -3165844334.1941528 452432478.90559387 0 0 0 0 1266455866.0432892 -2999164968.7142715 0 -2999164968.7142715 472753161.18062115 0 0 0 0 2004920234.669838 -3692317297.2201195 0 -3692317297.2201195 95088.789154052734 0 0 0 0 1602485.4192395769 -3454974.8015943691 0 -3454974.8015943691 1852691.1732703149 0 0 0 0 -1521886119.7348862 -1206343896.9483185 0 -1206343896.9483185 678386334.67059326 0 0 0 0 4057245352.3871155 -2647373867.992981 0 -2647373867.992981 -583063590.10083771 0 0 0 0 204520852.45201111 -1495864698.1618576 0 -1495864698.1618576 -900454.02590942383 0 0 0 0 2160342678.9575348 -791109201.85272217 0 -791109201.85272217 -460160325.52648926 0 0 0 0 2161217021.7300458 -1587384413.5452888 0 -1587384413.5452888 490401912.67510986 0 0 0 0 -50452326.774681091 -345652295.60480499 0 -345652295.60480499 101927200.38113403 0 0 0 0 2465244039.3142738 -1316358930.3324051 0 -1316358930.3324051 606322325.77862549 0 0 0 0 1393251.7717467621 -586538.90033370256 0 -586538.90033370256 146896.64844339341 0 0 0 0 2498070971.3215027 -1230721335.4940796 0 -1230721335.4940796 345496800.03489685 0 0 0 0 2510139893.1452026 -1453703712.0320282 0 -1453703712.0320282 312823.99676879868 0 0 0 0 2185892210.3647461 -1326899576.4815979 0 -1326899576.4815979 898091112.76208496 0 0 0 0 2903918830.1417084 -2677850582.0172195 0 -2677850582.0172195 1039009985.7727909 0 0 0 0 1342814432.3504944 -276873278.31481934 0 -276873278.31481934 -372026548.23500824 0 0 0 0 1105977156.7137146 57901831.77507019 0 57901831.77507019 -189582410.69259644 0 0 0 0 1350971178.0032806 -53112235.840377808 0 -53112235.840377808 -241167687.60842896 0 0 0 0 407074287.69393921 -405516701.87539673 0 -405516701.87539673 87808415.627563477 0 0 0 0 842986.80312348157 -1900823.9157145768 0 -1900823.9157145768 3036066.6650319472 0 0 0 0 139953550.922575 583870656.15650272 0 583870656.15650272 -291723526.45626831 0 0 0 0 -153208732.00491333 -17767205.173538208 0 -17767205.173538208 -73731758.465339661 0 0 0 0 1032828144.4940948 76891169.114974976 0 76891169.114974976 -259892934.21783447 0 0 0 0 9070646.9128265381 -131341640.69807434 0 -131341640.69807434 -55579860.135574341 0 0 0 0 1059990749.0042343 207056502.01524353 0 207056502.01524353 356280197.75143433 0 0 0 0 2263612264.1463242 -602860538.65034485 0 -602860538.65034485 -110204803.29154968 0 0 0 0 3138835616.6043243 -2545937884.6022339 0 -2545937884.6022339 1345010231.0638885 0 0 0 0 3051925426.3903809 -1483073541.9952011 0 -1483073541.9952011 -624452717.4193573 0 0 0 0 3212898997.9900513 -2997996583.2265015 0 -2997996583.2265015 2005926761.5858636 0 0 0 0 2100728245.5484161 -1904249892.3883705 0 -1904249892.3883705 2002021929.3251648 0 0 0 0 -632118682.62075043 667269614.23908234 0 667269614.23908234 -341624402.44161987 0 0 0 0 -549945.80230036378 -2853654.7142514288 0 -2853654.7142514288 6102256.8500162512 0 0 0 0 829813.10406366736 -620990.57337703556 0 -620990.57337703556 693493.78182601929 0 0 0 0 2532233505.4138813 -2717878454.3105035 0 -2717878454.3105035 2057936235.9161072 0 0 0 0 2546917099.6117096 -2907542966.6352386 0 -2907542966.6352386 2687588603.198288 0 0 0 0 952092337.60922241 -1361070671.9905548 0 -1361070671.9905548 1179067612.8993225 0 0 0 0 728101371.8704071 -1322847179.3781738 0 -1322847179.3781738 329010435.9280777 0 0 0 0 632871465.05773926 -1754413854.4368591 0 -1754413854.4368591 781842862.73527527 0 0 0 0 -1068389662.0790291 107080202.52721786 0 107080202.52721786 698724014.746521 0 0 0 0 294625529.7706604 184646225.02947998 0 184646225.02947998 -677089269.44979858 0 0 0 0 -359209007.98016357 -661718881.55977631 0 -661718881.55977631 199495228.05908203 0 0 0 0 353009.04686654732 -7469382.7503681518 0 -7469382.7503681518 10384016.651418954 0 0 0 0 205889854.71321106 -526144080.56383514 0 -526144080.56383514 -450718854.71853638 0 0 0 0 -618180068.87796021 -152857471.65551758 0 -152857471.65551758 -232704298.87572479 0 0 0 0 -821046722.56667709 -749781479.26032257 0 -749781479.26032257 174497459.48348999 0 0 0 0 -295343043.22099304 -1243329127.6482353 0 -1243329127.6482353 545341095.47149658 0 0 0 0 2643692790.0952454 -171905507.01924896 0 -171905507.01924896 441510025.13644409 0 0 0 0 1721001720.4002228 -577970999.83074951 0 -577970999.83074951 414363639.11024475 0 0 0 0 1009908093.3838425 292231203.57723999 0 292231203.57723999 180265490.90917969 0 0 0 0 -189791623.9808197 96754959.012359619 0 96754959.012359619 455961072.75205994 0 0 0 0 779747404.21348572 -1218012992.8617325 0 -1218012992.8617325 609013597.36837006 0 0 0 0 1170441992.368454 -634298104.75270081 0 -634298104.75270081 707470598.43756104 0 0 0 0 468365265.74514771 289851301.46300507 0 289851301.46300507 -265415601.66693115 0 0 0 0 1245144000.2786217 -359304145.05578995 0 -359304145.05578995 1679582206.2778015 0 0 0 0 2902077873.5740356 -859629394.96534729 0 -859629394.96534729 728001771.17181396 0 0 0 0 2717942681.0821915 -473702497.5694046 0 -473702497.5694046 493134217.20303345 0 0 0 0 1869323346.5662231 -1387379868.4533157 0 -1387379868.4533157 1264182660.436554 0 0 0 0 1286684914.8859558 -627204674.11290741 0 -627204674.11290741 344255195.97866821 0 0 0 0 1656851833.9645233 -651607251.41608429 0 -651607251.41608429 133803319.97229767 0 0 0 0 1621371974.6860657 -1151701161.1872635 0 -1151701161.1872635 -217649374.24716187 0 0 0 0 1564106746.6752319 -1346601391.2515945 0 -1346601391.2515945 374771900.13128948 0 0 0 0 1562878949.5688074 -405916990.03903776 0 -405916990.03903776 -64730177.356140137 0 0 0 0 -1675230449.0102615 -602088363.62893295 0 -602088363.62893295 37580701.88469696 0 0 0 0 -177570194.50509644 -636284050.86031342 0 -636284050.86031342 673666909.34281921 0 0 0 0 404104.89058236964 -7364881.6261367761 0 -7364881.6261367761 8589283.6382061243 0 0 0 0 -2268261326.9824677 -398491793.85754395 0 -398491793.85754395 -333207582.65123367 0 0 0 0 -1063237817.3057251 -641331063.00296021 0 -641331063.00296021 -507405251.97916603 0 0 0 0 -935570806.41065979 -994687685.44723606 0 -994687685.44723606 -422696183.97599792 0 0 0 0 -1118912583.1675568 -375252698.8536377 0 -375252698.8536377 -452135756.39178467 0 0 0 0 -326957284.55621338 -1033045110.0223923 0 -1033045110.0223923 -118095474.52723694 0 0 0 0 -606432336.59279633 -649654178.05498886 0 -649654178.05498886 -61345953.150238037 0 0 0 0 -515929961.90557861 -756428327.42892456 0 -756428327.42892456 822737500.00740051 0 0 0 0 -232297651.94953918 -495212221.48714447 0 -495212221.48714447 -463377220.46539307 0 0 0 0 -146421649.07463074 -670293234.47873688 0 -670293234.47873688 -375609111.14862061 0 0 0 0 -300282073.58334351 -589444131.00616455 0 -589444131.00616455 -268202833.01622009 0 0 0 0 -308031129.56488037 -440944044.33914185 0 -440944044.33914185 7768139.7012939453 0 0 0 0 -1157683.3466525376 -5798539.2363160923 0 -5798539.2363160923 12639049.677365854 0 0 0 0 3355089.9612884521 233284126.02225494 0 233284126.02225494 -360899728.36190796 0 0 0 0 -173089820.46940994 53486835.533610344 0 53486835.533610344 -15782836.978057861 0 0 0 0 -718177527.57824707 -466247920.48833466 0 -466247920.48833466 -227202692.24897766 0 0 0 0 -331930.62715722807 -1503999.2729820758 0 -1503999.2729820758 4912055.2337787673 0 0 0 0 -598088343.21862793 99537663.925384521 0 99537663.925384521 -117059539.11357117 0 0 0 0 1788422859.4092102 -2153678427.1500626 0 -2153678427.1500626 2716520530.5443878 0 0 0 0 -1871695210.910141 300266748.94392395 0 300266748.94392395 1889043957.3285828 0 0 0 0 -397235961.35632324 -674749012.00576782 0 -674749012.00576782 151631377.58241272 0 0 0 0 -623185908.1410675 -322656876.56387329 0 -322656876.56387329 1569518224.1565857 0 0 0 0 -836212829.44837189 -1067412033.4407272 0 -1067412033.4407272 1984652770.6554871 0 0 0 0 -1630731124.0822906 -1159891556.9812698 0 -1159891556.9812698 4720510205.5981293 0 0 0 0 -850937215.5557251 -988252601.9331665 0 -988252601.9331665 1652542464.899189 0 0 0 0 407403473.49856567 -3406236165.3450317 0 -3406236165.3450317 3269677775.4038162 0 0 0 0 -800857.5623550415 -2355260298.4333649 0 -2355260298.4333649 5261101632.9539032 0 0 0 0 937641445.8274765 -2895994326.2209663 0 -2895994326.2209663 2400614263.3921356 0 0 0 0 567812963.30999756 -2552960223.8594742 0 -2552960223.8594742 2113434319.5259552 0 0 0 0 -101188609.54882812 -2680695051.2178345 0 -2680695051.2178345 2063909611.4505615 0 0 0 0 -437641239.88813019 -2322088074.0223007 0 -2322088074.0223007 1898340581.4232025 0 0 0 0 -118146459.06341553 -2970731264.6481934 0 -2970731264.6481934 2934795849.118103 0 0 0 0 -676775793.51177216 -2257141428.406765 0 -2257141428.406765 1770501961.776947 0 0 0 0 -677099044.88787842 -1848033998.6556015 0 -1848033998.6556015 1335000990.6299438 0 0 0 0 -435566181.24945068 -2207344896.1469116 0 -2207344896.1469116 1780053567.6690102 0 0 0 0 1244921028.8800774 -2490523453.5666904 0 -2490523453.5666904 1167182767.466095 0 0 0 0 -54294004.930603027 -2075320107.4588928 0 -2075320107.4588928 1085301088.5835114 0 0 0 0 -152946391.82276154 -1953741085.6177254 0 -1953741085.6177254 939339539.43597412 0 0 0 0 -265163590.97470093 -1372714135.2949142 0 -1372714135.2949142 282861552.622509 0 0 0 0 -541140895.12574196 -1312302402.3931532 0 -1312302402.3931532 844632510.27355957 0 0 0 0 -508516710.68358994 -1600558185.7692251 0 -1600558185.7692251 1544285109.323761 0 0 0 0 -454828983.32293701 -1209419731.1427917 0 -1209419731.1427917 746184004.99073982 0 0 0 0 -650648093.10391235 -2153649471.6575317 0 -2153649471.6575317 2400833918.3234558 0 0 0 0 7092542.1884422302 -22468578.440486908 0 -22468578.440486908 9138447.3461914062 0 0 0 0 -1425273.581451416 -37556138.824783325 0 -37556138.824783325 30637182.438537598 0 0 0 0 48487998.993377686 -84817874.037536621 0 -84817874.037536621 103033932.88882446 0 0 0 0 -8009809.975440979 -8694883.0508346558 0 -8694883.0508346558 74875803.728256226 0 0 0 0 -7309535.8526163101 -5402258.2349405289 0 -5402258.2349405289 77247250.510879517 0 0 0 0 -109940964.3511734 -27088306.522102356 0 -27088306.522102356 61995460.044387817 0 0 0 0 -31569589.583564758 7492248.6591644287 0 7492248.6591644287 63988365.36567688 0 0 0 0 -69383869.237579346 1590012.4067382812 0 1590012.4067382812 126685355.47900391 0 0 0 0 -275068717.03068161 -151234269.85627365 0 -151234269.85627365 -908061.09527587891 0 0 0 0 -66110160.808052063 -278133146.87285995 0 -278133146.87285995 -45891118.775619507 0 0 0 0 5348529.2194671631 -27806854.587905884 0 -27806854.587905884 -84881374.551437378 0 0 0 0 42698230.867580414 -135684765.91003036 0 -135684765.91003036 214029943.62557983 0 0 0 0 306871018.04981232 -197828399.91580963 0 -197828399.91580963 -24847515.826034546 0 0 0 0 117647207.91679382 -119236574.65026855 0 -119236574.65026855 413678.69718933105 0 0 0 0 315186047.21904588 -441959240.43106866 0 -441959240.43106866 437318110.495224 0 0 0 0 173426790.79151917 -183061611.976017 0 -183061611.976017 133965279.22842407 0 0 0 0 62629525.703552246 43923624.782165527 0 43923624.782165527 111992329.34027863 0 0 0 0 51296469.631225586 30809336.456588745 0 30809336.456588745 20868877.482513428 0 0 0 0 -78118100.464263916 -69896810.22063446 0 -69896810.22063446 115821463.25886345 0 0 0 0 -1018938.6958883181 -1043157.0597449671 0 -1043157.0597449671 -1140296.6390227824 0 0 0 0 -351825919.48608398 -106428866.73568726 0 -106428866.73568726 381308060.03889465 0 0 0 0 2429013.7773667686 -820998.32167359814 0 -820998.32167359814 2898398.9882758558 0 0 0 0 378593143.13140869 -884308491.03379822 0 -884308491.03379822 1038789718.3982773 0 0 0 0 365334018.78119659 -57451597.35887146 0 -57451597.35887146 211359208.61048126 0 0 0 0 963796825.38488007 -324789694.98814774 0 -324789694.98814774 192660.23724365234 0 0 0 0 1115473988.6556358 -640437594.17785645 0 -640437594.17785645 129864340.84481812 0 0 0 0 1774396744.6156158 -412324437.27250671 0 -412324437.27250671 -395987.23273524456 0 0 0 0 2100461765.474823 -840581744.32520294 0 -840581744.32520294 120019460.35378265 0 0 0 0 1982842476.5897598 -264260071.46897125 0 -264260071.46897125 121444212.91130066 0 0 0 0 1869838449.3700562 -433839144.63084412 0 -433839144.63084412 -56341036.354019165 0 0 0 0 1705953055.6210632 -340324722.60683441 0 -340324722.60683441 -76121414.336730957 0 0 0 0 1654122920.0516968 -396717630.31971741 0 -396717630.31971741 54558204.24710083 0 0 0 0 1905863331.4638672 -437415076.21704102 0 -437415076.21704102 876134.78630858392 0 0 0 0 1163180667.774292 -246748197.78813171 0 -246748197.78813171 49655070.907211304 0 0 0 0 1321583936.1710663 -282262901.68562317 0 -282262901.68562317 43278797.334991455 0 0 0 0 1735658745.4811783 -150142369.97127533 0 -150142369.97127533 -97603310.969360352 0 0 0 0 1785134777.0091095 -818420515.8147583 0 -818420515.8147583 373618754.79736328 0 0 0 0 1851177451.7015228 -277539328.10299683 0 -277539328.10299683 -112681527.89744568 0 0 0 0 1818450030.739975 -647558177.17614746 0 -647558177.17614746 864036166.29458618 0 0 0 0 2510530570.0610962 -1500690101.7601776 0 -1500690101.7601776 692269008.85638618 0 0 0 0 3230959963.033905 -1179334393.5584717 0 -1179334393.5584717 182761757.08680725 0 0 0 0 2073103078.5892944 -853110908.61672974 0 -853110908.61672974 98596474.325271606 0 0 0 0 2320131264.4225655 -843194760.48576736 0 -843194760.48576736 -52898168.487365723 0 0 0 0 2552210609.7964134 -868384014.38296413 0 -868384014.38296413 1847836802.9844055 0 0 0 0 3722422463.6659851 -584270576.63021851 0 -584270576.63021851 84263912.314918518 0 0 0 0 2364997538.2484436 -2132845981.2346573 0 -2132845981.2346573 1250136109.9628601 0 0 0 0 1158297393.5698242 -241257991.26371765 0 -241257991.26371765 -201952405.72653198 0 0 0 0 -490659434.9446106 -276896014.00872803 0 -276896014.00872803 897553698.5630455 0 0 0 0 18151442.99301333 -8774773.7723145261 0 -8774773.7723145261 -3157241.6820339635 0 0 0 0 530417443.09052277 13696508.031814575 0 13696508.031814575 -399879218.91094971 0 0 0 0 6161212802.2474823 -978321240.28129578 0 -978321240.28129578 143029970.80844116 0 0 0 0 1826901.671218574 112394.98247157782 0 112394.98247157782 -666664.97922079638 0 0 0 0 6032586151.0063934 -1331087533.1434174 0 -1331087533.1434174 799238397.55321503 0 0 0 0 3281465.368963629 -4092048.4278954901 0 -4092048.4278954901 534094.71258464456 0 0 0 0 2914498816.3601313 -306459704.5065515 0 -306459704.5065515 1796763091.5629883 0 0 0 0 3904343178.0160217 -1534477897.8533783 0 -1534477897.8533783 1403005478.8377228 0 0 0 0 2268479483.177002 1651789170.0871735 0 1651789170.0871735 1125236448.8077087 0 0 0 0 5712225233.8235626 736078203.96296692 0 736078203.96296692 -71705548.632873535 0 0 0 0 4060791524.3015747 2633152913.8829956 0 2633152913.8829956 812936960.44873428 0 0 0 0 2775806134.2579041 366173993.50289917 0 366173993.50289917 -35068896.055007935 0 0 0 0 3292689602.7711945 120848215.64629364 0 120848215.64629364 61724783.357788086 0 0 0 0 2456604688.8659058 -987786375.91918945 0 -987786375.91918945 276866137.77445984 0 0 0 0 1694920689.6402283 -52859068.25227356 0 -52859068.25227356 -166167276.42961121 0 0 0 0 2117784616.2194366 -351033570.48629761 0 -351033570.48629761 -550741354.37207031 0 0 0 0 2194792065.3671112 825977510.23458862 0 825977510.23458862 -28183210.674957275 0 0 0 0 1985243978.2541428 724494672.28091812 0 724494672.28091812 346316629.01907349 0 0 0 0 68178482.935768127 -12086828.534702301 0 -12086828.534702301 -20035158.484802246 0 0 0 0 43057528.926925659 -8343686.4472503662 0 -8343686.4472503662 -10487938.000808716 0 0 0 0 10082520.942763679 -2351385.4960948303 0 -2351385.4960948303 -13980144.675767004 0 0 0 0 17833711.081451416 -25356221.158920288 0 -25356221.158920288 -2748677.4577178955 0 0 0 0 16725556.229670722 -10942005.460776374 0 -10942005.460776374 -13319691.565980479 0 0 0 0 50353140.187614441 -34010046.990093231 0 -34010046.990093231 -11593411.102630615 0 0 0 0 42786329.962463379 37764847.158592224 0 37764847.158592224 30799114.047721863 0 0 0 0 91324829.528579712 -3154561.5133895874 0 -3154561.5133895874 -23700809.301086426 0 0 0 0 75283084.105430603 -30385270.461256027 0 -30385270.461256027 -12793285.151992798 0 0 0 0 45354342.444168091 -13116174.901584625 0 -13116174.901584625 -23176125.225387573 0 0 0 0 61123179.790359497 -8161075.3973236084 0 -8161075.3973236084 -41633027.762313843 0 0 0 0 46066306.722610474 -49054020.582672119 0 -49054020.582672119 -65773579.10256958 0 0 0 0 30251678.488508865 -20144746.362080894 0 -20144746.362080894 -4884892.527791163 0 0 0 0 254622699.72078705 -527077931.4899826 0 -527077931.4899826 710100834.62734985 0 0 0 0 9776310.2717743516 -9561731.6599457562 0 -9561731.6599457562 5139884.5895112902 0 0 0 0 -87212329.796503067 -127675043.77086258 0 -127675043.77086258 -33974532.359313965 0 0 0 0 34754696.909973145 -38447851.17716217 0 -38447851.17716217 -73905098.673339844 0 0 0 0 211293385.86307526 -130655397.6186142 0 -130655397.6186142 -143585844.4855957 0 0 0 0 220800669.98881102 92167057.058713675 0 92167057.058713675 -6790100.145324707 0 0 0 0 76892952.936813354 -31225498.216766357 0 -31225498.216766357 -59444572.398284912 0 0 0 0 9897645.2616653442 -88277875.330551147 0 -88277875.330551147 -66143975.896224022 0 0 0 0 6614421.7749588639 -4717294.0735551547 0 -4717294.0735551547 -14441203.24365893 0 0 0 0 -3239766.245880127 -28841713.558433533 0 -28841713.558433533 -13332621.819786072 0 0 0 0 62909632.150085449 6122672.5599746704 0 6122672.5599746704 -78631725.437088013 0 0 0 0 37463157.173249856 -27794885.787222072 0 -27794885.787222072 -7339026.1454653339 0 0 0 0 59082764.494659424 -39893149.834083557 0 -39893149.834083557 -25863306.620090485 0 0 0 0 47579113.007228851 -37806776.589827538 0 -37806776.589827538 -16763276.294113159 0 0 0 0 95817620.693435669 -50732399.223731995 0 -50732399.223731995 -16057008.754714966 0 0 0 0 63489550.846176147 -66715681.968391418 0 -66715681.968391418 3704573.4037261009 0 0 0 0 59431305.258247375 -64117067.107765198 0 -64117067.107765198 6893384.6399459839 0 0 0 0 46069541.050228119 -55916863.693151474 0 -55916863.693151474 4112661.2535400391 0 0 0 0 9571538.1859800369 -35671003.559554175 0 -35671003.559554175 -2133568.3293778896 0 0 0 0 -26458382.004271094 -40344988.933574311 0 -40344988.933574311 5522880.2566654012 0 0 0 0 -61847076.25282383 -20004734.008716583 0 -20004734.008716583 32480852.507728577 0 0 0 0 -1386201211.4238739 332960529.21832275 0 332960529.21832275 234685250.93095398 0 0 0 0 -11554000.851896856 -3115721.5189669132 0 -3115721.5189669132 1915620.508312881 0 0 0 0 -280292396.40155411 -564673123.94805145 0 -564673123.94805145 -492729090.2612648 0 0 0 0 -8438708.7743652835 -21160079.091011986 0 -21160079.091011986 -683699.84848700464 0 0 0 0 -1057757797.6272564 773157593.11569977 0 773157593.11569977 337666780.56970215 0 0 0 0 199295.62489688024 -6504557.3925280422 0 -6504557.3925280422 -1808404.9205660336 0 0 0 0 629215.82686895132 -23584561.237501986 0 -23584561.237501986 -4607096.9050360005 0 0 0 0 11231715.664840698 -34447124.851470947 0 -34447124.851470947 -40695497.809404373 0 0 0 0 -5470205.1017036438 -18327621.643157959 0 -18327621.643157959 -1194623.6529159546 0 0 0 0 17016317.960887909 -9389986.8051605225 0 -9389986.8051605225 -10473813.791107178 0 0 0 0 -4842650.0236124955 -18997020.507649869 0 -18997020.507649869 -13800643.694582716 0 0 0 0 -76148.784513473511 -17407121.421455383 0 -17407121.421455383 14701126.539764404 0 0 0 0 -1198942489.8673973 -82405291.546424866 0 -82405291.546424866 -17450567.124053955 0 0 0 0 -189306144.93558311 -404756214.04858971 0 -404756214.04858971 36801746.224029541 0 0 0 0 -62056150.254230499 -336044990.08407593 0 -336044990.08407593 -13191631.924716949 0 0 0 0 -53592369.752693176 -316447288.68708801 0 -316447288.68708801 1825697.6979560852 0 0 0 0 -43490021.763436556 -243220270.79175854 0 -243220270.79175854 73748412.265380859 0 0 0 0 -269377516.35856247 -331151162.67813873 0 -331151162.67813873 180897069.63850403 0 0 0 0 -171136755.74214172 -352857354.95286942 0 -352857354.95286942 168292394.85812378 0 0 0 0 -276351028.09661484 -387908538.54398727 0 -387908538.54398727 368124858.18328094 0 0 0 0 -825552142.8536644 -282016183.99763489 0 -282016183.99763489 365697990.18676758 0 0 0 0 -409496516.28978157 72362542.598114014 0 72362542.598114014 76677258.499717712 0 0 0 0 27500684.863243103 -170883635.04518127 0 -170883635.04518127 117656994.80802917 0 0 0 0 -136831650.36455154 -144000235.34926605 0 -144000235.34926605 133187478.93186188 0 0 0 0 -31820681.727513954 -41572820.935716748 0 -41572820.935716748 304898.90896521509 0 0 0 0 114375974.12258911 -85635519.615371704 0 -85635519.615371704 14070305.509075165 0 0 0 0 113793891.44992065 -85683172.156742096 0 -85683172.156742096 14126669.207382202 0 0 0 0 94227626.983566284 -57650310.27349472 0 -57650310.27349472 -2667686.898651123 0 0 0 0 177253239.93847656 -76539966.09337616 0 -76539966.09337616 1560041.1746063232 0 0 0 0 223735341.97125244 -113707368.94324493 0 -113707368.94324493 18304760.100723267 0 0 0 0 122274535.92114258 -93555926.861301422 0 -93555926.861301422 14320897.040985107 0 0 0 0 239145276.17753601 -97783737.319358826 0 -97783737.319358826 29954448.236129761 0 0 0 0 -32336675.473652247 -44203070.392291822 0 -44203070.392291822 -4437701.5300502628 0 0 0 0 262156001.37884521 -129277657.26952362 0 -129277657.26952362 68694589.15738678 0 0 0 0 149132343.22598839 -191783239.56632233 0 -191783239.56632233 53875607.531425476 0 0 0 0 186454031.0744462 -278799620.10236168 0 -278799620.10236168 100160417.67215729 0 0 0 0 141739061.85864258 -199538099.03408432 0 -199538099.03408432 15698770.429397583 0 0 0 0 141972851.46795654 -194743664.78475952 0 -194743664.78475952 -56879225.010429382 0 0 0 0 336856794.83684349 -236649792.41484833 0 -236649792.41484833 -9674416.2258605957 0 0 0 0 241490502.83348274 -143081701.74658966 0 -143081701.74658966 40824240.290077209 0 0 0 0 -27614701.645069469 -48153082.379717514 0 -48153082.379717514 -8714426.9809893146 0 0 0 0 -741101619.05754089 -666795756.9985733 0 -666795756.9985733 443733957.33258057 0 0 0 0 337426542.55508423 -376796157.9332962 0 -376796157.9332962 -189711182.19350433 0 0 0 0 487312296.93576813 -67221988.823022842 0 -67221988.823022842 -3003577.364440918 0 0 0 0 405838906.27374268 -150762733.40662384 0 -150762733.40662384 67054436.170471191 0 0 0 0 1195739.3922707904 -1275214.3956454992 0 -1275214.3956454992 -1220249.4723469615 0 0 0 0 -867020746.8500061 -350890484.26842499 0 -350890484.26842499 -208684760.40101814 0 0 0 0 308666741.38052368 375800996.36947632 0 375800996.36947632 -236918501.37523031 0 0 0 0 -521160875.62207794 256332836.21334839 0 256332836.21334839 13651900.980789185 0 0 0 0 255457920.10192871 331036723.66275024 0 331036723.66275024 -121867353.82602692 0 0 0 0 259049017.98838806 177823419.86529541 0 177823419.86529541 -444820223.14872742 0 0 0 0 -1408891539.0576782 -1145376530.8508911 0 -1145376530.8508911 1099906806.0242004 0 0 0 0 2604494.1538393572 -2262401.5906062312 0 -2262401.5906062312 -3230190.1084811166 0 0 0 0 -114670376.3578186 -818631814.13877106 0 -818631814.13877106 -183204397.86082458 0 0 0 0 369872092.47952271 -11780952.765830994 0 -11780952.765830994 623612.83291625977 0 0 0 0 217037781.93884277 -2986106.6646881104 0 -2986106.6646881104 1907111.097650528 0 0 0 0 3829476.2677520663 -2757445.7683491036 0 -2757445.7683491036 -3989851.5295566916 0 0 0 0 192025972.88012695 -18686553.502090454 0 -18686553.502090454 -2306033.4951629639 0 0 0 0 96642005.816146851 -12572320.44934845 0 -12572320.44934845 -12195517.028869629 0 0 0 0 158915724.01332855 -4057662.1957941055 0 -4057662.1957941055 -7753021.4664001465 0 0 0 0 102090121.89938354 -6111492.6861152649 0 -6111492.6861152649 -5485837.7843170166 0 0 0 0 130159012.84338379 -34258714.488723755 0 -34258714.488723755 -13185107.314199448 0 0 0 0 -37163636.235488892 -72577589.666240692 0 -72577589.666240692 5253380.4983215332 0 0 0 0 188372803.38070679 -106093647.63863373 0 -106093647.63863373 -140946050.33221436 0 0 0 0 7988060.9830053393 -4329625.6629327014 0 -4329625.6629327014 -7755146.7184000015 0 0 0 0 231758227.11723328 31673938.303009033 0 31673938.303009033 -95874396.458786011 0 0 0 0 -97893276.242214203 49272106.56949234 0 49272106.56949234 230356890.84872437 0 0 0 0 1923068092.1289368 -1237094928.6331253 0 -1237094928.6331253 -594023674.91616821 0 0 0 0 -921503237.3979187 -244494645.76708221 0 -244494645.76708221 1668061192.8493805 0 0 0 0 1569354703.7839355 15822137.231544495 0 15822137.231544495 -436355590.42132187 0 0 0 0 1396248352.6482773 -379068444.87958145 0 -379068444.87958145 -1333823115.1469727 0 0 0 0 6413063.2829153836 -3423572.7880187035 0 -3423572.7880187035 -9035568.4570827708 0 0 0 0 610276608.11584473 -288406112.43979645 0 -288406112.43979645 -545628109.03766346 0 0 0 0 1702017035.0219421 399032814.67176819 0 399032814.67176819 -2104478660.9285889 0 0 0 0 1936470298.6174774 -1037633077.4841766 0 -1037633077.4841766 -2621258680.7671547 0 0 0 0 1405487116.7844391 648896812.57080078 0 648896812.57080078 -5698685366.5354156 0 0 0 0 3016695781.7166138 -1551784962.7756939 0 -1551784962.7756939 494792374.91473389 0 0 0 0 -33031837.83782196 -1851870299.5966759 0 -1851870299.5966759 5990929711.5313339 0 0 0 0 5766283.5630062521 -1979383.9102573954 0 -1979383.9102573954 248588.85183393524 0 0 0 0 904965211.45294189 431089195.2449646 0 431089195.2449646 885271116.90418243 0 0 0 0 224907284.53082275 -813960432.50206375 0 -813960432.50206375 944747298.3039856 0 0 0 0 1012181792.8582916 -359303617.24214554 0 -359303617.24214554 -47067929.596252441 0 0 0 0 246650478.45449829 77577288.228790283 0 77577288.228790283 -14028346.559069633 0 0 0 0 -95501168.465789795 -398629589.79180908 0 -398629589.79180908 671759984.45994568 0 0 0 0 -332276905.90624237 -131186759.87691498 0 -131186759.87691498 374076324.74505615 0 0 0 0 1024300141.4530029 -664924601.02673721 0 -664924601.02673721 670613577.17678833 0 0 0 0 1823881.0213479511 -1301107.4227601551 0 -1301107.4227601551 -2150183.7427924573 0 0 0 0 56800032.665740967 76401296.226928711 0 76401296.226928711 -203174788.02185822 0 0 0 0 400781161.81689453 6809115.4187927246 0 6809115.4187927246 -53014647.421802521 0 0 0 0 382996210.45213318 -60488904.980041504 0 -60488904.980041504 -34596250.119689941 0 0 0 0 109449943.26934814 6814975.7139282227 0 6814975.7139282227 -10985628.014701843 0 0 0 0 261948870.0944519 62867478.804763794 0 62867478.804763794 -62721554.707427979 0 0 0 0 127126519.70126343 139577388.26708984 0 139577388.26708984 -72641863.420837402 0 0 0 0 162873950.83126831 194195678.97322845 0 194195678.97322845 -45145730.599029541 0 0 0 0 204970226.58123779 89277790.25957489 0 89277790.25957489 -127388064.64450073 0 0 0 0 56542264.012592316 74164274.513383865 0 74164274.513383865 -93853713.158874512 0 0 0 0 102564664.34594727 71191985.135803223 0 71191985.135803223 -110500771.57891846 0 0 0 0 148343512.54925537 32242623.893280029 0 32242623.893280029 -213069622.38153076 0 0 0 0 54485980.854553223 -22772864.118469238 0 -22772864.118469238 -164351244.70736694 0 0 0 0 -44071146.587310791 -56000809.77129364 0 -56000809.77129364 -29294295.018966675 0 0 0 0 78942519.861999512 15320787.330307007 0 15320787.330307007 -110243237.5696106 0 0 0 0 20481433.291625977 24607841.060119629 0 24607841.060119629 -84268275.669769287 0 0 0 0 67840119.713806152 35414641.826126099 0 35414641.826126099 -142541370.0866394 0 0 0 0 84315780.405097961 87127852.396400452 0 87127852.396400452 -44567453.585357666 0 0 0 0 37274203.115242004 -7103683.7021770477 0 -7103683.7021770477 -37963889.917022705 0 0 0 0 16213044.654632568 -40372027.548484802 0 -40372027.548484802 -62069473.94291687 0 0 0 0 27696404.839996338 -50685586.482513428 0 -50685586.482513428 -148404971.35028076 0 0 0 0 8838026.3029556274 -24187015.255899429 0 -24187015.255899429 20069712.514022827 0 0 0 0 8238456.0019904636 -8338829.4734655619 0 -8338829.4734655619 -9394517.3939683065 0 0 0 0 933684.09116435051 -2058470.6217677668 0 -2058470.6217677668 2810485.9215926379 0 0 0 0 244483258.13815308 234836099.37917328 0 234836099.37917328 -567571174.37223816 0 0 0 0 -64184223.190597534 -116062256.97640991 0 -116062256.97640991 -112357887.03620148 0 0 0 0 -52978074.538799286 105946516.4701252 0 105946516.4701252 -195808284.14691162 0 0 0 0 86072633.288665771 -49490905.782295227 0 -49490905.782295227 -294735065.63741302 0 0 0 0 -130920701.44103241 -156906029.42509842 0 -156906029.42509842 -91614519.556182861 0 0 0 0 12965952.410259649 -14214038.698457481 0 -14214038.698457481 1359243.1782965884 0 0 0 0 1436988.3515319824 4783295.9929275513 0 4783295.9929275513 23057472.273097992 0 0 0 0 29799785.781150818 -15581912.337924957 0 -15581912.337924957 -8179811.2166671753 0 0 0 0 54750868.18208313 10773505.783018112 0 10773505.783018112 -21877620.574081421 0 0 0 0 22075240.331535339 18235456.050920486 0 18235456.050920486 -14425266.011238098 0 0 0 0 -7842374.4901123047 -17195234.69859314 0 -17195234.69859314 -5364177.3007926941 0 0 0 0 73384068.675064087 -32127567.289897919 0 -32127567.289897919 -78058634.113449097 0 0 0 0 1953256.0274658203 -32609367.789543152 0 -32609367.789543152 -6814957.6619338989 0 0 0 0 10652926.378333915 -7734098.0780027658 0 -7734098.0780027658 -11561386.593501385 0 0 0 0 4640509.8567199707 -20355788.919128418 0 -20355788.919128418 -4045310.9084892273 0 0 0 0 11253401.230240479 -17614843.959806964 0 -17614843.959806964 -886530.76911230013 0 0 0 0 -22018688.573059082 -35494900.037475586 0 -35494900.037475586 -11428136.486633301 0 0 0 0 20693574.809082031 -27347524.346374512 0 -27347524.346374512 -24259582.559928894 0 0 0 0 23486174.373794556 -37270607.658966064 0 -37270607.658966064 -29063887.446510315 0 0 0 0 32419741.073682725 -9561161.2373644039 0 -9561161.2373644039 -15235386.20364821 0 0 0 0 37139569.447753906 -24292068.15820694 0 -24292068.15820694 -29617257.20085144 0 0 0 0 24945914.187561035 -26363827.812690735 0 -26363827.812690735 -28227962.029953003 0 0 0 0 50629654.306518555 10584186.773323059 0 10584186.773323059 1663454.8835296631 0 0 0 0 11207314.012135342 3578135.0598296635 0 3578135.0598296635 -9546219.7944890484 0 0 0 0 40419639.975570679 -37597078.802211761 0 -37597078.802211761 -122004099.40406036 0 0 0 0 869918.59967531264 -1323349.9018512517 0 -1323349.9018512517 1061243.2498026453 0 0 0 0 35034469.384521484 -52591554.134933472 0 -52591554.134933472 -127451011.7623024 0 0 0 0 5814879.3305969238 1303997.3363380432 0 1303997.3363380432 -154197164.3033905 0 0 0 0 -179105148.33384705 80299465.701566696 0 80299465.701566696 189252399.58560181 0 0 0 0 121073820.05505371 133469429.03047943 0 133469429.03047943 -7917941.0943984985 0 0 0 0 139983689.19696045 -6242928.6014251709 0 -6242928.6014251709 -187959705.56399345 0 0 0 0 131311317.48461533 67220413.762590885 0 67220413.762590885 -189322808.707901 0 0 0 0 165387106.0633378 -63248729.416511536 0 -63248729.416511536 -18168726.421875 0 0 0 0 30959005.723403852 -49915113.100887954 0 -49915113.100887954 -9875314.6595574655 0 0 0 0 157421449.72005749 -23481336.967975616 0 -23481336.967975616 -20353403.266464233 0 0 0 0 49996687.817047119 -64873359.850227356 0 -64873359.850227356 -91737562.282943726 0 0 0 0 196802146.84777927 -82115774.847412109 0 -82115774.847412109 -7059318.4073028564 0 0 0 0 187898945.98528242 -68373396.844799042 0 -68373396.844799042 -26535755.279083252 0 0 0 0 217333212.08983517 -102092592.13443756 0 -102092592.13443756 -26664892.164978027 0 0 0 0 212984567.00430584 -106444776.20210648 0 -106444776.20210648 -20820621.58531189 0 0 0 0 52415764.847492218 -142985639.87062359 0 -142985639.87062359 97702918.718383789 0 0 0 0 -11303632.966195144 -52015203.688536584 0 -52015203.688536584 -15022778.394674286 0 0 0 0 211089416.90347004 -94307564.970962524 0 -94307564.970962524 -36371532.344081879 0 0 0 0 213012557.53483665 -104073662.16728914 0 -104073662.16728914 -27482394.288391113 0 0 0 0 202934650.48191833 -99771169.805709839 0 -99771169.805709839 -8468182.7893657684 0 0 0 0 -518373.01964586228 -1984326.6520147957 0 -1984326.6520147957 -2439030.6662169024 0 0 0 0 63648706.960388184 -15188108.45501709 0 -15188108.45501709 -25055130.445808411 0 0 0 0 31117668.706207275 -30057271.236480713 0 -30057271.236480713 19548481.347076416 0 0 0 0 36507720.328384399 -42242031.990272522 0 -42242031.990272522 -17423180.031890869 0 0 0 0 9909592.0887145996 14404628.326843262 0 14404628.326843262 6435639.4151916504 0 0 0 0 22366853.189056396 -22723880.700798035 0 -22723880.700798035 80069701.821899414 0 0 0 0 -132837632.59887695 72668672.690826416 0 72668672.690826416 53314059.868602753 0 0 0 0 -27704007.794372559 135596955.14347839 0 135596955.14347839 -61834180.159347534 0 0 0 0 -31188155.386474609 125304978.53007507 0 125304978.53007507 63663523.259246826 0 0 0 0 -115632723.80426025 307253544.93289185 0 307253544.93289185 -42221521.974243164 0 0 0 0 -157432230.49081421 61293548.902282715 0 61293548.902282715 -144831536.14198494 0 0 0 0 -275126722.48738098 154622664.13955688 0 154622664.13955688 69114617.102539062 0 0 0 0 -252111423.5484314 139759247.13343048 0 139759247.13343048 179558642.85174561 0 0 0 0 -101189193.35898781 -99690605.705862999 0 -99690605.705862999 222783197.57499695 0 0 0 0 231259783.52719498 -206413557.35914612 0 -206413557.35914612 47807421.311120987 0 0 0 0 201939582.6186657 -116732423.88871002 0 -116732423.88871002 19399856.986274719 0 0 0 0 206938318.98436737 -119703360.55913925 0 -119703360.55913925 -49363429.996875763 0 0 0 0 249665096.33264303 -162286599.23937988 0 -162286599.23937988 -80246257.782669067 0 0 0 0 193262987.3237915 -82606792.458042145 0 -82606792.458042145 -141232840.7613678 0 0 0 0 196371316.96983624 -161756539.22502518 0 -161756539.22502518 -185607141.76377106 0 0 0 0 227213351.31572151 -57777749.341949463 0 -57777749.341949463 -86143893.755142212 0 0 0 0 227588294.4223547 -75092167.617385864 0 -75092167.617385864 -109227884.61223602 0 0 0 0 237103577.40056133 -143907661.76665497 0 -143907661.76665497 -66533042.969070435 0 0 0 0 231371159.80849457 -89145352.4871521 0 -89145352.4871521 -66688914.25696373 0 0 0 0 206461291.40510845 -53780169.007514954 0 -53780169.007514954 -48299587.424423218 0 0 0 0 208992970.94958687 -51675662.045799255 0 -51675662.045799255 -62876143.502198219 0 0 0 0 218924034.31208515 -51025913.825273514 0 -51025913.825273514 -91245451.282989502 0 0 0 0 207808376.18734932 11711793.673809052 0 11711793.673809052 -66670886.812324524 0 0 0 0 215575854.37309837 -9898227.3766937256 0 -9898227.3766937256 -99687234.177322388 0 0 0 0 195554287.0028553 -31847772.159599304 0 -31847772.159599304 -43934617.01288414 0 0 0 0 203544669.39738655 -16263025.330421448 0 -16263025.330421448 -51641533.227325439 0 0 0 0 202898251.08313751 8032822.6607437134 0 8032822.6607437134 -50529499.327401638 0 0 0 0 217500799.62240028 83981988.678565979 0 83981988.678565979 -1896907.4693374634 0 0 0 0 42827880.419004552 -44895790.688032992 0 -44895790.688032992 -12523167.560589872 0 0 0 0 182344847.06056213 50300640.799446106 0 50300640.799446106 32100416.675281525 0 0 0 0 174443682.4510479 -1346562.7809867859 0 -1346562.7809867859 7605323.8851165771 0 0 0 0 208298443.58468628 45825547.750915527 0 45825547.750915527 -43838771.942903996 0 0 0 0 197803073.83857155 36080167.423564911 0 36080167.423564911 -39168740.684417725 0 0 0 0 197764794.17755699 2485750.3045749664 0 2485750.3045749664 -40979565.132827759 0 0 0 0 173920353.10564804 81440788.055557251 0 81440788.055557251 -64091171.407143593 0 0 0 0 173956449.08943939 77029488.998977661 0 77029488.998977661 -21409848.299150467 0 0 0 0 185017438.77435684 59743758.569908142 0 59743758.569908142 -75352566.874145508 0 0 0 0 177004446.67018127 67599264.334506989 0 67599264.334506989 -94444156.217559814 0 0 0 0 176384154.51028442 53878699.24420166 0 53878699.24420166 -60352441.829884529 0 0 0 0 209365006.62565804 30666775.972320557 0 30666775.972320557 -155616819.33349609 0 0 0 0 208633323.89276314 11353455.754570007 0 11353455.754570007 -86876570.710523605 0 0 0 0 227296271.6544989 -55051651.626566947 0 -55051651.626566947 -194301260.91694641 0 0 0 0 220001102.14759064 -4163379.381942749 0 -4163379.381942749 -133916635.15196228 0 0 0 0 204823831.94356537 83519233.762145996 0 83519233.762145996 -193352286.20277786 0 0 0 0 225491233.96531677 2459258.1580543518 0 2459258.1580543518 -312394089.68816757 0 0 0 0 177972727.22966194 66534952.208802223 0 66534952.208802223 -132034924.63724518 0 0 0 0 90744293.877044678 159127648.97931671 0 159127648.97931671 -70125923.698337555 0 0 0 0 182131386.65870571 257985908.70402718 0 257985908.70402718 -437742680.06227875 0 0 0 0 161742016.03496552 310552459.95381355 0 310552459.95381355 -137017439.48184776 0 0 0 0 208847356.942276 117170886.77298737 0 117170886.77298737 -534750211.03760529 0 0 0 0 191102497.18308163 35921358.254019737 0 35921358.254019737 -306590940.09541321 0 0 0 0 111965520.71873474 -257468759.27800369 0 -257468759.27800369 -514276318.77908325 0 0 0 0 168406842.1350975 -137304685.32726669 0 -137304685.32726669 -254298855.75813484 0 0 0 0 181833320.73260498 -138285716.26706314 0 -138285716.26706314 -325816396.8066864 0 0 0 0 79791518.957118511 -248243806.40247345 0 -248243806.40247345 -159831584.06407166 0 0 0 0 85461250.011592865 -204882210.72668839 0 -204882210.72668839 -49791491.192131042 0 0 0 0 11798227.493068695 -333745926.66294861 0 -333745926.66294861 -250792919.10211182 0 0 0 0 -2562452.0900583267 -314650110.17562866 0 -314650110.17562866 -156932639.14181519 0 0 0 0 -74856940.88893795 -390110020.62344551 0 -390110020.62344551 -176965743.84468079 0 0 0 0 -286580370.87289429 -150656756.42328644 0 -150656756.42328644 357835496.2301178 0 0 0 0 -239965895.66576958 222437114.96188831 0 222437114.96188831 190127727.74067688 0 0 0 0 1532784.7850326449 -2303410.0607732236 0 -2303410.0607732236 3729876.1011034381 0 0 0 0 67918525.032409668 -230289706.43864441 0 -230289706.43864441 -60777945.896087646 0 0 0 0 495507641.6706543 174141282.2358017 0 174141282.2358017 -551829003.07518768 0 0 0 0 223987194.07015991 103022989.9675293 0 103022989.9675293 82396765.962574005 0 0 0 0 115154272.65039062 214041168.03524017 0 214041168.03524017 1057824204.007309 0 0 0 0 290560503.02159119 -188480473.284832 0 -188480473.284832 975861850.07382202 0 0 0 0 -92141380.467956543 -79302854.591362 0 -79302854.591362 1759461663.3136292 0 0 0 0 -223805042.19161987 -108022785.27077484 0 -108022785.27077484 1122321374.6748962 0 0 0 0 -110536080.86535645 -142727134.08239746 0 -142727134.08239746 478191915.66807556 0 0 0 0 -49299613.133270264 -211104700.79418182 0 -211104700.79418182 898983151.33140182 0 0 0 0 -84642689.972854614 207891630.76309586 0 207891630.76309586 719631031.23291016 0 0 0 0 -166248418.69036865 -366374129.3260994 0 -366374129.3260994 939781371.61003876 0 0 0 0 -91152648.830932617 -325397703.23770142 0 -325397703.23770142 438711957.10637617 0 0 0 0 -92466683.114013672 -115335832.58392334 0 -115335832.58392334 490123975.16638184 0 0 0 0 -56343486.980865479 -203454762.48287964 0 -203454762.48287964 426829389.42129612 0 0 0 0 -135646409.04371643 -252791822.70830154 0 -252791822.70830154 403957352.20114517 0 0 0 0 -171565923.68276978 -392894350.7051239 0 -392894350.7051239 342881629.10038376 0 0 0 0 -225789.79191589355 -125097265.23161697 0 -125097265.23161697 -247718727.35424805 0 0 0 0 -214332010.76098633 156789533.70562744 0 156789533.70562744 298922158.89689636 0 0 0 0 -68661815.341888428 -324816833.74328613 0 -324816833.74328613 -111619938.18325806 0 0 0 0 139259187.91018677 -12902877.035873413 0 -12902877.035873413 -388279142.67539978 0 0 0 0 784940.59200924635 583128.07505363226 0 583128.07505363226 975472.99719155184 0 0 0 0 83292431.077728271 77091002.96131897 0 77091002.96131897 -137514665.67594278 0 0 0 0 86291041.942062378 -54887038.874237061 0 -54887038.874237061 19589832.214736938 0 0 0 0 -36969030.418457031 -31938291.883987427 0 -31938291.883987427 29644421.656768799 0 0 0 0 28168438.581695557 -116291011.70606995 0 -116291011.70606995 72832588.460144043 0 0 0 0 -44446646.571533203 -44974313.565505981 0 -44974313.565505981 150219621.55571127 0 0 0 0 64308252.833694458 -26253570.311710358 0 -26253570.311710358 -65947144.157485962 0 0 0 0 -9407070.8500976562 -1602844.2550888062 0 -1602844.2550888062 12378035.057945251 0 0 0 0 329677.30053150561 -1818122.1995948255 0 -1818122.1995948255 -467368.08577068895 0 0 0 0 -64827130.276519775 -66343427.00994873 0 -66343427.00994873 -63957725.68057251 0 0 0 0 -36966.030517578125 9469087.810634613 0 9469087.810634613 22676896.172790527 0 0 0 0 115093382.89070129 -86801630.692687988 0 -86801630.692687988 -92639512.099487305 0 0 0 0 21549851.970275879 22219259.668167114 0 22219259.668167114 -88566239.240036964 0 0 0 0 -26583014.92175293 24167675.243789673 0 24167675.243789673 -59901186.974708557 0 0 0 0 1197009.9569232352 -5109440.8472775295 0 -5109440.8472775295 -1583363.3811284527 0 0 0 0 13621257.833953857 -4036521.7921447754 0 -4036521.7921447754 -59942560.136474609 0 0 0 0 7608836.0739402771 -4258591.1895713806 0 -4258591.1895713806 4701410.9833374023 0 0 0 0 -3749271.1800219417 -1813640.5571662132 0 -1813640.5571662132 11151074.212241676 0 0 0 0 -220361663.04879761 -378976277.76719666 0 -378976277.76719666 -291268268.75035095 0 0 0 0 4218569.4492359012 -9212747.9033312798 0 -9212747.9033312798 9215433.392641779 0 0 0 0 -184031088.43210983 -432607151.19824982 0 -432607151.19824982 -538725233.14924622 0 0 0 0 -111177992.74705887 -483004221.35700798 0 -483004221.35700798 -907945933.13903809 0 0 0 0 -112125911.18502808 -498005842.48384094 0 -498005842.48384094 -734529590.43904114 0 0 0 0 -151432274.01751709 -361986621.96632385 0 -361986621.96632385 -701583194.76221466 0 0 0 0 8088558.1879261881 -10633905.842405302 0 -10633905.842405302 6371162.4471435025 0 0 0 0 6901963.6906318665 -64577178.29777813 0 -64577178.29777813 -12435469.712890625 0 0 0 0 73539855.831237793 22717452.420272827 0 22717452.420272827 1684198.754524231 0 0 0 0 13414749.984040871 -10739417.817856608 0 -10739417.817856608 1932462.4246037416 0 0 0 0 -364190809.82686615 -525443858.35329819 0 -525443858.35329819 -869437714.46702576 0 0 0 0 -27910781.424736023 -21209082.744060516 0 -21209082.744060516 32761530.01688385 0 0 0 0 -378529903.99192619 -785225484.61207294 0 -785225484.61207294 -1143700408.8459778 0 0 0 0 -359457408.11451721 -630929002.1727829 0 -630929002.1727829 -578796228.87005615 0 0 0 0 -149634486.34432983 -318209510.45799255 0 -318209510.45799255 -878199362.68832397 0 0 0 0 -1485846192.2327957 -1278364625.6396294 0 -1278364625.6396294 -859852874.09716797 0 0 0 0 296349.83480430208 -3409390.2858261615 0 -3409390.2858261615 2960467.3982299268 0 0 0 0 -3399199832.0903931 -1785145016.7877693 0 -1785145016.7877693 -504237972.43688965 0 0 0 0 -165441439.57211304 -1377147643.7935791 0 -1377147643.7935791 -2282769600.5196533 0 0 0 0 -638107266.77932739 -1669037925.5753174 0 -1669037925.5753174 -1277288850.219696 0 0 0 0 481768739.90109253 -1780317492.4221802 0 -1780317492.4221802 -2052044200.933075 0 0 0 0 -550964434.5814743 -393354050.73504639 0 -393354050.73504639 -861062158.51233292 0 0 0 0 -515156757.39085388 -713233488.47914886 0 -713233488.47914886 -1505415453.4652443 0 0 0 0 -879127248.13037491 -1152250599.338047 0 -1152250599.338047 -1743674068.6714172 0 0 0 0 618211376.14720154 -782190005.92051697 0 -782190005.92051697 -189153644.93075228 0 0 0 0 1235382492.7140274 -640888844.32069778 0 -640888844.32069778 -1910950336.6754913 0 0 0 0 3643726159.6767159 -910602926.82941914 0 -910602926.82941914 -1067441914.6036072 0 0 0 0 2132846146.0943222 -2191961049.47472 0 -2191961049.47472 -1197612340.7774658 0 0 0 0 -216547796.51773071 -974699879.21388245 0 -974699879.21388245 -1009651851.208313 0 0 0 0 1505414057.7987518 -466235268.07368469 0 -466235268.07368469 -5762452336.6806641 0 0 0 0 191981157.53288269 590507598.93838501 0 590507598.93838501 -3255731123.364975 0 0 0 0 -734014106.63383484 -508696594.36779022 0 -508696594.36779022 -1890921392.0233841 0 0 0 0 745027998.13356018 -1663626993.3263512 0 -1663626993.3263512 -4203680819.2743378 0 0 0 0 504632360.2926178 -1287876206.2865219 0 -1287876206.2865219 1743565009.1594238 0 0 0 0 447695022.48841858 -1486646327.5520248 0 -1486646327.5520248 2147550675.2883606 0 0 0 0 34869792.369888306 -1235709546.3640099 0 -1235709546.3640099 2847923726.2899933 0 0 0 0 14377732.854579806 -7951973.1243873201 0 -7951973.1243873201 1022117.2094265834 0 0 0 0 332374332.35745239 -1405446236.3454285 0 -1405446236.3454285 1889212673.5650787 0 0 0 0 -43791241.925262451 -600844437.88221741 0 -600844437.88221741 1768328114.0886688 0 0 0 0 250458030.77630615 -1545444694.6924286 0 -1545444694.6924286 2097381180.4792633 0 0 0 0 56456135.385681152 -1165282880.2747955 0 -1165282880.2747955 2061110920.3534384 0 0 0 0 245736433.41946411 -1439890687.9447937 0 -1439890687.9447937 1885128740.9348145 0 0 0 0 236403988.88032341 -1177450256.8287652 0 -1177450256.8287652 1800862968.9504395 0 0 0 0 397770082.92094421 -1188311807.7444687 0 -1188311807.7444687 1717207596.0973892 0 0 0 0 307859520.56359863 -1078190821.2590637 0 -1078190821.2590637 1691621511.4482098 0 0 0 0 -114123794.11226654 106480805.91015434 0 106480805.91015434 1080750498.1139526 0 0 0 0 242437741.56414795 479669133.33518219 0 479669133.33518219 3099299.5599136353 0 0 0 0 494119066.87692261 -1043687598.221817 0 -1043687598.221817 954758272.71580505 0 0 0 0 2257640.9914363176 2110951.5232474022 0 2110951.5232474022 -3520199.5904891081 0 0 0 0 16788343.090027332 -13129702.155004323 0 -13129702.155004323 3487084.2647989872 0 0 0 0 830542161.15621948 -903487118.58595276 0 -903487118.58595276 213900755.42139435 0 0 0 0 559444453.30279541 -165751293.80267334 0 -165751293.80267334 16018973.078302026 0 0 0 0 -142709112.17547607 -1065900603.5161514 0 -1065900603.5161514 1685033937.2851562 0 0 0 0 900204134.68829346 -618701985.30613613 0 -618701985.30613613 1252405610.8275146 0 0 0 0 527695047.04797363 -1359809193.9155731 0 -1359809193.9155731 1645053279.6879311 0 0 0 0 1112022835.8095703 -1833731729.5782013 0 -1833731729.5782013 2029430971.5503082 0 0 0 0 152073770.23165894 -1402009265.3572311 0 -1402009265.3572311 2584429574.7629166 0 0 0 0 2149115363.6091309 -1571493220.8886719 0 -1571493220.8886719 1948861977.2157288 0 0 0 0 1214411288.967041 -107699670.27724457 0 -107699670.27724457 2297070061.598877 0 0 0 0 948068460.23040771 -616330127.61875916 0 -616330127.61875916 1377198960.4986687 0 0 0 0 400663408.34341431 178825010.73513412 0 178825010.73513412 1897784444.4133453 0 0 0 0 784736320.70783997 -863584303.70808744 0 -863584303.70808744 1824852767.820816 0 0 0 0 789181829.43286514 -762264445.36967087 0 -762264445.36967087 4131805041.7182007 0 0 0 0 2404351626.9672546 -2490321025.7807999 0 -2490321025.7807999 2121953996.1446381 0 0 0 0 3214426372.2195129 -701934171.15689087 0 -701934171.15689087 2302669556.8782654 0 0 0 0 1157797138.21521 -929637160.66659546 0 -929637160.66659546 3080718710.5439758 0 0 0 0 2494432473.6921158 -2794791124.9887314 0 -2794791124.9887314 5127844746.2355042 0 0 0 0 1121828065.9536428 -1929857172.2813845 0 -1929857172.2813845 2869493640.5833282 0 0 0 0 -362878884.43475342 -544635093.91242981 0 -544635093.91242981 3773311578.5106812 0 0 0 0 -28342987.687213898 1548462294.4978986 0 1548462294.4978986 1378773308.1170349 0 0 0 0 2882415745.6974487 149102159.4058609 0 149102159.4058609 -643206411.60736847 0 0 0 0 2078902.6033954024 -1659171.147356594 0 -1659171.147356594 209446.74201370031 0 0 0 0 565451902.61791992 -1836588996.2432556 0 -1836588996.2432556 5903189374.7315369 0 0 0 0 -10473.093349246308 -1435910.9739931151 0 -1435910.9739931151 962219.67581981421 0 0 0 0 1200535.753352657 -6138749.6699028835 0 -6138749.6699028835 5006018.1566901505 0 0 0 0 2070162.0318174362 -6203153.9935820103 0 -6203153.9935820103 -2405652.5608062744 0 0 0 0 261839149.91385555 -336069302.45232487 0 -336069302.45232487 575986024.99917603 0 0 0 0 3098971.8789075753 -6912407.634480454 0 -6912407.634480454 -1961263.1931141242 0 0 0 0 1378166174.710083 -259517509.05944824 0 -259517509.05944824 -287347466.31923676 0 0 0 0 917657537.92556 -937425997.08193588 0 -937425997.08193588 608677688.21270752 0 0 0 0 1521817638.5142517 -1177021963.2395515 0 -1177021963.2395515 461162739.03521729 0 0 0 0 -91720579.079040527 -655439791.37405396 0 -655439791.37405396 1329209973.196312 0 0 0 0 586498038.703125 -356609961.71340942 0 -356609961.71340942 33798246.119098663 0 0 0 0 -37008046.336456299 -71751407.533508301 0 -71751407.533508301 208384345.71742249 0 0 0 0 282708390.87052155 -771143995.06296921 0 -771143995.06296921 1123947412.8618317 0 0 0 0 -401230107.58145142 -221192532.0333252 0 -221192532.0333252 1468112852.1682892 0 0 0 0 79947570.485565186 -516365610.86313629 0 -516365610.86313629 965860038.37774658 0 0 0 0 115797339.04928589 -1144160817.8033848 0 -1144160817.8033848 2042200300.0395813 0 0 0 0 -351518885.05285645 -212684516.40719604 0 -212684516.40719604 1241246151.2600861 0 0 0 0 -52485550.574188232 -454005711.94384003 0 -454005711.94384003 1288785383.4503479 0 0 0 0 443806893.86206055 -434086447.10943604 0 -434086447.10943604 389333909.94955444 0 0 0 0 5683709.3633961678 -6546190.2533543073 0 -6546190.2533543073 1682555.1327411197 0 0 0 0 1684614.4399719238 -5465996.032661438 0 -5465996.032661438 865435.40570068359 0 0 0 0 1571382.4565124512 -2977544.453956604 0 -2977544.453956604 1328654.9076156616 0 0 0 0 -307094812.6845665 302153841.2404604 0 302153841.2404604 47732581.323822021 0 0 0 0 165856898.85665894 -314333884.3918457 0 -314333884.3918457 -424974778.51491547 0 0 0 0 -40892770.217681885 -272443392.73862457 0 -272443392.73862457 41406011.226951599 0 0 0 0 23760822.971801758 204854922.61686707 0 204854922.61686707 -144388530.46815491 0 0 0 0 7822565.1202697754 -23780348.807437897 0 -23780348.807437897 24330234.000663757 0 0 0 0 5978506.8276655972 -6011667.9701862782 0 -6011667.9701862782 2818575.0640051849 0 0 0 0 3715236.2129728496 -5168828.732693553 0 -5168828.732693553 1161163.1615600549 0 0 0 0 7218834.871257782 -41225638.829959869 0 -41225638.829959869 16095916.826202393 0 0 0 0 -36001637.53225708 9156933.4177627563 0 9156933.4177627563 -3059968.2051768303 0 0 0 0 19131156.074176788 -11405900.877804756 0 -11405900.877804756 -2304979.9449615479 0 0 0 0 22547415.189880371 -52532835.386917114 0 -52532835.386917114 -31711038.439186096 0 0 0 0 361529953.37376404 -444146886.44625854 0 -444146886.44625854 436462765.09197998 0 0 0 0 695960167.07273865 -627316250.59584045 0 -627316250.59584045 242660290.83874893 0 0 0 0 52143588.669677734 -142700945.99520111 0 -142700945.99520111 200368503.16673279 0 0 0 0 1413400.2404785156 -6493668.7697219849 0 -6493668.7697219849 4891436.1959609985 0 0 0 0 1561434.5394375823 -7759255.4331479371 0 -7759255.4331479371 1727804.1957895607 0 0 0 0 2378308.3898141594 -5918116.5200260431 0 -5918116.5200260431 -2451520.1451161578 0 0 0 0 5107931.1212463379 -13578137.498371124 0 -13578137.498371124 -31451366.690170288 0 0 0 0 64751065.042770386 -19604060.891716003 0 -19604060.891716003 -11370318.396835327 0 0 0 0 582339936.53936768 -241762753.23035049 0 -241762753.23035049 122941252.49970627 0 0 0 0 -1760731.8977847397 -2041756.4745408222 0 -2041756.4745408222 1954510.7776747458 0 0 0 0 311976306.16711426 -620183876.01144409 0 -620183876.01144409 623344927.02395821 0 0 0 0 423146468.52313232 -627776577.18951416 0 -627776577.18951416 501480112.64059448 0 0 0 0 -67530599.168838501 -777553896.40071869 0 -777553896.40071869 703977322.41975403 0 0 0 0 184021932.9025116 -819039833.16042709 0 -819039833.16042709 771859906.9047699 0 0 0 0 -6990885.3963165283 -799551479.62494659 0 -799551479.62494659 772876613.02594757 0 0 0 0 732908835.72167969 -894155666.57723999 0 -894155666.57723999 543264551.35845184 0 0 0 0 201168855.42974854 -859172085.52890015 0 -859172085.52890015 1033532467.9439697 0 0 0 0 391160365.67279053 -1089663310.7428818 0 -1089663310.7428818 1302126502.7489166 0 0 0 0 258424235.46714783 -972557891.42553711 0 -972557891.42553711 1039237239.8811646 0 0 0 0 407071572.06732178 -1258081044.999649 0 -1258081044.999649 2269175850.3025055 0 0 0 0 -38458027.015899658 -806333306.44223022 0 -806333306.44223022 1073066364.0293274 0 0 0 0 -104115036.74854279 -672200173.95085907 0 -672200173.95085907 1022973712.0937958 0 0 0 0 -1800798.8142852783 -879963145.37427521 0 -879963145.37427521 1401863066.9590302 0 0 0 0 -100264157.17089844 -581473060.3891449 0 -581473060.3891449 1229675718.853096 0 0 0 0 -157297380.28568268 -565404178.46167374 0 -565404178.46167374 1304209944.2683716 0 0 0 0 139045899.9637146 -460316645.77096558 0 -460316645.77096558 1489632018.2366028 0 0 0 0 134173362.49371338 -693841823.69422913 0 -693841823.69422913 2451005447.2355118 0 0 0 0 -89904481.201347351 -710567504.03006029 0 -710567504.03006029 1973727339.8634949 0 0 0 0 -378748.01092529297 -518949055.58122253 0 -518949055.58122253 752759639.20585632 0 0 0 0 -137176413.72219849 -673049879.4817276 0 -673049879.4817276 1078650974.7584953 0 0 0 0 -219520055.04264832 -386617536.26793671 0 -386617536.26793671 933671770.01480103 0 0 0 0 -160936967.90359497 -625262849.33933258 0 -625262849.33933258 986077115.73155212 0 0 0 0 -120639212.23495483 -549869799.54679108 0 -549869799.54679108 761923690.02983093 0 0 0 0 -7232037.6347045898 -721464706.26441193 0 -721464706.26441193 596636910.01332855 0 0 0 0 -24975.307456745009 -623668032.85728276 0 -623668032.85728276 778658900.31608582 0 0 0 0 -7677505.0425109863 -755105863.79815674 0 -755105863.79815674 795464447.2573204 0 0 0 0 -54235167.819869995 -738715359.19702148 0 -738715359.19702148 790182075.41389465 0 0 0 0 58705617.24005127 -843020205.37450218 0 -843020205.37450218 582360772.2310791 0 0 0 0 152415372.70123291 -772124210.84462738 0 -772124210.84462738 533452701.37983704 0 0 0 0 -22728.835174560547 -628016641.98631668 0 -628016641.98631668 563020410.00302887 0 0 0 0 122545120.47665405 -675801197.22205353 0 -675801197.22205353 242615499.61637878 0 0 0 0 272428755.28849792 -636864610.37991714 0 -636864610.37991714 252149441.27995872 0 0 0 0 298931546.44902372 -304876486.9303875 0 -304876486.9303875 -192402095.1187973 0 0 0 0 366687.37887573242 -418840554.8157196 0 -418840554.8157196 77534008.126228333 0 0 0 0 32052905.204803467 -141227261.01965904 0 -141227261.01965904 -1069454778.4698105 0 0 0 0 -1536604.6491257846 -203450.98566642404 0 -203450.98566642404 1329557.7580304891 0 0 0 0 18844383.621292114 -1155712924.2371979 0 -1155712924.2371979 64716037.166908264 0 0 0 0 -438244293.19924927 -602190624.38782501 0 -602190624.38782501 -346372378.82994843 0 0 0 0 2186813.1078871191 -588409.88848306611 0 -588409.88848306611 -2082286.6738697737 0 0 0 0 -164148424.60369873 -32306795.161567688 0 -32306795.161567688 -151353385.58387852 0 0 0 0 -417647359.769104 -600517461.80886078 0 -600517461.80886078 -826718888.07510757 0 0 0 0 -174563646.17301941 -294497848.39284897 0 -294497848.39284897 -498533546.37353516 0 0 0 0 -293735185.20301056 -356167239.44756699 0 -356167239.44756699 -297118393.93655396 0 0 0 0 3417671.1849943325 -1005873.2475940585 0 -1005873.2475940585 -3158546.1703783609 0 0 0 0 170932048.15660095 -191183070.04500198 0 -191183070.04500198 -436777824.42321777 0 0 0 0 -135491571.47549438 -254764573.42788315 0 -254764573.42788315 -498049256.10923004 0 0 0 0 -196120942.27085876 -32003432.838653564 0 -32003432.838653564 -147237512.32888031 0 0 0 0 1939354.4933836758 1893445.6294669975 0 1893445.6294669975 -1876881.2637287844 0 0 0 0 47269774.233978271 -231781905.07038116 0 -231781905.07038116 -285933716.51293182 0 0 0 0 -13977504.883514404 8402359.8631210327 0 8402359.8631210327 -110151872.4664917 0 0 0 0 -576870049.61764526 -235928997.89777374 0 -235928997.89777374 -348019456.20867538 0 0 0 0 865990.71065232158 946411.08914192766 0 946411.08914192766 -902269.31863377616 0 0 0 0 -81862723.700393677 -163786514.99546814 0 -163786514.99546814 346239346.14578247 0 0 0 0 -123531790.15873718 -96864770.701725006 0 -96864770.701725006 242107423.44163513 0 0 0 0 2182125.8028956354 2308964.0451412993 0 2308964.0451412993 -2242694.5461582914 0 0 0 0 51523719.063491821 -87235629.048187256 0 -87235629.048187256 -423128291.26802063 0 0 0 0 81365641.337387085 -233967713.73488617 0 -233967713.73488617 231039500.93068314 0 0 0 0 45551355.444168091 -83640406.94575119 0 -83640406.94575119 -198171748.28176117 0 0 0 0 -140641804.71661377 -178392357.14921761 0 -178392357.14921761 9674014.5167999268 0 0 0 0 21023979.920928955 -64622847.413642883 0 -64622847.413642883 12829615.183532119 0 0 0 0 -125421.95532989502 -194071074.06887817 0 -194071074.06887817 -57801122.701934814 0 0 0 0 5744652.5202331543 23515847.728313446 0 23515847.728313446 127211397.8563385 0 0 0 0 107897.36472320557 -190651327.28266525 0 -190651327.28266525 443422971.70806503 0 0 0 0 -77994025.711845398 -61503956.238777161 0 -61503956.238777161 834460982.81243896 0 0 0 0 84401896.666122437 -171216503.2170887 0 -171216503.2170887 468392935.26428223 0 0 0 0 -30041616.295532227 -37616126.73387146 0 -37616126.73387146 401694360.19452286 0 0 0 0 -21353590.070505142 -184592828.07986975 0 -184592828.07986975 253046297.13853455 0 0 0 0 -32650040.572227478 -205073865.33579922 0 -205073865.33579922 162961653.52968597 0 0 0 0 -2458240.3565673828 -77452758.050056458 0 -77452758.050056458 254720788.92992783 0 0 0 0 -5330050.3000183105 -201176674.00138092 0 -201176674.00138092 410711807.83447266 0 0 0 0 -13797247.184516907 -232321616.40836048 0 -232321616.40836048 272036229.24559021 0 0 0 0 5601059.4297180176 -172401406.92190552 0 -172401406.92190552 209490757.42123985 0 0 0 0 -10902578.882141113 -139417283.45262909 0 -139417283.45262909 386408366.9753952 0 0 0 0 -26039325.073896408 -229951674.66573238 0 -229951674.66573238 291344326.95240021 0 0 0 0 26818264.563766479 -219244023.85263824 0 -219244023.85263824 215040573.85148621 0 0 0 0 70370077.180053711 -188736948.1328125 0 -188736948.1328125 569773378.22917175 0 0 0 0 117183.96147811413 1944621.6807531863 0 1944621.6807531863 1098869.8483653348 0 0 0 0 -47665297.428161621 -161740827.1313858 0 -161740827.1313858 518481634.6416626 0 0 0 0 86742024.497680664 -164107712.014431 0 -164107712.014431 392549303.37889671 0 0 0 0 -84200221.027191162 -159067661.34126282 0 -159067661.34126282 775717964.42618561 0 0 0 0 53116.154532328248 2811151.9912150335 0 2811151.9912150335 1505931.8451985689 0 0 0 0 21822588.729370117 -12483226.44506073 0 -12483226.44506073 542592511.3232193 0 0 0 0 540621979.85379028 161308506.07929993 0 161308506.07929993 306052023.69495773 0 0 0 0 -290294631.59385681 -360146392.7978363 0 -360146392.7978363 1161318605.5710449 0 0 0 0 -36478778.838989258 283530614.30328751 0 283530614.30328751 1274201364.1328416 0 0 0 0 -62834579.288879395 19219239.151554108 0 19219239.151554108 -28646799.653197765 0 0 0 0 1973387.0979576856 -860097.91068583727 0 -860097.91068583727 -985365.05769453943 0 0 0 0 85008933.996721268 -415424509.1497848 0 -415424509.1497848 433037631.71566772 0 0 0 0 83532197.402938843 -254357804.19894218 0 -254357804.19894218 -59369078.275234222 0 0 0 0 31012917.015075684 -144418707.31237507 0 -144418707.31237507 177971578.66275024 0 0 0 0 -21031742.337310791 -104581263.09806442 0 -104581263.09806442 231995463.71738625 0 0 0 0 -488395.51135253906 -149643710.53011131 0 -149643710.53011131 369261971.15694618 0 0 0 0 -137250567.21614647 -71280824.360686541 0 -71280824.360686541 553909286.44742584 0 0 0 0 -485807.95432314277 3338005.9612944163 0 3338005.9612944163 1750377.3339449759 0 0 0 0 -49430.088592529297 -55727341.066362381 0 -55727341.066362381 428564834.88232517 0 0 0 0 -149795275.67848206 -93162819.424945831 0 -93162819.424945831 824737780.93305016 0 0 0 0 -83997929.527481079 -25382473.205234528 0 -25382473.205234528 353108560.33852768 0 0 0 0 -90640080.909759521 -58283788.294559479 0 -58283788.294559479 239646132.243352 0 0 0 0 -68274333.86831665 -72012151.696454048 0 -72012151.696454048 85949622.282409668 0 0 0 0 -71272126.208175659 20814475.843940735 0 20814475.843940735 241003435.1080246 0 0 0 0 -88585550.117706299 -34698908.411426544 0 -34698908.411426544 262969246.85118484 0 0 0 0 -92457998.447387695 -16405798.326694489 0 -16405798.326694489 181708532.02043152 0 0 0 0 -39037198.295852661 8227542.1647205353 0 8227542.1647205353 172885443.02437592 0 0 0 0 -52496811.150634766 32721322.433883667 0 32721322.433883667 286062759.74809265 0 0 0 0 9042247.5543823242 -26893419.706401825 0 -26893419.706401825 269947342.07027149 0 0 0 0 38706746.524978638 90172031.694595337 0 90172031.694595337 141678287.99199295 0 0 0 0 94974200.429840088 58895051.539142609 0 58895051.539142609 283032782.31908512 0 0 0 0 8655748.4956665039 14183438.580131531 0 14183438.580131531 274492077.71252918 0 0 0 0 28057685.674041748 -131503237.60669708 0 -131503237.60669708 744011137.85653305 0 0 0 0 41273621.297286987 155160285.22819328 0 155160285.22819328 581366186.80712128 0 0 0 0 -2049113.8468780518 -29014990.093975067 0 -29014990.093975067 549385322.06077194 0 0 0 0 -36935955.493118286 -53806507.609615326 0 -53806507.609615326 539203642.01755905 0 0 0 0 -93393.054838359356 899443.37021096796 0 899443.37021096796 474706.79207167914 0 0 0 0 -39149048.321792603 -233735064.0660193 0 -233735064.0660193 796607516.23854065 0 0 0 0 -4775455.4974060059 -196561671.97414017 0 -196561671.97414017 53623806.587052345 0 0 0 0 22653994.343658447 -58157412.727176666 0 -58157412.727176666 354437901.82638931 0 0 0 0 -90420973.233673096 -251425132.58039093 0 -251425132.58039093 328116456.82289886 0 0 0 0 -55001352.741577148 -274170705.29290009 0 -274170705.29290009 242703448.7711525 0 0 0 0 -174829683.32141113 -512946291.58162689 0 -512946291.58162689 -105578680.08850098 0 0 0 0 -107647522.54110718 -275083987.83828354 0 -275083987.83828354 303323880.44987488 0 0 0 0 19426493.66418457 -391151943.41196442 0 -391151943.41196442 156482795.83873081 0 0 0 0 10354074.588043213 -242414586.80921173 0 -242414586.80921173 98509012.50692749 0 0 0 0 -21415646.69304657 -231831950.52094841 0 -231831950.52094841 180480382.50337982 0 0 0 0 -80052273.371414185 -235343498.39253426 0 -235343498.39253426 298974737.72698212 0 0 0 0 -8788985.1460800171 -155883285.74799156 0 -155883285.74799156 246037385.59984207 0 0 0 0 -70827014.054901123 -193872493.75912666 0 -193872493.75912666 135163451.29020691 0 0 0 0 -73459275.066047668 -209868564.04208469 0 -209868564.04208469 76618266.595413208 0 0 0 0 -43893546.389038086 -270476283.07775497 0 -270476283.07775497 68258739.000944614 0 0 0 0 -23849356.318992615 -287104562.43157196 0 -287104562.43157196 16517490.574447632 0 0 0 0 -9457528.7064819336 -318970406.00060463 0 -318970406.00060463 -158044872.16077423 0 0 0 0 29289669.164581299 -293769433.24108505 0 -293769433.24108505 -392950034.53749847 0 0 0 0 14237319.262115479 -275782016.17556 0 -275782016.17556 -164872128.69064045 0 0 0 0 27169100.112739563 -257736203.04712296 0 -257736203.04712296 -265281757.25844574 0 0 0 0 -294814016.16491699 -590807505.43884277 0 -590807505.43884277 86225842.29083252 0 0 0 0 1871941.1216049641 -507818.38378979266 0 -507818.38378979266 -1761107.3775242269 0 0 0 0 -24240214.462585449 -25395354.292991638 0 -25395354.292991638 -130612766.56314087 0 0 0 0 177660246.47338867 -79212521.947288513 0 -79212521.947288513 -127894723.72335815 0 0 0 0 133525804.48823547 -170435486.35155869 0 -170435486.35155869 -217166834.54177856 0 0 0 0 244672782.41486359 -336689573.49756527 0 -336689573.49756527 -62202444.545959473 0 0 0 0 -2737349.0613098145 -252325409.73455811 0 -252325409.73455811 -81806189.340417862 0 0 0 0 76134896.730911255 -302827201.65942001 0 -302827201.65942001 -190186021.96222687 0 0 0 0 -128260691.0881958 -300350954.33612823 0 -300350954.33612823 -189842515.38893414 0 0 0 0 -268292933.25396729 -141876843.51628113 0 -141876843.51628113 -364690574.14301682 0 0 0 0 -106740618.9473877 -219220071.2029953 0 -219220071.2029953 -215403367.4461453 0 0 0 0 12891828.369949341 -199278774.56077003 0 -199278774.56077003 -369230579.80438995 0 0 0 0 -127316955.27856445 -209215357.89802551 0 -209215357.89802551 -348901705.53155899 0 0 0 0 -119314780.67327881 -57749629.226531982 0 -57749629.226531982 -131248561.48981237 0 0 0 0 -21112020.178375244 -304332444.5187645 0 -304332444.5187645 -682399040.18278503 0 0 0 0 84614120.416595459 -255318674.18782806 0 -255318674.18782806 -739021723.73737335 0 0 0 0 -18676353.579345703 -111806860.63513374 0 -111806860.63513374 -708800823.81781769 0 0 0 0 718275.14511050517 -1930964.1248880029 0 -1930964.1248880029 -971543.99071802199 0 0 0 0 -172487802.21559238 -362202379.05975986 0 -362202379.05975986 -460249740.12763977 0 0 0 0 7089154.3132510185 184049031.40738785 0 184049031.40738785 -321543492.21284485 0 0 0 0 -148645977.82528687 -42978743.420936584 0 -42978743.420936584 -7012667.0663795471 0 0 0 0 82992595.592323303 10334199.533716202 0 10334199.533716202 -632328900.80567932 0 0 0 0 53044895.683692932 -124349905.25447083 0 -124349905.25447083 -279422158.37845612 0 0 0 0 76158332.282020569 -105671327.32677841 0 -105671327.32677841 -285734724.86066437 0 0 0 0 -126478347.87234497 -391611273.94260025 0 -391611273.94260025 -449692057.9128952 0 0 0 0 127654915.55038452 -101025070.24185944 0 -101025070.24185944 -716664772.02845764 0 0 0 0 1492316.8617019653 64395071.892637253 0 64395071.892637253 -239929860.30197906 0 0 0 0 -46317082.649841309 13332647.323806763 0 13332647.323806763 -17106262.463485718 0 0 0 0 -1901661.352432251 -24754180.910263062 0 -24754180.910263062 -75703628.065864563 0 0 0 0 5122837.63022995 -39127.133580207825 0 -39127.133580207825 -64157509.264755249 0 0 0 0 25766652.875854492 -55792743.460216522 0 -55792743.460216522 -157980299.58375549 0 0 0 0 1003532.884223938 -42281027.872051239 0 -42281027.872051239 -16999082.015914917 0 0 0 0 3733686.1482391357 -83335814.343881607 0 -83335814.343881607 -96719262.569381714 0 0 0 0 -14379331.365814209 -118638026.39686584 0 -118638026.39686584 -141957204.40281296 0 0 0 0 128995813.56712341 32378938.979902267 0 32378938.979902267 -17275714.257202148 0 0 0 0 -5394875.4311676025 -80539577.756904602 0 -80539577.756904602 -96536273.321563721 0 0 0 0 4545754.2904297896 -2195012.1746565625 0 -2195012.1746565625 -6743635.102236595 0 0 0 0 13283887.596618652 43771557.393161774 0 43771557.393161774 11856652.534988403 0 0 0 0 -11541728.142837524 -48840317.140063286 0 -48840317.140063286 -20350685.146347046 0 0 0 0 17719491.550674438 -29616598.952220917 0 -29616598.952220917 -4632616.3974227905 0 0 0 0 64690478.929840088 -75667071.834674835 0 -75667071.834674835 9185894.081703186 0 0 0 0 51077077.492565155 -75561789.001367569 0 -75561789.001367569 20778762.709213257 0 0 0 0 43750311.434417725 -3315634.1109924316 0 -3315634.1109924316 13144785.02230072 0 0 0 0 40988644.065093994 -231428458.64237976 0 -231428458.64237976 514794566.01766968 0 0 0 0 3137797.4658139348 788254.86792141665 0 788254.86792141665 -2507532.149180036 0 0 0 0 -20162464.965209961 -73845289.323959351 0 -73845289.323959351 234763902.77023315 0 0 0 0 -44049052.569335938 -227586.63005065918 0 -227586.63005065918 120964820.33078003 0 0 0 0 32765399.451080322 -3917171.0605773926 0 -3917171.0605773926 -118101575.52957344 0 0 0 0 57067198.255249023 -180607633.6218338 0 -180607633.6218338 71868764.414627075 0 0 0 0 75524169.49710083 -154051497.81455994 0 -154051497.81455994 31100640.745506287 0 0 0 0 258332039.89190674 -322415361.90860748 0 -322415361.90860748 -117761390.82559204 0 0 0 0 107621606.38000488 -292063377.06903839 0 -292063377.06903839 282779129.26419449 0 0 0 0 77657116.025909424 -31634485.65864563 0 -31634485.65864563 -59337300.903373718 0 0 0 0 200957423.53018951 -110945295.99123383 0 -110945295.99123383 -161058294.77824402 0 0 0 0 183455247.33221436 -150543896.88383484 0 -150543896.88383484 -4943267.3534851074 0 0 0 0 143347677.57719421 -105923446.8195076 0 -105923446.8195076 -50273501.092437744 0 0 0 0 115416552.44055176 -21316697.268505096 0 -21316697.268505096 6325418.1772994995 0 0 0 0 91502028.974899292 -26347536.675655365 0 -26347536.675655365 12496095.186630249 0 0 0 0 146226938.6756897 -86326215.818515778 0 -86326215.818515778 7441183.501865387 0 0 0 0 187965789.45062256 -54124868.055650711 0 -54124868.055650711 -9511539.2197418213 0 0 0 0 253044860.66975403 1279278.573551178 0 1279278.573551178 -17720559.652477264 0 0 0 0 149014489.76128387 -78726198.674104691 0 -78726198.674104691 -38774746.705101013 0 0 0 0 169961487.2293396 -33722088.650779724 0 -33722088.650779724 -32104419.515090942 0 0 0 0 112148141.8855896 -31344417.430324554 0 -31344417.430324554 -19323982.343856812 0 0 0 0 155866684.79194641 -79901605.876094818 0 -79901605.876094818 13609777.876724243 0 0 0 0 196743007.39697266 -18458299.199447632 0 -18458299.199447632 14820466.063233733 0 0 0 0 693472.16075508296 -545552.62697396427 0 -545552.62697396427 -1348028.6136209145 0 0 0 0 494631045.86019897 43919224.148597717 0 43919224.148597717 -70026785.499347687 0 0 0 0 236030966.79718018 5310671.5545959473 0 5310671.5545959473 22993729.77557373 0 0 0 0 -118118329.71142578 -189632837.05117035 0 -189632837.05117035 -158311115.36920881 0 0 0 0 -707908413.34881592 -434752230.51672363 0 -434752230.51672363 -48738489.744586945 0 0 0 0 -33762162.932388306 -246113483.23866272 0 -246113483.23866272 -158574451.15858459 0 0 0 0 -105843008.73001099 -241318702.31674957 0 -241318702.31674957 -678212.31232452393 0 0 0 0 -114230876.87950134 -166143814.14742661 0 -166143814.14742661 -134100182.62346077 0 0 0 0 -11769381.39276123 -248618898.0298214 0 -248618898.0298214 -159102383.24598694 0 0 0 0 -230852693.7141037 -265940353.63586998 0 -265940353.63586998 -143542150.39374542 0 0 0 0 2148013.9229730032 -1171136.3035063744 0 -1171136.3035063744 -3920812.9831584021 0 0 0 0 -24227067.746891022 48877725.478142738 0 48877725.478142738 125979691.3312149 0 0 0 0 43214212.896212578 37651343.994675159 0 37651343.994675159 89198867.105541229 0 0 0 0 27868527.996799469 83745888.609241486 0 83745888.609241486 144575847.46586293 0 0 0 0 85541576.647163391 180868249.3722477 0 180868249.3722477 146481876.76224899 0 0 0 0 74266283.000425339 68777741.28572464 0 68777741.28572464 87238147.185554504 0 0 0 0 101423779.78180122 41309716.361903191 0 41309716.361903191 52135465.482414246 0 0 0 0 58974135.078033447 60638511.138532639 0 60638511.138532639 89299535.358168602 0 0 0 0 131079011.87534142 80778093.354635239 0 80778093.354635239 67167088.054779053 0 0 0 0 42113969.980457067 -40701423.58398474 0 -40701423.58398474 -13164991.718716338 0 0 0 0 -208371091.90484619 -118133015.92788696 0 -118133015.92788696 -46260533.725494385 0 0 0 0 101529467.52769279 83883832.285251617 0 83883832.285251617 57311605.21484375 0 0 0 0 123276218.62497234 58894502.58949852 0 58894502.58949852 82474413.10446167 0 0 0 0 119184642.06773567 97640340.376127243 0 97640340.376127243 51386191.260055542 0 0 0 0 546843299.18725586 -619434631.38513184 0 -619434631.38513184 479645386.57165527 0 0 0 0 219022127.65433502 37857688.949649811 0 37857688.949649811 11120130.731861115 0 0 0 0 250507698.75872803 325875370.03958893 0 325875370.03958893 -568169165.72548676 0 0 0 0 474403641.16656494 -686794795.30871582 0 -686794795.30871582 402898249.82540703 0 0 0 0 1501516772.7557678 -377369420.11558533 0 -377369420.11558533 -898955968.06349182 0 0 0 0 295260236.71325684 -199087509.30104828 0 -199087509.30104828 -78701107.8332901 0 0 0 0 76257225.738922119 -43879127.836906433 0 -43879127.836906433 -76576194.522926331 0 0 0 0 -222679427.85250854 107960206.60607529 0 107960206.60607529 -96816047.414703369 0 0 0 0 -34009926.484527588 -54061756.982715607 0 -54061756.982715607 5063316.2206192017 0 0 0 0 55442427.372268677 -75355576.355155945 0 -75355576.355155945 -5378559.2573394775 0 0 0 0 58007741.210968018 -82232239.754207611 0 -82232239.754207611 10270760.550872803 0 0 0 0 -15896206.561691284 -73571480.591344833 0 -73571480.591344833 43211147.480247498 0 0 0 0 44468668.948120117 -64378611.400268555 0 -64378611.400268555 27913629.8632164 0 0 0 0 111238718.55111694 -65623283.821495056 0 -65623283.821495056 12272194.660953522 0 0 0 0 41796072.885665894 -54851308.486391068 0 -54851308.486391068 68326.2626953125 0 0 0 0 -27560763.327210348 -39936462.506145641 0 -39936462.506145641 -8265001.1368454117 0 0 0 0 -15943355.602233887 -72128559.428897858 0 -72128559.428897858 -319859.75976371765 0 0 0 0 -41323012.089347839 -98690808.044001579 0 -98690808.044001579 5328338.7865867615 0 0 0 0 -14886820.047073364 -80695728.988025665 0 -80695728.988025665 -48569696.389683962 0 0 0 0 54454625.259647846 17451799.887751818 0 17451799.887751818 89419892.083007812 0 0 0 0 53093288.654245377 8799121.6400365829 0 8799121.6400365829 56835334.897421122 0 0 0 0 29608718.134652913 -36469951.440821305 0 -36469951.440821305 -10448679.785525899 0 0 0 0 1083931243.814846 611724084.61344719 0 611724084.61344719 -514621423.390728 0 0 0 0 95142770.9361763 -11095775.680175781 0 -11095775.680175781 214668230.78730774 0 0 0 0 2984027370.204277 -269254495.39804077 0 -269254495.39804077 -325533430.14042664 0 0 0 0 -1005724.6718401127 -369379.63748486992 0 -369379.63748486992 275797.97932959348 0 0 0 0 -1533678331.7886887 -592222518.45962143 0 -592222518.45962143 456162659.81458664 0 0 0 0 -65541019.23412323 -320213544.79434586 0 -320213544.79434586 -251759734.89509583 0 0 0 0 176275032.29895782 -123107758.03146362 0 -123107758.03146362 -445867693.84405899 0 0 0 0 109085532.94753075 -90474920.394160271 0 -90474920.394160271 -47316653.041725159 0 0 0 0 -17722158.847816467 -792118240.6624527 0 -792118240.6624527 331476660.98455524 0 0 0 0 389622454.77233124 -9266066.3213949203 0 -9266066.3213949203 -85249439.90348053 0 0 0 0 20220746.275883362 373733.33521242626 0 373733.33521242626 -4827792.0044600256 0 0 0 0 2320999.9978866577 -132556548.6617794 0 -132556548.6617794 -161496899.97197342 0 0 0 0 23399459.38451004 -62341261.134965897 0 -62341261.134965897 -233858658.6656723 0 0 0 0 -64665854.6352005 -70649902.366912842 0 -70649902.366912842 -48940955.00617218 0 0 0 0 -62812072.897697449 -114285782.17438412 0 -114285782.17438412 -11054147.206764221 0 0 0 0 87503405.153141022 -117638892.25003815 0 -117638892.25003815 -64707929.989509583 0 0 0 0 -206202958.88369751 -193210907.20170593 0 -193210907.20170593 18129220.199699402 0 0 0 0 -61565085.440580368 -118002590.74485302 0 -118002590.74485302 -10432146.133399963 0 0 0 0 -102385190.58106995 -134391208.67757034 0 -134391208.67757034 8204713.5756759644 0 0 0 0 -147925776.47771072 -116756233.79563713 0 -116756233.79563713 61272479.219619751 0 0 0 0 -47840920.400215149 -40167399.147304535 0 -40167399.147304535 12746057.732936859 0 0 0 0 3133997.3780335225 -3807683.3953227587 0 -3807683.3953227587 -1818188.4309394974 0 0 0 0 -133449471.49156952 -99615583.540660858 0 -99615583.540660858 54477088.636922836 0 0 0 0 -84943241.485523224 -44299423.167947769 0 -44299423.167947769 105835429.57151794 0 0 0 0 -15496981.596992493 16268918.540328979 0 16268918.540328979 77450409.422775269 0 0 0 0 108449680.30352783 -19403176.795341492 0 -19403176.795341492 -26773404.804931164 0 0 0 0 66511404.077377319 -24967080.193618774 0 -24967080.193618774 -26559705.339981079 0 0 0 0 -64813039.73735714 -69415065.71254015 0 -69415065.71254015 -10296886.602180481 0 0 0 0 -12789617.390563965 -14472733.070510864 0 -14472733.070510864 -75996688.180099487 0 0 0 0 -53797638.083511353 13667331.992523193 0 13667331.992523193 -70858563.521526337 0 0 0 0 -30249871.414093018 -32938135.993621826 0 -32938135.993621826 -40990280.530799866 0 0 0 0 -5130588.0314798355 -61051048.91281414 0 -61051048.91281414 -37824448.59853363 0 0 0 0 89514033.445884705 -78839109.45513916 0 -78839109.45513916 -45070444.981250763 0 0 0 0 59049791.728286743 -64259402.883640289 0 -64259402.883640289 -39855089.502817154 0 0 0 0 13527880.416184165 -20148730.763220295 0 -20148730.763220295 -4492400.48518534 0 0 0 0 96395909.293190002 -75738443.385789871 0 -75738443.385789871 -43677949.104393005 0 0 0 0 18090421.222048402 -13878395.188048441 0 -13878395.188048441 -11797344.108774103 0 0 0 0 112073419.82725525 -57922100.742351532 0 -57922100.742351532 -36276439.071838379 0 0 0 0 63829798.276245117 -75844001.607894897 0 -75844001.607894897 -42378707.56627655 0 0 0 0 278401907.68420792 85050731.007165909 0 85050731.007165909 -72507986.630618095 0 0 0 0 -222664231.92685318 -385757931.946558 0 -385757931.946558 157084604.24047852 0 0 0 0 62579726.484191895 -77992502.273586273 0 -77992502.273586273 30303712.740255356 0 0 0 0 43709492.844238281 -92763850.014770508 0 -92763850.014770508 25660753.58757782 0 0 0 0 50139831.344558716 -77420819.50279808 0 -77420819.50279808 39394391.696258545 0 0 0 0 -31519529.247101296 -34962117.028044172 0 -34962117.028044172 -2966674.3719321154 0 0 0 0 66960698.974803925 -145650775.46462631 0 -145650775.46462631 49487657.229705811 0 0 0 0 56446372.23868233 -52271097.932889864 0 -52271097.932889864 -20104324.561098404 0 0 0 0 9034291.0832481384 -65572170.905899048 0 -65572170.905899048 27267086.531799316 0 0 0 0 -16522622.846004486 -18821850.886389732 0 -18821850.886389732 61152610.997013092 0 0 0 0 -23306800.12865448 -28469549.189543247 0 -28469549.189543247 169602558.49591064 0 0 0 0 39436383.282974243 -101316262.2565918 0 -101316262.2565918 100498844.26886368 0 0 0 0 6406583.3486328125 -62064529.803947449 0 -62064529.803947449 73985725.894447327 0 0 0 0 22812782.128158569 -62710732.506103516 0 -62710732.506103516 -3987520.9659500122 0 0 0 0 58869164.822738647 -81996245.893817902 0 -81996245.893817902 -19599854.257991791 0 0 0 0 53697835.767410278 -102573800.97252655 0 -102573800.97252655 39379070.344028473 0 0 0 0 64290517.722873688 -84661125.016050339 0 -84661125.016050339 23538258.611862183 0 0 0 0 108592578.68742371 -107281531.46334457 0 -107281531.46334457 -14549878.401569366 0 0 0 0 56084764.288299561 -54976670.572570801 0 -54976670.572570801 -50785747.289787292 0 0 0 0 110540150.55667114 -54741083.35326767 0 -54741083.35326767 -70279187.949638367 0 0 0 0 61369488.297775269 -6493035.7858657837 0 -6493035.7858657837 -102996935.38492584 0 0 0 0 114892661.09267902 -40949792.229063988 0 -40949792.229063988 -53265011.676437378 0 0 0 0 85189017.616271973 -218952631.85454178 0 -218952631.85454178 354453714.42241096 0 0 0 0 202407314.96220398 -105754920.05950546 0 -105754920.05950546 -19402586.199821472 0 0 0 0 -6259029.7834472656 -70323825.269107819 0 -70323825.269107819 238824011.43566895 0 0 0 0 196738831.20346069 -153066530.40644073 0 -153066530.40644073 53615543.133983612 0 0 0 0 134744856.34692383 -96534615.661205292 0 -96534615.661205292 38499943.612174988 0 0 0 0 41326241.649658203 -95098434.369850159 0 -95098434.369850159 120080826.11707306 0 0 0 0 129220478.53225708 -148805932.43376541 0 -148805932.43376541 70119576.308166504 0 0 0 0 108661285.2208252 -196070797.23554993 0 -196070797.23554993 222574293.40435028 0 0 0 0 223769074.6309967 -171668338.76554298 0 -171668338.76554298 56588695.125282288 0 0 0 0 595321629.84329224 -535421837.74414062 0 -535421837.74414062 101654947.39033699 0 0 0 0 533226527.43432617 62514405.339431763 0 62514405.339431763 -264655279.54963684 0 0 0 0 1205950204.0244141 -359352696.71296692 0 -359352696.71296692 -749152630.34745789 0 0 0 0 44893322.037414551 293895848.86601257 0 293895848.86601257 -210267619.96125031 0 0 0 0 1273185409.8941078 63357651.613219261 0 63357651.613219261 -1221448366.6199951 0 0 0 0 473887778.194561 522427710.72981358 0 522427710.72981358 -792408104.42224121 0 0 0 0 231153394.62208557 99455761.254478455 0 99455761.254478455 -22053380.663665771 0 0 0 0 116815880.26330566 83796507.211616516 0 83796507.211616516 -19326040.844033241 0 0 0 0 163613353.02027893 -23908749.330558777 0 -23908749.330558777 -68914098.202846527 0 0 0 0 347774345.10958862 159415816.32627106 0 159415816.32627106 -313817238.09449005 0 0 0 0 427730559.5039978 -128858253.34319305 0 -128858253.34319305 -33593211.905265808 0 0 0 0 86674343.563613892 -13137967.089138031 0 -13137967.089138031 -59527700.485420227 0 0 0 0 202340250.63189697 13869224.344432831 0 13869224.344432831 -53378832.910095215 0 0 0 0 116777097.34095097 14720264.495298386 0 14720264.495298386 -131806787.83636475 0 0 0 0 54322364.796920776 -49623703.175018311 0 -49623703.175018311 -165772353.55826569 0 0 0 0 83675853.51512146 52762157.253133774 0 52762157.253133774 -17257799.205711365 0 0 0 0 77647638.933125496 45070761.861074924 0 45070761.861074924 -10710354.469268799 0 0 0 0 -58605277.180015564 -27810026.310007095 0 -27810026.310007095 97158650.398696899 0 0 0 0 -13418759.903087616 101785575.43193817 0 101785575.43193817 151171469.30233002 0 0 0 0 131069817.60098267 77906499.100279808 0 77906499.100279808 -102311141.72883224 0 0 0 0 -612408354.3118515 -486866108.94264317 0 -486866108.94264317 523097493.4562912 0 0 0 0 -560252295.62200546 505262573.87332916 0 505262573.87332916 486865490.37709808 0 0 0 0 6875613.462843582 -5669757.059084679 0 -5669757.059084679 -2055899.7100861212 0 0 0 0 114712.31058667228 1355818.020111938 0 1355818.020111938 -523037.60942149907 0 0 0 0 72196353.732898712 193522985.63073206 0 193522985.63073206 52612300.640655518 0 0 0 0 81358712.670410156 -235215694.22946548 0 -235215694.22946548 -609857262.07514477 0 0 0 0 -488712.96469582617 -2349233.0094377361 0 -2349233.0094377361 -273267.36120414827 0 0 0 0 -290847075.59527588 101549607.21010208 0 101549607.21010208 896310241.67965317 0 0 0 0 -159587868.82498169 -364450413.08295441 0 -364450413.08295441 -230148523.13986206 0 0 0 0 -208772226.50030518 -161382780.47545242 0 -161382780.47545242 191340785.42013741 0 0 0 0 -17245653.395904541 -224994142.1341629 0 -224994142.1341629 2281184.4460372925 0 0 0 0 -185251904.33782959 -290275314.04370689 0 -290275314.04370689 511401492.71060181 0 0 0 0 78725407.90145874 -288922674.33842468 0 -288922674.33842468 -250442035.89480591 0 0 0 0 81305528.158569336 251266263.43284225 0 251266263.43284225 152453132.79535294 0 0 0 0 332926633.69563293 -124040837.69261169 0 -124040837.69261169 -107705023.44099426 0 0 0 0 166913427.58544922 -231382252.5389328 0 -231382252.5389328 -168493182.38848495 0 0 0 0 -244546485.16021729 -446405305.63375092 0 -446405305.63375092 125503969.7492218 0 0 0 0 70558735.189102173 -69575701.460697174 0 -69575701.460697174 30816181.065969467 0 0 0 0 115733744.37740326 -83593772.346106529 0 -83593772.346106529 -7161490.9226074219 0 0 0 0 208173189.91748047 -119479997.12882233 0 -119479997.12882233 6309323.780708313 0 0 0 0 67311920.441711426 -118629534.87025452 0 -118629534.87025452 52602003.403617859 0 0 0 0 -97213554.647445679 -182385719.21762657 0 -182385719.21762657 415446891.96805191 0 0 0 0 -80117074.049621582 -150676215.92662048 0 -150676215.92662048 -108471764.40562534 0 0 0 0 -2977707.5585468113 -17227365.381184652 0 -17227365.381184652 801224.29005463514 0 0 0 0 -35028926.415688515 -146061769.27048445 0 -146061769.27048445 -190180045.32920074 0 0 0 0 -353514588.32577515 -184412018.57256317 0 -184412018.57256317 461997503.31639099 0 0 0 0 -182472853.84301758 32202418.612770081 0 32202418.612770081 89560330.431884766 0 0 0 0 16581839.366638184 -108066858.59156799 0 -108066858.59156799 -207623585.53452873 0 0 0 0 -14796349.115230426 -33073922.596854575 0 -33073922.596854575 -9881916.2276652697 0 0 0 0 267357829.43582153 -31869008.66337204 0 -31869008.66337204 -335158718.0054245 0 0 0 0 117591595.85499573 -167469921.28652763 0 -167469921.28652763 43551724.4876194 0 0 0 0 11055479.200069651 -3862090.9515261948 0 -3862090.9515261948 -6199961.40787635 0 0 0 0 20457882.070304871 -65783054.028423786 0 -65783054.028423786 -261933.91143798828 0 0 0 0 5468172.9001617432 -70419911.7878685 0 -70419911.7878685 27904195.621720314 0 0 0 0 15582654.363775253 -82228911.842819214 0 -82228911.842819214 9311536.2051696777 0 0 0 0 21580170.902282715 -21769272.737571716 0 -21769272.737571716 -4965265.8531131744 0 0 0 0 22238242.126197815 -33144422.962175369 0 -33144422.962175369 230702155.45378876 0 0 0 0 118260988.16641235 -222251306.20839691 0 -222251306.20839691 159623479.27146149 0 0 0 0 -20509239.300919935 -25760251.592058077 0 -25760251.592058077 -1577797.0126507916 0 0 0 0 -58559573.761993408 -408018348.63285446 0 -408018348.63285446 388328153.13210869 0 0 0 0 -18836560.824713543 -22968977.401490577 0 -22968977.401490577 2135964.1834742986 0 0 0 0 14520460.29510498 -67677971.184326172 0 -67677971.184326172 260754303.52558517 0 0 0 0 -78774328.351745605 16496227.456996918 0 16496227.456996918 381868069.59536743 0 0 0 0 -5151368.2279115319 -8604493.312134169 0 -8604493.312134169 1988484.560323935 0 0 0 0 -126754225.76602173 -75982086.03753376 0 -75982086.03753376 350768084.32479477 0 0 0 0 -18645456.214813232 -141135018.42863464 0 -141135018.42863464 71387970.131744385 0 0 0 0 -50916482.279495239 -64860382.458389282 0 -64860382.458389282 41479338.8150177 0 0 0 0 -100003441.66234589 -70501198.10383606 0 -70501198.10383606 42089554.760536194 0 0 0 0 -28078704.027197838 -50358893.003518343 0 -50358893.003518343 -277919611.75769043 0 0 0 0 -20888025.286804199 -198635282.18194199 0 -198635282.18194199 -176958121.6480484 0 0 0 0 -45440880.58644104 -176853445.22842789 0 -176853445.22842789 103905133.80958748 0 0 0 0 -54176940.637008667 16600290.752071381 0 16600290.752071381 212579610.44943619 0 0 0 0 -10971184.463186264 -81134415.599283338 0 -81134415.599283338 -5792395.234210968 0 0 0 0 -12008978.431469917 -103987395.68093467 0 -103987395.68093467 141191132.46781921 0 0 0 0 -9681568.8118283153 -6121579.6159014739 0 -6121579.6159014739 3395644.9921953166 0 0 0 0 -10012341.301223755 -37503434.67137146 0 -37503434.67137146 34835305.376373291 0 0 0 0 -1620664.3296508789 -4434700.2342834473 0 -4434700.2342834473 5225909.5237169266 0 0 0 0 -712750.15173339844 -4897326.1692581177 0 -4897326.1692581177 4637636.7013244629 0 0 0 0 -576844.56269836426 -5903771.8179636002 0 -5903771.8179636002 18483594.925514221 0 0 0 0 -6659306.3776092529 -16626171.481748581 0 -16626171.481748581 33673124.085693359 0 0 0 0 -1460465.3045019507 -3889736.2568690479 0 -3889736.2568690479 7251017.6667386815 0 0 0 0 322874.13304173946 -6619434.5645172596 0 -6619434.5645172596 -1462403.1773567656 0 0 0 0 3684008.1045532227 -14569340.743497849 0 -14569340.743497849 -6219263.9936783314 0 0 0 0 -1428587.566619873 -7504286.5441818237 0 -7504286.5441818237 5978355.880317688 0 0 0 0 -15775416.701202393 14878712.026561737 0 14878712.026561737 44028978.260238647 0 0 0 0 -21675612.113563538 -17210937.157588005 0 -17210937.157588005 13361688.008991241 0 0 0 0 -5370082.942781277 -15400402.362627182 0 -15400402.362627182 -1394652.0652962327 0 0 0 0 13777080.614929199 -41442868.622581482 0 -41442868.622581482 -59769472.163459778 0 0 0 0 3541773.1109771729 -13723704.92062521 0 -13723704.92062521 -4256268.3382873535 0 0 0 0 -2568033.7805323303 -19093831.885757867 0 -19093831.885757867 -5667191.7335823271 0 0 0 0 2824958.4476928711 -17825166.96361351 0 -17825166.96361351 -24033073.460475922 0 0 0 0 13137662.96033524 -24713040.257161744 0 -24713040.257161744 -1079240.1370158512 0 0 0 0 -1098950.8636779785 -18490627.550963402 0 -18490627.550963402 -17065091.381311417 0 0 0 0 21737775.476455688 -68203123.180862427 0 -68203123.180862427 -28517522.247020721 0 0 0 0 282364.69149780273 -23368145.486312866 0 -23368145.486312866 -18170787.841409683 0 0 0 0 -1660182.4105682373 -64844291.347148895 0 -64844291.347148895 1265316.6153278351 0 0 0 0 9639964.7060613632 2316584.6095968485 0 2316584.6095968485 21451893.202167511 0 0 0 0 3596536.568903625 -11978803.750042059 0 -11978803.750042059 -3143047.8872762611 0 0 0 0 47760540.379058838 -7995519.7046976089 0 -7995519.7046976089 -34482971.473140717 0 0 0 0 -25699175.159637451 -52160742.437995911 0 -52160742.437995911 43494613.672670364 0 0 0 0 152366.63210751116 -2686569.8874563109 0 -2686569.8874563109 -495101.31596612337 0 0 0 0 35105647.066864014 -38348193.80273819 0 -38348193.80273819 23510315.816958666 0 0 0 0 2985666.1049957275 -21579270.930011749 0 -21579270.930011749 -32048295.464084625 0 0 0 0 -1356304.6562194824 -25948017.503832817 0 -25948017.503832817 -6052281.7528419495 0 0 0 0 39165732.412414551 -16869960.301452637 0 -16869960.301452637 -11530620.856939316 0 0 0 0 -12092966.906421661 3989277.7943191528 0 3989277.7943191528 -22143088.78212738 0 0 0 0 22556826.866485596 -40370577.184842587 0 -40370577.184842587 28691276.116096497 0 0 0 0 53801110.30456543 8611478.2551250458 0 8611478.2551250458 -8253563.5501461029 0 0 0 0 66718729.61844635 -25701593.569979906 0 -25701593.569979906 10080500.433498383 0 0 0 0 35867412.127685547 -36108416.385643005 0 -36108416.385643005 11871485.627483845 0 0 0 0 66661162.606449127 -22614153.834910154 0 -22614153.834910154 54333243.054807663 0 0 0 0 133380154.2467804 -11592057.538843155 0 -11592057.538843155 4785756.1019058228 0 0 0 0 91094190.850570679 -66520499.697372437 0 -66520499.697372437 9175048.3008804321 0 0 0 0 -1373533.0897764303 -1339978.9724991247 0 -1339978.9724991247 1051611.4915468581 0 0 0 0 64198130.584671021 -54965747.567957401 0 -54965747.567957401 43933258.856216431 0 0 0 0 64588173.7449646 -60395334.163777351 0 -60395334.163777351 15294110.908882141 0 0 0 0 20506553.133682251 -53544496.064898491 0 -53544496.064898491 14902286.942771435 0 0 0 0 40099587.196914673 -32304836.882541656 0 -32304836.882541656 5451992.8304920197 0 0 0 0 6590552.4565429688 -39722664.575031281 0 -39722664.575031281 10322983.973365784 0 0 0 0 10144048.182132721 -33532544.55892849 0 -33532544.55892849 -25800397.410020828 0 0 0 0 18686512.370880127 -27893618.55611515 0 -27893618.55611515 -358788.03460741043 0 0 0 0 -30881468.789306641 -23587665.964903831 0 -23587665.964903831 4241623.0577697754 0 0 0 0 -3567343.6380691528 -2403714.4720134735 0 -2403714.4720134735 -23017399.306018829 0 0 0 0 -9956127.1591644287 -6291965.3943004608 0 -6291965.3943004608 -3434114.869764328 0 0 0 0 -9687543.5638465881 -6218275.0647284985 0 -6218275.0647284985 -12538438.17250061 0 0 0 0 -6194147.5493469238 -444005.03108024597 0 -444005.03108024597 -13433004.463506699 0 0 0 0 -8679069.478729248 -8829306.490480423 0 -8829306.490480423 -19845571.251471519 0 0 0 0 390612.36376953125 -5543781.1703643799 0 -5543781.1703643799 4997614.2873306274 0 0 0 0 -8809612.3929495811 -6542309.2608531713 0 -6542309.2608531713 -12454364.31303215 0 0 0 0 -2481862.6274561882 -7773500.0072559491 0 -7773500.0072559491 -1193490.2013764454 0 0 0 0 19459387.945388794 -6532129.9774799347 0 -6532129.9774799347 20966730.322021484 0 0 0 0 120790.22371613979 -298905.01023637503 0 -298905.01023637503 728654.31781838089 0 0 0 0 -2582351.1977539062 -1557980.9954147339 0 -1557980.9954147339 26643010.246566772 0 0 0 0 -3382074.7026573122 -10856365.613446549 0 -10856365.613446549 -3868756.8306689467 0 0 0 0 -2176775.3943557441 55273.302060782909 0 55273.302060782909 9412247.158519648 0 0 0 0 4255788.3286743164 -22852135.139762878 0 -22852135.139762878 30561375.576173782 0 0 0 0 570492.96980625391 -12563702.38856902 0 -12563702.38856902 -4398999.1653375467 0 0 0 0 -3644632.500579834 -8886269.7250375748 0 -8886269.7250375748 -27745141.55447197 0 0 0 0 -19376335.757141113 -4871801.1000394821 0 -4871801.1000394821 -32439413.330944061 0 0 0 0 -1125263.4786114544 -2023791.1766921934 0 -2023791.1766921934 -1478091.6791238026 0 0 0 0 -16480601.138916016 -18076240.315105438 0 -18076240.315105438 54786497.983549118 0 0 0 0 27039940.987262726 -25378138.436006904 0 -25378138.436006904 5208911.9450764656 0 0 0 0 26113122.245796204 -22201334.556647062 0 -22201334.556647062 3753255.9474666119 0 0 0 0 61970792.687646866 -57029556.657557487 0 -57029556.657557487 31529691.037536621 0 0 0 0 48501970.809818268 -27151491.270789146 0 -27151491.270789146 -32207007.269428253 0 0 0 0 27733018.974163055 -20450697.366736382 0 -20450697.366736382 -2518225.9984230995 0 0 0 0 29767487.341691934 -18390128.041427389 0 -18390128.041427389 -5743328.3811519742 0 0 0 0 14056707.410194397 29488560.473087311 0 29488560.473087311 -97445738.955776215 0 0 0 0 6674502.5956330374 -3913355.13912265 0 -3913355.13912265 1490280.8174843416 0 0 0 0 32625245.47681427 110899556.01776886 0 110899556.01776886 -200329572.57880497 0 0 0 0 55602949.075263977 -8703244.6106338501 0 -8703244.6106338501 -102304187.12955475 0 0 0 0 36652254.705006823 -18411882.964047201 0 -18411882.964047201 -12718000.592748288 0 0 0 0 25300336.53200531 -19887136.464617729 0 -19887136.464617729 4389948.087875843 0 0 0 0 28485360.611618042 -23415045.719713449 0 -23415045.719713449 931993.88784503937 0 0 0 0 93275150.50189209 -52963384.600378036 0 -52963384.600378036 25331225.022655487 0 0 0 0 6203062.7847068235 -13072446.673906548 0 -13072446.673906548 3542281.2458924423 0 0 0 0 76596834.643356323 -56317420.421998978 0 -56317420.421998978 -11039041.190653324 0 0 0 0 92359235.495544434 -57397117.768222809 0 -57397117.768222809 19893770.130330086 0 0 0 0 1464123.04884734 2247594.3133393228 0 2247594.3133393228 -2381798.4925008947 0 0 0 0 76349379.183441162 -67511231.424821854 0 -67511231.424821854 42669884.425728321 0 0 0 0 39572755.500595093 6539967.6744003296 0 6539967.6744003296 -113249852.26193237 0 0 0 0 86736546.761604309 -62770376.513503075 0 -62770376.513503075 -78955567.944946289 0 0 0 0 28391011.347875595 -37819422.835543156 0 -37819422.835543156 -88711164.020683289 0 0 0 0 63354393.345825195 -57731390.766460419 0 -57731390.766460419 -101237511.05881691 0 0 0 0 21080413.454988271 -15057219.805301411 0 -15057219.805301411 -5962668.9589804197 0 0 0 0 15692679.096155167 -27263413.659156799 0 -27263413.659156799 -66024593.406715393 0 0 0 0 12492622.606948376 -31609593.526174605 0 -31609593.526174605 -13378591.911270142 0 0 0 0 8866919.1988229454 -15345371.151900591 0 -15345371.151900591 -1682317.3704750938 0 0 0 0 -25778157.29699707 -19268008.949333191 0 -19268008.949333191 48635601.965738297 0 0 0 0 84313390.876922607 -110600733.07244873 0 -110600733.07244873 21242145.234661579 0 0 0 0 72060655.930076599 -33662933.693583965 0 -33662933.693583965 -39458523.065847874 0 0 0 0 -115650745.76010132 -22100958.066107035 0 -22100958.066107035 68648779.192691803 0 0 0 0 148395847.20207214 -94447450.090480804 0 -94447450.090480804 -10852880.056867599 0 0 0 0 533205.68181327358 568318.86985755712 0 568318.86985755712 -617909.1500216173 0 0 0 0 -55526255.261451721 -34256604.413514614 0 -34256604.413514614 52851317.747289658 0 0 0 0 1956864.7133760601 -10464392.266061828 0 -10464392.266061828 -1724552.1501501035 0 0 0 0 23451363.474639893 -33482247.663197041 0 -33482247.663197041 12677315.861790061 0 0 0 0 25031901.807952881 -18588935.266677618 0 -18588935.266677618 8666157.4332768321 0 0 0 0 2502874.6898808777 -10274067.657714028 0 -10274067.657714028 -626138.31853584014 0 0 0 0 28160049.199621201 -27374793.237742573 0 -27374793.237742573 6276861.9081954956 0 0 0 0 26870974.143745422 -22115616.432592154 0 -22115616.432592154 17328789.340368986 0 0 0 0 19903770.433983527 -9539127.7749771997 0 -9539127.7749771997 -8038721.0457065171 0 0 0 0 27310645.973813534 -29041782.110449642 0 -29041782.110449642 18250205.847398758 0 0 0 0 13741304.736366272 17200481.114824295 0 17200481.114824295 -65905703.506782532 0 0 0 0 -521193773.93841553 -50556643.450500488 0 -50556643.450500488 64710845.600927114 0 0 0 0 -188344832.20977783 -120133739.15579224 0 -120133739.15579224 -163502728.22571564 0 0 0 0 -198158211.36343384 48043853.651639938 0 48043853.651639938 -18224465.868549347 0 0 0 0 -235439959.84594727 52503000.971851349 0 52503000.971851349 69963918.067724705 0 0 0 0 -113474028.10527039 168847104.8316164 0 168847104.8316164 -132752990.43027496 0 0 0 0 4176695.407989502 30451378.480493546 0 30451378.480493546 -16911785.483818054 0 0 0 0 16046478.658104807 -8878693.6890570447 0 -8878693.6890570447 -10554989.03241441 0 0 0 0 28010174.17388916 -36839755.351056576 0 -36839755.351056576 27976031.598834038 0 0 0 0 -41669968.310943604 -29406948.845844269 0 -29406948.845844269 7831452.1802825928 0 0 0 0 -32276576.009536743 8039442.5274262428 0 8039442.5274262428 -2906418.2193641663 0 0 0 0 -38229606.566711426 -13016141.397003174 0 -13016141.397003174 -77295321.379364014 0 0 0 0 -64612480.793426514 22524115.489093781 0 22524115.489093781 -68810926.50585556 0 0 0 0 18883303.517105103 -9810493.4837551117 0 -9810493.4837551117 -28994696.993091583 0 0 0 0 29808231.083865166 -24094809.09692359 0 -24094809.09692359 24620054.804197311 0 0 0 0 18848692.072479248 -17748367.395416021 0 -17748367.395416021 17217100.195196152 0 0 0 0 34493613.393585205 -34674547.256959438 0 -34674547.256959438 14276432.238002777 0 0 0 0 24129354.776901245 -42769410.504117489 0 -42769410.504117489 37669906.237940788 0 0 0 0 13775478.672716551 -9593286.2487756163 0 -9593286.2487756163 -12396890.066398978 0 0 0 0 12859167.530725002 13462887.579240561 0 13462887.579240561 -60631618.755870819 0 0 0 0 26928836.246887207 -45417094.94862175 0 -45417094.94862175 -37470089.551963806 0 0 0 0 -59822584.91355896 -14180020.121746063 0 -14180020.121746063 90800845.74259758 0 0 0 0 -16136753.244110107 -22703338.077803135 0 -22703338.077803135 7121261.8545570374 0 0 0 0 -2706477.7830460668 -674956.04712462984 0 -674956.04712462984 -3617229.0336119113 0 0 0 0 -7506407.5189056396 -3605782.5924282074 0 -3605782.5924282074 -74135309.523155212 0 0 0 0 -67340803.501312256 12070116.068908691 0 12070116.068908691 -33524495.493139267 0 0 0 0 -1765517.8571808785 -551581.10020430945 0 -551581.10020430945 -2167893.8094268795 0 0 0 0 20782623.923400879 25235117.326272964 0 25235117.326272964 52848592.016300201 0 0 0 0 -44619462.053375244 59785884.89273262 0 59785884.89273262 37894095.49017334 0 0 0 0 55958317.183639526 63773467.816101074 0 63773467.816101074 -14461499.674942017 0 0 0 0 27835118.298404694 -144607324.04633045 0 -144607324.04633045 75453999.392883301 0 0 0 0 77967973.607498169 23783659.84809494 0 23783659.84809494 4056271.1969871521 0 0 0 0 -1301455.7862949707 -1495976.4240304679 0 -1495976.4240304679 3375948.3056764379 0 0 0 0 8712636.9973449707 -156542814.87069893 0 -156542814.87069893 85258593.283340454 0 0 0 0 27656849.399688721 -167444554.89063263 0 -167444554.89063263 88289503.055992126 0 0 0 0 -168668571.58764648 265727295.56176758 0 265727295.56176758 62676014.509521484 0 0 0 0 -103983513.39393616 -220993392.55717802 0 -220993392.55717802 86922416.672698975 0 0 0 0 -229463631.0715332 -96403191.455940247 0 -96403191.455940247 -17648166.113548279 0 0 0 0 -21016.074579209089 14252.709046545438 0 14252.709046545438 32445.777056494728 0 0 0 0 83219487.605895996 23317658.671573639 0 23317658.671573639 -136761182.97234344 0 0 0 0 -391228.84928067774 -521942.20409601554 0 -521942.20409601554 10577.449960384518 0 0 0 0 -817017859.93951416 156105019.05057526 0 156105019.05057526 -26942642.868331909 0 0 0 0 -941384034.67279053 -157322981.00650215 0 -157322981.00650215 107792124.83340454 0 0 0 0 31916536.888565063 -44450849.914182663 0 -44450849.914182663 4627415.1624221802 0 0 0 0 23569317.292510986 -47236894.803459167 0 -47236894.803459167 20186971.551279068 0 0 0 0 14871113.36151123 -67923137.766427994 0 -67923137.766427994 -16128770.735954285 0 0 0 0 129589207.19067383 -5439653.4488544464 0 -5439653.4488544464 -49883893.729964256 0 0 0 0 -2072884.9024959281 9113.0652230493724 0 9113.0652230493724 333288.40213903971 0 0 0 0 -45305032.249542236 -61559820.068033218 0 -61559820.068033218 13005106.814584732 0 0 0 0 -22727545.351940155 23762174.845714808 0 23762174.845714808 -15816965.394668579 0 0 0 0 42864511.582489014 -22581889.792401314 0 -22581889.792401314 1089515.915561676 0 0 0 0 5044200.5547637939 -4703893.866894722 0 -4703893.866894722 -7355385.6090660095 0 0 0 0 14558188.132595062 -36798489.0679214 0 -36798489.0679214 14897663.997709274 0 0 0 0 29143871.776641846 -44005164.109453201 0 -44005164.109453201 10853643.536752701 0 0 0 0 63141577.35710144 -33945741.384246826 0 -33945741.384246826 19132983.673311234 0 0 0 0 42428073.375473022 -57694025.843623161 0 -57694025.843623161 19784324.094899178 0 0 0 0 -5209860.4827709794 -11087459.451363303 0 -11087459.451363303 9881487.4549764898 0 0 0 0 4359384.3267441094 -6654433.2068428285 0 -6654433.2068428285 -7225593.9221749194 0 0 0 0 13349175.884011999 -11633349.89523356 0 -11633349.89523356 -14629103.861425372 0 0 0 0 30667667.955062866 -29819956.120196491 0 -29819956.120196491 8873564.4392119646 0 0 0 0 11872846.81288147 -24021826.008390427 0 -24021826.008390427 34187727.575902939 0 0 0 0 24603273.973083496 -41156347.182225227 0 -41156347.182225227 37715287.168815374 0 0 0 0 35079670.835746765 -39576499.695598602 0 -39576499.695598602 7667526.5759124756 0 0 0 0 -4282860.9862002023 -13304604.476475053 0 -13304604.476475053 13745313.031843206 0 0 0 0 11077326.032775879 -18648496.520265013 0 -18648496.520265013 27990255.180021107 0 0 0 0 6483441.3009971008 -6683163.863705717 0 -6683163.863705717 -14072833.176654102 0 0 0 0 27132325.809936523 -28804624.577013135 0 -28804624.577013135 6086975.3212462664 0 0 0 0 14490450.622390747 -29007517.640276432 0 -29007517.640276432 24100003.83249855 0 0 0 0 57053148.828369141 14476189.220020294 0 14476189.220020294 -62876049.890144348 0 0 0 0 4721921.84878847 -19561344.662315696 0 -19561344.662315696 4010800.6756659634 0 0 0 0 868477.72979607433 493305.60260473937 0 493305.60260473937 -2176830.1414141748 0 0 0 0 9159431.9738922119 -18655577.448861957 0 -18655577.448861957 -34483989.133197784 0 0 0 0 -27047401.475891113 -14617352.7085495 0 -14617352.7085495 -2901061.4819488525 0 0 0 0 -1486101.3632202148 -12649639.182125092 0 -12649639.182125092 -37817068.534118652 0 0 0 0 -3198303.5114028603 -1522988.3224858828 0 -1522988.3224858828 -7623918.4180080518 0 0 0 0 426897.78161621094 3746499.958656311 0 3746499.958656311 -39041805.053077698 0 0 0 0 3112734.4974517822 -37986278.083473206 0 -37986278.083473206 28339319.743330002 0 0 0 0 8510670.9395141602 -10227998.42931366 0 -10227998.42931366 2760177.9349961281 0 0 0 0 428751.17746316642 -9889059.8749529943 0 -9889059.8749529943 -3789094.6819693595 0 0 0 0 8144761.0790710449 -18093594.772844315 0 -18093594.772844315 26761353.726482391 0 0 0 0 4385239.5566872805 -4150950.6086946209 0 -4150950.6086946209 -13168102.670516683 0 0 0 0 4791969.2202148438 -8970604.8130874634 0 -8970604.8130874634 7250988.8928108215 0 0 0 0 2402847.9074629992 -6652325.7482466362 0 -6652325.7482466362 562093.27035936527 0 0 0 0 2557178.028814286 -9296142.5146617182 0 -9296142.5146617182 1082154.8653650712 0 0 0 0 14939850.00592041 -20727115.705734253 0 -20727115.705734253 -6787570.9141769409 0 0 0 0 451417.80291329324 -1252196.2229505987 0 -1252196.2229505987 -2390454.0340992068 0 0 0 0 -1632139.2064208984 -25007127.812602997 0 -25007127.812602997 32930513.174971581 0 0 0 0 13828488.332962036 -7724065.637919426 0 -7724065.637919426 -24689024.592450619 0 0 0 0 -29562392.34425354 -30354309.69329834 0 -30354309.69329834 35115408.862995148 0 0 0 0 -32928051.516910553 -67123631.189034104 0 -67123631.189034104 122542191.70576096 0 0 0 0 -489379.52264229208 -10990844.72764872 0 -10990844.72764872 -4441443.1094653178 0 0 0 0 36682287.79309082 -110698938.03629494 0 -110698938.03629494 39978798.870788574 0 0 0 0 -26619103.239044189 -12753991.564524651 0 -12753991.564524651 29258920.808010101 0 0 0 0 -31245374.16519165 -75149410.994524956 0 -75149410.994524956 72563068.062587738 0 0 0 0 -1593431.8780089356 261335.02769650146 0 261335.02769650146 922797.08278427273 0 0 0 0 74283762.104660034 24414131.515239716 0 24414131.515239716 -57319089.754188538 0 0 0 0 2320189.1847124547 -17127568.012259677 0 -17127568.012259677 -5860066.9159806883 0 0 0 0 29957259.336120605 -31753952.566890717 0 -31753952.566890717 -7779944.8712539673 0 0 0 0 3617493.5048312843 -20534849.061982099 0 -20534849.061982099 1263980.9482902624 0 0 0 0 5089881.4859466553 -48486947.866039753 0 -48486947.866039753 -2572593.8876903057 0 0 0 0 15189135.802032471 -86197516.708897114 0 -86197516.708897114 16148434.607711554 0 0 0 0 5092273.0364074707 -51485768.544664145 0 -51485768.544664145 -52100532.503785133 0 0 0 0 -23254446.007614136 -26417862.923410892 0 -26417862.923410892 182174.29459476471 0 0 0 0 -32890451.065887451 -63812269.737609863 0 -63812269.737609863 7032743.4431533813 0 0 0 0 -43833123.386413574 -10460727.056629181 0 -10460727.056629181 5614821.7878795862 0 0 0 0 -53572539.147979736 -5615000.3595204353 0 -5615000.3595204353 7011524.0665893555 0 0 0 0 -864761.27769885585 508082.28639247268 0 508082.28639247268 117357.46804539301 0 0 0 0 -4605971.4227600098 6813218.4837427139 0 6813218.4837427139 -18359921.363334656 0 0 0 0 -31300772.207855225 -4700643.0363521576 0 -4700643.0363521576 -4829762.852514267 0 0 0 0 -44337966.057434082 762197.22230911255 0 762197.22230911255 -401005.81866073608 0 0 0 0 -31877351.82780838 -4452071.6217522621 0 -4452071.6217522621 -948477.33623504639 0 0 0 0 4303355.461195007 -11919960.097571455 0 -11919960.097571455 367038.53240691591 0 0 0 0 -5774294.04296875 -24270955.303419113 0 -24270955.303419113 1795171.141002655 0 0 0 0 -29948788.738725662 -15121354.636430502 0 -15121354.636430502 887087.30145645142 0 0 0 0 12458348.40447998 5787273.5483112335 0 5787273.5483112335 -37495405.55591774 0 0 0 0 -34680632.297973633 -8577714.9026699066 0 -8577714.9026699066 14263941.464458466 0 0 0 0 -3341418.8442077637 -24920020.769788265 0 -24920020.769788265 10904230.661510468 0 0 0 0 -6523486.9757080078 -11680223.897165298 0 -11680223.897165298 173112.73875045776 0 0 0 0 7932984.2950897217 -7789487.3768043518 0 -7789487.3768043518 -27983.417823791504 0 0 0 0 5704584.6208496094 -5403996.3608932495 0 -5403996.3608932495 2374230.8983535767 0 0 0 0 -847363.86336043477 -1718420.3779250011 0 -1718420.3779250011 842846.400708206 0 0 0 0 -24555431.445587158 -18763708.191243172 0 -18763708.191243172 1510902.518986702 0 0 0 0 -2423013.6184515543 -103908.40085873008 0 -103908.40085873008 28901.540219143033 0 0 0 0 -3883004.3095296994 -364556.62471027672 0 -364556.62471027672 1536935.6329066548 0 0 0 0 -37639696.184616089 -11382559.763439655 0 -11382559.763439655 9561803.9709625244 0 0 0 0 -30318612.258514404 -8487627.6641464233 0 -8487627.6641464233 3576190.6956281662 0 0 0 0 567163.41323852539 -1014010.7232046127 0 -1014010.7232046127 -2483078.3153762817 0 0 0 0 2876062.9441963732 95312.04130362533 0 95312.04130362533 -1883400.1269012582 0 0 0 0 -3793413.0308685303 -17200332.601198196 0 -17200332.601198196 -24198734.924722672 0 0 0 0 250215.40957641602 -1698923.9982757568 0 -1698923.9982757568 -3550371.0409708023 0 0 0 0 472486.21716308594 -2031510.6172676086 0 -2031510.6172676086 -3870574.2410125732 0 0 0 0 21628232.022460938 -13140661.260540009 0 -13140661.260540009 -3596742.9389266968 0 0 0 0 5196632.9965309948 -2509098.5588220078 0 -2509098.5588220078 -974125.28014317085 0 0 0 0 14424.150984063745 -3373549.2493069433 0 -3373549.2493069433 -1861096.2292249724 0 0 0 0 149574.41384887695 -2132871.833360672 0 -2132871.833360672 -3549577.077495575 0 0 0 0 28903845.533050537 -4118675.9019327164 0 -4118675.9019327164 40796715.455659866 0 0 0 0 385151.14209555835 -9469333.8384317532 0 -9469333.8384317532 -1026947.3567273067 0 0 0 0 3043596.2779825777 -2405704.9734154791 0 -2405704.9734154791 1136153.6988618374 0 0 0 0 20546753.529174805 -24315562.727128983 0 -24315562.727128983 -7923731.2785377502 0 0 0 0 19405391.418113708 -33311986.674030066 0 -33311986.674030066 -6162080.5537757874 0 0 0 0 20349443.496704102 -3356986.7150850296 0 -3356986.7150850296 -64095809.862830162 0 0 0 0 7840219.4730834961 -4518823.0282883644 0 -4518823.0282883644 10076065.150808334 0 0 0 0 9194335.6396789551 1997084.8291835785 0 1997084.8291835785 -5269429.0846939087 0 0 0 0 126718.08339245617 -793814.03779548407 0 -793814.03779548407 1059934.4091428109 0 0 0 0 -25413078.808746338 -49787418.231507301 0 -49787418.231507301 18261978.989006281 0 0 0 0 -19167810.606300354 -73532273.71295774 0 -73532273.71295774 -66474141.316762924 0 0 0 0 23184831.786682129 -39431522.566911936 0 -39431522.566911936 -158913425.09615329 0 0 0 0 -43806090.621231079 14853769.408171177 0 14853769.408171177 -49211988.459769249 0 0 0 0 28892528.886932373 12132430.333529949 0 12132430.333529949 -148572471.15021706 0 0 0 0 40178557.053771973 -26859686.974694967 0 -26859686.974694967 -172324479.24798894 0 0 0 0 -5466899.3841934204 -57184371.631017089 0 -57184371.631017089 -109723806.24870396 0 0 0 0 320627.78530883789 -92219395.471655846 0 -92219395.471655846 117801180.55092907 0 0 0 0 -1138078.8848172724 1350600.5071382932 0 1350600.5071382932 1053036.2407247787 0 0 0 0 6924083.8883361816 -42168129.568636417 0 -42168129.568636417 75829564.022258282 0 0 0 0 -2087514.4805811942 2448122.8954712469 0 2448122.8954712469 1922278.2906710424 0 0 0 0 55174647.138641357 -26010665.125332355 0 -26010665.125332355 26379583.803705454 0 0 0 0 1714438.0904083252 -45112202.13955164 0 -45112202.13955164 -363694.42106533051 0 0 0 0 23586409.904388428 -1334208.9402184486 0 -1334208.9402184486 -39048305.15028429 0 0 0 0 -7911827.4241027832 -39057045.454689443 0 -39057045.454689443 81953414.007183433 0 0 0 0 27122183.771026611 -45615429.381490707 0 -45615429.381490707 -98039007.286340714 0 0 0 0 24514027.05039978 -42849346.393449903 0 -42849346.393449903 -65185939.592261314 0 0 0 0 33659656.186035156 -37185994.462468147 0 -37185994.462468147 -88522666.32950592 0 0 0 0 32104429.550689697 -51764987.451820374 0 -51764987.451820374 -132512967.13010693 0 0 0 0 14209412.04397583 -19031423.730386466 0 -19031423.730386466 -23880243.156962588 0 0 0 0 -1010113.2330741882 4603706.3023396805 0 4603706.3023396805 80804802.780237556 0 0 0 0 19792691.271606445 -41767338.548505306 0 -41767338.548505306 -12016680.044554632 0 0 0 0 -4655534.1680831909 -26384429.092915297 0 -26384429.092915297 -11183354.936443329 0 0 0 0 -22308081.513275146 -69645114.135768414 0 -69645114.135768414 -96984775.444896698 0 0 0 0 -64482593.365753174 -31155262.386950493 0 -31155262.386950493 -59162024.425291061 0 0 0 0 -17676606.113220215 11134740.008571625 0 11134740.008571625 -26630261.231410444 0 0 0 0 47202.677353120191 -15301888.862142634 0 -15301888.862142634 -132226060.08386803 0 0 0 0 -27810116.608154297 -78903938.062420845 0 -78903938.062420845 -86036708.798875809 0 0 0 0 -1348273.8262786642 -14847.234833922237 0 -14847.234833922237 1393962.9309033444 0 0 0 0 -20436334.148651123 -31765420.858434677 0 -31765420.858434677 13670260.223638535 0 0 0 0 2694411.3810882568 -55358001.704612732 0 -55358001.704612732 -214617901.15094185 0 0 0 0 1151384.3001403809 -17935625.977778435 0 -17935625.977778435 -89164156.193177223 0 0 0 0 -20899781.10710144 21734684.432691276 0 21734684.432691276 -67945064.13444519 0 0 0 0 -24087281.845703125 75500299.991865158 0 75500299.991865158 -201848827.03521991 0 0 0 0 17647468.63816452 7877185.6515983343 0 7877185.6515983343 4751233.9170951843 0 0 0 0 19822357.220558167 -12079456.622441411 0 -12079456.622441411 42039.440010070801 0 0 0 0 15356777.185424805 4017825.5302524567 0 4017825.5302524567 -4660211.0555458069 0 0 0 0 -22386460.855300903 -14747667.695392609 0 -14747667.695392609 -8567058.591835022 0 0 0 0 -9941991.7331848145 2818853.8235769272 0 2818853.8235769272 6598663.7228031158 0 0 0 0 2920331.9741516113 2931627.4251594543 0 2931627.4251594543 -7602715.910336256 0 0 0 0 -52271.478057861328 -6210983.6675367355 0 -6210983.6675367355 -24209450.738992691 0 0 0 0 -171250.84353637695 -15523620.181598663 0 -15523620.181598663 -47965779.933685303 0 0 0 0 2781817.1759338379 -31012705.140067101 0 -31012705.140067101 -54117145.893419266 0 0 0 0 4048861.5960998535 -23765752.790822029 0 -23765752.790822029 -18705565.049135208 0 0 0 0 21119761.137947083 -31021765.143821478 0 -31021765.143821478 -80658598.765628815 0 0 0 0 24833388.550682068 -24506370.990817547 0 -24506370.990817547 -96803537.775215149 0 0 0 0 21617416.60043335 -24485448.889252663 0 -24485448.889252663 -89853915.808990002 0 0 0 0 19363049.748306274 -39114831.613042831 0 -39114831.613042831 -139868248.35718155 0 0 0 0 11192492.41986084 23099712.971019745 0 23099712.971019745 -121321588.74883747 0 0 0 0 14142112.811889648 1351533.8213329315 0 1351533.8213329315 -69032191.564941406 0 0 0 0 13795545.918945312 1405880.3597507477 0 1405880.3597507477 -66147760.656946182 0 0 0 0 3526040.5877075195 -10627676.391122341 0 -10627676.391122341 -57721035.646354675 0 0 0 0 262772.57623291016 6333485.9636001587 0 6333485.9636001587 -37021649.191005707 0 0 0 0 -9480137.4906311035 4555592.5775051117 0 4555592.5775051117 1160408.8198394775 0 0 0 0 -471223.01094083488 396489.31117711589 0 396489.31117711589 1049422.3062594491 0 0 0 0 -302706.02752685547 -5608866.5400009155 0 -5608866.5400009155 -34534323.326501846 0 0 0 0 -2858440.7217203379 -202053.69639029726 0 -202053.69639029726 3087271.9219273739 0 0 0 0 20357662.248168945 3367037.3029632568 0 3367037.3029632568 -32689947.6980896 0 0 0 0 8332344.4638671875 -7759574.7878093719 0 -7759574.7878093719 -42211621.902374268 0 0 0 0 4838345.1363525391 20140044.450450897 0 20140044.450450897 -57369504.328336716 0 0 0 0 4370507.1565551758 1504113.5052185059 0 1504113.5052185059 12392782.340246201 0 0 0 0 13443324.804138184 -12150894.644342422 0 -12150894.644342422 14744449.484893799 0 0 0 0 -54323.250222712755 79166.305027499795 0 79166.305027499795 170062.21947128465 0 0 0 0 447103.25900162011 -85099.998941171914 0 -85099.998941171914 -434747.76470011473 0 0 0 0 3311479.4805908203 -19774409.905059814 0 -19774409.905059814 -863810.67054176331 0 0 0 0 -17262798.590332031 -14142951.982788086 0 -14142951.982788086 7674909.3860931396 0 0 0 0 5421115.2003173828 2160740.2778282166 0 2160740.2778282166 1007836.1171188354 0 0 0 0 12697505.407226562 8838369.4364929199 0 8838369.4364929199 6202004.2960181236 0 0 0 0 -1633451.5469850153 -291932.53787631169 0 -291932.53787631169 3253103.1286005229 0 0 0 0 -564374.40177290142 877371.06138241477 0 877371.06138241477 965256.32094630739 0 0 0 0 -925846.05926513672 1313641.1776123047 0 1313641.1776123047 1109835.1413650513 0 0 0 0 -238570.70165489614 1106782.4003134519 0 1106782.4003134519 -1560456.9897707431 0 0 0 0 -175732.10375976562 1215180.5721302032 0 1215180.5721302032 -7800503.1161613464 0 0 0 0 1037000.1228027344 358096.14247131348 0 358096.14247131348 564193.07509613037 0 0 0 0 1519860.9656475335 163618.6576324515 0 163618.6576324515 -2138869.5132769058 0 0 0 0 6148569.7375946045 -3100478.2155990601 0 -3100478.2155990601 -39831364.918437958 0 0 0 0 1948451.0291366577 -8748874.7806708813 0 -8748874.7806708813 -37601877.651115417 0 0 0 0 -2467815.7400283813 -523818.05073094741 0 -523818.05073094741 1040917.8844004492 0 0 0 0 -1502803.7296905518 395775.61408233643 0 395775.61408233643 4826305.3361129761 0 0 0 0 8576753.9778137207 -51472103.819595337 0 -51472103.819595337 93893399.773342133 0 0 0 0 -8925209.7190856934 -4182389.9663515091 0 -4182389.9663515091 4623038.4650497437 0 0 0 0 -73798.397735595703 1688.9050312042236 0 1688.9050312042236 1568500.727306366 0 0 0 0 -3144155.4215387106 608496.6038275212 0 608496.6038275212 3553777.4116078485 0 0 0 0 2058942.4473529011 3163980.4392953943 0 3163980.4392953943 -2101930.6252817707 0 0 0 0 -31977463.00793457 10916852.647624969 0 10916852.647624969 83204518.121244431 0 0 0 0 -169721345.0411377 63843447.981723785 0 63843447.981723785 49012400.975453854 0 0 0 0 -18268827.280736923 96950056.081695318 0 96950056.081695318 44064228.865819931 0 0 0 0 -79687917.301055908 -104436044.98173332 0 -104436044.98173332 -68216392.68911171 0 0 0 0 -28721732.697235107 14246944.40537262 0 14246944.40537262 33058301.55245018 0 0 0 0 -74274992.473236084 -55237490.022264481 0 -55237490.022264481 94813335.625213623 0 0 0 0 -49250909.477874756 8419397.2543544769 0 8419397.2543544769 -44165672.983680725 0 0 0 0 87937588.182556152 -51010749.116512299 0 -51010749.116512299 -43250395.089385986 0 0 0 0 1707932.806761384 3442932.5673113004 0 3442932.5673113004 -1061629.160916741 0 0 0 0 -9187111.3260803223 -7307805.2606153488 0 -7307805.2606153488 -8444619.8109970093 0 0 0 0 -4973306.3178253174 3582346.0297927856 0 3582346.0297927856 17119460.215093613 0 0 0 0 1541437.44415012 3059884.0750817028 0 3059884.0750817028 -689885.05678391363 0 0 0 0 27624.364196777344 4322085.0641765594 0 4322085.0641765594 -1767608.509765625 0 0 0 0 51920058.503761292 71887799.00701952 0 71887799.00701952 50725702.103609085 0 0 0 0 -4973306.3178405762 -6203958.0660800934 0 -6203958.0660800934 2274216.1504201889 0 0 0 0 3238809.219361648 -982343.14541227371 0 -982343.14541227371 -3052543.63402595 0 0 0 0 31862.700531005859 -9815265.1950740814 0 -9815265.1950740814 -6416576.5017681122 0 0 0 0 -24977.499603271484 -9853530.4207057953 0 -9853530.4207057953 -6395167.0853157043 0 0 0 0 3713365.6960845143 -881771.5614046827 0 -881771.5614046827 -3680352.0022593513 0 0 0 0 105128440.37876892 62774189.101856232 0 62774189.101856232 114270180.55709457 0 0 0 0 99705520.665950775 28328562.354228973 0 28328562.354228973 -94754257.591072083 0 0 0 0 1997086.2671890259 -131082553.93309021 0 -131082553.93309021 27036542.597034454 0 0 0 0 29901261.518188477 -63777657.663511276 0 -63777657.663511276 183035611.20996857 0 0 0 0 157424.50347829337 -55757228.817502283 0 -55757228.817502283 223906412.79573059 0 0 0 0 46871231.075958252 -75537737.13319397 0 -75537737.13319397 145504231.6403327 0 0 0 0 -529910.29904451966 1039078.3135097586 0 1039078.3135097586 -273433.87354585156 0 0 0 0 -58485690.883972168 51435830.376148224 0 51435830.376148224 18669212.263327003 0 0 0 0 16664532.016342163 -14171904.304199219 0 -14171904.304199219 -230874527.98690796 0 0 0 0 -139069120.9693222 401507.07448101044 0 401507.07448101044 72811371.814987183 0 0 0 0 68566601.963806152 -130128044.02877235 0 -130128044.02877235 122606909.21650314 0 0 0 0 -116155583.06835938 -1114730.6900501251 0 -1114730.6900501251 17292174.519275665 0 0 0 0 -2446679.994934082 16138965.759449005 0 16138965.759449005 7663481.998046875 0 0 0 0 3606401.5987867564 -3314267.2934583183 0 -3314267.2934583183 -1784985.5708777625 0 0 0 0 -46761224.67755127 -81748663.249597549 0 -81748663.249597549 -72060717.84967041 0 0 0 0 -24978101.984436035 13116489.393665314 0 13116489.393665314 -25033164.145778656 0 0 0 0 51681367.951843262 19313496.859558105 0 19313496.859558105 -92799559.355666161 0 0 0 0 -2281457.3777923584 -90610135.664241314 0 -90610135.664241314 16418466.73090744 0 0 0 0 -51943411.615219116 -16852286.280488968 0 -16852286.280488968 71072673.344280243 0 0 0 0 -1448973.4507823288 124053.66422030516 0 124053.66422030516 -1109903.2189357714 0 0 0 0 -10018951.022216797 -16289646.81464386 0 -16289646.81464386 69508909.942050934 0 0 0 0 11139644.993743896 -32397204.699226379 0 -32397204.699226379 3210392.6564178467 0 0 0 0 -7779015.6136398464 -4477585.1088002324 0 -4477585.1088002324 2014907.8104276399 0 0 0 0 1846712.3275488168 -7130955.8694563471 0 -7130955.8694563471 -1800465.605146734 0 0 0 0 -9852542.9370422363 -36501269.995491028 0 -36501269.995491028 -32421432.970031738 0 0 0 0 -15610024.792133331 -31144038.19106698 0 -31144038.19106698 -10256113.29499054 0 0 0 0 3090051.0521001965 -4329350.0989579279 0 -4329350.0989579279 -3113692.755890701 0 0 0 0 -31995977.997875214 -52909400.958364367 0 -52909400.958364367 4714888.3846130371 0 0 0 0 -32034807.05456543 4495968.3741493225 0 4495968.3741493225 92986753.677070618 0 0 0 0 -465386.49721971154 -810053.29184813239 0 -810053.29184813239 58694.227958923206 0 0 0 0 23345654.704986572 11652140.724025726 0 11652140.724025726 44803311.863559723 0 0 0 0 -2380226.5762634277 -12463571.102542877 0 -12463571.102542877 48251918.576088905 0 0 0 0 -27993163.328155518 31038788.822982788 0 31038788.822982788 170509792.17317486 0 0 0 0 -38017563.997192383 -2360662.9243202209 0 -2360662.9243202209 99053287.517189026 0 0 0 0 -41988970.938598633 3784850.3369674683 0 3784850.3369674683 98434047.46315527 0 0 0 0 -49092002.17376709 6520097.8013038635 0 6520097.8013038635 166223601.34848404 0 0 0 0 -23346419.436279297 4536623.8400115967 0 4536623.8400115967 51147422.371566772 0 0 0 0 -20275820.543678284 -8589492.632390976 0 -8589492.632390976 30900246.667129517 0 0 0 0 -24782849.762634277 -29723482.795204163 0 -29723482.795204163 91169247.791625977 0 0 0 0 -25083817.093200684 -17048319.910224915 0 -17048319.910224915 60688730.039756775 0 0 0 0 -5588155.5921936035 -8357286.4944419861 0 -8357286.4944419861 10219282.514812469 0 0 0 0 -30633664.883972168 -13309393.937980652 0 -13309393.937980652 42530511.720199585 0 0 0 0 -7522916.9129217714 -6265988.2256357986 0 -6265988.2256357986 1253362.3894331441 0 0 0 0 -20365011.828765869 -15609879.740970612 0 -15609879.740970612 2498792.7321777344 0 0 0 0 -3955069.060578566 -4381826.6932969391 0 -4381826.6932969391 441765.21292098053 0 0 0 0 -2583980.79296875 -3985030.2156295776 0 -3985030.2156295776 -1383074.6377441883 0 0 0 0 -2538963.735168457 -3938028.0111722946 0 -3938028.0111722946 -1747254.1349487305 0 0 0 0 -3871782.3536734805 -4342007.7828942314 0 -4342007.7828942314 -2651723.0188613422 0 0 0 0 -1784168.3544311523 -3864790.2733726501 0 -3864790.2733726501 4362083.6650238037 0 0 0 0 -2822050.9743652344 -6254641.1402893066 0 -6254641.1402893066 -2437072.6526403427 0 0 0 0 -1230337.3911132812 -4676688.0639038086 0 -4676688.0639038086 -2635728.5030670166 0 0 0 0 -6566674.9147949219 7462835.040599823 0 7462835.040599823 13739399.483840942 0 0 0 0 -22369624.070007324 -9789357.7444763184 0 -9789357.7444763184 31081634.052931786 0 0 0 0 -14476430.301239014 -9102719.1112174988 0 -9102719.1112174988 -20433762.06451416 0 0 0 0 -85617.259145826101 -1171968.603608042 0 -1171968.603608042 -1132296.7449850067 0 0 0 0 -3568807.3793716431 -8935981.1556758881 0 -8935981.1556758881 -6253868.5598449707 0 0 0 0 -3707648.4257559776 -3837550.5699175298 0 -3837550.5699175298 -2240745.8740310669 0 0 0 0 -3869963.513671875 -5528690.0583610535 0 -5528690.0583610535 -3450300.4837970734 0 0 0 0 -4482563.2050025016 -5404628.6176980697 0 -5404628.6176980697 -2647780.699486874 0 0 0 0 -6112350.8711081743 -9275592.5949397422 0 -9275592.5949397422 78184.507323026133 0 0 0 0 -24021.255035415292 -61760.498735681176 0 -61760.498735681176 -52706.838763752952 0 0 0 0 -3318335.7787322998 -12546282.848356247 0 -12546282.848356247 -11822097.312667847 0 0 0 0 -6134313.7571716309 -12582930.339897156 0 -12582930.339897156 1336677.7075195312 0 0 0 0 -2019343.7987365723 -3079698.6817169189 0 -3079698.6817169189 -144289.18564605713 0 0 0 0 -655680.04250892252 -6193187.6856979504 0 -6193187.6856979504 -1480323.484026514 0 0 0 0 -2756939.7479163408 -3006230.6710520238 0 -3006230.6710520238 2594531.5921215508 0 0 0 0 2042877.6299819946 -5896608.8286018372 0 -5896608.8286018372 7501257.7817459106 0 0 0 0 -4954465.5998625234 -5890190.6710234806 0 -5890190.6710234806 -2363830.5490896497 0 0 0 0 -5066216.8239033967 -6104102.7520273626 0 -6104102.7520273626 867048.24078943487 0 0 0 0 -8353050.6171569824 -22567149.088844299 0 -22567149.088844299 7770300.6051177979 0 0 0 0 -5011525.1560668945 -22914854.667598724 0 -22914854.667598724 -4351300.0823287964 0 0 0 0 -300870.25524526834 -3702294.6336924732 0 -3702294.6336924732 3272931.9624965396 0 0 0 0 -198986.26116943359 -2505718.0706558228 0 -2505718.0706558228 2136697.2072048187 0 0 0 0 -214899.46850585938 -3739630.6401367188 0 -3739630.6401367188 7429747.7974243164 0 0 0 0 -2401974.4502123743 -6038632.6808494087 0 -6038632.6808494087 -3012850.9900021125 0 0 0 0 -1720807.6828613281 -4310444.1999664307 0 -4310444.1999664307 4659720.5271911621 0 0 0 0 -2782363.5785292387 -5837885.4017060846 0 -5837885.4017060846 -1362289.8273152187 0 0 0 0 -1613081.7280807495 -4917256.8670635223 0 -4917256.8670635223 2990252.460144043 0 0 0 0 -243287.90586709976 -3341002.6090619378 0 -3341002.6090619378 3156126.9956754418 0 0 0 0 -1350204.9445800781 -3769460.8483963013 0 -3769460.8483963013 218565.14438247681 0 0 0 0 -1065035.2929077148 -2737007.0175361633 0 -2737007.0175361633 -1036410.7634315491 0 0 0 0 -3775250.2034912109 -5035019.4155426025 0 -5035019.4155426025 -2060905.3151016235 0 0 0 0 -5961127.1074663661 -3622709.5572132096 0 -3622709.5572132096 -478962.29670931399 0 0 0 0 -5840020.2113101631 -5942237.7354747728 0 -5942237.7354747728 -3006613.2926047072 0 0 0 0 -1060035.5684661865 -3222775.5951690674 0 -3222775.5951690674 -1289290.5364379883 0 0 0 0 -1488452.6262207031 -2144323.0122528076 0 -2144323.0122528076 -1137517.3302001953 0 0 0 0 -5339733.8812175915 -4453863.4155607745 0 -4453863.4155607745 -2666436.6343346015 0 0 0 0 -3409552.2169870138 -4501739.5186418742 0 -4501739.5186418742 -3245665.0180184413 0 0 0 0 -539411.40390913188 -3155883.5006574728 0 -3155883.5006574728 2144872.7060345793 0 0 0 0 1036317.5879814923 -3791011.8647439107 0 -3791011.8647439107 1531426.2316999137 0 0 0 0 1649555.7237548828 -3744029.4834480286 0 -3744029.4834480286 -739396.97620391846 0 0 0 0 1840293.7102050781 -3419174.4380683899 0 -3419174.4380683899 -846655.29297637939 0 0 0 0 1406875.9443969727 -2962178.8757362366 0 -2962178.8757362366 368017.72484207153 0 0 0 0 1844672.2181586027 -3505379.4864309095 0 -3505379.4864309095 221018.74765942805 0 0 0 0 -5147810.4335748218 -4482356.866688028 0 -4482356.866688028 -925578.78277522139 0 0 0 0 -385316.42303466797 -2735438.6035614014 0 -2735438.6035614014 1908156.1478385925 0 0 0 0 -1635156.6540679932 -4141630.6824493408 0 -4141630.6824493408 -1505190.1578063965 0 0 0 0 -7333993.095392406 -6759767.1512695551 0 -6759767.1512695551 -1860065.2364890464 0 0 0 0 -2880711.9788955301 -9370934.1937432699 0 -9370934.1937432699 3098063.3957897443 0 0 0 0 769530.71225643158 -3734109.8420573212 0 -3734109.8420573212 3098074.9266220257 0 0 0 0 -7940968.9804840088 -13675935.519990921 0 -13675935.519990921 214000.81680512428 0 0 0 0 -6251126.2828524262 -1545441.8149174899 0 -1545441.8149174899 3025358.4189402517 0 0 0 0 -4614248.1261864156 -2158316.4002225138 0 -2158316.4002225138 -1621958.043261555 0 0 0 0 -36611107.921691895 -16911364.896568298 0 -16911364.896568298 -1899026.3777313232 0 0 0 0 -3948059.3482818604 -1849840.8163075447 0 -1849840.8163075447 28311.029037475586 0 0 0 0 -2778128.5976637052 -3431427.0110361651 0 -3431427.0110361651 -3608114.4131672624 0 0 0 0 -15059828.614501953 -32012112.459582329 0 -32012112.459582329 -14027945.614166975 0 0 0 0 1475945.1547679529 -3209176.5474656001 0 -3209176.5474656001 1146525.1818697844 0 0 0 0 -4741193.2286372408 -5412835.714763023 0 -5412835.714763023 -571051.03161651827 0 0 0 0 2653104.5145187378 -3372379.8090615273 0 -3372379.8090615273 1137011.3791542053 0 0 0 0 1010678.7064899802 -6730368.7654633448 0 -6730368.7654633448 669586.00434298255 0 0 0 0 2177075.3432006836 -4290077.7411670685 0 -4290077.7411670685 1178315.5658168793 0 0 0 0 3898361.6270751953 -6867426.5620956421 0 -6867426.5620956421 5770307.4849853516 0 0 0 0 1540377.9910797775 -2850969.1887475289 0 -2850969.1887475289 1421409.6958128372 0 0 0 0 2329106.9179210663 -3717313.0264120102 0 -3717313.0264120102 -606113.3757019043 0 0 0 0 -5025753.3752899021 -2445689.3472012766 0 -2445689.3472012766 3116640.8998181447 0 0 0 0 883749.82779693604 -2796592.204266075 0 -2796592.204266075 1240213.346357177 0 0 0 0 740286.36797332764 -7879301.1937866211 0 -7879301.1937866211 23718824.612258911 0 0 0 0 -4958259.3046875 11356370.655105591 0 11356370.655105591 36209473.225074768 0 0 0 0 -15029593.400512695 -9335489.4922332764 0 -9335489.4922332764 24518815.925998688 0 0 0 0 231304.85925292969 -2785708.1398658752 0 -2785708.1398658752 128022.8642578125 0 0 0 0 -45086.262047246099 -743138.07010376453 0 -743138.07010376453 1547433.9697031155 0 0 0 0 -3447564.5624901056 -3346519.6142517291 0 -3346519.6142517291 1895845.5216729925 0 0 0 0 -5042752.393371582 -3269393.9551544189 0 -3269393.9551544189 2683449.2987976074 0 0 0 0 -1667492.7699584961 -8609725.6358146667 0 -8609725.6358146667 -3375440.9380016327 0 0 0 0 -761796.3296026662 -229342.28985309601 0 -229342.28985309601 92912.352261219174 0 0 0 0 -28600094.194320679 -6665917.5303964615 0 -6665917.5303964615 31841140.443267822 0 0 0 0 -32389160.636657715 27054581.762798309 0 27054581.762798309 9212105.5400619507 0 0 0 0 60476376.27922821 -132982333.71334529 0 -132982333.71334529 642583.55825805664 0 0 0 0 -1507351.4406766146 225934.88932376355 0 225934.88932376355 1599871.5183173753 0 0 0 0 -5645090.7485351562 24928213.090251923 0 24928213.090251923 3328587.5086072683 0 0 0 0 -27113267.676986694 -35400594.440541267 0 -35400594.440541267 7843610.1354293823 0 0 0 0 -50398563.571670532 -9965424.4048690796 0 -9965424.4048690796 17336277.449333191 0 0 0 0 -25866752.708129883 -22291247.321826935 0 -22291247.321826935 148399.6759853363 0 0 0 0 -14969580.431411743 -9570341.540599823 0 -9570341.540599823 13492826.480392456 0 0 0 0 -26361564.251708984 -14043715.004459381 0 -14043715.004459381 25985220.824752808 0 0 0 0 -16334785.974914551 -4421956.2923736572 0 -4421956.2923736572 18101632.713882446 0 0 0 0 -28919701.344192505 -307301345.65423965 0 -307301345.65423965 88178515.440122604 0 0 0 0 -89270888.745353699 -292138455.07057953 0 -292138455.07057953 84709178.341896057 0 0 0 0 -127545386.10219193 -253126286.09737253 0 -253126286.09737253 213926166.04239273 0 0 0 0 -176643852.09539032 -318767236.12730598 0 -318767236.12730598 181458106.60972977 0 0 0 0 -94261754.090965271 -216902323.80273628 0 -216902323.80273628 242121560.46903229 0 0 0 0 -169483998.24930573 -219287660.88492393 0 -219287660.88492393 318675436.77815628 0 0 0 0 -143835870.08891106 -219571977.87046909 0 -219571977.87046909 264143707.17362976 0 0 0 0 -192330428.26847076 -316978020.91883469 0 -316978020.91883469 182266355.83530426 0 0 0 0 -243531348.80751038 -350611650.76486778 0 -350611650.76486778 98893576.137686729 0 0 0 0 -181462654.25526428 -344316507.50132561 0 -344316507.50132561 95576153.919239044 0 0 0 0 -214759537.16717529 -447130078.50226021 0 -447130078.50226021 33489545.322124958 0 0 0 0 -101532950.93326092 -383167021.21120238 0 -383167021.21120238 32919127.463497162 0 0 0 0 -94285126.359481812 -360624217.22301006 0 -360624217.22301006 52873830.057159424 0 0 0 0 14163168.682937622 -361423271.32813263 0 -361423271.32813263 -21291508.640611649 0 0 0 0 13278541.85395813 -366192134.69543076 0 -366192134.69543076 -46979595.723093033 0 0 0 0 50324308.082824707 -337383426.8172493 0 -337383426.8172493 -26118393.081626892 0 0 0 0 83974559.263961792 -310118550.0249157 0 -310118550.0249157 -66890549.239416122 0 0 0 0 52676950.019767761 -307076878.5208149 0 -307076878.5208149 -47873288.3203125 0 0 0 0 55867601.606589317 -312375260.33654332 0 -312375260.33654332 -53768135.71307373 0 0 0 0 43826078.366340637 -303484958.30581856 0 -303484958.30581856 -49075386.65294838 0 0 0 0 52035860.417388916 -249785795.26031113 0 -249785795.26031113 -23211427.647266388 0 0 0 0 54410611.410701752 -261260335.82496262 0 -261260335.82496262 -85234956.48191452 0 0 0 0 -1854596.0539779663 -241986126.59457588 0 -241986126.59457588 40578710.399009228 0 0 0 0 -28714332.501171112 -313226354.45485592 0 -313226354.45485592 50994995.398403168 0 0 0 0 15531990.186706543 -322321336.19264984 0 -322321336.19264984 -31347885.586539268 0 0 0 0 -29949054.240749359 -224231816.77254772 0 -224231816.77254772 160602549.75455475 0 0 0 0 6662634.2380867004 -241202525.0133009 0 -241202525.0133009 -4996913.3781089783 0 0 0 0 38808225.204322815 -158526372.169384 0 -158526372.169384 58134947.842302322 0 0 0 0 42925351.399352074 -174762232.05570865 0 -174762232.05570865 -94421420.481483459 0 0 0 0 33615855.46698761 -49707243.524503708 0 -49707243.524503708 132851839.2509613 0 0 0 0 -18242225.559574127 -100209931.29038739 0 -100209931.29038739 180795484.93684006 0 0 0 0 -4583093.2753143311 -127786042.6059761 0 -127786042.6059761 41189992.166238785 0 0 0 0 -76122345.925605774 -77950508.762461662 0 -77950508.762461662 316902934.52933502 0 0 0 0 -32366111.180007935 -102756220.7340374 0 -102756220.7340374 193192086.1373024 0 0 0 0 -79591810.066650391 -208467504.63431549 0 -208467504.63431549 157986044.9250288 0 0 0 0 -55353327.493026733 -165277317.28886127 0 -165277317.28886127 234885437.04565048 0 0 0 0 -77329826.921203613 -120133185.578125 0 -120133185.578125 336590993.6408844 0 0 0 0 -63026205.377349854 -86251661.887285233 0 -86251661.887285233 296979736.73200703 0 0 0 0 -108431511.28188324 -150107104.50761223 0 -150107104.50761223 316122286.49146271 0 0 0 0 -122140623.81308746 -118627405.33882713 0 -118627405.33882713 377478086.84626007 0 0 0 0 -69598210.232206345 -33501776.56649971 0 -33501776.56649971 424297081.60924911 0 0 0 0 -3219842.9921951294 14467863.51206398 0 14467863.51206398 256048385.78161812 0 0 0 0 -2237027.6728210449 86598871.35216713 0 86598871.35216713 429043699.43090916 0 0 0 0 -12369045.51020813 77686936.710533142 0 77686936.710533142 457637152.48042488 0 0 0 0 1790255741.49086 -2777312293.1536884 0 -2777312293.1536884 -177197377.1391983 0 0 0 0 -34367502.455574036 45372167.688043594 0 45372167.688043594 514477717.36552811 0 0 0 0 -53406323.267440796 -15247003.009208679 0 -15247003.009208679 396685547.27003288 0 0 0 0 2698030.6835174561 41362686.367816925 0 41362686.367816925 497646180.61389923 0 0 0 0 80300362.592697144 118106873.2401886 0 118106873.2401886 475262916.4937458 0 0 0 0 -2559158923.7098999 771334942.35706139 0 771334942.35706139 -2499282251.0817261 0 0 0 0 8641168.6568756104 119562491.91084099 0 119562491.91084099 776241116.4851265 0 0 0 0 7560550.301513359 -3889241.1266848724 0 -3889241.1266848724 752321.32657979708 0 0 0 0 23615203.365207672 226510276.08302784 0 226510276.08302784 771236342.20701981 0 0 0 0 3033719.6806947142 -1162881.4592341855 0 -1162881.4592341855 -166272.97207071306 0 0 0 0 138477594.84162521 213109213.82181358 0 213109213.82181358 560291134.87905121 0 0 0 0 36172913.850219727 140178180.61435604 0 140178180.61435604 608533767.22130585 0 0 0 0 15468306.163726807 75615775.283130646 0 75615775.283130646 566965815.13616562 0 0 0 0 -38958126.949958801 53121575.178874969 0 53121575.178874969 611036590.24567795 0 0 0 0 36681101.920593262 105545942.12264633 0 105545942.12264633 687098776.83667374 0 0 0 0 15791454.658385634 147787315.68998659 0 147787315.68998659 735692396.31833649 0 0 0 0 -17655488.536880493 -97125234.612060547 0 -97125234.612060547 640745663.45378113 0 0 0 0 -32221431.448054314 33685877.427533627 0 33685877.427533627 746617457.51832581 0 0 0 0 -22151485.251064301 -27786332.827220917 0 -27786332.827220917 524141570.75609589 0 0 0 0 -103473732.91612244 -104128343.66565704 0 -104128343.66565704 577432676.85300732 0 0 0 0 -77817201.724975586 -39841095.440746307 0 -39841095.440746307 480729371.46170235 0 0 0 0 -129383348.62133789 -156943449.33007812 0 -156943449.33007812 424353136.31863594 0 0 0 0 -52769241.151455879 -40938347.96664381 0 -40938347.96664381 467016664.67618561 0 0 0 0 209010844.3229599 -135591858.94368553 0 -135591858.94368553 -1637515078.9767647 0 0 0 0 10935832.545632988 -4722450.4783523623 0 -4722450.4783523623 -264401.22971150663 0 0 0 0 -265180492.39000702 32656486.65594101 0 32656486.65594101 -1299724758.6059494 0 0 0 0 358963213.51847839 -1051075773.6399918 0 -1051075773.6399918 -3249102501.8784637 0 0 0 0 35071785.667129517 89246661.685916901 0 89246661.685916901 752818317.35924721 0 0 0 0 34631669.393547058 -26438628.627756119 0 -26438628.627756119 620574257.83272552 0 0 0 0 29177314.885223389 -133101310.1908493 0 -133101310.1908493 958884155.89672327 0 0 0 0 239084355.67046356 -72723511.477687836 0 -72723511.477687836 683688981.58123398 0 0 0 0 158683780.58519745 226940616.88370705 0 226940616.88370705 896180477.2751236 0 0 0 0 196986912.13202286 -392809043.41200733 0 -392809043.41200733 1498224969.7336273 0 0 0 0 13372827.537719727 204497756.71904135 0 204497756.71904135 1752781849.8402824 0 0 0 0 685982778.3949585 -535607534.31812096 0 -535607534.31812096 750931042.37622833 0 0 0 0 3376213.3209936321 -700343.88696476072 0 -700343.88696476072 -285902.93150784634 0 0 0 0 413615456.55664635 15314845.991967201 0 15314845.991967201 222416028.06448746 0 0 0 0 261875757.31204987 -277000523.11462402 0 -277000523.11462402 633039742.72651386 0 0 0 0 167158354.89931107 -64658751.0426507 0 -64658751.0426507 242204562.14279175 0 0 0 0 110970745.05096054 -221748442.09362316 0 -221748442.09362316 392493225.79514313 0 0 0 0 -21432132.86088562 -99295467.481515884 0 -99295467.481515884 639267280.19616175 0 0 0 0 185445586.74854279 -168209787.29159737 0 -168209787.29159737 172910115.53795242 0 0 0 0 122964924.99504852 -39498752.305888176 0 -39498752.305888176 -54131009.174419403 0 0 0 0 234901477.67778778 -73844343.241053581 0 -73844343.241053581 178382113.57506657 0 0 0 0 245107236.65128803 38813799.915277004 0 38813799.915277004 -27700375.489822388 0 0 0 0 -148334561.71734619 -244641372.7661438 0 -244641372.7661438 297174996.49737167 0 0 0 0 -148001108.79507446 -138993110.78324223 0 -138993110.78324223 409759745.01287842 0 0 0 0 -186574369.94537354 -233475731.54109573 0 -233475731.54109573 327821226.51216125 0 0 0 0 -110260694.93608093 -139034770.7545557 0 -139034770.7545557 368000162.15816116 0 0 0 0 -65436816.025154114 -112347661.71003437 0 -112347661.71003437 388529000.23480225 0 0 0 0 -42584882.870071411 -37481631.555670738 0 -37481631.555670738 561320661.65937805 0 0 0 0 -43931807.776123047 -184380874.66914749 0 -184380874.66914749 432756557.16101646 0 0 0 0 -82153296.940818787 -118458872.73008537 0 -118458872.73008537 374877611.89421463 0 0 0 0 -49023864.88494873 -216599878.16891861 0 -216599878.16891861 255238817.99107361 0 0 0 0 9926815.626701355 -77893726.515285492 0 -77893726.515285492 214095959.7192688 0 0 0 0 -13932687.327835083 -163224055.57640457 0 -163224055.57640457 172072224.27752399 0 0 0 0 -32950279.578094482 -101817101.6155138 0 -101817101.6155138 18626668.165977478 0 0 0 0 -224990151.34925079 -145567065.76580429 0 -145567065.76580429 226883307.88455391 0 0 0 0 -157826139.60285187 -247007580.80682945 0 -247007580.80682945 119795370.239151 0 0 0 0 -219205079.95205688 -178008427.58288383 0 -178008427.58288383 248896356.75399208 0 0 0 0 -272136180.46678925 -325359202.6060791 0 -325359202.6060791 208434682.09019566 0 0 0 0 -268450956.06493378 -279353044.72274399 0 -279353044.72274399 -41563619.500789642 0 0 0 0 -419878286.53470993 -210953184.15746307 0 -210953184.15746307 117704713.01107407 0 0 0 0 -449397170.28678894 -237475431.27212524 0 -237475431.27212524 -50821041.413677216 0 0 0 0 -193707578.42763519 -106355089.0252037 0 -106355089.0252037 20660905.494091034 0 0 0 0 -161610320.21929932 -129033121.08037472 0 -129033121.08037472 -114865896.69293213 0 0 0 0 -128744697.58069611 -125046304.2945013 0 -125046304.2945013 -474255338.46579456 0 0 0 0 -574487506.34809303 -193010711.46334386 0 -193010711.46334386 -272678947.8178978 0 0 0 0 -152724988.90496063 -99435106.251457214 0 -99435106.251457214 -185823713.39469337 0 0 0 0 -494181056.78997803 -323184150.94195938 0 -323184150.94195938 -1315826219.9947453 0 0 0 0 -957062703.09466171 -170444784.75012016 0 -170444784.75012016 -234651628.13059616 0 0 0 0 -564990157.07472849 -357482872.39179325 0 -357482872.39179325 -146016242.36105347 0 0 0 0 -517394289.36206055 -10522382.047452927 0 -10522382.047452927 -153833057.82876682 0 0 0 0 148122657.32215309 11225066.003645897 0 11225066.003645897 -209611226.76725769 0 0 0 0 102036252.88602448 -36389447.682014465 0 -36389447.682014465 -60247133.475431442 0 0 0 0 37126969.244342804 -18408816.459177017 0 -18408816.459177017 -227117425.58686066 0 0 0 0 70489438.935287476 -101109670.53159237 0 -101109670.53159237 -53901300.197510086 0 0 0 0 73751804.70022583 -24493185.323374271 0 -24493185.323374271 -231210082.44714355 0 0 0 0 89922462.890197754 -42106552.721765518 0 -42106552.721765518 -213793426.25015736 0 0 0 0 43988204.289886475 -1223694.923784256 0 -1223694.923784256 -46537426.588047028 0 0 0 0 44756821.676633835 10666224.291094303 0 10666224.291094303 -150439415.26119995 0 0 0 0 11258963.045951843 -90131512.535502434 0 -90131512.535502434 -213298164.61500168 0 0 0 0 728912.68902995065 -454209.20753984898 0 -454209.20753984898 -870653.72768571787 0 0 0 0 -267011567.14519882 -117954897.211133 0 -117954897.211133 -218014638.00054932 0 0 0 0 -656294730.42103577 -488895284.18459415 0 -488895284.18459415 -215869001.29516768 0 0 0 0 25745322.363899231 45724175.044039726 0 45724175.044039726 -60574801.49202776 0 0 0 0 1439006.4498376884 -1320113.1164171044 0 -1320113.1164171044 -1454398.6950495392 0 0 0 0 -840170891.57351685 -388328765.24612236 0 -388328765.24612236 -116653861.039011 0 0 0 0 -322297.9997577063 -634650.92437896878 0 -634650.92437896878 -1387803.4019415304 0 0 0 0 -1463211477.6733475 -829763126.9203949 0 -829763126.9203949 -412413040.97500134 0 0 0 0 -473343265.44431305 -547996141.24350739 0 -547996141.24350739 -600599639.91160774 0 0 0 0 -360053113.76981354 -286035322.71147776 0 -286035322.71147776 -186994709.78380585 0 0 0 0 -444862589.73367834 -315307166.53119433 0 -315307166.53119433 -213214267.21578217 0 0 0 0 -438381671.67568207 -290536242.01382732 0 -290536242.01382732 -188574727.63174629 0 0 0 0 -863804.43603326054 -1722415.1829876136 0 -1722415.1829876136 -3798151.1834823228 0 0 0 0 -136845269.7512188 170275629.58148491 0 170275629.58148491 424553755.0417614 0 0 0 0 -1334899.1936144866 -1268799.4022961007 0 -1268799.4022961007 -2320218.0912215207 0 0 0 0 -2389113.8519439697 -6431554.5487308502 0 -6431554.5487308502 -5916632.481903553 0 0 0 0 -81510581.158573151 -98425679.102365494 0 -98425679.102365494 156593624.08275414 0 0 0 0 4268697.9817485809 -57865589.983625889 0 -57865589.983625889 100989831.10599709 0 0 0 0 41635083.60764122 -47039494.019961357 0 -47039494.019961357 -344129482.32339859 0 0 0 0 -99243093.495567322 -74524166.504552841 0 -74524166.504552841 -24560230.176847935 0 0 0 0 68136280.408827543 198730684.716501 0 198730684.716501 -526499537.01216888 0 0 0 0 35984826.078399658 -420901685.41473007 0 -420901685.41473007 -870995263.33115578 0 0 0 0 -633041264.54536438 -668061553.34988117 0 -668061553.34988117 -336384890.74464417 0 0 0 0 -45141654.043403625 -288743905.11512184 0 -288743905.11512184 -187222484.98227882 0 0 0 0 74207445.835910797 -285687286.50318909 0 -285687286.50318909 -287409385.62520027 0 0 0 0 -140393782.4046669 -413769321.03226852 0 -413769321.03226852 -94987735.770339966 0 0 0 0 -73065655.540115356 -447474056.53993034 0 -447474056.53993034 -168314641.9047699 0 0 0 0 -75944190.327485919 -419884882.02246499 0 -419884882.02246499 -54060092.174144745 0 0 0 0 -75603576.086114526 -409613070.19936776 0 -409613070.19936776 -98051295.532764435 0 0 0 0 -189023862.47162628 -522639418.64291191 0 -522639418.64291191 -290650048.5854311 0 0 0 0 -354494031.19618225 -440280679.43046951 0 -440280679.43046951 29540878.679668427 0 0 0 0 -499855058.28346252 -410559794.02384567 0 -410559794.02384567 23584705.212394714 0 0 0 0 112803753.20105648 -351349911.92982149 0 -351349911.92982149 -81310651.011722565 0 0 0 0 125175723.51184464 -292346187.29677105 0 -292346187.29677105 -59742543.663639069 0 0 0 0 52056741.553909302 -378560679.1154995 0 -378560679.1154995 -84944153.817375183 0 0 0 0 43729390.839950562 -363238808.05070114 0 -363238808.05070114 -110365269.78272247 0 0 0 0 102204441.06145477 -265076446.36606121 0 -265076446.36606121 -94568154.975989759 0 0 0 0 70454575.009860992 -314595871.82825232 0 -314595871.82825232 -137128193.16574097 0 0 0 0 141410481.17712784 -331237564.77128506 0 -331237564.77128506 -11137674.084974289 0 0 0 0 575663548.8657608 -342894689.4024086 0 -342894689.4024086 -35037912.223006248 0 0 0 0 -680394.73257808015 -433791.13284452772 0 -433791.13284452772 -474706.01243475545 0 0 0 0 -89825417.891256332 -273955370.56047773 0 -273955370.56047773 424861677.78555298 0 0 0 0 -133992788.47807693 -153650827.93093967 0 -153650827.93093967 99294376.458472252 0 0 0 0 36580547.192047119 -154303531.53693676 0 -154303531.53693676 283153777.11883545 0 0 0 0 1589241827.3034935 -131100492.52641964 0 -131100492.52641964 51233689.442217708 0 0 0 0 706405266.18132782 -781642861.82618523 0 -781642861.82618523 801399335.92822647 0 0 0 0 423587318.38149643 -36907156.364641666 0 -36907156.364641666 45434042.666751862 0 0 0 0 -2087762.6263120845 -3112122.6072171926 0 -3112122.6072171926 21779835.368795387 0 0 0 0 520863284.53581238 -11030345.617801666 0 -11030345.617801666 -10721986.467058182 0 0 0 0 -1281833.4371298999 -8146.5750889927149 0 -8146.5750889927149 7943611.8157412587 0 0 0 0 980722244.1873703 1101863757.6278362 0 1101863757.6278362 555900617.27705574 0 0 0 0 -153391819.09495544 -400320372.62101078 0 -400320372.62101078 -327356659.81311417 0 0 0 0 -563490696.52869415 130447311.3116703 0 130447311.3116703 185486111.1914649 0 0 0 0 11260236.194980875 -17959680.438815579 0 -17959680.438815579 20162205.740819633 0 0 0 0 -526282108.60908985 -434342056.79268003 0 -434342056.79268003 -34517290.237524033 0 0 0 0 103313226.0704422 70235334.872707367 0 70235334.872707367 43500952.940361023 0 0 0 0 -993714.29421390966 -9679418.2741718069 0 -9679418.2741718069 33338937.41390397 0 0 0 0 -52517612.127578735 85084291.192941666 0 85084291.192941666 62238759.513327599 0 0 0 0 -135195875.30458069 -212331177.23421001 0 -212331177.23421001 85977392.848731995 0 0 0 0 -238846552.84304047 -114609675.68395424 0 -114609675.68395424 95587623.412849426 0 0 0 0 6790529.5388641357 -71332797.258846283 0 -71332797.258846283 89608202.357261658 0 0 0 0 201233833.44143677 -14737075.495176315 0 -14737075.495176315 15704078.955337524 0 0 0 0 143753112.38463593 -97976264.639041424 0 -97976264.639041424 -8807132.2364006042 0 0 0 0 142010675.91477966 -279376972.5173912 0 -279376972.5173912 -96108604.539688349 0 0 0 0 246737559.5166626 -153602503.98384762 0 -153602503.98384762 -33538261.771877289 0 0 0 0 373600722.77164078 -232372056.69591808 0 -232372056.69591808 -91022192.674089432 0 0 0 0 271888120.96340942 -39799486.475248337 0 -39799486.475248337 15738500.567281723 0 0 0 0 -256577023.53323364 -338965557.15548706 0 -338965557.15548706 -175900093.38054657 0 0 0 0 -64731825.962097168 -140248335.9471817 0 -140248335.9471817 -60731021.000745773 0 0 0 0 369443494.21612549 -333370538.19190979 0 -333370538.19190979 14332828.621566772 0 0 0 0 -144613.38146972656 -316161045.36135483 0 -316161045.36135483 295944691.99081421 0 0 0 0 160681439.40907288 -408796887.26825714 0 -408796887.26825714 105344741.39380646 0 0 0 0 115395710.35225677 -301527257.18455505 0 -301527257.18455505 48422460.442489624 0 0 0 0 -196271729.71450806 -430335725.96948242 0 -430335725.96948242 82395116.16336441 0 0 0 0 28782969.789093018 -354351385.91270065 0 -354351385.91270065 86432675.545619965 0 0 0 0 231773285.89190674 -290136112.26898193 0 -290136112.26898193 22142302.381695747 0 0 0 0 349736992.431427 -450612558.13769531 0 -450612558.13769531 20046556.024024963 0 0 0 0 204750872.57043457 -287283462.10500336 0 -287283462.10500336 22382200.441894531 0 0 0 0 348488196.04833984 -223129433.0475502 0 -223129433.0475502 -78753203.636044979 0 0 0 0 523795647.01571655 -243741413.39261627 0 -243741413.39261627 -77044417.618821144 0 0 0 0 681193546.20124817 -346248265.31266212 0 -346248265.31266212 -29635193.154541016 0 0 0 0 488365647.18811035 -534746692.29563332 0 -534746692.29563332 297686957.23382568 0 0 0 0 893266918.80392456 -186357316.29776382 0 -186357316.29776382 50762983.741024017 0 0 0 0 688343157.47561967 224319959.98060739 0 224319959.98060739 22587624.450550079 0 0 0 0 1262765917.5746155 94352438.356987 0 94352438.356987 48183247.355162621 0 0 0 0 164520529.98651123 34892244.762613297 0 34892244.762613297 5775023.5126495361 0 0 0 0 158186489.49807739 -19284590.728340149 0 -19284590.728340149 -9410636.2849082947 0 0 0 0 -202575816.66555786 -210828127.92654228 0 -210828127.92654228 93059243.332675934 0 0 0 0 -253019897.20074463 -253630220.5489502 0 -253630220.5489502 119751543.44318771 0 0 0 0 -173704289.66608429 -275681291.16765594 0 -275681291.16765594 109784708.16485596 0 0 0 0 -58999613.522651672 -183701762.11962891 0 -183701762.11962891 -76109335.344734192 0 0 0 0 144029861.40965271 -317247661.6818924 0 -317247661.6818924 11447737.90366745 0 0 0 0 180423708.48339844 58369964.711204529 0 58369964.711204529 -193134255.41632843 0 0 0 0 140267071.18891621 -409033648.51152945 0 -409033648.51152945 -975689829.3626709 0 0 0 0 8976906.9577678554 -7967107.218389146 0 -7967107.218389146 -8063008.4584193826 0 0 0 0 -1415027146.9347076 -2207836445.6840553 0 -2207836445.6840553 -1497790416.398037 0 0 0 0 2538079.5183081403 -5980046.858036872 0 -5980046.858036872 8387218.7994415723 0 0 0 0 -507927045.88523865 297708688.80629301 0 297708688.80629301 1500004093.0281906 0 0 0 0 -2846544639.9166565 -2258103070.5551987 0 -2258103070.5551987 1492562798.7392807 0 0 0 0 4632725791.9647827 -688535538.17348862 0 -688535538.17348862 -2830158976.4745026 0 0 0 0 1273895359.4780731 -582683188.24258232 0 -582683188.24258232 460092735.88465118 0 0 0 0 679435644.43997192 -372967443.21204376 0 -372967443.21204376 2164841993.0726166 0 0 0 0 679391293.09783995 -384468659.28878796 0 -384468659.28878796 457835901.24402618 0 0 0 0 255566395.15576172 -223770264.85214996 0 -223770264.85214996 459634753.83852005 0 0 0 0 551171354.29248047 872064558.84618378 0 872064558.84618378 1472493254.5572968 0 0 0 0 2268029522.4739075 2495849168.1282158 0 2495849168.1282158 2836203812.631155 0 0 0 0 1110644660.7726898 396777139.78618431 0 396777139.78618431 -961825532.86737823 0 0 0 0 6751018.963165164 -11779699.960594472 0 -11779699.960594472 1691442.0815314502 0 0 0 0 128653120.37831116 195746916.98251724 0 195746916.98251724 -808319622.49890232 0 0 0 0 649567589.38327026 404646683.68829155 0 404646683.68829155 -906813085.82530022 0 0 0 0 -78801153.609100342 -101792864.63976288 0 -101792864.63976288 -490736138.78204918 0 0 0 0 -159965769.37802124 274812145.91722488 0 274812145.91722488 109088008.19738007 0 0 0 0 -333634156.45167542 145019708.94392967 0 145019708.94392967 139418037.32994843 0 0 0 0 393330252.08071899 370835169.21333694 0 370835169.21333694 -117541403.68162918 0 0 0 0 243547912.82524109 -279827957.30611515 0 -279827957.30611515 218603771.19082642 0 0 0 0 -249374793.21060181 142512157.36041641 0 142512157.36041641 742607321.33563614 0 0 0 0 -406706549.35169983 175829569.80335236 0 175829569.80335236 151492170.47843933 0 0 0 0 -235876880.40771484 152142115.25527954 0 152142115.25527954 90208243.599319458 0 0 0 0 25619510.901054382 -22831207.898149371 0 -22831207.898149371 5163755.4246959686 0 0 0 0 25411504.455215454 -21182526.337008953 0 -21182526.337008953 9548743.4761698246 0 0 0 0 111657759.06637573 29769310.612798691 0 29769310.612798691 -65423971.161605835 0 0 0 0 78141643.236619949 -115711717.60813189 0 -115711717.60813189 8520319.34217453 0 0 0 0 33497072.329589844 -94465765.495140076 0 -94465765.495140076 114501544.05635071 0 0 0 0 30756554.324180603 -49085227.780540466 0 -49085227.780540466 31264138.465106964 0 0 0 0 59003768.531768799 -31838259.963493347 0 -31838259.963493347 7781137.1990590096 0 0 0 0 28295796.679722488 -14070345.299224654 0 -14070345.299224654 -5973614.0267628282 0 0 0 0 21507815.110214233 -25479163.202087164 0 -25479163.202087164 8567847.7063922882 0 0 0 0 -26466689.801589966 -159439883.56574249 0 -159439883.56574249 128472383.42782331 0 0 0 0 -289682038.31661987 74898781.888957977 0 74898781.888957977 91211252.25592804 0 0 0 0 2795616.2458753884 -2450737.1111092325 0 -2450737.1111092325 -201141.13955998793 0 0 0 0 11235726.618046235 -34612606.476882711 0 -34612606.476882711 32873468.370195586 0 0 0 0 -12612213.914718628 -115851156.11849213 0 -115851156.11849213 41834547.426898956 0 0 0 0 45109221.11827752 -27488435.332604498 0 -27488435.332604498 -9296392.0663589947 0 0 0 0 127641198.6190834 -30633698.587031364 0 -30633698.587031364 -65078463.720901489 0 0 0 0 76561597.050949097 -24508572.88151741 0 -24508572.88151741 -1156306.8138427734 0 0 0 0 7593624.3348274231 -15163249.733501434 0 -15163249.733501434 108427666.42800903 0 0 0 0 94809910.003356934 -135433579.22414017 0 -135433579.22414017 98643273.742588758 0 0 0 0 56877355.308876038 -74101832.838567734 0 -74101832.838567734 1029694.2248916626 0 0 0 0 141230540.94658661 -173392966.5265789 0 -173392966.5265789 -37012106.375083923 0 0 0 0 146679405.53709507 -61133392.843647242 0 -61133392.843647242 -115714706.90500641 0 0 0 0 143837167.87433052 -44674079.607272387 0 -44674079.607272387 10490868.784599304 0 0 0 0 2982373.7805376872 -863943.46093055233 0 -863943.46093055233 -2507786.5366761032 0 0 0 0 222371722.6113472 159500820.64687347 0 159500820.64687347 -353196103.3193512 0 0 0 0 196955788.5703392 138156589.03334808 0 138156589.03334808 -146605470.62391663 0 0 0 0 335351262.05607605 87053735.427005768 0 87053735.427005768 -319150961.92007482 0 0 0 0 379813817.10228729 124316908.6761837 0 124316908.6761837 -477586577.15389824 0 0 0 0 -160606.78404299542 -391934.08954371512 0 -391934.08954371512 -252106.53482129239 0 0 0 0 109813066.90612984 -487458572.10215092 0 -487458572.10215092 -756091757.17835999 0 0 0 0 301864449.44137573 -22480952.475879669 0 -22480952.475879669 -608155784.56445312 0 0 0 0 -396102590.29827881 -593803267.87333679 0 -593803267.87333679 -418740643.13950348 0 0 0 0 15911543.29151535 -113603127.43457222 0 -113603127.43457222 -3617726.3380317688 0 0 0 0 153750284.41517639 -176521562.35674667 0 -176521562.35674667 -321606222.61230332 0 0 0 0 -105876231.09042358 83696020.102535248 0 83696020.102535248 49609826.619533539 0 0 0 0 47997429.440582275 -40230056.681427002 0 -40230056.681427002 13034620.622236252 0 0 0 0 -9155868.0031625703 -1384477.5190300746 0 -1384477.5190300746 7371078.3651843574 0 0 0 0 138808883.83443928 -36099535.916192174 0 -36099535.916192174 -18516965.05884552 0 0 0 0 20641520.101394653 -21671831.114263058 0 -21671831.114263058 5268560.316160202 0 0 0 0 35821412.832397208 -28778231.274434671 0 -28778231.274434671 8586486.7197522316 0 0 0 0 13510062.661621094 -23111274.166814327 0 -23111274.166814327 8064593.4342639446 0 0 0 0 19622718.621044375 -17544905.916623365 0 -17544905.916623365 7597101.9112582179 0 0 0 0 126111045.98827744 -7830816.9308309555 0 -7830816.9308309555 -689925599.27722168 0 0 0 0 -69853693.44631958 -86449138.19203186 0 -86449138.19203186 -42378044.481330872 0 0 0 0 6427638.5240333173 -4216101.3014944624 0 -4216101.3014944624 -2522698.6737151183 0 0 0 0 -167471117.03689194 -220782504.13764954 0 -220782504.13764954 -410029418.76054382 0 0 0 0 24001399.237915039 -21449185.282697082 0 -21449185.282697082 5083208.5251277685 0 0 0 0 31319765.311562017 -14051624.459884441 0 -14051624.459884441 -4271603.3752383702 0 0 0 0 1234920.3012604304 -2209400.2979875915 0 -2209400.2979875915 -540398.49687539507 0 0 0 0 23481016.535041809 -23601709.712971807 0 -23601709.712971807 4760387.5838675499 0 0 0 0 -110351117.49864197 -298283438.4781456 0 -298283438.4781456 -55884643.949837685 0 0 0 0 -153646265.72355461 -161184654.17860794 0 -161184654.17860794 13549533.927909851 0 0 0 0 -345502777.07006836 40472960.475057602 0 40472960.475057602 -139987415.20856094 0 0 0 0 -47474058.540374756 -311185075.97783661 0 -311185075.97783661 -53467653.336618423 0 0 0 0 9497495.6996917725 -340481686.93513489 0 -340481686.93513489 -241830227.51151276 0 0 0 0 55678538.48323822 -258804972.76764679 0 -258804972.76764679 -97653637.5585289 0 0 0 0 3119546.0129470825 -306926977.60596466 0 -306926977.60596466 -77593527.328276634 0 0 0 0 2158883.4345745444 -228885311.857373 0 -228885311.857373 -20334334.952014923 0 0 0 0 43959872.577560425 -207269294.09855461 0 -207269294.09855461 -32561799.495179743 0 0 0 0 61506952.105499268 -277258427.65216637 0 -277258427.65216637 -65136891.370330811 0 0 0 0 116092386.6137085 -275944738.82878399 0 -275944738.82878399 -67118457.16254425 0 0 0 0 14666610.656547546 -222374332.20081329 0 -222374332.20081329 -27127917.17975235 0 0 0 0 24900383.576957703 -59368430.3712883 0 -59368430.3712883 5804275.2105879784 0 0 0 0 37855804.095452309 -82541171.457177639 0 -82541171.457177639 45789581.220474243 0 0 0 0 3932973.0889692847 -22546319.493289165 0 -22546319.493289165 39577378.736136749 0 0 0 0 62550449.631412506 -22438516.96745348 0 -22438516.96745348 24662598.604600906 0 0 0 0 30763621.959862992 -29401729.082976248 0 -29401729.082976248 -3256686.2534244917 0 0 0 0 15448174.901275635 -37648442.365356445 0 -37648442.365356445 62083681.804508209 0 0 0 0 -9992970.3073425293 -61855602.570995331 0 -61855602.570995331 84291319.720489502 0 0 0 0 54527563.029632568 24979679.514250278 0 24979679.514250278 -62468899.120384216 0 0 0 0 13756594.297800053 -6669262.0387803111 0 -6669262.0387803111 -10790420.188899461 0 0 0 0 84141964.957023621 -41497972.220302582 0 -41497972.220302582 2361230.9811096191 0 0 0 0 3455224.1389304772 -5304153.115229439 0 -5304153.115229439 3041853.0298175919 0 0 0 0 6669841.5821533203 -145813939.52022171 0 -145813939.52022171 -150702067.35089111 0 0 0 0 -228726414.04475403 -168379989.54773712 0 -168379989.54773712 19959373.398347855 0 0 0 0 -44600996.10861969 -46613592.3090868 0 -46613592.3090868 59418931.275218964 0 0 0 0 -230331209.09455872 -111404294.40888596 0 -111404294.40888596 -106959405.389534 0 0 0 0 -196239474.49749756 -62583983.073112488 0 -62583983.073112488 -70967318.466243744 0 0 0 0 -346189901.86631012 -324015625.47649956 0 -324015625.47649956 -302881510.33834457 0 0 0 0 153432529.44465256 44163919.070486546 0 44163919.070486546 -195283375.34066391 0 0 0 0 -146465339.39464569 -313627891.60821533 0 -313627891.60821533 -273175125.82147217 0 0 0 0 -148580887.49959755 -334455955.01447868 0 -334455955.01447868 -346841525.44117355 0 0 0 0 -322342673.29413223 -348671794.18031454 0 -348671794.18031454 -362332166.69513702 0 0 0 0 -279861183.02555084 -311429461.73523331 0 -311429461.73523331 -242403108.06731987 0 0 0 0 -286891411.75485229 -23085888.134775162 0 -23085888.134775162 76498559.332317352 0 0 0 0 -74702.61374624446 -479034.53000128455 0 -479034.53000128455 259217.72828395292 0 0 0 0 -375086357.81726074 -387625517.07349205 0 -387625517.07349205 -363451722.46369934 0 0 0 0 357652.90758285136 -1478845.0995125473 0 -1478845.0995125473 -707081.41206565872 0 0 0 0 98622522.398970842 42603998.161843538 0 42603998.161843538 -178359455.67232895 0 0 0 0 -159150324.73302078 -486840436.03750515 0 -486840436.03750515 -287748335.41308594 0 0 0 0 96239029.449615479 -205236592.82372475 0 -205236592.82372475 -560971705.01521683 0 0 0 0 -241143116.07090425 -248623975.33888555 0 -248623975.33888555 -483874647.24501801 0 0 0 0 51682150.865570068 -144584381.26439285 0 -144584381.26439285 -40010380.525856018 0 0 0 0 110884937.89170837 -133029245.81401062 0 -133029245.81401062 -211782124.14496446 0 0 0 0 43724539.671226501 -79643123.069680214 0 -79643123.069680214 -32537495.850196838 0 0 0 0 -15012438.945137024 -59542705.606416702 0 -59542705.606416702 94215306.737165451 0 0 0 0 1195224.8972740956 -2936336.8852145411 0 -2936336.8852145411 -254826.18111306429 0 0 0 0 660302.21723175049 -1511288.4539222717 0 -1511288.4539222717 1301006.2529582977 0 0 0 0 -846619.64524459839 -3306637.0902070999 0 -3306637.0902070999 4891488.0732688904 0 0 0 0 -698403.13735516369 -3446383.4987034304 0 -3446383.4987034304 2665029.9761889055 0 0 0 0 395851.56871032715 -3439503.3412466049 0 -3439503.3412466049 -1328295.4556846619 0 0 0 0 25156482.092071533 -17389987.888059616 0 -17389987.888059616 -13620693.895545959 0 0 0 0 -1664933.6645927429 -2988504.3282642365 0 -2988504.3282642365 1736294.1228290796 0 0 0 0 44814.922022739309 -3707556.4229397979 0 -3707556.4229397979 1498689.4308715314 0 0 0 0 -595232.33909982583 -3088749.9424213879 0 -3088749.9424213879 3029457.4136679098 0 0 0 0 23585772.786938429 -15495968.907320261 0 -15495968.907320261 -71043248.900512695 0 0 0 0 376007.69775390625 -3554941.531255722 0 -3554941.531255722 1693084.337184906 0 0 0 0 -100507129.4833374 -131846186.03568459 0 -131846186.03568459 -98139641.504680634 0 0 0 0 -124660716.54853821 -74911359.558523178 0 -74911359.558523178 -143442896.4534874 0 0 0 0 -141127068.96637344 6270808.9094939232 0 6270808.9094939232 1523710.0258331299 0 0 0 0 -134578990.39844513 -12521827.899457932 0 -12521827.899457932 34174005.423042297 0 0 0 0 -106200282.98214984 -234342752.86121243 0 -234342752.86121243 -472688231.02900696 0 0 0 0 -58433536.0391922 74087680.388555527 0 74087680.388555527 -350075458.90274429 0 0 0 0 -155302245.04071808 -39065750.534837723 0 -39065750.534837723 -30519602.475543976 0 0 0 0 -133815618.47323227 29441736.053733826 0 29441736.053733826 126152157.14530182 0 0 0 0 -117539173.23116302 31412922.654262543 0 31412922.654262543 30791614.22013855 0 0 0 0 -164945793.74556732 -42994465.146339417 0 -42994465.146339417 98697051.931983948 0 0 0 0 -133373101.39717102 -14192513.595261574 0 -14192513.595261574 103743357.21286011 0 0 0 0 -161676054.94052887 -45690314.824811935 0 -45690314.824811935 49986501.11618042 0 0 0 0 -109773416.08043671 -81585622.578209877 0 -81585622.578209877 175538813.74897766 0 0 0 0 10298713.348426819 -71872899.922992706 0 -71872899.922992706 57053540.997650146 0 0 0 0 -38232283.639640808 35221198.224781036 0 35221198.224781036 856479.67841339111 0 0 0 0 -122332498.93742371 -26731755.791728973 0 -26731755.791728973 26996011.226772308 0 0 0 0 -75083540.618713379 -18698533.698612213 0 -18698533.698612213 21582796.693659201 0 0 0 0 -117380120.84564972 -32936860.90750885 0 -32936860.90750885 21513283.101783752 0 0 0 0 24537150.079711914 -36489135.94128418 0 -36489135.94128418 -34986891.146728516 0 0 0 0 654842.76870793477 -1650825.0435643899 0 -1650825.0435643899 626516.93624488637 0 0 0 0 -50724767.494270325 -8297466.4667892456 0 -8297466.4667892456 11291786.240379333 0 0 0 0 -146966592.64434814 -193219031.63446045 0 -193219031.63446045 -102715810.70471954 0 0 0 0 -93596710.36315155 -101158011.39708328 0 -101158011.39708328 -34582268.384185791 0 0 0 0 -70349930.882171631 -123394959.24750519 0 -123394959.24750519 -208868102.50803375 0 0 0 0 -157711431.88845825 -74963753.344291687 0 -74963753.344291687 80276784.224456787 0 0 0 0 -42937.785319035873 -100412.81794467568 0 -100412.81794467568 79585.858278283849 0 0 0 0 -69087267.879905701 14638551.389072418 0 14638551.389072418 141545798.51182556 0 0 0 0 -259735.8225970231 -27156.469447225332 0 -27156.469447225332 354202.20474170335 0 0 0 0 -133900845.92019653 -41281282.415275574 0 -41281282.415275574 111025325.11754608 0 0 0 0 -214766546.7589035 -120793582.05062485 0 -120793582.05062485 80761914.738230705 0 0 0 0 -210605082.74558258 -167262872.35771179 0 -167262872.35771179 -16176914.06772995 0 0 0 0 151895091.02178955 -101531704.83654785 0 -101531704.83654785 -31809018.094947815 0 0 0 0 -693648.45048284344 -795160.01563708484 0 -795160.01563708484 444099.48215295002 0 0 0 0 -190886090.07857513 -43658982.200983047 0 -43658982.200983047 137275312.67327309 0 0 0 0 -127981540.5908165 -108311468.83548498 0 -108311468.83548498 110711367.93247223 0 0 0 0 -1001716.5899763964 -1194056.3534239754 0 -1194056.3534239754 1627510.8212980591 0 0 0 0 -769624.02893829346 -780046.91437149048 0 -780046.91437149048 389638.18601989746 0 0 0 0 94373976.028568268 -144557874.77016735 0 -144557874.77016735 72066424.309635162 0 0 0 0 -45272729.445770264 105517812.42991447 0 105517812.42991447 92855790.323143005 0 0 0 0 -24658569.628585815 85036757.55988884 0 85036757.55988884 90740650.89915657 0 0 0 0 146409219.98822403 37950254.810085297 0 37950254.810085297 1418194.5779151917 0 0 0 0 -757026.15362608817 -1344493.0784954429 0 -1344493.0784954429 2586539.8869905844 0 0 0 0 -1876988.6707878113 -1286581.4332752228 0 -1286581.4332752228 846687.40854263306 0 0 0 0 439468372.76434708 -288122784.0573082 0 -288122784.0573082 -545114609.1912117 0 0 0 0 102120028.64748764 255459510.60298634 0 255459510.60298634 622220998.06809235 0 0 0 0 -243136859.6656189 -786192667.39182281 0 -786192667.39182281 -344567307.38611603 0 0 0 0 8593148.0501153991 4730456.1980575752 0 4730456.1980575752 -9987419.7128460128 0 0 0 0 -145833408.93296432 -385878029.43237495 0 -385878029.43237495 -240599695.23847961 0 0 0 0 -125077566.46456909 -254400806.22193527 0 -254400806.22193527 -1181755051.5302334 0 0 0 0 -30860283.198944092 -456117490.68728256 0 -456117490.68728256 -205326217.64306259 0 0 0 0 -24902580.333648682 -487111116.58255005 0 -487111116.58255005 -711766806.91226649 0 0 0 0 -422838443.89643097 -456777386.34201431 0 -456777386.34201431 -51601344.984230042 0 0 0 0 -47296832.570890903 -29039172.659715116 0 -29039172.659715116 181956426.91664886 0 0 0 0 122427584.22746277 -536619074.36748695 0 -536619074.36748695 756976413.65017509 0 0 0 0 1930264.0818633661 -1237542.6363637252 0 -1237542.6363637252 -460554.41958518093 0 0 0 0 173352312.84861755 -27666210.280321121 0 -27666210.280321121 -328446362.64642048 0 0 0 0 -360499119.02876282 -23969589.139606476 0 -23969589.139606476 1468568189.6161652 0 0 0 0 170708808.44117546 425337402.17794609 0 425337402.17794609 536064804.83575058 0 0 0 0 -673256.52816727571 -1072685.1808181256 0 -1072685.1808181256 -26.778055863454938 0 0 0 0 570222851.20281219 -171007700.25711441 0 -171007700.25711441 -4772070.4729690552 0 0 0 0 43396973.88079071 114384938.37552643 0 114384938.37552643 -87240055.765136719 0 0 0 0 332913847.07528687 216718277.32415009 0 216718277.32415009 -330808116.73154449 0 0 0 0 -87220299.814170837 -429193210.50832558 0 -429193210.50832558 51697162.588418961 0 0 0 0 -240668279.31452179 82245105.192842484 0 82245105.192842484 5950254.9551620483 0 0 0 0 480121121.51932526 -392511328.86676788 0 -392511328.86676788 -78968691.938684464 0 0 0 0 177477647.81053162 47009309.179216385 0 47009309.179216385 133084516.15139771 0 0 0 0 -264976.1171875 -117555559.8674469 0 -117555559.8674469 27300141.034933567 0 0 0 0 5434533.7426147461 -136292309.5206604 0 -136292309.5206604 295120202.02643204 0 0 0 0 175983213.7996521 -261032437.05022812 0 -261032437.05022812 85141897.740631104 0 0 0 0 91547885.877521515 -276309913.16898727 0 -276309913.16898727 24473851.63249588 0 0 0 0 -1118695.4534844235 -1406618.9771401752 0 -1406618.9771401752 611275.02754088491 0 0 0 0 149825941.31241608 -138514209.14282036 0 -138514209.14282036 114594372.34825134 0 0 0 0 327787593.39620209 -140929307.21081543 0 -140929307.21081543 70479479.340660095 0 0 0 0 145690114.36497307 -159103433.37616634 0 -159103433.37616634 40504172.767757416 0 0 0 0 274969224.90908051 -404661620.80336761 0 -404661620.80336761 26752114.347856522 0 0 0 0 379607264.23270798 -225795370.32335472 0 -225795370.32335472 -153234444.72216034 0 0 0 0 52865142.240512848 -40384165.351547241 0 -40384165.351547241 -108482991.98473597 0 0 0 0 61858939.295719147 -2498087.4535260201 0 -2498087.4535260201 -159888418.85623169 0 0 0 0 183364926.33337402 -79751898.680282593 0 -79751898.680282593 -31512531.783258438 0 0 0 0 -452083.31667645648 407633.31567725912 0 407633.31567725912 653388.80246550217 0 0 0 0 -26721258.424976349 -1169958.8806400299 0 -1169958.8806400299 -142704403.2906208 0 0 0 0 2595353.659072876 -159540406.30744171 0 -159540406.30744171 -86479969.30128479 0 0 0 0 181556107.92794037 88265201.054739952 0 88265201.054739952 216184343.61798859 0 0 0 0 158311262.70735741 -175245486.20639038 0 -175245486.20639038 -205098639.46363831 0 0 0 0 111140207.79721451 -73502701.63753891 0 -73502701.63753891 6901834.0024166107 0 0 0 0 -102174251.66164017 91543685.995506287 0 91543685.995506287 332250906.16891861 0 0 0 0 -905708.68281855434 745721.48506745137 0 745721.48506745137 1287959.517248245 0 0 0 0 85766379.68258667 -32639819.151180267 0 -32639819.151180267 2624196.7563753128 0 0 0 0 152470452.16286421 142587541.26625443 0 142587541.26625443 2096763.7103881836 0 0 0 0 208633049.45621109 -190667978.38825226 0 -190667978.38825226 148179706.61058044 0 0 0 0 117003582.62361622 -159172135.70256901 0 -159172135.70256901 143521577.90879822 0 0 0 0 -3094718.0348091125 -27522219.986902237 0 -27522219.986902237 266032925.76030922 0 0 0 0 -158565468.6616993 -48290028.674201488 0 -48290028.674201488 297517744.09333801 0 0 0 0 -1213732.0878483504 568462.04540648125 0 568462.04540648125 1302231.9157199599 0 0 0 0 -216777020.40218973 -152263907.20272946 0 -152263907.20272946 200421933.91143799 0 0 0 0 -165716130.11371231 -655624531.36886787 0 -655624531.36886787 -613746998.13135529 0 0 0 0 -473285307.48961639 -575914275.52165413 0 -575914275.52165413 -90429290.682247162 0 0 0 0 -383131959.05427551 -294193938.13461494 0 -294193938.13461494 259016835.47281647 0 0 0 0 -576116461.64097595 -537885974.59955025 0 -537885974.59955025 750530292.11200809 0 0 0 0 -348638190.98399353 -239453065.02062225 0 -239453065.02062225 -409490050.6579628 0 0 0 0 -278186356.29637146 81778141.605125427 0 81778141.605125427 331901637.30858338 0 0 0 0 130869725.2957077 362362748.71541786 0 362362748.71541786 484898448.2366333 0 0 0 0 190243317.34936142 580773052.35311127 0 580773052.35311127 320224376.21277428 0 0 0 0 -19104995.340346813 -11974261.900910616 0 -11974261.900910616 704044154.94968796 0 0 0 0 549221755.3255043 -128846119.17723656 0 -128846119.17723656 263181302.73892164 0 0 0 0 2580647.9824545216 550160.42482151091 0 550160.42482151091 2131051.9420213606 0 0 0 0 337743860.54010773 -352952255.60829544 0 -352952255.60829544 97001764.379898071 0 0 0 0 261158101.43711853 -490482740.21220016 0 -490482740.21220016 286860603.92465973 0 0 0 0 1002063747.0180054 -242117287.01174164 0 -242117287.01174164 26799258.799232483 0 0 0 0 -112512.08411900187 -247245.51346973702 0 -247245.51346973702 184688.24088237435 0 0 0 0 -698188700.4103235 -799726243.61690927 0 -799726243.61690927 -1354233854.1530304 0 0 0 0 -716325218.46603775 20609884.126058578 0 20609884.126058578 490644080.6998558 0 0 0 0 -487423432.06968307 -154321008.51674461 0 -154321008.51674461 143650949.76478577 0 0 0 0 -693863.92757429183 -1656006.7706000842 0 -1656006.7706000842 249640.34947286174 0 0 0 0 -2987168.1269061565 -1217882.9882949591 0 -1217882.9882949591 975588.13803100586 0 0 0 0 -667513.01162751555 -676069.82204079814 0 -676069.82204079814 462187.64701915532 0 0 0 0 484427446.91206098 27928393.166572154 0 27928393.166572154 -511791271.493927 0 0 0 0 -120753565.72913742 -165749213.46581841 0 -165749213.46581841 138988172.85381699 0 0 0 0 180456662.27124786 -103448207.57098007 0 -103448207.57098007 61531973.051845551 0 0 0 0 337599277.36580276 -246348959.29966736 0 -246348959.29966736 158519579.46406555 0 0 0 0 139557491.09871674 -280594819.47621536 0 -280594819.47621536 148251541.20897293 0 0 0 0 385969757.49957275 -271397133.05862236 0 -271397133.05862236 95502694.325012207 0 0 0 0 -763011.32354955003 229487.08605124056 0 229487.08605124056 679553.68425154686 0 0 0 0 -15903345.883781433 -163001063.10228157 0 -163001063.10228157 338093873.44511318 0 0 0 0 -84411287.1014328 -77734014.933992386 0 -77734014.933992386 299488164.96981049 0 0 0 0 -51423272.741760254 -243729783.63934326 0 -243729783.63934326 226819858.36235809 0 0 0 0 58412002.181882858 -360340478.96060514 0 -360340478.96060514 -162366465.09516144 0 0 0 0 8505994.8668823242 -215291418.02071571 0 -215291418.02071571 14339831.96487236 0 0 0 0 -71557591.640441895 -372222562.74048615 0 -372222562.74048615 174075157.1727066 0 0 0 0 -86668491.713485718 -427634074.1355896 0 -427634074.1355896 -227912902.15172195 0 0 0 0 -54608910.600803375 -351608038.80492401 0 -351608038.80492401 -285371041.98677063 0 0 0 0 76052428.54070282 -326535026.35612869 0 -326535026.35612869 -528800887.82201004 0 0 0 0 74170398.52129364 -447246771.52984238 0 -447246771.52984238 -563331090.57665634 0 0 0 0 175916108.36737061 -234577600.39211655 0 -234577600.39211655 -313638672.61320496 0 0 0 0 -293937505.98898315 -772907286.37239075 0 -772907286.37239075 -540801938.0087738 0 0 0 0 274122361.0815177 -758572974.05872536 0 -758572974.05872536 -656323789.13484192 0 0 0 0 836574439.33177948 -377783880.93493211 0 -377783880.93493211 165461034.6401825 0 0 0 0 261528961.09142685 -74720253.868675232 0 -74720253.868675232 237526171.31192398 0 0 0 0 -651858.05067985132 -1162903.4897511601 0 -1162903.4897511601 -401266.39493753016 0 0 0 0 913369267.57863998 -443118025.93220615 0 -443118025.93220615 -508068726.04667282 0 0 0 0 -972845566.3761673 -863051788.74160385 0 -863051788.74160385 -484738479.25048828 0 0 0 0 -1184659880.5539761 -593406953.3921442 0 -593406953.3921442 -207481201.63278198 0 0 0 0 -368044513.31495667 -274667194.59315872 0 -274667194.59315872 -399258432.16096306 0 0 0 0 141298518.96982193 54706656.508190155 0 54706656.508190155 -6454191.5399017334 0 0 0 0 429629.01154909655 -2988301.2437586337 0 -2988301.2437586337 -7161057.2691449244 0 0 0 0 -395147200.58998489 -290069959.14095914 0 -290069959.14095914 -288263206.41499329 0 0 0 0 -42824734.272583008 -16251820.918302536 0 -16251820.918302536 53778539.187431335 0 0 0 0 -53808775.291038513 -26212794.517776489 0 -26212794.517776489 70070343.925626755 0 0 0 0 -24090257.303039551 8375146.6805858612 0 8375146.6805858612 54522150.934814453 0 0 0 0 -45045903.34387207 -4691841.7618293762 0 -4691841.7618293762 82442576.54662323 0 0 0 0 134455680.76867676 -389076102.23377609 0 -389076102.23377609 -134000668.86176491 0 0 0 0 -1570115.9111213684 6159974.0880203247 0 6159974.0880203247 15244064.091316223 0 0 0 0 -2062851680.2336426 -909745016.69052887 0 -909745016.69052887 27771582.24123764 0 0 0 0 -26595.158845773782 -594809.7996636983 0 -594809.7996636983 -2488982.3957296088 0 0 0 0 -49174877.62033844 -36007857.719421387 0 -36007857.719421387 50956188.832149506 0 0 0 0 94551596.949695587 12376679.261541367 0 12376679.261541367 -101749291.26763916 0 0 0 0 206437206.56573486 -349920794.48409319 0 -349920794.48409319 156717802.30734253 0 0 0 0 152870432.43963623 -122782764.24236488 0 -122782764.24236488 -66085884.123470306 0 0 0 0 338315640.5247879 50320611.458826065 0 50320611.458826065 78580112.714324951 0 0 0 0 -24265689.67780304 -76744315.629919052 0 -76744315.629919052 -13849464.695411682 0 0 0 0 122035202.57249451 32896487.74996376 0 32896487.74996376 67573919.608555794 0 0 0 0 83372048.975570679 -96562696.6158638 0 -96562696.6158638 112997780.51384735 0 0 0 0 182902300.36411285 -355336493.4260273 0 -355336493.4260273 199803439.96593857 0 0 0 0 70887331.067024231 -43520915.66516304 0 -43520915.66516304 348571600.40539932 0 0 0 0 106686671.19041061 -368882740.1763382 0 -368882740.1763382 310807914.58161163 0 0 0 0 166116517.74495554 7526982.4622386694 0 7526982.4622386694 -2986554.0223312378 0 0 0 0 210126663.48340607 -312268387.80530167 0 -312268387.80530167 263904482.62973785 0 0 0 0 72169781.810920715 -241482866.98331833 0 -241482866.98331833 389406383.01181841 0 0 0 0 36355055.09267807 80388508.666046143 0 80388508.666046143 -19183585.798088074 0 0 0 0 -219186446.70527649 -225547372.51264954 0 -225547372.51264954 -268553083.67909622 0 0 0 0 1154497.5179428831 -1100068.9389496259 0 -1100068.9389496259 -490903.41136555793 0 0 0 0 119447561.46076965 -344978642.12327576 0 -344978642.12327576 343847194.09199524 0 0 0 0 -426932305.22917938 -354341244.17273712 0 -354341244.17273712 -132595757.68577576 0 0 0 0 71657166.966400146 -508465981.37671089 0 -508465981.37671089 -780493995.35344696 0 0 0 0 -340933991.45865631 -163107156.03004837 0 -163107156.03004837 -56894092.76751709 0 0 0 0 641095.58517937921 -1085717.776562646 0 -1085717.776562646 -1485059.0659584776 0 0 0 0 -7699707.6053619385 116398733.93341637 0 116398733.93341637 -919577232.68240738 0 0 0 0 -100248881.40791702 -713706137.64741325 0 -713706137.64741325 -1098282539.1177597 0 0 0 0 -1474820816.9557724 -360902727.67060471 0 -360902727.67060471 2033788.9857063293 0 0 0 0 -3874047.404094696 -326711971.91912937 0 -326711971.91912937 -21508733.237468719 0 0 0 0 -36806217.048931122 -742865635.6681633 0 -742865635.6681633 -543618092.56760406 0 0 0 0 -267726482.7587204 -303606918.4893589 0 -303606918.4893589 -30061262.822014809 0 0 0 0 -469730686.42634201 -507149136.74830055 0 -507149136.74830055 -231215845.65904236 0 0 0 0 -247334416.59594727 -150989104.00843334 0 -150989104.00843334 -28654778.380950928 0 0 0 0 -167582792.65613937 -150027769.62672806 0 -150027769.62672806 -221554042.67780685 0 0 0 0 46035955.520076752 34134024.49813652 0 34134024.49813652 -23752419.476673841 0 0 0 0 -141747761.40625 -58079521.61309433 0 -58079521.61309433 -134051140.44148731 0 0 0 0 -317070533.21807861 -225451393.5273304 0 -225451393.5273304 -106537189.94633007 0 0 0 0 -268606685.18967438 -310185350.24752998 0 -310185350.24752998 -333262766.05072021 0 0 0 0 -523468894.49979019 -58537345.16053009 0 -58537345.16053009 -542026433.56469536 0 0 0 0 -401911527.57978058 -511097766.15693688 0 -511097766.15693688 -653744775.44924545 0 0 0 0 -134705679.53967667 -185623972.96974182 0 -185623972.96974182 -316444495.57403183 0 0 0 0 -345999091.7971077 -329836353.9121933 0 -329836353.9121933 -255301341.57432938 0 0 0 0 -465165467.68083572 -286135418.43934441 0 -286135418.43934441 -82753425.760955811 0 0 0 0 -355826098.06515503 -156197882.16501617 0 -156197882.16501617 -197592459.72177887 0 0 0 0 -216884252.70500183 -250472206.22262573 0 -250472206.22262573 -149664880.30071259 0 0 0 0 -256814819.06265259 -335986235.1583786 0 -335986235.1583786 -162528073.3507576 0 0 0 0 -73025277.496776581 -101596196.52471733 0 -101596196.52471733 -92893018.070137024 0 0 0 0 8907845.3164749146 -209338851.40154266 0 -209338851.40154266 21053773.958112717 0 0 0 0 -457830411.44687653 -245500100.94644165 0 -245500100.94644165 -77386513.325590611 0 0 0 0 -359717363.32383537 -178164359.12054062 0 -178164359.12054062 -127585266.01849365 0 0 0 0 -705310272.26642799 -67279876.392372131 0 -67279876.392372131 -161819152.87483978 0 0 0 0 4526449.3373812512 -7847813.031100004 0 -7847813.031100004 4076129.2885706723 0 0 0 0 -84303175.128051758 -198235573.86312866 0 -198235573.86312866 -393586186.09092712 0 0 0 0 -12796520.874904633 -8244848.9108829498 0 -8244848.9108829498 231769686.38380527 0 0 0 0 -498007099.59844971 -354074345.58398151 0 -354074345.58398151 -153876036.2759552 0 0 0 0 115606.57723274827 -159321.00933709182 0 -159321.00933709182 410646.12797695771 0 0 0 0 -8528954.4941864014 -53428990.336643696 0 -53428990.336643696 147011969.38240051 0 0 0 0 1451768.5007954761 -3672437.8292915393 0 -3672437.8292915393 1498056.2686440665 0 0 0 0 9249400.2702713013 -28248040.900032997 0 -28248040.900032997 180720245.56004637 0 0 0 0 552910.75770568848 -3681706.7272453308 0 -3681706.7272453308 2107653.1132183075 0 0 0 0 -151108545.08036804 -128625562.48868179 0 -128625562.48868179 33591109.754184723 0 0 0 0 -115591553.57687378 43545185.727142334 0 43545185.727142334 95122886.78858757 0 0 0 0 1636307.1648667827 -3858645.9148051227 0 -3858645.9148051227 749342.3480406208 0 0 0 0 -34746084.07334137 -602113574.77194595 0 -602113574.77194595 1087818679.5339088 0 0 0 0 568615.86779508181 -2627824.5587965287 0 -2627824.5587965287 -903731.87109572254 0 0 0 0 -110727381.56675148 -333686250.30722332 0 -333686250.30722332 535761167.93721771 0 0 0 0 -56180336.497652054 -365449956.47900963 0 -365449956.47900963 49103332.874641418 0 0 0 0 410205457.54399109 -105935762.78881836 0 -105935762.78881836 -1135302897.1119776 0 0 0 0 208702782.41786957 -230163306.74881744 0 -230163306.74881744 256948391.67757249 0 0 0 0 -76799436.546791077 -41365142.315925598 0 -41365142.315925598 251227570.37835693 0 0 0 0 1694800.0270402208 183395.68396625109 0 183395.68396625109 -1190141.0965792369 0 0 0 0 172629930.97528839 -275559717.20710373 0 -275559717.20710373 206542699.77423859 0 0 0 0 -50257620.02230072 -502505809.48241806 0 -502505809.48241806 311546877.15094757 0 0 0 0 142700550.34834671 -88289538.201062202 0 -88289538.201062202 484751612.68419647 0 0 0 0 -245552672.21542358 -702839186.71208191 0 -702839186.71208191 1645207388.0476863 0 0 0 0 -37479313.209281921 -384363063.33535004 0 -384363063.33535004 1350880112.2530785 0 0 0 0 312931546.2858963 -1120365640.0285149 0 -1120365640.0285149 927385197.56443024 0 0 0 0 206715384.93477249 -442696417.94418907 0 -442696417.94418907 125301418.01496124 0 0 0 0 285586396.42051697 -502839617.95246506 0 -502839617.95246506 110846883.61968517 0 0 0 0 74482435.280899048 -191283283.40059662 0 -191283283.40059662 -1223831442.8635521 0 0 0 0 7436909.4719791785 -6943910.3316737954 0 -6943910.3316737954 2886861.3221764248 0 0 0 0 383364328.04896259 -811454314.99858427 0 -811454314.99858427 -101239577.00888824 0 0 0 0 -381012623.77798271 -146247643.23241234 0 -146247643.23241234 -168125464.81407928 0 0 0 0 209350040.70783997 -121755220.61339951 0 -121755220.61339951 -496768146.42751694 0 0 0 0 147506671.85795593 -309635974.08837891 0 -309635974.08837891 -249333648.98935318 0 0 0 0 339171894.36943817 -298252081.1268158 0 -298252081.1268158 -248694214.4241333 0 0 0 0 15895809.385440826 -331686592.48721695 0 -331686592.48721695 -129714599.35357666 0 0 0 0 41435181.833374023 -121648058.61052322 0 -121648058.61052322 -221117721.29478836 0 0 0 0 -69562751.803760529 -170690874.00126076 0 -170690874.00126076 -205997981.37304306 0 0 0 0 -98148538.827759743 -243513436.10406876 0 -243513436.10406876 -327491836.20447159 0 0 0 0 76302467.523460388 -28666654.123983383 0 -28666654.123983383 -470759052.59685707 0 0 0 0 129399998.81323814 -249673759.17551136 0 -249673759.17551136 -140103341.60171127 0 0 0 0 82113041.620128632 -51971424.717414856 0 -51971424.717414856 -225214834.22188759 0 0 0 0 168635410.86819077 -127737048.58104992 0 -127737048.58104992 -244213378.53191376 0 0 0 0 373062611.27565384 -632243250.0911293 0 -632243250.0911293 173601131.86342621 0 0 0 0 120054662.44679642 -128628286.9415741 0 -128628286.9415741 61385728.326702118 0 0 0 0 221826085.71737003 -425642019.04282904 0 -425642019.04282904 213452696.01611328 0 0 0 0 155735469.66394424 -358263598.91020536 0 -358263598.91020536 197890065.26148224 0 0 0 0 42258142.740039825 -121937708.93594742 0 -121937708.93594742 542868966.55215073 0 0 0 0 -49624833.026334524 -527796254.38616037 0 -527796254.38616037 161151296.67934418 0 0 0 0 13214093.550064087 -150819170.99197769 0 -150819170.99197769 -26826999.39863205 0 0 0 0 19483757.182121277 -238690341.27315903 0 -238690341.27315903 -71708868.468654633 0 0 0 0 -130800705.05107307 -86084290.890539169 0 -86084290.890539169 -223489990.38396835 0 0 0 0 -2216253.5669364929 -2967876.0189857483 0 -2967876.0189857483 -1658372.7619838715 0 0 0 0 20737311.406434059 -167859008.91160202 0 -167859008.91160202 -289644799.2211647 0 0 0 0 -2372490.587121021 -3003495.6758785192 0 -3003495.6758785192 2171420.9087944608 0 0 0 0 1318206.9608705407 -832067.97623277549 0 -832067.97623277549 348239.19390965998 0 0 0 0 -21450462.511741638 -132310223.29151154 0 -132310223.29151154 -243464124.2770524 0 0 0 0 -1942768.3270835876 -1966464.4769096375 0 -1966464.4769096375 643281.87503051758 0 0 0 0 -63100775.41699934 20675179.821310997 0 20675179.821310997 58948587.644004822 0 0 0 0 1788084.0440483093 -1860364.0244655609 0 -1860364.0244655609 -653630.87822723389 0 0 0 0 80260.540267944336 -1128443.7583351135 0 -1128443.7583351135 -943577.08699226379 0 0 0 0 641334.12706889492 -610321.86737735709 0 -610321.86737735709 703838.82902301103 0 0 0 0 -14524385.194305897 89152575.999816656 0 89152575.999816656 -266034376.07160568 0 0 0 0 81767904.693996429 -64445795.00463295 0 -64445795.00463295 -243778758.5151062 0 0 0 0 40953224.079425812 -47004969.965535164 0 -47004969.965535164 -251056542.2699585 0 0 0 0 -432624.00573247485 -3850430.9478532667 0 -3850430.9478532667 1397045.4542217664 0 0 0 0 41165.794555664062 -5022180.6348876953 0 -5022180.6348876953 -3677671.3236083984 0 0 0 0 -3189474.3200950623 8650227.5106811523 0 8650227.5106811523 -191579371.80117607 0 0 0 0 -4641.9750137329102 -6238026.062538147 0 -6238026.062538147 -2214894.4279022217 0 0 0 0 3322555.4927637167 -3041905.0762596466 0 -3041905.0762596466 -1424750.6381868869 0 0 0 0 81308800.110919952 34267865.992984772 0 34267865.992984772 20831595.1354599 0 0 0 0 999104.38149261475 -3990387.712141037 0 -3990387.712141037 -197946788.85302639 0 0 0 0 1627101.8217091989 -2962765.7787492573 0 -2962765.7787492573 -3313693.9760174081 0 0 0 0 6505218.7313919067 -46073976.946895599 0 -46073976.946895599 375624397.26868439 0 0 0 0 -292513.62676350586 -1353743.8028277522 0 -1353743.8028277522 879303.30107978545 0 0 0 0 17976388.577789307 41967727.099105835 0 41967727.099105835 134220029.82704163 0 0 0 0 53876894.338882446 -147741247.60532379 0 -147741247.60532379 229611114.54959297 0 0 0 0 -5417651.8199157715 -52016706.129943848 0 -52016706.129943848 259526845.39515686 0 0 0 0 -464384.18768310547 -4091295.7689857483 0 -4091295.7689857483 8321778.1296615601 0 0 0 0 1183449.8590940032 -4209619.9498149008 0 -4209619.9498149008 -1240308.2638121019 0 0 0 0 -20887719.25995636 -14102908.283224106 0 -14102908.283224106 166916040.24330139 0 0 0 0 26997650.438644409 -13365600.711830139 0 -13365600.711830139 5180105.1271781921 0 0 0 0 -24915968.679467201 52762837.493990421 0 52762837.493990421 68515145.617446899 0 0 0 0 15407863.439441681 12115607.204137802 0 12115607.204137802 -210398491.31091309 0 0 0 0 1183818.5769981928 -7721181.8261928447 0 -7721181.8261928447 -1697601.0308679575 0 0 0 0 2418795.156188529 -1051603.9887877665 0 -1051603.9887877665 -1518345.6813205257 0 0 0 0 -6161502.8641433716 -65558844.212043762 0 -65558844.212043762 69201783.926860809 0 0 0 0 55925740.46144104 -85318411.202001572 0 -85318411.202001572 26800526.704360962 0 0 0 0 32380647.430717468 -101051103.73611069 0 -101051103.73611069 86947196.328971863 0 0 0 0 88758545.472091675 -115508714.81015015 0 -115508714.81015015 56568146.563877106 0 0 0 0 56948000.172603607 -136177110.23427582 0 -136177110.23427582 103899982.03430176 0 0 0 0 191718687.22616959 -200772149.39699745 0 -200772149.39699745 -48182613.345249176 0 0 0 0 45987764.434463501 -109404347.32823181 0 -109404347.32823181 85271373.018234253 0 0 0 0 124674938.72304535 -188107201.3324585 0 -188107201.3324585 113608951.65445518 0 0 0 0 122990339.92770004 -140555890.67304039 0 -140555890.67304039 62938190.917827606 0 0 0 0 64665143.018852234 -187218176.93003082 0 -187218176.93003082 114311149.42645264 0 0 0 0 -244766.90456962585 -2723506.7666149139 0 -2723506.7666149139 950978.11241912842 0 0 0 0 2100138.8265838623 -6863723.4731369019 0 -6863723.4731369019 12161839.559329987 0 0 0 0 2672472.1800327655 -3368136.0607268158 0 -3368136.0607268158 -1565699.1054541338 0 0 0 0 6282671.4873657227 -5624322.4622192383 0 -5624322.4622192383 34393.321441650391 0 0 0 0 934780.74496078491 -1858435.2314758301 0 -1858435.2314758301 8524141.3625411987 0 0 0 0 20627056.665737152 -3864989.6885147095 0 -3864989.6885147095 -6315578.4689483643 0 0 0 0 3097619.4990234375 994249.42032241821 0 994249.42032241821 2209949.4792833328 0 0 0 0 1298130.3834263049 -384454.52742536925 0 -384454.52742536925 -1009099.5263924189 0 0 0 0 47853356.832717896 -99246848.056396484 0 -99246848.056396484 68568677.26228714 0 0 0 0 92990970.329162598 -69179488.533510208 0 -69179488.533510208 -15549368.802772999 0 0 0 0 11017976.825046539 8371882.5473861694 0 8371882.5473861694 26774181.253704071 0 0 0 0 -131933261.99614382 -177208581.52190542 0 -177208581.52190542 -22143019.963890076 0 0 0 0 37250127.799617767 -10337471.664896011 0 -10337471.664896011 -35463256.406150818 0 0 0 0 -115926.96740330104 1507806.9898772626 0 1507806.9898772626 624240.79759781063 0 0 0 0 -95043213.781364441 -18837511.76890564 0 -18837511.76890564 -65976804.003726959 0 0 0 0 -386282864.57925797 -115996295.51877117 0 -115996295.51877117 160435987.80732536 0 0 0 0 -410482.12118264614 1109579.8952959236 0 1109579.8952959236 618241.57449887879 0 0 0 0 128896711.67070961 -128820105.26821136 0 -128820105.26821136 85573353.910903931 0 0 0 0 206142800.24370003 -41324753.643342972 0 -41324753.643342972 28795883.535354614 0 0 0 0 27487050.295444489 -97486093.754227638 0 -97486093.754227638 98918206.996212006 0 0 0 0 -113723129.93787956 -149657407.85965919 0 -149657407.85965919 84687599.235229492 0 0 0 0 -13197447.908714294 -59263907.651971817 0 -59263907.651971817 125531992.83399773 0 0 0 0 22004618.659793854 -38723524.615818977 0 -38723524.615818977 -37782317.518774986 0 0 0 0 11975934.226845741 -47965221.902401447 0 -47965221.902401447 35439565.942047119 0 0 0 0 14570080.152513504 -61211582.392731667 0 -61211582.392731667 31567485.63085556 0 0 0 0 -8571637.4294471741 -83473526.259069443 0 -83473526.259069443 44123104.769042969 0 0 0 0 -14967116.334118366 -51815944.303958058 0 -51815944.303958058 50993177.976341248 0 0 0 0 4434454.4426937103 -141308053.30006027 0 -141308053.30006027 -48919763.656002522 0 0 0 0 39524995.777953148 -97161605.602425337 0 -97161605.602425337 -205976996.2998457 0 0 0 0 22433723.750682831 -104683091.11652184 0 -104683091.11652184 -81463960.251199245 0 0 0 0 -13485992.266017914 189511760.76281881 0 189511760.76281881 -246838595.65686417 0 0 0 0 161763287.87660599 129916636.4796114 0 129916636.4796114 -344659096.80278206 0 0 0 0 26340378.668457031 63462830.078925133 0 63462830.078925133 -22023173.018074036 0 0 0 0 2579193.8963106293 -9490980.7576121315 0 -9490980.7576121315 -6032297.7403512672 0 0 0 0 -91033789.234916687 -75267698.156227112 0 -75267698.156227112 13911022.927082062 0 0 0 0 154994519.11217499 162922602.75631142 0 162922602.75631142 -159560416.06928635 0 0 0 0 1314730.0717564486 1025503.3219180824 0 1025503.3219180824 -1755712.9469851097 0 0 0 0 170619151.85810471 89382418.911049843 0 89382418.911049843 -241978979.41684341 0 0 0 0 -15073618.950817108 -78253569.041055679 0 -78253569.041055679 40109626.187592745 0 0 0 0 79394056.039554596 -24918462.294282913 0 -24918462.294282913 1147870.9098672867 0 0 0 0 2121925.0599670699 1583241.9386604615 0 1583241.9386604615 -2863239.6646882202 0 0 0 0 195395525.51763535 -163123447.50774956 0 -163123447.50774956 9938239.5500583649 0 0 0 0 59697831.623100281 50378572.505778313 0 50378572.505778313 -147873425.86175537 0 0 0 0 -161057426.72053146 -50035122.87979126 0 -50035122.87979126 228235971.51621246 0 0 0 0 129238042.63145638 -85411641.611858368 0 -85411641.611858368 54633334.785953522 0 0 0 0 82436375.775302887 -115536865.54375648 0 -115536865.54375648 104690086.08072662 0 0 0 0 78250441.411262512 -72246283.653106689 0 -72246283.653106689 64419662.421816826 0 0 0 0 80051971.007533073 -118443344.1355741 0 -118443344.1355741 59006016.608634949 0 0 0 0 73215104.679790497 -95489078.407543182 0 -95489078.407543182 65650419.190916061 0 0 0 0 151766332.56009293 -88728739.743944168 0 -88728739.743944168 65596423.366266251 0 0 0 0 195296057.99058533 -123592333.92020798 0 -123592333.92020798 219341.1662979126 0 0 0 0 82177479.455879211 -129377646.27251911 0 -129377646.27251911 -7074981.6073684692 0 0 0 0 1238048.5572422668 950533.60170232691 0 950533.60170232691 -1536629.7011637613 0 0 0 0 80454457.751203537 -118342765.32331944 0 -118342765.32331944 -61464613.408485413 0 0 0 0 68703306.301430225 -34567296.237121105 0 -34567296.237121105 -74579765.217975616 0 0 0 0 -7342434.7596511841 -53375687.030714035 0 -53375687.030714035 -66428031.485164642 0 0 0 0 78737395.212287903 -105376240.06364822 0 -105376240.06364822 -32288386.203517914 0 0 0 0 29630567.431418419 -37581138.336654186 0 -37581138.336654186 -13144150.276100159 0 0 0 0 17234223.020086288 12903678.090536594 0 12903678.090536594 -133184931.19625854 0 0 0 0 -71084557.400756836 36124417.729324341 0 36124417.729324341 -40747542.035984039 0 0 0 0 21185319.47000885 37283656.762516022 0 37283656.762516022 -38370823.164892197 0 0 0 0 124792416.36316967 26490338.807159901 0 26490338.807159901 17645265.801750183 0 0 0 0 46344508.576225281 -72399773.424674988 0 -72399773.424674988 77716632.173629761 0 0 0 0 46952485.661399841 -55428758.581615448 0 -55428758.581615448 -60647794.623959541 0 0 0 0 -142499607.58240509 140639846.74087715 0 140639846.74087715 50173298.525634766 0 0 0 0 -172165678.62774467 -117981815.56219816 0 -117981815.56219816 -42321961.069641113 0 0 0 0 -3906431.3935165405 -29289956.098924637 0 -29289956.098924637 -252283510.13020325 0 0 0 0 -132760331.68099022 -975614.0178976059 0 -975614.0178976059 52735940.063049316 0 0 0 0 -111642791.85423279 109187407.94239044 0 109187407.94239044 -147944049.02086735 0 0 0 0 126067.37636109442 -2428523.1320691705 0 -2428523.1320691705 1414398.3564090058 0 0 0 0 38376291.81951344 -9960234.7765699029 0 -9960234.7765699029 -41197485.012123108 0 0 0 0 190125354.59654999 -37465746.216962814 0 -37465746.216962814 -101038796.04975891 0 0 0 0 1440948.2077341983 -11780566.525161453 0 -11780566.525161453 -10994927.631547172 0 0 0 0 29117942.330230713 -216202659.59639359 0 -216202659.59639359 -241682238.10797501 0 0 0 0 3494125.394563715 -19695875.994887222 0 -19695875.994887222 -14795649.633888319 0 0 0 0 13714307.333213806 -19255486.785270691 0 -19255486.785270691 -964575.73321151733 0 0 0 0 -26698737.825309753 -98253690.778921127 0 -98253690.778921127 85578353.116493225 0 0 0 0 6205458.5725709498 -12141418.226585032 0 -12141418.226585032 -19890539.536913186 0 0 0 0 -18320075.106807709 -28196692.798894882 0 -28196692.798894882 75844231.324497223 0 0 0 0 -2853340.7654736657 -11070958.346715678 0 -11070958.346715678 8072238.3152272347 0 0 0 0 22228442.988254547 -25200632.455451012 0 -25200632.455451012 -7238356.0123062134 0 0 0 0 2873393.5762962028 -13397894.321822319 0 -13397894.321822319 -16689535.302109333 0 0 0 0 934457.22162246704 -15553157.754512787 0 -15553157.754512787 -10194976.023880005 0 0 0 0 6478815.2140884399 -22842162.2859869 0 -22842162.2859869 -3013999.1747589111 0 0 0 0 54593153.213176966 -50173176.278182387 0 -50173176.278182387 -30912982.789855957 0 0 0 0 9458478.9522132874 -12999778.361287117 0 -12999778.361287117 -9729736.9089431763 0 0 0 0 17744413.554862976 22439191.705123901 0 22439191.705123901 -83506693.91230011 0 0 0 0 -5580854.7536773682 31185063.418893814 0 31185063.418893814 -9832785.9820632935 0 0 0 0 47839532.543083191 -29264467.558683395 0 -29264467.558683395 -12117859.927165985 0 0 0 0 -18684027.557479858 17095923.797386169 0 17095923.797386169 -37856305.921367645 0 0 0 0 -49197580.544654846 37197975.186836243 0 37197975.186836243 -40925765.835931778 0 0 0 0 -23943149.628585815 34082194.019580841 0 34082194.019580841 -47513382.771503448 0 0 0 0 -30203289.752506256 16693926.708417892 0 16693926.708417892 -61370480.171770096 0 0 0 0 -6694734.6894226074 39290429.116016388 0 39290429.116016388 -40165535.622569323 0 0 0 0 -11317385.44417572 9579950.2962064743 0 9579950.2962064743 -58777109.851635933 0 0 0 0 -2251470.2847392075 -10338610.047425441 0 -10338610.047425441 -4675770.9665873908 0 0 0 0 -83124.918029785156 -6507663.9218330383 0 -6507663.9218330383 3118175.0228767395 0 0 0 0 1380543.069800226 -16795242.874615766 0 -16795242.874615766 2470891.9434285238 0 0 0 0 1060609.4019246139 -7663796.6337821633 0 -7663796.6337821633 -22913266.714342616 0 0 0 0 -3521564.2322845459 -90870734.56893158 0 -90870734.56893158 -61155445.637125015 0 0 0 0 27883169.14339447 -44557722.303846359 0 -44557722.303846359 -186121793.25261068 0 0 0 0 -1321538.2697768398 -14716443.73937373 0 -14716443.73937373 -3289769.023810165 0 0 0 0 1435865.3822702393 -933370.99925169349 0 -933370.99925169349 -9843356.9070207924 0 0 0 0 -20194799.836723328 -6909905.294962883 0 -6909905.294962883 -85126483.841248155 0 0 0 0 -6506788.3666381836 -25967476.778305054 0 -25967476.778305054 -18786309.918289185 0 0 0 0 422662.90148234367 -6758.9527448294684 0 -6758.9527448294684 -1580989.9512755908 0 0 0 0 7178632.2018108089 -7893160.3648405243 0 -7893160.3648405243 -24871704.777394399 0 0 0 0 12353006.132911682 -8186275.6732940674 0 -8186275.6732940674 -11461005.665237427 0 0 0 0 16582424.790481567 -41552616.808456421 0 -41552616.808456421 -31529566.878198624 0 0 0 0 2514955.0712738037 -244066.36756896973 0 -244066.36756896973 -12775750.140605927 0 0 0 0 -434922.48722098395 -12489717.449251894 0 -12489717.449251894 -24516845.953366425 0 0 0 0 17071828.723472595 -4458476.4893569946 0 -4458476.4893569946 -21610700.127914429 0 0 0 0 7620130.3480825797 -14656714.040387485 0 -14656714.040387485 -12784141.470792435 0 0 0 0 4804831.4163360596 -2766813.317817688 0 -2766813.317817688 -10545012.900665283 0 0 0 0 -2230851.4581680298 -15841698.122493744 0 -15841698.122493744 -33614744.548866272 0 0 0 0 5770864.3059363998 -20572655.599766467 0 -20572655.599766467 1374802.5783816054 0 0 0 0 23998513.708745956 -30069956.410896301 0 -30069956.410896301 -95146618.785507202 0 0 0 0 3311790.8338012695 -14074152.214382172 0 -14074152.214382172 -60643561.646148682 0 0 0 0 15952524.623323441 -16218367.090105057 0 -16218367.090105057 -13490267.794044495 0 0 0 0 18214918.476055145 -20256316.899833679 0 -20256316.899833679 -6757704.3072090149 0 0 0 0 15148310.219253881 -14540227.223318361 0 -14540227.223318361 -52423839.699591845 0 0 0 0 9867268.5903053768 -19421349.129070297 0 -19421349.129070297 -18961648.090982415 0 0 0 0 11137397.834877014 -18096770.137504578 0 -18096770.137504578 -25654745.807823181 0 0 0 0 6139716.6980965724 -14914518.331104238 0 -14914518.331104238 -17599569.071838409 0 0 0 0 94852034.933876038 -2406529.8242378235 0 -2406529.8242378235 -42111204.885101318 0 0 0 0 1517553.6690063477 -13123121.594871521 0 -13123121.594871521 -9674032.6768712997 0 0 0 0 2976530.3584401906 -9786349.9242588114 0 -9786349.9242588114 -16721472.023587268 0 0 0 0 2470277.3297987152 752344.6325380113 0 752344.6325380113 6204.7791374176741 0 0 0 0 746801.4885559082 -22064816.169166565 0 -22064816.169166565 -15245223.620594025 0 0 0 0 -2678710.5923690796 -19630692.165359497 0 -19630692.165359497 -32784924.644699097 0 0 0 0 3189051.0535171926 -10831961.152185684 0 -10831961.152185684 -15408903.186401393 0 0 0 0 -1402494.9966974258 -16444882.22731781 0 -16444882.22731781 -34747513.882286072 0 0 0 0 54851778.521644592 -5928720.7205123901 0 -5928720.7205123901 -78980993.364006042 0 0 0 0 51655752.648403168 -177277978.95121765 0 -177277978.95121765 28336414.169647217 0 0 0 0 2702631.1654465422 -17406511.009994499 0 -17406511.009994499 -1042418.98109404 0 0 0 0 -4173889.5304946899 -20160355.697692871 0 -20160355.697692871 -34138146.53817749 0 0 0 0 -342565.04573440552 -102115157.94593811 0 -102115157.94593811 -78226263.254318237 0 0 0 0 -2914133.6609725952 -13202508.235305786 0 -13202508.235305786 -2423296.2476501465 0 0 0 0 8141103.8603127953 -15614790.302971948 0 -15614790.302971948 -9107559.3258797899 0 0 0 0 6432859.6558376262 -15542138.162123159 0 -15542138.162123159 -4356920.4224166945 0 0 0 0 2164475.0278549381 -16295672.008978553 0 -16295672.008978553 -1433225.5054827034 0 0 0 0 85869667.412857026 -9288107.7114455923 0 -9288107.7114455923 10063733.609313965 0 0 0 0 -2606016.1207351685 -13149208.135177612 0 -13149208.135177612 -3187437.3271484375 0 0 0 0 7074850.2787892744 -10606694.331458297 0 -10606694.331458297 -21536226.385256499 0 0 0 0 -116793366.40047455 -80742411.390045166 0 -80742411.390045166 69080186.899932861 0 0 0 0 -21151.65171908577 -15812057.268975634 0 -15812057.268975634 12348420.845947228 0 0 0 0 1862505.3742949734 -6772854.7576871645 0 -6772854.7576871645 -165564.66173967719 0 0 0 0 -166058999.98171806 -56866810.22428298 0 -56866810.22428298 85073655.323638916 0 0 0 0 -45886594.121589661 20021231.752883911 0 20021231.752883911 -44951586.667495728 0 0 0 0 -78486689.101741791 -68213630.464881897 0 -68213630.464881897 56902880.600723267 0 0 0 0 -80242001.240921021 -34664404.359031677 0 -34664404.359031677 109651696.89353561 0 0 0 0 -85799668.599525452 -119365315.23660278 0 -119365315.23660278 29534817.48298645 0 0 0 0 54904444.69272995 -169726946.10932827 0 -169726946.10932827 3974683.1599121094 0 0 0 0 67409195.926822424 -65262568.253029823 0 -65262568.253029823 -4597586.2982177734 0 0 0 0 -87670943.693912506 -19853727.604026794 0 -19853727.604026794 -36935829.940307617 0 0 0 0 -110975826.67652893 -89900446.263771057 0 -89900446.263771057 44167971.613845825 0 0 0 0 26329118.57088089 -67881846.510437012 0 -67881846.510437012 30669137.928909302 0 0 0 0 101849842.10570908 -25723479.288864136 0 -25723479.288864136 16716306.339538574 0 0 0 0 3485162.5401447993 -12744955.811711013 0 -12744955.811711013 -6704450.7487414926 0 0 0 0 -5949718.3630414475 -10908446.632006366 0 -10908446.632006366 10233787.14617376 0 0 0 0 37646646.398216248 -15669309.134433746 0 -15669309.134433746 53007933.462463379 0 0 0 0 -1808315.2445483459 -30148408.360946361 0 -30148408.360946361 4524373.7497657835 0 0 0 0 3732415.6426925659 -19531947.507537842 0 -19531947.507537842 -4250827.486328125 0 0 0 0 -1256786.121105358 -23854033.183531914 0 -23854033.183531914 -4956164.124866128 0 0 0 0 -20848550.466201782 10427843.595081329 0 10427843.595081329 -42748430.241363525 0 0 0 0 6265763.8983595166 -11320338.977698736 0 -11320338.977698736 -35100979.000616677 0 0 0 0 103108391.87271118 -124809586.17076111 0 -124809586.17076111 40691944.451370239 0 0 0 0 32603364.190483093 -72707119.910476685 0 -72707119.910476685 78468704.373039246 0 0 0 0 18984088.060419083 807077.93574523926 0 807077.93574523926 -49955294.242385864 0 0 0 0 780859.35330312327 112421.72817654908 0 112421.72817654908 -9343626.2440284453 0 0 0 0 322929708.91498947 -45992098.793167114 0 -45992098.793167114 -53317276.898215294 0 0 0 0 57686986.351062775 -58599414.339607239 0 -58599414.339607239 -53705343.250640869 0 0 0 0 -10761270.630954742 -55068243.105247498 0 -55068243.105247498 20375822.446289062 0 0 0 0 -4068542.8612785339 4433085.6406707764 0 4433085.6406707764 -2377161.1108932495 0 0 0 0 -68944894.320781708 -186637582.94514465 0 -186637582.94514465 -90398456.357154846 0 0 0 0 -1273577.6343768314 -2859156.2554618753 0 -2859156.2554618753 2497794.3960221708 0 0 0 0 -142784198.38614273 -130182287.37804413 0 -130182287.37804413 -36710243.878234863 0 0 0 0 90633533.988876343 28157544.782714844 0 28157544.782714844 1177851.1052246094 0 0 0 0 -29645905.182067871 9899432.695602417 0 9899432.695602417 51814808.107330322 0 0 0 0 -14917286.047798157 561739.92526245117 0 561739.92526245117 43907477.147491455 0 0 0 0 -20399162.369590759 15552111.472587585 0 15552111.472587585 81027619.911605835 0 0 0 0 -4732512.8595724106 -24795926.63548851 0 -24795926.63548851 -14909813.093658447 0 0 0 0 53126146.609741211 -7357630.9456710815 0 -7357630.9456710815 42137763.943786621 0 0 0 0 -144651274.43930054 -89295832.125701904 0 -89295832.125701904 -14192286.853564739 0 0 0 0 111497496.40389252 -3155243.5349884033 0 -3155243.5349884033 -12750055.586891413 0 0 0 0 -64795911.039756775 -178849917.92237091 0 -178849917.92237091 -62902557.877098083 0 0 0 0 -46063143.421073914 -157911833.59067535 0 -157911833.59067535 -49373044.307312012 0 0 0 0 -305869382.17061615 -156860448.88342285 0 -156860448.88342285 -41308871.595092773 0 0 0 0 -182467056.04838562 -55047115.01385498 0 -55047115.01385498 -132637664.39579773 0 0 0 0 -224691937.26738167 -152583857.21735764 0 -152583857.21735764 -67450013.767669678 0 0 0 0 -381264951.83965302 66600562.797637939 0 66600562.797637939 -242975254.18191528 0 0 0 0 -408189428.69680023 -12270565.663269043 0 -12270565.663269043 237335387.1473999 0 0 0 0 -568619373.80350494 -200609871.62756348 0 -200609871.62756348 67659252.521850586 0 0 0 0 -505545374.63014984 -461031357.44256592 0 -461031357.44256592 932356917.10367584 0 0 0 0 -321603076.13793564 -572656975.57911682 0 -572656975.57911682 242128513.48168945 0 0 0 0 -198945654.34041595 -488738555.9781189 0 -488738555.9781189 -189160089.03036499 0 0 0 0 -197123839.5281601 -380608527.83700562 0 -380608527.83700562 -21109973.708892822 0 0 0 0 -294849375.31124115 -319024238.11703491 0 -319024238.11703491 118354556.8938446 0 0 0 0 -325287883.26407146 -637305548.39410782 0 -637305548.39410782 -164052630.49688721 0 0 0 0 165238312.78741837 61961329.809494019 0 61961329.809494019 60085549.692596436 0 0 0 0 -622532.59196638688 1548256.3268614067 0 1548256.3268614067 -1551267.7883586735 0 0 0 0 161253854.04511261 -34727204.294799805 0 -34727204.294799805 -63791171.527404785 0 0 0 0 118176393.9671936 -44979687.271392822 0 -44979687.271392822 -38777403.052185059 0 0 0 0 173886693.24714661 -33032999.022155762 0 -33032999.022155762 -64650738.218414307 0 0 0 0 240967236.32467651 54920320.626541138 0 54920320.626541138 -60392583.581787109 0 0 0 0 156710711.49440765 38239806.96875 0 38239806.96875 -9245821.715405494 0 0 0 0 261930401.31223679 -26481886.598232269 0 -26481886.598232269 -118972220.6192627 0 0 0 0 194709101.40274811 -75573974.548187256 0 -75573974.548187256 -143216710.84597778 0 0 0 0 292282947.71961784 481570987.89669037 0 481570987.89669037 860314533.33911133 0 0 0 0 253602951.48014069 -48489511.845153809 0 -48489511.845153809 -149060903.96472168 0 0 0 0 437851306.34925842 -53390461.67565918 0 -53390461.67565918 -278148562.24514771 0 0 0 0 -103975708.78352356 -563845261.02758789 0 -563845261.02758789 -645328339.26721191 0 0 0 0 98762976.414085388 -276036751.13677979 0 -276036751.13677979 -904179556.50804138 0 0 0 0 -160576705.32952881 -295841882.08149719 0 -295841882.08149719 -148393132.89611816 0 0 0 0 -29487109.17414856 -171752171.32281494 0 -171752171.32281494 -76904583.03553772 0 0 0 0 -20372320.767478943 -302824853.66766357 0 -302824853.66766357 -463113481.72619629 0 0 0 0 -127610180.50496674 -455868971.80001831 0 -455868971.80001831 -175254211.41738892 0 0 0 0 8723694.8162841797 -222182841.84230042 0 -222182841.84230042 -339471591.72006226 0 0 0 0 -66345734.424259186 -25936967.068163157 0 -25936967.068163157 -146996785.40730309 0 0 0 0 -3461317.3029452059 -39834175.912059285 0 -39834175.912059285 6758151.5432369057 0 0 0 0 -88317796.730808258 99591489.071727753 0 99591489.071727753 138863673.53318787 0 0 0 0 117489990.69756317 178019985.24763489 0 178019985.24763489 -402975227.63529778 0 0 0 0 11061572.399784088 -80841371.997881651 0 -80841371.997881651 -188389887.49865341 0 0 0 0 -176323733.43410969 -158101896.90847206 0 -158101896.90847206 104280858.81028748 0 0 0 0 148947534.80347443 64527743.689971924 0 64527743.689971924 -672083782.80805969 0 0 0 0 45251504.957201004 -63914600.049414158 0 -63914600.049414158 -180088433.37906075 0 0 0 0 18030702.377877235 -83775288.595469296 0 -83775288.595469296 -191932289.9314003 0 0 0 0 26172869.96369338 -40533519.51421845 0 -40533519.51421845 -218644746.94515324 0 0 0 0 -43344877.368457794 -119545965.23986602 0 -119545965.23986602 -134957387.80076075 0 0 0 0 93712448.054626465 -61298612.12143898 0 -61298612.12143898 -317289497.03564596 0 0 0 0 216588474.19877625 -38283364.097137451 0 -38283364.097137451 -50031084.664993286 0 0 0 0 9325423.3353395499 -286023.93144490384 0 -286023.93144490384 -39572324.586018346 0 0 0 0 60505928.786476135 -88968714.159187317 0 -88968714.159187317 -131962445.18312216 0 0 0 0 104302962.67212296 23885218.957590103 0 23885218.957590103 -72905906.387310028 0 0 0 0 87142276.483360291 -69404065.558915615 0 -69404065.558915615 -133500979.64586067 0 0 0 0 51095885.083625793 -64669507.324644089 0 -64669507.324644089 -116057123.65547085 0 0 0 0 17553392.478458405 -68294601.963915348 0 -68294601.963915348 -112950206.02374744 0 0 0 0 2245672.7920503505 -38064271.867834538 0 -38064271.867834538 -2446171.4065938899 0 0 0 0 -112806754.24236298 -490563771.3795166 0 -490563771.3795166 -436445252.36190796 0 0 0 0 -240075737.01369476 -391785126.84588242 0 -391785126.84588242 -121878990.36605549 0 0 0 0 -649991579.66094589 -333895417.00006485 0 -333895417.00006485 8375841.5431518555 0 0 0 0 -299983023.87656784 -508970178.46411324 0 -508970178.46411324 -350708811.47020721 0 0 0 0 -282570049.39951324 -508446009.80894852 0 -508446009.80894852 -350694444.30060339 0 0 0 0 -805552291.75198364 -1141339001.1707211 0 -1141339001.1707211 -1115340751.1020966 0 0 0 0 97605524.787857056 -272158603.90203094 0 -272158603.90203094 -409124346.49653149 0 0 0 0 -77299935.375534058 -602772279.14901733 0 -602772279.14901733 -1019588473.7920303 0 0 0 0 194761438.66759682 186932057.00499344 0 186932057.00499344 -944216624.28098297 0 0 0 0 140686815.51222801 105423554.02660561 0 105423554.02660561 -355141522.18662262 0 0 0 0 -182889359.03833771 -189774522.97035217 0 -189774522.97035217 -583914127.52387619 0 0 0 0 696725649.16191101 234090640.08916187 0 234090640.08916187 -741592716.75532532 0 0 0 0 -568102526.63176727 507628476.29091072 0 507628476.29091072 -1842376768.2132645 0 0 0 0 -78705536.269462585 -545262012.42161179 0 -545262012.42161179 -2636258088.2350273 0 0 0 0 -4032236.3510716707 557375.14445291832 0 557375.14445291832 1455428.2886589076 0 0 0 0 -1265150320.8176584 -1060877409.300581 0 -1060877409.300581 -386892476.8963089 0 0 0 0 -103146342.65835381 -397232410.35544777 0 -397232410.35544777 -867412376.58506012 0 0 0 0 42375668.345516205 -130267887.89129448 0 -130267887.89129448 -85360798.595199585 0 0 0 0 -451029052.26880646 231639083.04323196 0 231639083.04323196 167153292.49303055 0 0 0 0 -1233257711.5931931 -360087618.16611195 0 -360087618.16611195 12319712.152359009 0 0 0 0 -322522970.04294586 -3734746.746837616 0 -3734746.746837616 44573935.436986446 0 0 0 0 -63474916.041954041 53150651.0286026 0 53150651.0286026 -81747207.997398376 0 0 0 0 -281195409.53015137 -43137635.081695557 0 -43137635.081695557 -5171543.6725234985 0 0 0 0 6835004.5762023926 -42192718.543590546 0 -42192718.543590546 6516615.4230804443 0 0 0 0 24612171.208831787 -36743765.500221252 0 -36743765.500221252 -50974681.308977127 0 0 0 0 -10468307.140304565 17205535.519325256 0 17205535.519325256 -64535699.634155273 0 0 0 0 13465544.497055054 -26228147.673919678 0 -26228147.673919678 -21335498.538978577 0 0 0 0 10349483.986801147 -18769809.09513855 0 -18769809.09513855 -11018479.651924133 0 0 0 0 -61578085.081863403 -13712053.779670715 0 -13712053.779670715 23499081.64956665 0 0 0 0 -623098.45405846834 -7826639.4611743661 0 -7826639.4611743661 5360090.8056911975 0 0 0 0 15091672.746367455 -45487028.567902327 0 -45487028.567902327 7842071.0442047119 0 0 0 0 -15776993.290645994 -6202356.7164821178 0 -6202356.7164821178 9239281.7006741241 0 0 0 0 22305137.826442719 -54798704.655563354 0 -54798704.655563354 9949015.1517028809 0 0 0 0 -25987862.121017456 -31467775.456916809 0 -31467775.456916809 63686706.546009064 0 0 0 0 -38434504.029335022 -104013321.60177612 0 -104013321.60177612 206431041.72132683 0 0 0 0 35178547.583511353 -30883367.052575111 0 -30883367.052575111 9551427.3740463257 0 0 0 0 -10783905.494840316 -1030560.0361219514 0 -1030560.0361219514 4624109.2321535191 0 0 0 0 86518871.416267395 -230995638.72926331 0 -230995638.72926331 -1274600862.8509216 0 0 0 0 1295515.8868865967 -459662221.29234982 0 -459662221.29234982 -667052190.1034317 0 0 0 0 -30873186.871803284 -326875892.96876907 0 -326875892.96876907 -814339542.48719025 0 0 0 0 80631202.054450989 -376756395.16059494 0 -376756395.16059494 -804019787.93672943 0 0 0 0 23770715.335319519 -379719020.90217972 0 -379719020.90217972 -641233004.12728119 0 0 0 0 52268626.675994873 -399751238.40417099 0 -399751238.40417099 -659453492.62922668 0 0 0 0 -97463018.043876648 -192433648.73011398 0 -192433648.73011398 -307234673.17205048 0 0 0 0 25158046.081893921 -133892605.76130867 0 -133892605.76130867 -717201593.44528961 0 0 0 0 -61324384.625770569 -335410492.25358963 0 -335410492.25358963 -618120189.90214539 0 0 0 0 -86804810.163764954 -199472733.78892708 0 -199472733.78892708 -303837956.45298767 0 0 0 0 81730711.685150146 32490647.26398468 0 32490647.26398468 -178812628.28974152 0 0 0 0 -1173364.6538105011 -20094395.739177704 0 -20094395.739177704 29939722.957885742 0 0 0 0 -6474652.1618589796 -16707089.76376042 0 -16707089.76376042 15460285.137245283 0 0 0 0 -333531444.66016388 -474096090.94955444 0 -474096090.94955444 -639487497.33474731 0 0 0 0 -995458.98875250295 116653.07366039231 0 116653.07366039231 1855207.8514216132 0 0 0 0 -369701426.46057129 -196605716.56968689 0 -196605716.56968689 159810786.67736816 0 0 0 0 -177509524.27761841 -432411377.18691254 0 -432411377.18691254 -581565675.64627838 0 0 0 0 -502699248.60140991 -668048678.66450882 0 -668048678.66450882 -433094619.31559753 0 0 0 0 -360343299.84912109 -456920193.3435936 0 -456920193.3435936 -563784748.5456543 0 0 0 0 1518273.5533455629 -2913729.505892856 0 -2913729.505892856 -2407316.0048235767 0 0 0 0 -296967507.38861465 -633903709.03205585 0 -633903709.03205585 -431259307.33869934 0 0 0 0 71738606.717025757 -579041056.72850227 0 -579041056.72850227 -574189608.83270264 0 0 0 0 -274740184.75041199 -30879325.80266571 0 -30879325.80266571 130889660.45034027 0 0 0 0 -219413908.47888947 -363531205.12951279 0 -363531205.12951279 -327777662.32559967 0 0 0 0 -567997975.97129822 -302953876.86969948 0 -302953876.86969948 -184145494.82476807 0 0 0 0 -24969778.121910095 -46544405.316661835 0 -46544405.316661835 16893428.740718842 0 0 0 0 4965.4828186035156 -39288410.980224609 0 -39288410.980224609 -2704404.3608703613 0 0 0 0 1220172.0344552398 -13299587.67062901 0 -13299587.67062901 -11938213.692978697 0 0 0 0 136703426.28884888 -27803294.234169006 0 -27803294.234169006 -11347786.005935669 0 0 0 0 -4995598.5032196045 -41348690.57535553 0 -41348690.57535553 2843059.9626464844 0 0 0 0 9613289.7232818604 -39025507.758049011 0 -39025507.758049011 -2864162.1009521484 0 0 0 0 43653500.703125 -41425437.995063782 0 -41425437.995063782 -21055953.972091675 0 0 0 0 9421162.0132598877 -56170889.727401733 0 -56170889.727401733 -9663225.5339202881 0 0 0 0 -10620508.289215088 -65447325.046722412 0 -65447325.046722412 -11390693.058532715 0 0 0 0 -11184385.858474731 -47178722.149932861 0 -47178722.149932861 5353715.8865966797 0 0 0 0 215143.74444586784 -831770.76667482406 0 -831770.76667482406 1523953.8593264567 0 0 0 0 -4453359.5821228027 -40928295.187988281 0 -40928295.187988281 -49853552.121879578 0 0 0 0 -7247614.7148971558 -29203177.018356323 0 -29203177.018356323 -11598227.10760498 0 0 0 0 -5403860.7689666748 -38714994.352233887 0 -38714994.352233887 32347750.447875977 0 0 0 0 2814141.0734240357 -24468587.957087081 0 -24468587.957087081 9731390.4580449611 0 0 0 0 5330086.7726593018 -55360090.094818115 0 -55360090.094818115 -28501596.873687744 0 0 0 0 -1613088.5856758878 178822.38224529289 0 178822.38224529289 1744063.2156366482 0 0 0 0 -29427722.881561279 -61746687.463516235 0 -61746687.463516235 1751886.3448486328 0 0 0 0 -29267185.916519165 -60581261.805145264 0 -60581261.805145264 -11855707.715423584 0 0 0 0 -30935855.233139038 -47127536.177978516 0 -47127536.177978516 30272155.90032959 0 0 0 0 -30260556.641967773 -64583929.500534058 0 -64583929.500534058 -4724601.0027160645 0 0 0 0 -32791534.776123047 -82058790.403610229 0 -82058790.403610229 20877629.618835449 0 0 0 0 -12948111.593582153 -60358452.101722717 0 -60358452.101722717 -1916823.870300293 0 0 0 0 -27614511.282714844 -71840960.003540039 0 -71840960.003540039 -10435796.235412598 0 0 0 0 -26856688.723121643 -80835009.490653992 0 -80835009.490653992 -34062710.569793701 0 0 0 0 -85411676.386045456 -83964920.874671459 0 -83964920.874671459 -18084987.070983887 0 0 0 0 10891348.205137428 -16545944.796606304 0 -16545944.796606304 2067058.7039487362 0 0 0 0 -4343579.2805938721 -66676018.044952393 0 -66676018.044952393 -26325621.439697266 0 0 0 0 -38028033.820968628 -74230412.321365356 0 -74230412.321365356 -16338792.860870361 0 0 0 0 -42485001.838287354 -61847527.271499634 0 -61847527.271499634 -21608814.161437988 0 0 0 0 -86940286.050521851 -62498610.212013245 0 -62498610.212013245 -5640569.8189697266 0 0 0 0 -55224239.64755249 -39093332.745117188 0 -39093332.745117188 -14881379.619812012 0 0 0 0 -55479380.138153076 -78482963.62046814 0 -78482963.62046814 -28857903.805603027 0 0 0 0 -69636896.985107422 -90494261.141941071 0 -90494261.141941071 -26403758.112030029 0 0 0 0 -62165495.03754425 -75449727.150390625 0 -75449727.150390625 -29451922.427886963 0 0 0 0 -70124994.74887085 -87321388.903396606 0 -87321388.903396606 -46769389.917480469 0 0 0 0 13595197.539642334 -79430593.833007812 0 -79430593.833007812 -76497256.991261065 0 0 0 0 -25933989.643974304 -68984590.442321777 0 -68984590.442321777 -36976052.454315186 0 0 0 0 -34408880.114860535 -87341668.614898682 0 -87341668.614898682 -60231255.29788208 0 0 0 0 41951439.922164917 -48612608.095077515 0 -48612608.095077515 -41750671.241546631 0 0 0 0 14029865.534327984 -68532692.015388966 0 -68532692.015388966 -50237381.479248047 0 0 0 0 37247887.689826965 -42067378.959320068 0 -42067378.959320068 -6997512.4289245605 0 0 0 0 -2318105.8665466309 -58786974.963317871 0 -58786974.963317871 -16156892.957069397 0 0 0 0 6548392.5801391602 -66309614.789665222 0 -66309614.789665222 -26349071.650695801 0 0 0 0 37721880.523986816 -36024354.733581543 0 -36024354.733581543 -67246397.962768555 0 0 0 0 99303187.435821533 -9739686.0905151367 0 -9739686.0905151367 -93618697.532272339 0 0 0 0 79883506.544258118 4427137.5778656006 0 4427137.5778656006 -35102749.738464355 0 0 0 0 78046951.491467759 2891265.9893701971 0 2891265.9893701971 -21107708.613342285 0 0 0 0 95132664.040847778 2793182.1180419922 0 2793182.1180419922 -65799544.283660889 0 0 0 0 66249653.841415405 -23348166.264022827 0 -23348166.264022827 -48167522.117591858 0 0 0 0 98551464.557529449 -6686810.3998947144 0 -6686810.3998947144 -49044898.613433838 0 0 0 0 72824529.347290039 -34487977.819232941 0 -34487977.819232941 -85616737.230560303 0 0 0 0 23048513.477798462 -40440276.397766113 0 -40440276.397766113 -47503340.615602493 0 0 0 0 25254621.257415771 -49817893.847427368 0 -49817893.847427368 -76509370.217627302 0 0 0 0 -2340878.5759429932 -66461043.736068726 0 -66461043.736068726 -80263893.58026123 0 0 0 0 -2373889.9749145508 -63871597.475875854 0 -63871597.475875854 -172447209.25236511 0 0 0 0 -76161863.67647934 -105259494.18143082 0 -105259494.18143082 -10801427.794586182 0 0 0 0 -61427311.74446106 -119260860.41699219 0 -119260860.41699219 -78573312.629577637 0 0 0 0 -75662451.128356934 -107068869.06742859 0 -107068869.06742859 -30754933.859359741 0 0 0 0 -41995372.38609314 -40768405.182243347 0 -40768405.182243347 -60218894.867492676 0 0 0 0 -60113419.042617798 -2106304.7415466309 0 -2106304.7415466309 -95825621.586349487 0 0 0 0 38482042.137741089 -33083922.78767395 0 -33083922.78767395 -115840222.11677551 0 0 0 0 15514175.099266052 -100484093.16144562 0 -100484093.16144562 -104719213.33465576 0 0 0 0 24917116.675933838 -57415063.546798706 0 -57415063.546798706 -74305240.686859131 0 0 0 0 -128600100.72210312 -80264840.447093964 0 -80264840.447093964 -24243437.874176025 0 0 0 0 149103135.4981842 7527145.0799636841 0 7527145.0799636841 -73321868.86026001 0 0 0 0 384507846.58351898 259541778.51019287 0 259541778.51019287 42561274.49861145 0 0 0 0 111592941.51225281 78155330.396286011 0 78155330.396286011 17215107.133758545 0 0 0 0 98725820.721351624 28496596.507278442 0 28496596.507278442 -53661761.660003662 0 0 0 0 73441075.946014404 26304727.156188965 0 26304727.156188965 46863486.935546875 0 0 0 0 -208582.11313678324 -3869081.688681215 0 -3869081.688681215 -2848839.2629034743 0 0 0 0 -18460519.208148293 -9056468.2769083325 0 -9056468.2769083325 -23261441.431030273 0 0 0 0 79959315.097290039 81436334.929321289 0 81436334.929321289 56295542.258209229 0 0 0 0 -2160366.8104075082 -1854351.6795208566 0 -1854351.6795208566 -2253262.8991532698 0 0 0 0 -72323636.72832489 73584142.986724854 0 73584142.986724854 -157767751.17216492 0 0 0 0 -605905.21989440918 -46410662.040023804 0 -46410662.040023804 -27080833.13474369 0 0 0 0 -100388059.12996282 79341536.450796038 0 79341536.450796038 -101430553.55938721 0 0 0 0 -76273791.188705444 136911500.91651917 0 136911500.91651917 -141009974.86177063 0 0 0 0 -108512531.43412781 97197375.000549316 0 97197375.000549316 -23724674.555282593 0 0 0 0 -97179107.793899536 221655481.84573364 0 221655481.84573364 36874693.971614838 0 0 0 0 38644652.010871887 413182505.82125854 0 413182505.82125854 805452360.87393188 0 0 0 0 38995746.079216003 166365514.84558105 0 166365514.84558105 -171329847.38562012 0 0 0 0 -153992561.68888855 70729358.303604126 0 70729358.303604126 -111367493.14738083 0 0 0 0 683271902.42139435 108960063.39497375 0 108960063.39497375 126202404.21983337 0 0 0 0 607902.96778465062 -744368.70158659294 0 -744368.70158659294 -1513311.3030000478 0 0 0 0 -51150301.357879639 -75952397.532287598 0 -75952397.532287598 196417642.13864136 0 0 0 0 173723920.11402893 -374005372.41387558 0 -374005372.41387558 -1704724.0468139648 0 0 0 0 -848126395.45849609 -617871137.40893555 0 -617871137.40893555 -21012670.348861694 0 0 0 0 1683295.5323181152 133805704.62625122 0 133805704.62625122 369885870.27590942 0 0 0 0 272518024.84139252 578565091.87390137 0 578565091.87390137 105806997.81586695 0 0 0 0 3676788.8107719803 -2758826.1532666003 0 -2758826.1532666003 -5445507.6019648015 0 0 0 0 -169317904.16505718 -539656715.53172588 0 -539656715.53172588 -712004529.40640259 0 0 0 0 983615841.55727386 531008252.82500458 0 531008252.82500458 -1314006467.2862244 0 0 0 0 660136.95011814311 262360.95697563887 0 262360.95697563887 -1808914.1117388196 0 0 0 0 392705532.94979095 -259309919.64359665 0 -259309919.64359665 -992380001.72247314 0 0 0 0 794720827.44036865 519008470.34907532 0 519008470.34907532 -756342490.82684708 0 0 0 0 -317213345.91537762 -1201865210.0908165 0 -1201865210.0908165 -1779355.9145050049 0 0 0 0 1345400360.2638969 -638798787.22963715 0 -638798787.22963715 -112400816.40366364 0 0 0 0 -186443220.47304249 -574039078.93847656 0 -574039078.93847656 -1121028710.2580261 0 0 0 0 -797001401.65112305 -94704906.76776123 0 -94704906.76776123 -210193310.07039642 0 0 0 0 7549549.1191538572 -11251117.479662675 0 -11251117.479662675 9899635.235730499 0 0 0 0 -18745395.578594208 111418287.2226181 0 111418287.2226181 -367163901.87350464 0 0 0 0 -80862189.821866035 -106211972.96902418 0 -106211972.96902418 -19386930.72505188 0 0 0 0 -31928464.821389198 -326891030.44220161 0 -326891030.44220161 -350042309.48603821 0 0 0 0 -374204391.88880157 10188595.110801697 0 10188595.110801697 -134669427.29998779 0 0 0 0 -1625499.3462354895 -7914.8298689648509 0 -7914.8298689648509 940662.80601154268 0 0 0 0 -69599817.962188721 12187520.022781372 0 12187520.022781372 59682510.817108154 0 0 0 0 -58503245.763812065 -67147986.369571209 0 -67147986.369571209 -11416513.391601562 0 0 0 0 11416482.840869589 -15640107.529407242 0 -15640107.529407242 4229665.9468820021 0 0 0 0 8048614.0999603271 21486029.735450745 0 21486029.735450745 -25488649.806671143 0 0 0 0 5429224.6417176872 -5182332.304936531 0 -5182332.304936531 -1112446.7209027112 0 0 0 0 -49688598.167022705 20579939.847846985 0 20579939.847846985 59429556.750091553 0 0 0 0 13987346.737158775 -16011442.372122765 0 -16011442.372122765 -31663337.136627197 0 0 0 0 -83667372.410802126 -38929647.437030911 0 -38929647.437030911 -25226303.857208252 0 0 0 0 -49879718.885650635 -43860818.079734802 0 -43860818.079734802 -7037809.4346313477 0 0 0 0 -113172562.98419189 -24510317.565200806 0 -24510317.565200806 -10379631.142753601 0 0 0 0 -85562627.507492065 6595484.7869873047 0 6595484.7869873047 -24304853.055343628 0 0 0 0 -221410826.5524025 -95404923.207771301 0 -95404923.207771301 29341321.74646759 0 0 0 0 10453521.865764618 -137854664.28313828 0 -137854664.28313828 -48980923.934310913 0 0 0 0 -55636473.920249939 -120395553.36811447 0 -120395553.36811447 21531647.39655304 0 0 0 0 -51054878.008741856 116910289.16622353 0 116910289.16622353 76099596.970458984 0 0 0 0 -28238607.49294281 -17368804.074893951 0 -17368804.074893951 2780050.0997104645 0 0 0 0 5876803.389148768 -2972170.8964744303 0 -2972170.8964744303 -3034020.8727230728 0 0 0 0 84691804.912811279 -88370516.545303345 0 -88370516.545303345 -107345343.44334412 0 0 0 0 6652972.40850191 -8116178.2482109424 0 -8116178.2482109424 6468352.6092799082 0 0 0 0 -239285842.24410248 -315997007.40309906 0 -315997007.40309906 77144595.09752655 0 0 0 0 1002757377.4130554 -368124975.28025055 0 -368124975.28025055 -189348352.82965851 0 0 0 0 -184798995.11800432 4342530.4691939354 0 4342530.4691939354 410035863.04229736 0 0 0 0 646678842.16296387 -236211035.76247406 0 -236211035.76247406 -36052455.590927124 0 0 0 0 3168073.615929123 -1017445.2338350099 0 -1017445.2338350099 -2154937.3242201358 0 0 0 0 131992207.77580595 239183296.04823112 0 239183296.04823112 252286357.49417114 0 0 0 0 -22204876.398115158 -519178391.73958206 0 -519178391.73958206 204807019.45622253 0 0 0 0 1018647065.3756943 -481907895.51205444 0 -481907895.51205444 268877748.15182114 0 0 0 0 76641225.245452881 -668824940.38612747 0 -668824940.38612747 397165657.3482666 0 0 0 0 -488750262.06586075 -706470922.54784393 0 -706470922.54784393 468795923.23103714 0 0 0 0 -187636998.32608032 -533471516.30926514 0 -533471516.30926514 217077470.79540253 0 0 0 0 -226948750.13189697 -426195486.97159576 0 -426195486.97159576 186184244.1812892 0 0 0 0 -277444995.26753807 -436315701.01511765 0 -436315701.01511765 186869655.40102386 0 0 0 0 -228203410.78453064 -306560590.31383514 0 -306560590.31383514 23549161.631481171 0 0 0 0 176877342.41703606 -404221664.88414955 0 -404221664.88414955 46612624.928771973 0 0 0 0 -281137106.17902374 -223485920.73374176 0 -223485920.73374176 39935004.042301178 0 0 0 0 -102900661.05473137 -249165671.95640564 0 -249165671.95640564 17492319.592407227 0 0 0 0 -195429267.32275391 -417175762.44940948 0 -417175762.44940948 -124071812.94702959 0 0 0 0 -344709776.95839977 -415507779.81672668 0 -415507779.81672668 41606804.056594849 0 0 0 0 -200286732.70892334 -432454643.69328308 0 -432454643.69328308 27249830.952903748 0 0 0 0 -138522425.80710983 -395694049.39890671 0 -395694049.39890671 41745089.46697998 0 0 0 0 -1233109478.371666 501994516.83255005 0 501994516.83255005 122988169.34230042 0 0 0 0 -743131720.61512756 461675950.24046326 0 461675950.24046326 -103808760.46078491 0 0 0 0 -199106836.13162231 -38097896.748931885 0 -38097896.748931885 264289866.08164978 0 0 0 0 -890054194.59152222 -187689103.77825928 0 -187689103.77825928 294798460.7363739 0 0 0 0 -332258710.20059586 -301896531.91345215 0 -301896531.91345215 40416226.887237549 0 0 0 0 -6751933.2666449994 -1816763.6200503185 0 -1816763.6200503185 3138466.2048546076 0 0 0 0 -101299234.72259998 -548974901.8068676 0 -548974901.8068676 678342563.44084167 0 0 0 0 -1503188736.0633545 257015843.96831131 0 257015843.96831131 622394366.77926636 0 0 0 0 4644933.2326431274 393839269.11314392 0 393839269.11314392 -198607593.16907501 0 0 0 0 -512887130.42526245 271273058.97232819 0 271273058.97232819 -701881275.87774658 0 0 0 0 -3141403.0567712709 572841.22151004523 0 572841.22151004523 1770573.9517984837 0 0 0 0 -494660084.73094177 -271199658.38324738 0 -271199658.38324738 150019820.60705185 0 0 0 0 -1416290185.8497329 -276873911.92873049 0 -276873911.92873049 495453267.44598389 0 0 0 0 -315640427.60556889 -845058158.42396736 0 -845058158.42396736 718109104.62321472 0 0 0 0 664815455.46344757 -1249464477.3538284 0 -1249464477.3538284 848710750.43386078 0 0 0 0 -697900477.07708168 185335022.01755333 0 185335022.01755333 1507889137.2232361 0 0 0 0 416249953.55921173 -1179633008.7262497 0 -1179633008.7262497 437091543.84799957 0 0 0 0 1339379066.2112961 879394572.27703857 0 879394572.27703857 -1238097550.6531372 0 0 0 0 2935280.3824217394 -3185015.9147692397 0 -3185015.9147692397 2443529.351901561 0 0 0 0 1714768341.2896118 -693301081.53231049 0 -693301081.53231049 -78848381.170761108 0 0 0 0 -402670462.68139648 -219064787.74861145 0 -219064787.74861145 -251533443.92032814 0 0 0 0 -817785396.75851822 72419152.584854126 0 72419152.584854126 1784975891.4867554 0 0 0 0 -542371683.36500549 -77643231.355228424 0 -77643231.355228424 211492392.92930603 0 0 0 0 -542795283.4757843 -422309308.97888947 0 -422309308.97888947 1928909191.0609779 0 0 0 0 -9876712.7903176658 -6940150.1470302828 0 -6940150.1470302828 4499696.3438985758 0 0 0 0 137891144.57391357 -233525813.25371933 0 -233525813.25371933 -882851517.00040436 0 0 0 0 283356891.80847931 -387932213.10620117 0 -387932213.10620117 53921500.920806885 0 0 0 0 -342053812.73039246 -329230970.52458191 0 -329230970.52458191 91549882.982780457 0 0 0 0 -1047637.6683020424 -8534338.9428837597 0 -8534338.9428837597 5756707.7756432891 0 0 0 0 309666732.64352417 -305452929.99411583 0 -305452929.99411583 181374922.9486084 0 0 0 0 652355249.35475159 -217112490.24149323 0 -217112490.24149323 6741342.9608764648 0 0 0 0 -356784812.04105186 -843847204.35207748 0 -843847204.35207748 -116600207.33743286 0 0 0 0 -6177590.9606971927 -5573688.9137352705 0 -5573688.9137352705 3478607.7873997465 0 0 0 0 174653276.9359436 14547300.94153595 0 14547300.94153595 -874936549.35758972 0 0 0 0 149169489.24104309 -45045412.432357788 0 -45045412.432357788 -2122499549.7610474 0 0 0 0 -2241990.0256265141 -1397395.5352405086 0 -1397395.5352405086 1199017.5545654595 0 0 0 0 244274587.15664196 -332031874.6382885 0 -332031874.6382885 287023654.01176453 0 0 0 0 176861728.65629196 -96344457.469726562 0 -96344457.469726562 80967296.835975647 0 0 0 0 -282659933.57341003 -412436167.07681274 0 -412436167.07681274 226410972.58831787 0 0 0 0 -1580994.4015142582 -8306628.3247886347 0 -8306628.3247886347 8315088.1762354076 0 0 0 0 247479774.15665817 -214734273.86251831 0 -214734273.86251831 173105538.92831421 0 0 0 0 -360022183.16340637 531569526.38584137 0 531569526.38584137 1711392911.6274414 0 0 0 0 -208485.24305327795 -2869415.8331608726 0 -2869415.8331608726 3138686.9157004952 0 0 0 0 -195048087.53671455 -1022014383.4782791 0 -1022014383.4782791 2246233627.1939697 0 0 0 0 879554016.47964287 1075297735.8717709 0 1075297735.8717709 589662038.75616455 0 0 0 0 -72983944.234069824 -77618137.55380249 0 -77618137.55380249 2550744915.0852356 0 0 0 0 1716738361.1196327 -1124118133.2894287 0 -1124118133.2894287 678084705.88671875 0 0 0 0 667948072.38057899 -665849677.96635056 0 -665849677.96635056 319981951.70349121 0 0 0 0 384821172.07272339 -223000564.58013153 0 -223000564.58013153 102854492.73471069 0 0 0 0 152265925.39380646 -703272743.74057007 0 -703272743.74057007 771575555.00912762 0 0 0 0 -160069359.83100128 -10769269.103729248 0 -10769269.103729248 718312207.94628811 0 0 0 0 -33805913.819219589 -115394549.83232689 0 -115394549.83232689 735207013.17150879 0 0 0 0 -130049909.21520233 -111426788.54772186 0 -111426788.54772186 284258363.29412842 0 0 0 0 -340146545.0643158 30537541.475883484 0 30537541.475883484 301388156.27793884 0 0 0 0 31380579.307567596 -390670979.56648636 0 -390670979.56648636 99480701.170852661 0 0 0 0 440965402.7170105 -638533230.17615509 0 -638533230.17615509 247538013.26895142 0 0 0 0 273843299.27379227 -739815893.97657585 0 -739815893.97657585 190885568.97161865 0 0 0 0 43462735.748825073 -434090128.97625732 0 -434090128.97625732 235760204.09773254 0 0 0 0 -172917584.8669138 -854300958.30128527 0 -854300958.30128527 186050506.63571167 0 0 0 0 -81086737.409561157 -392887058.35998535 0 -392887058.35998535 411011360.69754028 0 0 0 0 1942362576.8325691 -495804943.63009644 0 -495804943.63009644 -983794877.51019287 0 0 0 0 157811042.56497192 190776614.22660255 0 190776614.22660255 151110742.45413208 0 0 0 0 -386455231.58491516 -1053053246.6382637 0 -1053053246.6382637 -300789988.15391541 0 0 0 0 -189195022.41292572 -374868185.55497742 0 -374868185.55497742 340260606.1060791 0 0 0 0 661575534.68767548 -410612990.47634697 0 -410612990.47634697 228318222.68777466 0 0 0 0 2473974595.9203415 48650999.707206726 0 48650999.707206726 -162867551.67638397 0 0 0 0 2409084973.3066826 -10631525.96068573 0 -10631525.96068573 144342544.96671295 0 0 0 0 668647731.58773518 -450741702.6652317 0 -450741702.6652317 454327826.91725159 0 0 0 0 2274397040.2632141 -1137105188.5140762 0 -1137105188.5140762 1087518.1321105957 0 0 0 0 3550077112.2120781 -604185451.75978851 0 -604185451.75978851 -431727464.94052124 0 0 0 0 458153064.91948318 -1350114758.4560032 0 -1350114758.4560032 -1408161.9640960693 0 0 0 0 921992431.54571152 -297915549.35257721 0 -297915549.35257721 476016266.65441895 0 0 0 0 -63289109.704963684 -746580488.43793488 0 -746580488.43793488 551109030.76906395 0 0 0 0 -648362233.47694778 395144875.23888397 0 395144875.23888397 -166336601.42576599 0 0 0 0 988591.46302931756 -2523297.4912834689 0 -2523297.4912834689 -1135207.4931976199 0 0 0 0 -1148187274.1384544 -323543203.55069733 0 -323543203.55069733 641403570.45060349 0 0 0 0 4092875.5498275757 -7028088.7803192139 0 -7028088.7803192139 6015.0889092051657 0 0 0 0 827063.46803665161 -4108570.7426147461 0 -4108570.7426147461 1419703.5763549805 0 0 0 0 -167131305.19915009 -36009837.681015015 0 -36009837.681015015 219901523.80314636 0 0 0 0 -85830792.327949524 -192359128.35459137 0 -192359128.35459137 133662932.55171585 0 0 0 0 -41660349.78830719 -174186767.1884079 0 -174186767.1884079 -46169073.152313232 0 0 0 0 -321983451.50432205 -455859973.16959 0 -455859973.16959 431651734.45291138 0 0 0 0 -286413672.84204865 -749727536.24341583 0 -749727536.24341583 255734414.66770172 0 0 0 0 -133879868.98320389 -288166301.46002769 0 -288166301.46002769 -59659535.290618896 0 0 0 0 372644728.37010193 -783751264.37752533 0 -783751264.37752533 -363688401.55184937 0 0 0 0 817225116.47913742 -124740171.17274094 0 -124740171.17274094 -49956542.268753052 0 0 0 0 -792058.4550295826 -790339.62707121298 0 -790339.62707121298 1180523.1685353816 0 0 0 0 -1212527980.5775986 -424953192.36976624 0 -424953192.36976624 -269677315.1493988 0 0 0 0 378926127.57401276 -316842132.98965454 0 -316842132.98965454 229768041.99423218 0 0 0 0 408826989.57734108 -429929486.84783554 0 -429929486.84783554 -178647420.43103027 0 0 0 0 -94306087.85546875 -248819175.95220947 0 -248819175.95220947 57860367.395782471 0 0 0 0 -560240890.95133972 -119041036.23200989 0 -119041036.23200989 -439918620.7928772 0 0 0 0 -304478695.90151978 -677074616.78342438 0 -677074616.78342438 -513753056.83163452 0 0 0 0 876155807.61878967 430680255.73300171 0 430680255.73300171 409387870.88869476 0 0 0 0 774789226.99214172 -313211599.06745911 0 -313211599.06745911 -679388383.9432373 0 0 0 0 2165150033.7561111 -477178105.70320892 0 -477178105.70320892 -1374131474.0376587 0 0 0 0 665951901.58866882 82174075.288986206 0 82174075.288986206 -292414054.63632202 0 0 0 0 345139858.1466713 -613883657.90344238 0 -613883657.90344238 -1074975566.8449707 0 0 0 0 -425274493.13746643 285562695.38983154 0 285562695.38983154 -583955878.3811264 0 0 0 0 631781063.54680252 -1229441473.1268463 0 -1229441473.1268463 -179409664.88128662 0 0 0 0 -1425318458.9888077 -685738740.66836548 0 -685738740.66836548 -205358217.18560791 0 0 0 0 2395613503.8410645 678808070.67902374 0 678808070.67902374 -840795423.66004944 0 0 0 0 -1861763.6962606814 -2877337.4242320322 0 -2877337.4242320322 2894073.1740852743 0 0 0 0 -161072.42456109636 -2584211.8399222977 0 -2584211.8399222977 1874963.8146787435 0 0 0 0 -1090569641.6935883 -754374637.59538269 0 -754374637.59538269 -240433070.33106995 0 0 0 0 55292430.890144348 -50302899.36492157 0 -50302899.36492157 20338404.858032227 0 0 0 0 -116365340.49230194 38529063.844062805 0 38529063.844062805 -11538022.044189453 0 0 0 0 -911009.30176631734 -4771529.674171932 0 -4771529.674171932 -1876113.3033511266 0 0 0 0 -7053157.2096252441 -8511138.7485618591 0 -8511138.7485618591 1914462.2577667236 0 0 0 0 -4883152.0349121094 -5971208.7691345215 0 -5971208.7691345215 1791103.8801727295 0 0 0 0 -3976573.0438995361 -7891623.1698951721 0 -7891623.1698951721 -3095.6735382080078 0 0 0 0 463571358.61961269 1003361493.7731075 0 1003361493.7731075 -1163428366.4234314 0 0 0 0 -5151237.0736213475 -1254851.7311879937 0 -1254851.7311879937 1297518.0072064102 0 0 0 0 401620798.7575531 593735409.8239212 0 593735409.8239212 -379187128.6756897 0 0 0 0 806969610.66592407 -1011043530.5230713 0 -1011043530.5230713 626681810.8782959 0 0 0 0 -2231584.9888582453 -3530496.8523523137 0 -3530496.8523523137 -1427161.64685072 0 0 0 0 1009085992.1327972 945847084.93333435 0 945847084.93333435 -142486785.54461074 0 0 0 0 982908527.66368103 -646195044.91363144 0 -646195044.91363144 -2069937775.1096802 0 0 0 0 -4808366472.5952682 -228082434.26419067 0 -228082434.26419067 1866505987.5233765 0 0 0 0 245573378.59529114 -325787933.87454224 0 -325787933.87454224 -409451570.38065338 0 0 0 0 -2179312443.2008858 -685392310.51978302 0 -685392310.51978302 -53214711.261672974 0 0 0 0 -1042770102.9772568 -327592651.98005676 0 -327592651.98005676 1814003.3557717267 0 0 0 0 -906815165.32223511 -706272903.8470459 0 -706272903.8470459 -379946229.90698242 0 0 0 0 -2865252.4274291992 -100461242.24064636 0 -100461242.24064636 -250291110.31991577 0 0 0 0 -165203377.76980591 -167612435.90515137 0 -167612435.90515137 -133259587.68140411 0 0 0 0 -397499233.77108765 -792371952.67585754 0 -792371952.67585754 -646894389.19517517 0 0 0 0 20170849.913269043 48322917.667442322 0 48322917.667442322 90978183.515106201 0 0 0 0 -55169760.085845947 -79084374.982635498 0 -79084374.982635498 236261150.59236145 0 0 0 0 -4738439985.601059 734780120.02110291 0 734780120.02110291 753558189.57659912 0 0 0 0 -1983858.1095464062 -3684593.4835747033 0 -3684593.4835747033 -3494090.7501746565 0 0 0 0 -1750833.1361219808 -1195771.7399738431 0 -1195771.7399738431 -191230.62762336433 0 0 0 0 -404885769.25053406 121992107.29287338 0 121992107.29287338 -1640221392.8080444 0 0 0 0 -4237218651.3425598 -825816211.92288208 0 -825816211.92288208 1659289830.8166504 0 0 0 0 -1442487557.6189728 -1092388406.3334045 0 -1092388406.3334045 -1307730255.3963966 0 0 0 0 -2409036108.7756348 320995955.42144775 0 320995955.42144775 -1643175504.0385742 0 0 0 0 -2112952818.3486328 1763554957.3657684 0 1763554957.3657684 -1004343257.981781 0 0 0 0 -3448814347.7753716 6320977.1816711426 0 6320977.1816711426 -46431457.702392578 0 0 0 0 -1076068254.0279083 44207690.880844116 0 44207690.880844116 -72389977.461658478 0 0 0 0 -1317697583.2125931 -134709822.35668945 0 -134709822.35668945 54767711.770355225 0 0 0 0 -1700189052.2552338 677144414.61566162 0 677144414.61566162 -4721358.6072998047 0 0 0 0 47681578.834335327 -142118935.68461609 0 -142118935.68461609 148525606.92498779 0 0 0 0 -1364099111.3937607 639596419.30001068 0 639596419.30001068 -298220810.92626953 0 0 0 0 -4111968.5627059452 -10763763.792076491 0 -10763763.792076491 -9742063.6245623976 0 0 0 0 793730548.13017988 570280900.24057484 0 570280900.24057484 180267233.01040649 0 0 0 0 690573866.768013 477784552.34996033 0 477784552.34996033 295160555.66699219 0 0 0 0 -495309.20815898851 3142376.3133229129 0 3142376.3133229129 -6066796.7806286514 0 0 0 0 -159857139.14272708 -128836314.31213474 0 -128836314.31213474 -88166147.482696533 0 0 0 0 -159884690.84915543 -131583881.2802887 0 -131583881.2802887 -60048527.599853516 0 0 0 0 676929911.05957031 417502964.98471069 0 417502964.98471069 481015130.06817627 0 0 0 0 -168886186.6018219 -215632947.82572937 0 -215632947.82572937 -156733011.79455566 0 0 0 0 -63632641.463897705 -168810077.25352478 0 -168810077.25352478 -126782882.93060303 0 0 0 0 -124712941.70357513 -175255736.94723511 0 -175255736.94723511 -124879835.98322296 0 0 0 0 -73135318.588951111 -249451496.26703644 0 -249451496.26703644 -199748627.25140381 0 0 0 0 10566711.010391235 -199538293.17607117 0 -199538293.17607117 -174763502.82171631 0 0 0 0 3026547.842716217 -256320335.8612051 0 -256320335.8612051 -189945520.07574463 0 0 0 0 122585704.4305687 -202637469.21710968 0 -202637469.21710968 -168087080.63658142 0 0 0 0 -65216821.360031128 -172822588.82227325 0 -172822588.82227325 -133596156.97155762 0 0 0 0 19875708.477905273 -161157364.61053467 0 -161157364.61053467 -136972053.42433929 0 0 0 0 26194268.299545288 -27159317.918807983 0 -27159317.918807983 -8220826.066192627 0 0 0 0 118763754.81135559 -94838731.486526489 0 -94838731.486526489 -94864193.90737915 0 0 0 0 204186986.09371185 -9949448.8956756592 0 -9949448.8956756592 -88546952.925720215 0 0 0 0 101777856.90567732 -192951810.19501972 0 -192951810.19501972 -171495343.34640503 0 0 0 0 251620801.9614563 -106550393.86907959 0 -106550393.86907959 -133761097.58370972 0 0 0 0 245426776.64888763 112607178.26322746 0 112607178.26322746 -176005777.09408569 0 0 0 0 471821203.10039711 24384338.890789032 0 24384338.890789032 -385910935.23641968 0 0 0 0 225678.59668499511 4649937.9172064215 0 4649937.9172064215 -11307101.204014316 0 0 0 0 -79106982.090435028 -64642478.491653442 0 -64642478.491653442 -18674814.024841309 0 0 0 0 831843076.95704651 235609681.83843994 0 235609681.83843994 313261233.26281738 0 0 0 0 206058911.70994568 196321268.08856201 0 196321268.08856201 515826266.10152054 0 0 0 0 -128470.5647587385 -50312.674504242837 0 -50312.674504242837 65229.712692692876 0 0 0 0 423837586.72306442 -145804960.98881531 0 -145804960.98881531 -43051478.385070801 0 0 0 0 -393162403.58117676 -394296346.02835083 0 -394296346.02835083 -594704528.29656982 0 0 0 0 95280079.369384766 -148311085.16278076 0 -148311085.16278076 -486150859.03935242 0 0 0 0 -74100095.527637482 29497609.914794922 0 29497609.914794922 -263166970.84490967 0 0 0 0 52236023.6733284 -210381471.08908844 0 -210381471.08908844 -533136725.13790512 0 0 0 0 1062061.5124811791 -3185385.4306761362 0 -3185385.4306761362 491522.69374089316 0 0 0 0 -74535534.652679443 -63003972.701141357 0 -63003972.701141357 -159514849.75994873 0 0 0 0 21628481.209754944 -58000801.775299072 0 -58000801.775299072 -446719369.36886597 0 0 0 0 -12993708.07144165 -45710028.835494995 0 -45710028.835494995 -265330152.84063721 0 0 0 0 -24301856.070907593 -97023684.178527832 0 -97023684.178527832 -301981324.35662842 0 0 0 0 -7445945.8506164551 -48400994.054504395 0 -48400994.054504395 -320081530.19812012 0 0 0 0 -27794504.083236694 -60587818.7993927 0 -60587818.7993927 -146109186.28030396 0 0 0 0 -48800510.286735535 -106782177.26327515 0 -106782177.26327515 -137669285.28396606 0 0 0 0 -24523274.085662842 -87664128.746185303 0 -87664128.746185303 -250206194.29263306 0 0 0 0 -17797797.188327789 -266974384.84770203 0 -266974384.84770203 -411585201.90113068 0 0 0 0 -22705273.583930969 -17544762.266769409 0 -17544762.266769409 -460453961.67669678 0 0 0 0 103798142.60187531 -55237102.730602264 0 -55237102.730602264 -239070095.79876709 0 0 0 0 14445644.710945129 -163231152.60292053 0 -163231152.60292053 -272051661.06445312 0 0 0 0 -72435223.003250122 -72708704.248062134 0 -72708704.248062134 -719369.83340454102 0 0 0 0 -29122581.121086121 -201290493.15515137 0 -201290493.15515137 -85932342.179641724 0 0 0 0 -132344409.18527603 -237908814.70959473 0 -237908814.70959473 -230283867.75636292 0 0 0 0 -121325910.60731196 -17110513.735546589 0 -17110513.735546589 -242201291.33462524 0 0 0 0 10115722.92256546 9409839.618560791 0 9409839.618560791 -10617439.463973999 0 0 0 0 -1525998.5739746094 -24654787.42124176 0 -24654787.42124176 6543076.5649261475 0 0 0 0 14989710.93888855 4370870.8704071045 0 4370870.8704071045 -23993560.404441833 0 0 0 0 10626889.044464111 2336240.9167633057 0 2336240.9167633057 -14421761.164199829 0 0 0 0 -620805.73388032429 3752456.1783568431 0 3752456.1783568431 -2264618.1887890548 0 0 0 0 488989047.03801727 926465766.79342651 0 926465766.79342651 -134051183.19805908 0 0 0 0 1266329679.7250252 -97004085.135101318 0 -97004085.135101318 457054907.98011017 0 0 0 0 -255249.81591471937 1037735.7644383758 0 1037735.7644383758 -1702466.5213129818 0 0 0 0 7565160.0674476624 7037442.954574585 0 7037442.954574585 6471113.2886962891 0 0 0 0 47535665.987262726 10633029.069625854 0 10633029.069625854 6080706.1901865005 0 0 0 0 28018179.099449158 -23093242.70526123 0 -23093242.70526123 5378932.1139526367 0 0 0 0 51100101.673210144 -30094145.438278198 0 -30094145.438278198 6454226.7452392578 0 0 0 0 42736052.932060242 -20639305.900367737 0 -20639305.900367737 870600.68734741211 0 0 0 0 55327809.426253319 -36998186.313100815 0 -36998186.313100815 -3598338.6956787109 0 0 0 0 67874924.27015686 -36316888.787445068 0 -36316888.787445068 -14938682.992530823 0 0 0 0 83191849.39680481 -12897928.445495605 0 -12897928.445495605 -11595642.331970215 0 0 0 0 72484940.30947876 -16973140.197277069 0 -16973140.197277069 -1188655.3811035156 0 0 0 0 94307552.987716675 12144045.658508301 0 12144045.658508301 -9212325.8683635294 0 0 0 0 68308488.622034073 3658891.7015800476 0 3658891.7015800476 -5586380.6325073242 0 0 0 0 137723814.38241577 -6637443.9815979004 0 -6637443.9815979004 -26215335.792175293 0 0 0 0 83099080.788368225 -16529581.678436279 0 -16529581.678436279 -27637954.494506836 0 0 0 0 100178638.80715942 -33171022.90057373 0 -33171022.90057373 -14777543.081604004 0 0 0 0 121549786.87414169 -41678847.177505493 0 -41678847.177505493 -36354734.186767578 0 0 0 0 83031972.20476532 -49129842.868865967 0 -49129842.868865967 -25832382.83190918 0 0 0 0 67802726.814083099 2159366.9424133301 0 2159366.9424133301 -3478440.0452270508 0 0 0 0 -578867904.07076406 -567179656.69703388 0 -567179656.69703388 -583026651.47283936 0 0 0 0 1056416163.6344604 520814174.49014282 0 520814174.49014282 -1197172580.0031738 0 0 0 0 -1291850.1867446899 3797759.7451022416 0 3797759.7451022416 -2809548.4934004843 0 0 0 0 -583117164.86399841 1016022654.1778259 0 1016022654.1778259 1200172131.0710564 0 0 0 0 -343638878.58049011 626263624.97244263 0 626263624.97244263 -928841907.46151733 0 0 0 0 -196730669.59221649 -306488508.15473938 0 -306488508.15473938 -1241837427.2722473 0 0 0 0 -190852490.78942871 -155464224.82861328 0 -155464224.82861328 -471892244.46008301 0 0 0 0 -164220497.84136963 -85432107.098373413 0 -85432107.098373413 -341554238.38400269 0 0 0 0 -118328632.22207642 -179945613.95549011 0 -179945613.95549011 -215454038.31993103 0 0 0 0 -87373654.481257081 -194670265.11983991 0 -194670265.11983991 -454693074.82293701 0 0 0 0 -237605479.38601685 -237505391.25534058 0 -237505391.25534058 -357375499.64564514 0 0 0 0 -285236016.98191071 -385644563.45201111 0 -385644563.45201111 -678467918.4969635 0 0 0 0 -232225291.94929504 -165318174.08899498 0 -165318174.08899498 -437278492.04638672 0 0 0 0 -601174104.46548843 -347714421.43037987 0 -347714421.43037987 -189791231.98834229 0 0 0 0 -400941587.52122498 -331492766.05749512 0 -331492766.05749512 -259802944.66809082 0 0 0 0 -154022344.81813812 -248489567.6137085 0 -248489567.6137085 -385254372.65718079 0 0 0 0 -182349347.36550903 -202348784.40359497 0 -202348784.40359497 -163213260.17797852 0 0 0 0 -200410224.07827759 -234793055.66941833 0 -234793055.66941833 -221357993.52563477 0 0 0 0 -486022003.71928406 -199175753.12339783 0 -199175753.12339783 -98690212.580322266 0 0 0 0 -230719003.30980682 -106247242.44711304 0 -106247242.44711304 -76634071.385101318 0 0 0 0 -434222419.05229187 -156908796.17614746 0 -156908796.17614746 -66895264.167182922 0 0 0 0 53779390.825603485 -250381385.36706543 0 -250381385.36706543 -226467469.8447876 0 0 0 0 -38587697.780212402 -298940028.00993919 0 -298940028.00993919 -219992852.25073242 0 0 0 0 -66408561.029205322 -208611115.91011047 0 -208611115.91011047 -209101346.2085495 0 0 0 0 -100066250.04130554 -258597390.25000763 0 -258597390.25000763 -283336217.5562439 0 0 0 0 -148979468.71821022 -218479228.11363983 0 -218479228.11363983 -256386284.06878662 0 0 0 0 -78902647.860555649 -191412607.79459381 0 -191412607.79459381 -235654895.94882202 0 0 0 0 60688146.297267914 -45479535.033599854 0 -45479535.033599854 -228135391.61206055 0 0 0 0 -64895516.636184692 -179082062.58253479 0 -179082062.58253479 -355476990.25045776 0 0 0 0 -86179704.07769537 -161056455.81265664 0 -161056455.81265664 -324685093.95117188 0 0 0 0 -47966108.265872955 -147034093.07015228 0 -147034093.07015228 -332471903.13851929 0 0 0 0 -109261459.85536385 -118951931.80612946 0 -118951931.80612946 -134845408.35185242 0 0 0 0 -1907754.1617355347 -219703818.10597229 0 -219703818.10597229 -56321906.541435242 0 0 0 0 4187532.1967964172 -235184368.65022278 0 -235184368.65022278 -303285748.78565216 0 0 0 0 230208899.98624229 -168329837.73139954 0 -168329837.73139954 -44814567.261627197 0 0 0 0 643066.3475878546 -3210766.3046608912 0 -3210766.3046608912 -1558806.2444389611 0 0 0 0 -23089149.723403931 -182578320.07756042 0 -182578320.07756042 -95088495.859527588 0 0 0 0 198594178.80866814 -228249290.00373459 0 -228249290.00373459 -183160696.00846863 0 0 0 0 84484449.474874496 -128990188.94641876 0 -128990188.94641876 -69471902.934188843 0 0 0 0 133956445.98709869 -338992094.05440521 0 -338992094.05440521 -212273221.0012207 0 0 0 0 51626111.896975994 -293938357.65338326 0 -293938357.65338326 -200055738.85406494 0 0 0 0 -282392783.28840637 -49929932.038963318 0 -49929932.038963318 44460311.128128052 0 0 0 0 -45460.89116994651 -11546972.607516415 0 -11546972.607516415 9669606.010342896 0 0 0 0 -136477114.67840385 -120658076.46785736 0 -120658076.46785736 -23311106.157241821 0 0 0 0 -30270824.277385712 -212943760.17241669 0 -212943760.17241669 13347758.02947998 0 0 0 0 -34672526.989948273 -57518150.120056152 0 -57518150.120056152 -31321996.875205994 0 0 0 0 -289323197.7786026 -71391231.388015747 0 -71391231.388015747 -25443805.827924252 0 0 0 0 -317230318.57219315 -164873149.04792023 0 -164873149.04792023 -69613498.269233704 0 0 0 0 175995.12042262175 -10333130.250478875 0 -10333130.250478875 5938868.7664562762 0 0 0 0 -459940755.25530082 -158291119.79786006 0 -158291119.79786006 -20821515.823150635 0 0 0 0 -87334777.86825943 -247937617.91696548 0 -247937617.91696548 -105487813.81770325 0 0 0 0 -348380071.18196964 -245491174.77628708 0 -245491174.77628708 -101679579.10675049 0 0 0 0 -897055232.75788116 -249962557.96348572 0 -249962557.96348572 22097041.733528137 0 0 0 0 466048.50914381095 -8334139.4895919878 0 -8334139.4895919878 2255855.0146383196 0 0 0 0 158013729.31542206 -301415107.90093994 0 -301415107.90093994 -239283391.98834229 0 0 0 0 96914350.206535339 -301250199.68966675 0 -301250199.68966675 -217919798.39828491 0 0 0 0 97515368.218938828 -301864852.9085331 0 -301864852.9085331 -237958784.46838379 0 0 0 0 64474995.507766724 -307407268.8711853 0 -307407268.8711853 -229783212.71838379 0 0 0 0 52923319.167625427 -292032079.46524048 0 -292032079.46524048 -219362866.62733459 0 0 0 0 -47526715.330011368 -411392327.8677063 0 -411392327.8677063 -209644720.97938538 0 0 0 0 -6041949.5830307007 -339987387.46367645 0 -339987387.46367645 -225077027.94216347 0 0 0 0 289686774.40625 -286302986.37786865 0 -286302986.37786865 -245607537.89588165 0 0 0 0 94865395.629104614 -317193186.76914978 0 -317193186.76914978 -228965565.1038208 0 0 0 0 200565888.70164299 -231647388.74248505 0 -231647388.74248505 -232104130.42114258 0 0 0 0 518669845.56243515 -111580468.53340149 0 -111580468.53340149 -229620343.04598999 0 0 0 0 33678820.594894409 -398232877.21954346 0 -398232877.21954346 -203616523.93231201 0 0 0 0 348043922.73713398 -412188280.88163948 0 -412188280.88163948 -303943297.33378601 0 0 0 0 570505062.83990479 -236947715.35058594 0 -236947715.35058594 -268055501.45597267 0 0 0 0 7662482.440820694 -582872035.25863647 0 -582872035.25863647 31253543.898117065 0 0 0 0 1266143357.2221832 -201355204.76495361 0 -201355204.76495361 -146324251.63307953 0 0 0 0 678345551.49350071 117576211.30089569 0 117576211.30089569 -109537032.19508362 0 0 0 0 1226532577.260653 634691249.34193325 0 634691249.34193325 267203710.17871094 0 0 0 0 512194466.27350616 -236299440.68458557 0 -236299440.68458557 -106933994.68319702 0 0 0 0 -657724840.51125717 -203681505.47215271 0 -203681505.47215271 -180037105.39763641 0 0 0 0 -567613031.42142296 -555528410.10556412 0 -555528410.10556412 -14737000.803756714 0 0 0 0 -34980392.640213013 -439675860.88861847 0 -439675860.88861847 -379284485.84960938 0 0 0 0 547153.09207978554 -5078894.7223402364 0 -5078894.7223402364 514379.59812802076 0 0 0 0 -1793860073.8094616 -416976328.71751404 0 -416976328.71751404 174946958.07911682 0 0 0 0 -1042350807.6473503 -395538393.08518219 0 -395538393.08518219 -381586063.34796143 0 0 0 0 -1029519264.9724036 -691556615.08982015 0 -691556615.08982015 223130152.74465942 0 0 0 0 -47352375.982524872 -762732733.62265778 0 -762732733.62265778 -227251940.54673767 0 0 0 0 -527039060.4517765 -134631324.78421021 0 -134631324.78421021 143636709.67926025 0 0 0 0 -3077517154.3954277 -337333184.99500275 0 -337333184.99500275 504053649.16461945 0 0 0 0 -1375477660.2423725 -969585288.93651962 0 -969585288.93651962 -984921.93640136719 0 0 0 0 530737.95287968975 -1941325.8948411327 0 -1941325.8948411327 118131.62542279065 0 0 0 0 1409716339.8981819 113244596.91946411 0 113244596.91946411 -103653309.97941589 0 0 0 0 1920326014.9487476 417248123.52574921 0 417248123.52574921 58190913.320922852 0 0 0 0 3229907.5335880108 -4940469.6712534074 0 -4940469.6712534074 -898944.94826067984 0 0 0 0 -59499570.564098358 -69765263.385665894 0 -69765263.385665894 -25223151.081439972 0 0 0 0 1393754089.3914566 -67097657.599575996 0 -67097657.599575996 -11113133.894287109 0 0 0 0 232365.04786844552 -402697.77828537673 0 -402697.77828537673 -659759.64487031102 0 0 0 0 812376408.10217285 -85585165.177070618 0 -85585165.177070618 251779198.07182312 0 0 0 0 966639942.57505035 -581951100.40711975 0 -581951100.40711975 -292769211.01574707 0 0 0 0 149391729.54524231 -366703075.30622864 0 -366703075.30622864 3014693.8444290161 0 0 0 0 623929068.53976059 -878712805.39192963 0 -878712805.39192963 1301616.9519195557 0 0 0 0 2475379877.7179413 -347776882.26025391 0 -347776882.26025391 -210836731.60927057 0 0 0 0 1276496322.5466366 -800859389.60126114 0 -800859389.60126114 -192293290.05929565 0 0 0 0 882002.39874639921 -1590953.4281389769 0 -1590953.4281389769 -226587.92836207151 0 0 0 0 -95561260.408279419 -73128141.584041595 0 -73128141.584041595 -61197.700134277344 0 0 0 0 3133384979.9595642 655386023.05436325 0 655386023.05436325 -214603204.8444519 0 0 0 0 -31493066.774383545 -52310510.793426514 0 -52310510.793426514 -33091595.308258057 0 0 0 0 -27385162.769081116 -35180695.913650513 0 -35180695.913650513 -19118624.105438232 0 0 0 0 31479181.98767662 -92224693.897163391 0 -92224693.897163391 130181.34464473637 0 0 0 0 131779274.45107269 -15979929.313301086 0 -15979929.313301086 -40469649.892456055 0 0 0 0 6964562.6703324318 -51038263.411727905 0 -51038263.411727905 -40055516.815216064 0 0 0 0 15884669.815523148 -59755670.314529419 0 -59755670.314529419 -59265396.194252014 0 0 0 0 -49938362.904178619 -54187145.698898315 0 -54187145.698898315 -16855637.777320862 0 0 0 0 80844441.006462097 -49888962.220626831 0 -49888962.220626831 -36980678.139518738 0 0 0 0 9222615.6936698966 -14326206.893327907 0 -14326206.893327907 6178606.635790877 0 0 0 0 474867226.68266678 149956118.78403473 0 149956118.78403473 -7839813.8696060181 0 0 0 0 3894629.978986254 4129307.4518313259 0 4129307.4518313259 -17911961.616535507 0 0 0 0 35336455.348474026 45172154.827205658 0 45172154.827205658 4442654.434677124 0 0 0 0 -11345649.169744968 -29625300.934791565 0 -29625300.934791565 35646160.840652466 0 0 0 0 -9195170.7587223053 -36386609.999486923 0 -36386609.999486923 -41824921.763244629 0 0 0 0 23377813.444862366 -12253845.109390259 0 -12253845.109390259 -150724710.10799026 0 0 0 0 279757825.87377167 -16284368.037666321 0 -16284368.037666321 -45521671.011871338 0 0 0 0 188283603.18455124 -98749673.207038879 0 -98749673.207038879 -111310893.40150452 0 0 0 0 18608673.076734066 -19712234.392014503 0 -19712234.392014503 -18253128.678649902 0 0 0 0 86484312.485929489 -24286936.508781433 0 -24286936.508781433 -54207462.874816895 0 0 0 0 1890115.7559064063 -2756535.9112653229 0 -2756535.9112653229 -926839.54068246484 0 0 0 0 -60052146.869613647 -5610993.5139465332 0 -5610993.5139465332 -88140282.199203491 0 0 0 0 -57268732.884742737 -18074976.638504028 0 -18074976.638504028 -5084389.6418457031 0 0 0 0 8940899.2686929256 -15399791.773804516 0 -15399791.773804516 6872523.0345985815 0 0 0 0 -45237881.258369446 -68016781.179550171 0 -68016781.179550171 -26347908.476318359 0 0 0 0 -80671384.774368286 -34549980.075332642 0 -34549980.075332642 -41845851.370147705 0 0 0 0 36067621.622034073 -19412158.246711731 0 -19412158.246711731 -54588725.685401917 0 0 0 0 6788184.5654420899 -2513764.9780540671 0 -2513764.9780540671 -13034704.264754429 0 0 0 0 8028888.4558185339 -7146734.8777179718 0 -7146734.8777179718 -3933679.131072998 0 0 0 0 1879715.4974651337 -3145467.0944900513 0 -3145467.0944900513 -6510022.3487548828 0 0 0 0 4850970.3838019371 -6467212.0392837524 0 -6467212.0392837524 -11386650.843475342 0 0 0 0 3320826.4183758781 59266.515620137565 0 59266.515620137565 -8047059.249497667 0 0 0 0 51440883.961606503 11030755.252960205 0 11030755.252960205 -23378769.427436829 0 0 0 0 37704750.797205925 10522522.436660767 0 10522522.436660767 -16665018.446273804 0 0 0 0 91768282.985579252 58833817.23947525 0 58833817.23947525 30655113.169921875 0 0 0 0 1785027.6701493673 -2611642.9674797077 0 -2611642.9674797077 -1001339.453964293 0 0 0 0 -1458470.4335605921 -3694559.1081301793 0 -3694559.1081301793 -1206427.7735113576 0 0 0 0 -955176.94668197632 -4686388.4517822266 0 -4686388.4517822266 -4272.5350341796875 0 0 0 0 3898692.9709348679 -3359664.3860473633 0 -3359664.3860473633 -16815974.103088379 0 0 0 0 720237.65813146532 -5677287.5406053662 0 -5677287.5406053662 -649057.49004025385 0 0 0 0 -381814.00873269141 -6355644.8535194397 0 -6355644.8535194397 -7341380.6149749756 0 0 0 0 -5857946.6781907082 -15704308.5756073 0 -15704308.5756073 -9557.591064453125 0 0 0 0 4311655.8100633146 -6394720.6802154705 0 -6394720.6802154705 216296.16021529213 0 0 0 0 21872864.287806988 1180425.6646385193 0 1180425.6646385193 -15795243.970489502 0 0 0 0 -6338457.3805408478 -5763429.6301574707 0 -5763429.6301574707 -2511.8005444726355 0 0 0 0 -2236086.1834203168 -2617183.1307099536 0 -2617183.1307099536 2255377.7820145935 0 0 0 0 26400677.152633667 2226814.1481781006 0 2226814.1481781006 -20007016.765014648 0 0 0 0 5339564.6637134552 2199613.2817382812 0 2199613.2817382812 -4527311.4485626221 0 0 0 0 10373811.236359596 -6759626.4383087158 0 -6759626.4383087158 -31799500.291332245 0 0 0 0 -794637.01061081886 -6534372.1984786987 0 -6534372.1984786987 -8170172.4377441406 0 0 0 0 4954592.1210346222 -7462285.6990432739 0 -7462285.6990432739 -8097553.1790390015 0 0 0 0 15098073.888856888 -9696251.8821029663 0 -9696251.8821029663 -4342.244384765625 0 0 0 0 23168956.003286362 -12720544.204284668 0 -12720544.204284668 -3794625.1104431152 0 0 0 0 -4224116.5096054077 -10472165.224945068 0 -10472165.224945068 9159293.4078979492 0 0 0 0 -25264782.847426414 -12643006.484825134 0 -12643006.484825134 17998904.601242065 0 0 0 0 -1203576.7250415264 -1424801.8761240989 0 -1424801.8761240989 1226979.4689605087 0 0 0 0 14817322.70041275 -7332140.1172637939 0 -7332140.1172637939 -5308498.914686203 0 0 0 0 311102.99452590942 -1172495.3126373291 0 -1172495.3126373291 -4276778.4767913818 0 0 0 0 1368662.682284832 -10126714.297107697 0 -10126714.297107697 3453907.7533874512 0 0 0 0 7900656.6049017245 -7176548.8088442534 0 -7176548.8088442534 -20761.534439235926 0 0 0 0 19925146.955976009 -25213871.248474121 0 -25213871.248474121 -27623328.343746185 0 0 0 0 8576523.4010975361 -17719038.785385132 0 -17719038.785385132 -4390821.6968536377 0 0 0 0 33816228.312427521 -8756585.601776123 0 -8756585.601776123 -2427824.4911880493 0 0 0 0 11647600.360059377 -7706691.5031844229 0 -7706691.5031844229 -1709406.5724905767 0 0 0 0 3410187.3955197334 -7505507.5467414856 0 -7505507.5467414856 3156875.1776123047 0 0 0 0 -1104447.0463676453 -8183296.8804397583 0 -8183296.8804397583 5313580.5153656006 0 0 0 0 -5357231.0455465317 -11079071.92515564 0 -11079071.92515564 4950185.5950317383 0 0 0 0 679286.46786021767 -817913.30301966053 0 -817913.30301966053 -372384.48130306602 0 0 0 0 8451383.986987114 -13236803.961875916 0 -13236803.961875916 2945901.6298217773 0 0 0 0 2480679.085908799 -3261976.1677532308 0 -3261976.1677532308 -1512598.3445821106 0 0 0 0 15964422.514515877 -4470896.5243339539 0 -4470896.5243339539 -7098573.5850830078 0 0 0 0 36271850.822025299 6027144.231086731 0 6027144.231086731 -15703438.12171936 0 0 0 0 9304416.2878529094 -5134166.4561749436 0 -5134166.4561749436 -7971508.4351727068 0 0 0 0 36025608.166770957 -8570629.7813689709 0 -8570629.7813689709 -2120255.2730407715 0 0 0 0 4795640.6769509315 -4880339.6062393188 0 -4880339.6062393188 -1981816.5746765137 0 0 0 0 10589277.658559799 -17567235.216491699 0 -17567235.216491699 9405400.8341217041 0 0 0 0 40301161.16811204 -7340070.604637146 0 -7340070.604637146 -5205783.9942932129 0 0 0 0 13166297.114147663 -6967531.9822387695 0 -6967531.9822387695 -7709512.9117431641 0 0 0 0 11610750.961031914 -6212645.2904205322 0 -6212645.2904205322 -4417864.1235809326 0 0 0 0 5194410.7329983711 -11324388.321296692 0 -11324388.321296692 1545750.4648170471 0 0 0 0 4591051.8439750671 -9317847.7509841919 0 -9317847.7509841919 -4835964.2734451294 0 0 0 0 8548107.8609867394 -7898320.8151310086 0 -7898320.8151310086 -1246990.8455343321 0 0 0 0 -66268655.895130157 -46448975.105758667 0 -46448975.105758667 -22077209.891893387 0 0 0 0 35108654.555500984 -77937581.996925354 0 -77937581.996925354 -246047853.63809204 0 0 0 0 137862.97959771752 -3153735.8021203689 0 -3153735.8021203689 1418022.6736037433 0 0 0 0 21030529.912721634 -36545662.908763885 0 -36545662.908763885 -6673995.2108154297 0 0 0 0 -116474141.45462418 -152638968.7089386 0 -152638968.7089386 -205074903.07044983 0 0 0 0 23883845.730051041 -144780457.85536957 0 -144780457.85536957 -488026135.15075684 0 0 0 0 74160780.125022888 -132804573.32548523 0 -132804573.32548523 -446761480.0934906 0 0 0 0 46108346.566452026 -178635598.30363464 0 -178635598.30363464 -309341912.10404778 0 0 0 0 -15842753.527603149 -120338578.03717804 0 -120338578.03717804 -142082438.02719116 0 0 0 0 -100963329.12106252 -13670794.132322311 0 -13670794.132322311 -259689877.18869019 0 0 0 0 48892326.927452087 -93478482.889633179 0 -93478482.889633179 -318909310.6918335 0 0 0 0 55870565.25743866 -36907583.97895813 0 -36907583.97895813 -245007692.97006226 0 0 0 0 7333038.4469413757 -2713601.2059173584 0 -2713601.2059173584 -104272927.56616211 0 0 0 0 27090785.006031036 -45642537.698410034 0 -45642537.698410034 -62905478.534393311 0 0 0 0 10024897.38520813 -9774685.066947937 0 -9774685.066947937 -9207780.7027206421 0 0 0 0 -22903083.381554604 26334817.813833237 0 26334817.813833237 -96654072.845321655 0 0 0 0 6435775.5945293177 -7384293.072662212 0 -7384293.072662212 -213895.66688834131 0 0 0 0 -7253493.3846130371 -27510706.96963501 0 -27510706.96963501 -25210174.086425781 0 0 0 0 506808.82696045283 -200379.11340464652 0 -200379.11340464652 4975.0856075361371 0 0 0 0 7209366.5729322433 -3189953.9862213135 0 -3189953.9862213135 -6445756.9474029541 0 0 0 0 3644560.7439050674 -1562828.0059585571 0 -1562828.0059585571 -2203928.6603088379 0 0 0 0 1388943.4550566673 -3157221.2230873108 0 -3157221.2230873108 -5112694.9456939697 0 0 0 0 5498088.3819851791 -2975740.7538767867 0 -2975740.7538767867 -2164884.0800869986 0 0 0 0 5282967.1997190826 600946.55579446815 0 600946.55579446815 -6590513.1932744086 0 0 0 0 -24878035.928314209 17263601.473632812 0 17263601.473632812 -62350074.944717407 0 0 0 0 5400576.3848401979 -2034652.1721312664 0 -2034652.1721312664 -3395564.7377346493 0 0 0 0 57267124.522449493 3633004.5622558594 0 3633004.5622558594 -17443917.885345459 0 0 0 0 55238786.753067613 -10369252.617844582 0 -10369252.617844582 4119710.3820648193 0 0 0 0 48625494.63700676 -18629370.275894165 0 -18629370.275894165 254405.39892578125 0 0 0 0 74550923.910532475 -29860881.673549652 0 -29860881.673549652 4806042.6928405762 0 0 0 0 670722.5248967465 490361.3342324011 0 490361.3342324011 -1205527.2832516991 0 0 0 0 60928714.322324753 -5618997.3186340332 0 -5618997.3186340332 6655112.7147216797 0 0 0 0 1637344.1896045187 280099.34255761048 0 280099.34255761048 -1287493.7801733464 0 0 0 0 -216484515.05200577 -275029132.34640121 0 -275029132.34640121 -113887553.92462158 0 0 0 0 -56063860.229675293 -32954103.91734314 0 -32954103.91734314 -82532306.436004639 0 0 0 0 -172636720.42509079 -144633978.09815979 0 -144633978.09815979 -185921807.29052734 0 0 0 0 -42416211.156921387 -98165592.020629883 0 -98165592.020629883 -212549206.14453125 0 0 0 0 57614690.669818878 -218922386.56333923 0 -218922386.56333923 -195798580.15882874 0 0 0 0 -570583893.34263992 -272310884.37298203 0 -272310884.37298203 49003928.232666016 0 0 0 0 -36886672.872876167 -362241847.15695572 0 -362241847.15695572 -136467532.28863525 0 0 0 0 -200790274.10256958 178327682.30187988 0 178327682.30187988 149795076.13227844 0 0 0 0 59912303.80531311 -264261610.3990097 0 -264261610.3990097 -72029230.48135376 0 0 0 0 136617.10834610765 719292.41008339357 0 719292.41008339357 56784.157917931676 0 0 0 0 182569893.75119972 -3997656.3598632812 0 -3997656.3598632812 -25292478.160575867 0 0 0 0 93640979.758962929 -35896535.402641594 0 -35896535.402641594 8964735.3326721191 0 0 0 0 93459846.98210144 -5187867.3860321045 0 -5187867.3860321045 1033412.5939941406 0 0 0 0 -55809639.418949127 -176351021.91455841 0 -176351021.91455841 -98441932.153297424 0 0 0 0 137103466.23493576 -58404916.610908508 0 -58404916.610908508 -31959408.386932373 0 0 0 0 30256247.856510162 -70120469.630477905 0 -70120469.630477905 -137204427.27624512 0 0 0 0 -65869698.576156616 -114813923.75097656 0 -114813923.75097656 -238128217.96226501 0 0 0 0 -79615520.386320114 -99565934.857589722 0 -99565934.857589722 -88898613.196105957 0 0 0 0 48415702.891593933 -89928568.50151062 0 -89928568.50151062 -107432727.7308197 0 0 0 0 38855280.686402559 -148589051.62519455 0 -148589051.62519455 -42016890.950469971 0 0 0 0 40383226.310462952 -120100561.28858948 0 -120100561.28858948 -4360529.2954559326 0 0 0 0 47727431.628490448 -150281626.83709717 0 -150281626.83709717 1888778.7685852051 0 0 0 0 53519387.155441284 -101441602.67269897 0 -101441602.67269897 -28436434.754608154 0 0 0 0 45961616.414791107 -119229045.78913879 0 -119229045.78913879 -50841529.226196289 0 0 0 0 56887998.671279907 -117966931.2555542 0 -117966931.2555542 -21775143.653289795 0 0 0 0 77292175.739776611 -89840638.511779785 0 -89840638.511779785 -48968332.45652771 0 0 0 0 75556444.579177856 -84425967.435455322 0 -84425967.435455322 -36247593.170196533 0 0 0 0 90526433.164974213 -68178969.841365814 0 -68178969.841365814 -22709877.510101318 0 0 0 0 50589413.331130981 -77317034.777755737 0 -77317034.777755737 -10122026.99546814 0 0 0 0 51245662.677095413 -62822416.759143829 0 -62822416.759143829 2193503.3643798828 0 0 0 0 16605840.830581665 -91984326.940200806 0 -91984326.940200806 12655363.372436523 0 0 0 0 50090696.445904016 -92990907.647878408 0 -92990907.647878408 11452611.767150879 0 0 0 0 17014493.446455002 -116257975.92329407 0 -116257975.92329407 104632974.61856079 0 0 0 0 31785320.45022583 -70524513.990722656 0 -70524513.990722656 23563778.008895874 0 0 0 0 23123266.919886589 -46222407.843881607 0 -46222407.843881607 33775872.117462158 0 0 0 0 14810584.287815094 -23475457.669219971 0 -23475457.669219971 4915573.8131332397 0 0 0 0 2159034.7537794113 -32568032.463665009 0 -32568032.463665009 82976996.700836182 0 0 0 0 -54912700.980003357 -61939585.161727905 0 -61939585.161727905 333046018.57792664 0 0 0 0 -211728.45083029941 -1492014.3425826728 0 -1492014.3425826728 850402.91354801133 0 0 0 0 -1819592.8949127197 -262005066.21585083 0 -262005066.21585083 174105044.49978638 0 0 0 0 -10962842.935800135 -13257198.349563599 0 -13257198.349563599 5907873.7157211304 0 0 0 0 -47409391.213435411 -41343360.87776947 0 -41343360.87776947 -1934024.1529846191 0 0 0 0 -44332501.765017509 -47460272.96534729 0 -47460272.96534729 9090601.3345732689 0 0 0 0 -66654585.3273139 -59577701.007232666 0 -59577701.007232666 8391721.2860393524 0 0 0 0 6021870.2387622893 -38049540.084395409 0 -38049540.084395409 -113129548.72381592 0 0 0 0 957532.9930585121 2464482.112686215 0 2464482.112686215 -1457829.460501954 0 0 0 0 129563013.95749617 -58854070.161087036 0 -58854070.161087036 -7420053.9097900391 0 0 0 0 5448491.8047015667 -32243829.53842926 0 -32243829.53842926 24601084.277442932 0 0 0 0 19696246.464048386 -28543886.025794983 0 -28543886.025794983 795074.24071502686 0 0 0 0 86006017.916741848 -36831357.478157043 0 -36831357.478157043 -25425202.67716217 0 0 0 0 66119382.842257679 -21980166.658102036 0 -21980166.658102036 13247192.675033569 0 0 0 0 64577413.543987274 -42405559.49974823 0 -42405559.49974823 11581578.542678833 0 0 0 0 947050.96483761736 2466021.2539522965 0 2466021.2539522965 -1335423.3208173811 0 0 0 0 37548167.706523374 -66402224.822553635 0 -66402224.822553635 -22198997.424301147 0 0 0 0 83721342.131668091 -18586543.025726318 0 -18586543.025726318 13023386.072532654 0 0 0 0 120916472.96354818 -33653558.724315643 0 -33653558.724315643 253585.81144714355 0 0 0 0 82664968.781694412 -26983933.21912384 0 -26983933.21912384 2142445.5376434326 0 0 0 0 79724277.751471519 -14921878.475723267 0 -14921878.475723267 19029462.226428986 0 0 0 0 80131288.079915047 -18342026.960964203 0 -18342026.960964203 -14047942.554412842 0 0 0 0 501305.58514300932 1344504.3673675759 0 1344504.3673675759 -650339.24912152439 0 0 0 0 151647911.50339603 -30735038.580913544 0 -30735038.580913544 -28519743.231407166 0 0 0 0 -122415121.72701073 -69792836.907417297 0 -69792836.907417297 16719220.413269043 0 0 0 0 -25718146.437105298 -73306959.363967896 0 -73306959.363967896 8780152.678401947 0 0 0 0 3987055.6254684655 -216087.32636987418 0 -216087.32636987418 -1478412.6889500841 0 0 0 0 -42184005.063280225 -40817640.476663589 0 -40817640.476663589 -6546078.8136444092 0 0 0 0 73402614.730116248 -3797692.6822566986 0 -3797692.6822566986 2948237.4089050293 0 0 0 0 -12676490.781180382 -10630641.972084045 0 -10630641.972084045 75943384.173286438 0 0 0 0 -4478242.9198001474 -266534.29908180237 0 -266534.29908180237 3543781.2861344069 0 0 0 0 3177613.4969704151 -124630187.13580704 0 -124630187.13580704 -7714844.4991760254 0 0 0 0 3812893.8993656635 19928701.13602829 0 19928701.13602829 26140953.842410088 0 0 0 0 15125685.119784225 -18865778.460315898 0 -18865778.460315898 3608693.4856629353 0 0 0 0 74138235.840557933 -14002674.434915543 0 -14002674.434915543 -33401457.801368713 0 0 0 0 8335621.6527476311 -59038432.277656555 0 -59038432.277656555 44726420.580692291 0 0 0 0 65425611.21479702 -17201586.197593689 0 -17201586.197593689 -22496687.638961792 0 0 0 0 60144498.208979607 -55567313.395126343 0 -55567313.395126343 -29388579.888496399 0 0 0 0 -35107337.777485609 -48775737.691661835 0 -48775737.691661835 -3944676.4151802063 0 0 0 0 22951079.890330799 -23651026.490247369 0 -23651026.490247369 3131580.9081954956 0 0 0 0 10221243.407156415 -10007716.911602285 0 -10007716.911602285 -6304908.0577484295 0 0 0 0 23283844.097896576 -31567069.036712646 0 -31567069.036712646 -19467314.589631081 0 0 0 0 16406255.805767059 -12107156.789054871 0 -12107156.789054871 2344589.7685165405 0 0 0 0 10987975.776790619 -17359951.529647827 0 -17359951.529647827 18792971.820083618 0 0 0 0 15182342.784494162 -17757627.245349627 0 -17757627.245349627 1485488.5637104809 0 0 0 0 3975311.8672514781 -2482868.0086886808 0 -2482868.0086886808 1213142.5373928845 0 0 0 0 17037187.499490738 -23248068.249282837 0 -23248068.249282837 -11146116.261886597 0 0 0 0 11538475.222858429 -23203734.697921753 0 -23203734.697921753 14731334.091888428 0 0 0 0 16683659.055305481 -10461768.868637085 0 -10461768.868637085 -2747885.1106567383 0 0 0 0 16851329.437194824 -13241691.419769287 0 -13241691.419769287 -18551.74243950106 0 0 0 0 19929793.191049576 -14454794.716300964 0 -14454794.716300964 43292.697509765625 0 0 0 0 13355226.125896454 -21614757.716453552 0 -21614757.716453552 635935.52598571777 0 0 0 0 12760464.515022278 -21741211.752792358 0 -21741211.752792358 2202614.1607780457 0 0 0 0 13973489.995876312 -18888450.39528656 0 -18888450.39528656 8289125.3930053711 0 0 0 0 17097291.278823853 -27328395.466888428 0 -27328395.466888428 7412.6664276123047 0 0 0 0 13166504.029666901 -25596509.830726624 0 -25596509.830726624 456801.904296875 0 0 0 0 11493624.726752281 -27305170.265383065 0 -27305170.265383065 4214263.6606445312 0 0 0 0 12527990.153751373 -25616030.627998352 0 -25616030.627998352 1415813.4048156738 0 0 0 0 12008031.993494034 -24701167.550088882 0 -24701167.550088882 -18640.073913574219 0 0 0 0 10929790.275588989 -25728762.169403076 0 -25728762.169403076 -960057.1937828064 0 0 0 0 13321717.149682045 -22054404.624893188 0 -22054404.624893188 -3143042.7617950439 0 0 0 0 16306079.389648438 -18796728.915786743 0 -18796728.915786743 145204.2081451416 0 0 0 0 -41047594.614831924 -29155491.685142517 0 -29155491.685142517 30951445.801712036 0 0 0 0 798252.70631315373 -4339564.567069767 0 -4339564.567069767 4925992.687179625 0 0 0 0 21948133.658756256 -28506021.769111633 0 -28506021.769111633 -8085465.2788162231 0 0 0 0 4419986.2827529907 -38982721.530050278 0 -38982721.530050278 -11707979.659912109 0 0 0 0 8232591.9381561279 -13716548.17716217 0 -13716548.17716217 5015910.5169677734 0 0 0 0 -18498559.55324173 -32281481.251495361 0 -32281481.251495361 22989.107437133789 0 0 0 0 40629022.999519348 -17134686.600631714 0 -17134686.600631714 1400819.5269470215 0 0 0 0 37583193.519180298 -28037686.456897736 0 -28037686.456897736 -14243.792190551758 0 0 0 0 40513592.615066782 -44936187.830587834 0 -44936187.830587834 17188803.336151123 0 0 0 0 -500449.37811637297 -817383.80745236576 0 -817383.80745236576 -66504.453160233796 0 0 0 0 12457412.351593018 5238446.9521942139 0 5238446.9521942139 -1504582.1906738281 0 0 0 0 32556279.103065491 -57818452.795959473 0 -57818452.795959473 9256694.543548584 0 0 0 0 47840282.321006775 -43964955.35761261 0 -43964955.35761261 -5932770.5678100586 0 0 0 0 36283485.808334351 -8614205.491394043 0 -8614205.491394043 -14835631.388244629 0 0 0 0 -3425055.1095123291 -58047144.673995972 0 -58047144.673995972 27845354.334495544 0 0 0 0 -2023220.819088202 -21493934.89583312 0 -21493934.89583312 11229199.786399007 0 0 0 0 -2125755.52759552 -21941439.549690247 0 -21941439.549690247 30888705.840499878 0 0 0 0 937863.20874023438 -25305496.960510254 0 -25305496.960510254 19363430.291168213 0 0 0 0 10162070.431747437 -49222709.906066895 0 -49222709.906066895 8028611.37159729 0 0 0 0 -12843561.774650574 -36045372.073867798 0 -36045372.073867798 12831292.871734619 0 0 0 0 7013708.2978439331 -15657518.732879639 0 -15657518.732879639 -3367692.6616172791 0 0 0 0 24526.148063957691 -268003.4534014836 0 -268003.4534014836 -514215.28779549431 0 0 0 0 28435038.689941406 -31696871.719207764 0 -31696871.719207764 -13648373.127807617 0 0 0 0 828874.58233642578 -21794244.987289429 0 -21794244.987289429 -5733259.2595062256 0 0 0 0 2583706.8657552786 -8084829.7158323638 0 -8084829.7158323638 12480745.170071892 0 0 0 0 50359344.118713379 -29945948.575252533 0 -29945948.575252533 -137370581.15992737 0 0 0 0 -25358773.815864563 27420350.258678436 0 27420350.258678436 -129659629.54104614 0 0 0 0 -12605899.77951622 -66408981.09270668 0 -66408981.09270668 -40845538.715759277 0 0 0 0 -35361555.70627594 -11641608.245018005 0 -11641608.245018005 48772452.548805237 0 0 0 0 -1839637.7759774402 -2018949.6696976665 0 -2018949.6696976665 5998372.215201281 0 0 0 0 -13930231.074813843 32481783.699249268 0 32481783.699249268 -112097004.91447449 0 0 0 0 4568164.7767791748 -7805258.4834327698 0 -7805258.4834327698 -26748449.082122803 0 0 0 0 9812204.0689163208 -46107157.688308716 0 -46107157.688308716 -14355868.998975754 0 0 0 0 4779674.7874450684 -4270891.7441711426 0 -4270891.7441711426 -17833061.216616631 0 0 0 0 -13402854.126624584 -3374232.0906219482 0 -3374232.0906219482 14156750.855239868 0 0 0 0 27237294.564273834 -19339762.610641479 0 -19339762.610641479 -13982201.024246216 0 0 0 0 5619611.3375909179 -12453174.599654898 0 -12453174.599654898 164081.73395399749 0 0 0 0 -5095342.7664718628 -20817855.843948364 0 -20817855.843948364 32043986.711212158 0 0 0 0 14691282.509810317 -20838860.932090662 0 -20838860.932090662 4179277.2195950225 0 0 0 0 7045853.5509028435 -50438070.559667587 0 -50438070.559667587 4770656.9208374023 0 0 0 0 2303450.7562116007 -16673027.047278814 0 -16673027.047278814 5716929.4015031606 0 0 0 0 -2249453.2207090631 -23018309.823865101 0 -23018309.823865101 11176511.069472274 0 0 0 0 -7307010.695224762 -35200327.754165649 0 -35200327.754165649 26201748.349624634 0 0 0 0 -16826.945619858801 -1878802.3887896016 0 -1878802.3887896016 186727.10565847997 0 0 0 0 -91078177.379760742 -75178566.06565094 0 -75178566.06565094 -41907952.072769165 0 0 0 0 16667670.245048523 2862794.2208251953 0 2862794.2208251953 -13120520.375263214 0 0 0 0 -141394130.80782002 -13485602.936317325 0 -13485602.936317325 -7871407.3641815186 0 0 0 0 3953372.0691992901 -1008303.987399254 0 -1008303.987399254 -3110964.4841761142 0 0 0 0 -17545567.053539276 25549871.412986755 0 25549871.412986755 4146650.0069732666 0 0 0 0 13189210.780456543 -39916549.829055786 0 -39916549.829055786 2217.6970230046659 0 0 0 0 4504964.503692627 7189820.9687805176 0 7189820.9687805176 13457261.394760132 0 0 0 0 4622017.1681060791 6967554.0366363525 0 6967554.0366363525 11253943.51651001 0 0 0 0 4660963.5519485474 7594935.2971420288 0 7594935.2971420288 13276736.227981567 0 0 0 0 3248185.3155953623 -1203954.6362076774 0 -1203954.6362076774 -1997904.2291496471 0 0 0 0 -2115399.5634841919 3924508.4989395142 0 3924508.4989395142 5107533.7265167236 0 0 0 0 -3851864.5205459595 -15638509.026931763 0 -15638509.026931763 15777472.013383865 0 0 0 0 15631932.289215088 -14700965.858856201 0 -14700965.858856201 33178.86100769043 0 0 0 0 4085710.8080365732 -955370.23259371519 0 -955370.23259371519 -2694169.897794269 0 0 0 0 22364708.583374023 -24191626.887565613 0 -24191626.887565613 12780600.538742065 0 0 0 0 21800355.27772522 -25951424.591461182 0 -25951424.591461182 7433246.4451904297 0 0 0 0 3629563.379234314 -9632940.9101257324 0 -9632940.9101257324 13281487.800292015 0 0 0 0 9581136.598274231 -26537533.025756836 0 -26537533.025756836 49879428.795288086 0 0 0 0 3346956.8086322285 -1193648.9193802997 0 -1193648.9193802997 -1583573.2173594013 0 0 0 0 -2734218.9907273799 -4382994.2464151159 0 -4382994.2464151159 4320097.5623570941 0 0 0 0 3504662.1697767861 -5175206.0870310664 0 -5175206.0870310664 1164557.7062280253 0 0 0 0 3932773.0968017578 6131295.6998138428 0 6131295.6998138428 17591967.863830566 0 0 0 0 -2335815.2395324707 -2533881.7892608643 0 -2533881.7892608643 37496008.753707886 0 0 0 0 4101732.1155776978 -1880588.2282714844 0 -1880588.2282714844 24273004.069152832 0 0 0 0 -361237.43106842041 -4202006.8878555298 0 -4202006.8878555298 4952799.0478363037 0 0 0 0 203089.54553954303 -3219387.6851477399 0 -3219387.6851477399 4662596.5912552606 0 0 0 0 -248630.95866604149 -17063779.459904626 0 -17063779.459904626 5174820.7653249092 0 0 0 0 -2877953.6792373657 -2224975.6469955444 0 -2224975.6469955444 59827113.878929138 0 0 0 0 -1845220.5936974809 -17665502.380370811 0 -17665502.380370811 6674877.1992679723 0 0 0 0 5136462.1042556763 -54551703.185028076 0 -54551703.185028076 -112881716.36665344 0 0 0 0 1433138.1710205078 -5167902.8548431396 0 -5167902.8548431396 50211291.459716797 0 0 0 0 1465324.9253234863 -2584909.4127044678 0 -2584909.4127044678 54104203.998504639 0 0 0 0 -3031741.9568786621 3300832.7752990723 0 3300832.7752990723 38594760.652374268 0 0 0 0 4035193.130250752 -9935494.7746351361 0 -9935494.7746351361 50214622.597473145 0 0 0 0 -3607084.3952636719 3798357.5093688965 0 3798357.5093688965 38777761.542724609 0 0 0 0 659542.99040916562 -12356.608722988516 0 -12356.608722988516 -833408.01115580648 0 0 0 0 -1812495.8305969238 9328133.809753418 0 9328133.809753418 -16016016.334228516 0 0 0 0 696501.56148537993 -7137939.5931012928 0 -7137939.5931012928 4791434.8894819831 0 0 0 0 1559712.3156738281 -14444516.398925781 0 -14444516.398925781 -4933309.2553710938 0 0 0 0 -1766737.2701721191 6170050.0422363281 0 6170050.0422363281 42508601.187835693 0 0 0 0 -1958557.4805938564 -2826785.6469092667 0 -2826785.6469092667 3669753.4201901704 0 0 0 0 -1903143.1599731445 -1385344.7254943848 0 -1385344.7254943848 8718953.3827972412 0 0 0 0 2546103.8970794678 -850328.86338806152 0 -850328.86338806152 52033034.580703735 0 0 0 0 4571914.0653686523 -3421125.13306427 0 -3421125.13306427 52494443.936340332 0 0 0 0 -219744.92872995883 -3389245.0786280856 0 -3389245.0786280856 1038563.8213192644 0 0 0 0 4206797.7269897461 -1744054.4801330566 0 -1744054.4801330566 53993534.398546219 0 0 0 0 5011272.2184371948 -3034695.832649231 0 -3034695.832649231 52667473.381744385 0 0 0 0 -3238923.8349037096 -17551108.767329797 0 -17551108.767329797 7137443.074444361 0 0 0 0 5941475.8134727478 4329851.2222938538 0 4329851.2222938538 71899326.344818115 0 0 0 0 -2166228.624045372 33510.986110687256 0 33510.986110687256 2961780.6341705322 0 0 0 0 1003295.3292503357 -35042473.771333694 0 -35042473.771333694 -45219459.798110962 0 0 0 0 -4969151.1673965454 -26734389.629714966 0 -26734389.629714966 -16701643.686569214 0 0 0 0 6803433.4805145264 -44380879.088722229 0 -44380879.088722229 -38251045.877304077 0 0 0 0 -3903123.2809791565 -59725278.043001175 0 -59725278.043001175 -59336743.225830078 0 0 0 0 -21676019.775661469 -51213022.029907227 0 -51213022.029907227 -13249814.059906006 0 0 0 0 -7325694.8768730164 -30237212.796459198 0 -30237212.796459198 -21733885.341094971 0 0 0 0 -22098132.554077148 -25975313.306526184 0 -25975313.306526184 -7883901.2603759766 0 0 0 0 -14688583.718193054 -4105377.7023468018 0 -4105377.7023468018 29753307.922996521 0 0 0 0 1546843.8986434937 -89943235.60654068 0 -89943235.60654068 10622028.891601562 0 0 0 0 73049121.401268005 4817653.0527496338 0 4817653.0527496338 -111019059.3251915 0 0 0 0 -1883000.2570512928 -1099298.0768722892 0 -1099298.0768722892 1335809.764943324 0 0 0 0 102979079.15047836 -24819466.290466309 0 -24819466.290466309 -8887356.9226989746 0 0 0 0 69901301.645626068 32088817.869258881 0 32088817.869258881 17892152.055801392 0 0 0 0 21966967.440357208 -20849473.461204529 0 -20849473.461204529 -9075069.418182373 0 0 0 0 54741367.940849304 2960193.056678772 0 2960193.056678772 -35161674.289535522 0 0 0 0 7135297.3136152104 -7873694.8810766898 0 -7873694.8810766898 -4514706.1412274409 0 0 0 0 1831500.2726821899 -8234896.8276290894 0 -8234896.8276290894 -6277793.4632873535 0 0 0 0 4371166.9175720215 -2581839.8748092651 0 -2581839.8748092651 -3984452.7600097656 0 0 0 0 31631815.531539917 -8943666.2193603516 0 -8943666.2193603516 -61579353.966644287 0 0 0 0 -4835578.3249893188 -4018195.4365539551 0 -4018195.4365539551 -35816504.687072754 0 0 0 0 9946320.3360879906 -5721211.1766918376 0 -5721211.1766918376 -5739921.320402313 0 0 0 0 14151686.986758232 -1087860.7367591858 0 -1087860.7367591858 -6305860.900970459 0 0 0 0 25807128.462421417 16176156.563854218 0 16176156.563854218 -55699684.762802124 0 0 0 0 8162308.974899292 -4695148.4739379883 0 -4695148.4739379883 -4637676.8204040527 0 0 0 0 -10131904.309082031 9769828.2574157715 0 9769828.2574157715 -40737370.887664795 0 0 0 0 17258980.562141418 -1900210.3602600098 0 -1900210.3602600098 -37224031.052280426 0 0 0 0 7963343.7113876343 509113.22964477539 0 509113.22964477539 7648954.7528991699 0 0 0 0 636664.22732543945 -19131504.010738373 0 -19131504.010738373 -22098505.277526855 0 0 0 0 -680516.01835632324 12975909.635753632 0 12975909.635753632 -14812446.878631592 0 0 0 0 -4899047.8686828613 -11148008.151290894 0 -11148008.151290894 -3541182.954832077 0 0 0 0 -1426665.3707375079 -2302987.078933686 0 -2302987.078933686 -714892.42333234847 0 0 0 0 2419126.8849490136 -14018571.472449545 0 -14018571.472449545 -4096099.2228041515 0 0 0 0 9157596.7405000851 -4025778.5351452976 0 -4025778.5351452976 -7152094.5875010788 0 0 0 0 5169284.9859838486 -17388101.941262245 0 -17388101.941262245 -8994559.4357452393 0 0 0 0 5156301.5783157349 -2445712.100479126 0 -2445712.100479126 -44084968.753265381 0 0 0 0 -12606744.32485199 -7362926.4815177917 0 -7362926.4815177917 17339381.105957031 0 0 0 0 382880.11145905871 -689568.02289870009 0 -689568.02289870009 -176617.21926616132 0 0 0 0 -241541.68334800005 -454275.16550961882 0 -454275.16550961882 788332.03133844584 0 0 0 0 863871.52987670898 -7198481.7079544067 0 -7198481.7079544067 -13802120.619781494 0 0 0 0 -1061597.9430847168 -2718939.9716949463 0 -2718939.9716949463 10770819.32409668 0 0 0 0 -216845.21059997007 -3434283.8577139005 0 -3434283.8577139005 -3662850.0877201557 0 0 0 0 12521821.734695435 -18060241.255493164 0 -18060241.255493164 -29112562.250961304 0 0 0 0 2686820.1940219998 -9404898.1308525503 0 -9404898.1308525503 -1699806.5097306706 0 0 0 0 -1680293.1546630859 -19506972.301792145 0 -19506972.301792145 -17477614.389099121 0 0 0 0 -3856336.8904342651 31545749.418807983 0 31545749.418807983 -27469893.251083374 0 0 0 0 26850448.021911621 6595096.8972244263 0 6595096.8972244263 -19674150.362182617 0 0 0 0 46141360.825271606 3133811.3694152832 0 3133811.3694152832 -30955490.526409149 0 0 0 0 13403100.507374287 -3762575.7829437256 0 -3762575.7829437256 -18093008.880010605 0 0 0 0 -20343958.693958282 14762032.670211792 0 14762032.670211792 -14592379.245574951 0 0 0 0 5176732.8723220825 -4133310.8769226074 0 -4133310.8769226074 -4746107.1516189575 0 0 0 0 4793078.7760970974 -7136093.2680394351 0 -7136093.2680394351 1906475.3253800571 0 0 0 0 -28060217.01272583 29170487.177947998 0 29170487.177947998 -28922515.677032471 0 0 0 0 -6509012.8678684235 20434417.362182617 0 20434417.362182617 -44957568.120010376 0 0 0 0 -1052410.6195678711 -27459217.732299805 0 -27459217.732299805 -18039705.50252533 0 0 0 0 -83062651.998565674 -23983847.153202057 0 -23983847.153202057 -17454114.925231934 0 0 0 0 -24598311.369088173 -20608306.521182537 0 -20608306.521182537 -4404006.6931762695 0 0 0 0 26334652.283966064 -17022101.711105347 0 -17022101.711105347 -124589824.43875885 0 0 0 0 25814293.611614227 31651785.495929718 0 31651785.495929718 5799689.1462249756 0 0 0 0 -18321886.892585754 -46992184.539031982 0 -46992184.539031982 97864177.982093811 0 0 0 0 50045306.735946655 -81185548.641563416 0 -81185548.641563416 46238969.887931824 0 0 0 0 -19731951.969040394 -20333753.7947402 0 -20333753.7947402 11621493.549438477 0 0 0 0 -9378745.6022796631 -12311711.974281311 0 -12311711.974281311 -9433049.4875793457 0 0 0 0 10198174.735855103 -28781657.965255737 0 -28781657.965255737 -5131807.0793886185 0 0 0 0 -11669678.427726746 -43783175.040313721 0 -43783175.040313721 51960059.80480957 0 0 0 0 -15748032.938598633 -60330807.384078979 0 -60330807.384078979 53744198.853704453 0 0 0 0 160245.04829788208 -78858101.108894348 0 -78858101.108894348 69796561.917175293 0 0 0 0 74848243.24319458 -59256480.351074219 0 -59256480.351074219 9012282.0930404663 0 0 0 0 -25390.482867974788 64754.997132048011 0 64754.997132048011 742942.37176217139 0 0 0 0 -31990708.844640732 -15613279.05644989 0 -15613279.05644989 18018754.025146484 0 0 0 0 -26480012.27391243 -43354736.400886536 0 -43354736.400886536 69995167.714477539 0 0 0 0 -50372245.032806396 205052620.02124023 0 205052620.02124023 -138701178.94366455 0 0 0 0 8857349.2659759521 -41187550.275344849 0 -41187550.275344849 12413577.892440796 0 0 0 0 -7462335.1284332275 -37255652.337478638 0 -37255652.337478638 15163416.42175293 0 0 0 0 -6556603.9445877075 -56653116.313461304 0 -56653116.313461304 51380968.052825928 0 0 0 0 1424220.3653335571 -18577862.13658905 0 -18577862.13658905 -41784170.278991699 0 0 0 0 36204962.064323425 -22556309.56955719 0 -22556309.56955719 -33972102.163787842 0 0 0 0 -1686381.1882171631 -18881350.666976929 0 -18881350.666976929 -34060129.36238122 0 0 0 0 3140229.2431512028 619282.03368876874 0 619282.03368876874 -855621.0446773991 0 0 0 0 6341821.9354400635 -41581536.135513306 0 -41581536.135513306 -43191638.418968201 0 0 0 0 892941.22719955444 18601418.714012146 0 18601418.714012146 -12177902.270324707 0 0 0 0 11882709.560468089 -14298445.815399304 0 -14298445.815399304 -4280738.8797134943 0 0 0 0 1871308.9578552246 -8429943.368850708 0 -8429943.368850708 -13217547.512969971 0 0 0 0 2820809.4495015889 -4800008.9853651375 0 -4800008.9853651375 -452480.32320202887 0 0 0 0 -3024254.5696411133 -8930627.8438110352 0 -8930627.8438110352 -9765862.5392837524 0 0 0 0 7365867.3371533025 410093.96202840656 0 410093.96202840656 -854117.79758802056 0 0 0 0 -10174451.808681488 -25836709.058578491 0 -25836709.058578491 -4659315.9242858887 0 0 0 0 -5492001.2990064621 -20815249.300216675 0 -20815249.300216675 25409516.359107971 0 0 0 0 7721284.7944454513 -7222910.4169399515 0 -7222910.4169399515 3140275.6244684011 0 0 0 0 37920356.846183777 -48491423.503128052 0 -48491423.503128052 37544852.229560852 0 0 0 0 -14665066.745857239 -21253700.26922226 0 -21253700.26922226 8510786.1032714844 0 0 0 0 -14420571.560188293 -8943558.3564758301 0 -8943558.3564758301 -12774637.408874512 0 0 0 0 -1461885.6112964023 -1063831.860131979 0 -1063831.860131979 1003863.8157414719 0 0 0 0 -3388607.1291098371 -14365063.40649496 0 -14365063.40649496 -205336.32950989343 0 0 0 0 9388861.8326396942 -25253590.136863708 0 -25253590.136863708 -3406577.9523620605 0 0 0 0 -2554849.8701095581 -32858304.880493164 0 -32858304.880493164 14542359.235115051 0 0 0 0 2223874.5939832823 -7359888.5293738171 0 -7359888.5293738171 -1945917.418484807 0 0 0 0 2982567.189479351 -16489384.008525848 0 -16489384.008525848 -11675483.805618286 0 0 0 0 4200844.9964580536 -20475464.959606171 0 -20475464.959606171 -12831807.238769531 0 0 0 0 84297978.34425354 -152570839.24993896 0 -152570839.24993896 173802512.59533691 0 0 0 0 6227125.3806681447 -6976626.5373506099 0 -6976626.5373506099 3221486.2803863436 0 0 0 0 -433432.17914676666 -31525792.029899597 0 -31525792.029899597 -28729245.99810791 0 0 0 0 -63037911.990552425 -28025225.958602905 0 -28025225.958602905 49366515.96509552 0 0 0 0 -1351687.6254997253 -12967219.130767822 0 -12967219.130767822 12885402.06193924 0 0 0 0 8466154.5241560936 -33660467.423366547 0 -33660467.423366547 -228202796.83746338 0 0 0 0 694713.92256572656 -2391362.3863312751 0 -2391362.3863312751 -683648.23715317808 0 0 0 0 -15515936.999375582 -50791701.221775055 0 -50791701.221775055 -137104085.66687012 0 0 0 0 -21583304.491201639 -63546494.595790863 0 -63546494.595790863 -109585659.415802 0 0 0 0 6028708.8342704773 -52068411.998207092 0 -52068411.998207092 -136321673.23152161 0 0 0 0 -4728083.2288036346 -64238415.31199646 0 -64238415.31199646 -96606542.559883118 0 0 0 0 9452837.7995653152 -39048449.774902344 0 -39048449.774902344 -92054590.975646973 0 0 0 0 7578249.0191555023 -7416321.1092681885 0 -7416321.1092681885 -117882641.44044876 0 0 0 0 580717.03466796875 -20613412.637657166 0 -20613412.637657166 -73964154.223144531 0 0 0 0 10505525.161539078 -20781224.17527771 0 -20781224.17527771 -84926897.384216309 0 0 0 0 11982010.866411209 -12590502.009559631 0 -12590502.009559631 -49786772.786865234 0 0 0 0 7320734.682258606 -40609568.193664551 0 -40609568.193664551 -87748799.648509979 0 0 0 0 -2063403.9474010468 -12687164.094993591 0 -12687164.094993591 -11164319.575134277 0 0 0 0 4791356.1847686879 -4144435.954040736 0 -4144435.954040736 -1355012.1357962489 0 0 0 0 1490681.9315602547 502610.09044863656 0 502610.09044863656 -284118.51940052211 0 0 0 0 -949766.34738540649 -8603644.4686889648 0 -8603644.4686889648 -21150106.11932373 0 0 0 0 -7296972.3929977417 -29431049.594833374 0 -29431049.594833374 -43950780.499313354 0 0 0 0 12350630.256847382 -24180149.182937622 0 -24180149.182937622 -73579383.908325195 0 0 0 0 6593294.8791923523 -35558908.657394409 0 -35558908.657394409 -75901117.390674591 0 0 0 0 6053485.0609855652 -35832250.488235474 0 -35832250.488235474 -66907589.09262085 0 0 0 0 8381978.2138252258 -38130305.792724609 0 -38130305.792724609 -64839072.127868652 0 0 0 0 -6800648.5612417459 -40726189.220543385 0 -40726189.220543385 -63569544.771179199 0 0 0 0 8931751.0431137085 -43387332.827529907 0 -43387332.827529907 -71387831.09286499 0 0 0 0 5280667.2167034149 -37232902.25491333 0 -37232902.25491333 -61600852.013092041 0 0 0 0 6600587.4534168243 -45175752.539794922 0 -45175752.539794922 -79603754.042358398 0 0 0 0 7367190.4038467407 -42627870.089523315 0 -42627870.089523315 -71708965.097106934 0 0 0 0 4236195.45054245 -51183802.131462097 0 -51183802.131462097 -72653760.572998047 0 0 0 0 5509592.7059783936 -50800700.837936401 0 -50800700.837936401 -75205036.414321899 0 0 0 0 8634239.4909591675 -44743114.52204895 0 -44743114.52204895 -85682174.006877899 0 0 0 0 9680732.0838661194 -36216439.907119751 0 -36216439.907119751 -76301758.747192383 0 0 0 0 10662016.871204376 -38698712.299819946 0 -38698712.299819946 -87432673.286956787 0 0 0 0 6661196.9696731567 -55429230.349533081 0 -55429230.349533081 -87691206.579235077 0 0 0 0 10349126.005182266 -43994659.260742188 0 -43994659.260742188 -86074080.430603027 0 0 0 0 9664253.0073242188 -45995864.832809448 0 -45995864.832809448 -101753710.44168091 0 0 0 0 2771931.5622844696 -58005392.069450378 0 -58005392.069450378 -79314041.30909729 0 0 0 0 2630176.0793645978 -59899148.625705719 0 -59899148.625705719 -94322234.886138916 0 0 0 0 3910012.9507331848 -57523099.698699951 0 -57523099.698699951 -79184270.955657959 0 0 0 0 5968543.8502454758 -55693483.497440338 0 -55693483.497440338 -70518719.28137207 0 0 0 0 7746867.1835002899 -51750145.253276825 0 -51750145.253276825 -75224187.228088379 0 0 0 0 5975884.0297660828 -55007087.499298096 0 -55007087.499298096 -77729358.145126343 0 0 0 0 3935510.2949333191 -57892749.393493652 0 -57892749.393493652 -74143802.948608398 0 0 0 0 -3501919.0887641907 -57899963.620796204 0 -57899963.620796204 -55694475.842178345 0 0 0 0 7325124.7862205505 -52493943.064918518 0 -52493943.064918518 -69807598.737113953 0 0 0 0 -7581307.5004730225 -66844137.22104454 0 -66844137.22104454 -66433732.887115479 0 0 0 0 -7556893.0041675568 -66545925.745620728 0 -66545925.745620728 -70328934.888267517 0 0 0 0 8301044.7900487781 -47020958.858640671 0 -47020958.858640671 -78685872.130233765 0 0 0 0 -45355218.648773193 -89770494.926330566 0 -89770494.926330566 -52183310.584388733 0 0 0 0 3114673.3466125736 -12833376.717889328 0 -12833376.717889328 -5702845.2555813491 0 0 0 0 -5580324.3926129341 -68908108.571990967 0 -68908108.571990967 -99743409.065368652 0 0 0 0 -13839572.864197731 -74197294.747016907 0 -74197294.747016907 -94426060.369804382 0 0 0 0 -20319222.539268047 -62867268.349057198 0 -62867268.349057198 -101459053.72419739 0 0 0 0 -18591973.361216784 -74180771.329755783 0 -74180771.329755783 -95803733.598419189 0 0 0 0 -10970896.717508316 -73059836.898094177 0 -73059836.898094177 -96755641.971542358 0 0 0 0 -10761228.872102737 -75263916.791496277 0 -75263916.791496277 -78714588.127212524 0 0 0 0 -4180011.4298038483 -64142736.528457642 0 -64142736.528457642 -110891714.94176483 0 0 0 0 6588993.0398025513 -9945909.6971435547 0 -9945909.6971435547 -10382038.095481873 0 0 0 0 8794586.3880062103 -14967853.512111664 0 -14967853.512111664 -14354537.692657471 0 0 0 0 8180503.8230285645 -28564157.194084167 0 -28564157.194084167 -41554105.879623413 0 0 0 0 -12434179.756546021 -7498228.9500198364 0 -7498228.9500198364 -27082728.509719849 0 0 0 0 -430265.10862159729 -19831510.886258125 0 -19831510.886258125 -14637270.465942383 0 0 0 0 -2167767.9579334259 -10045258.947486877 0 -10045258.947486877 -8428783.8652954102 0 0 0 0 -3450221.920173645 -6933994.7713317871 0 -6933994.7713317871 6720083.4481506348 0 0 0 0 1710802.4563751221 -13536597.500457764 0 -13536597.500457764 -22968018.786865234 0 0 0 0 -3048407.211517334 -36574710.220825195 0 -36574710.220825195 -24901342.145477295 0 0 0 0 -11245247.421768188 -31435645.814903259 0 -31435645.814903259 -5122318.131072998 0 0 0 0 7530673.3835468292 -2535659.9400730133 0 -2535659.9400730133 -4788930.4155578613 0 0 0 0 17372930.969665527 -2320623.4046707153 0 -2320623.4046707153 -10807133.097839355 0 0 0 0 10985827.053957984 -1910040.7526057772 0 -1910040.7526057772 -5778198.2174912468 0 0 0 0 7654847.6664428711 -12162062.554908752 0 -12162062.554908752 -12220769.991531372 0 0 0 0 19381370.695465088 17612425.811355591 0 17612425.811355591 -5778116.2903900146 0 0 0 0 -24056652.744018555 -48536238.149780273 0 -48536238.149780273 -30037655.664505005 0 0 0 0 -13689922.55456543 -25204884.273330688 0 -25204884.273330688 -21007932.404693604 0 0 0 0 42894459.072685242 -476891.01689147949 0 -476891.01689147949 -9444351.289352417 0 0 0 0 -18297031.752664566 -36134046.505176544 0 -36134046.505176544 -43449897.93536377 0 0 0 0 1118268.179512037 760807.0029495731 0 760807.0029495731 355607.4681026116 0 0 0 0 2126016.4652737305 -6565036.7614602447 0 -6565036.7614602447 -4353795.5781223848 0 0 0 0 4219178.070602417 -3537312.0240325928 0 -3537312.0240325928 -1883550.9837493896 0 0 0 0 5178339.7953672409 -7094404.132229805 0 -7094404.132229805 -8336505.822845459 0 0 0 0 1145837.4071851969 -4393579.4276662916 0 -4393579.4276662916 -1811282.5646928176 0 0 0 0 5478200.2292714231 -690584.86138956249 0 -690584.86138956249 -804675.23171725869 0 0 0 0 32733005.787307739 -2851329.1208496094 0 -2851329.1208496094 -33180595.154602051 0 0 0 0 -619633.13464355469 -5459033.4098815918 0 -5459033.4098815918 -15165684.168670654 0 0 0 0 -11247455.89453125 -17179963.018341064 0 -17179963.018341064 -10677843.933441162 0 0 0 0 4398084.9461112954 -1014472.1540813819 0 -1014472.1540813819 -411955.69430541992 0 0 0 0 -1681170.7225418091 -19442754.797164917 0 -19442754.797164917 -38365677.831596375 0 0 0 0 22137884.317913055 -30440527.907714844 0 -30440527.907714844 -64781795.696838379 0 0 0 0 2505873.7061882019 -39069996.614089966 0 -39069996.614089966 -62603349.247406006 0 0 0 0 -11357344.460418701 -32941914.579025269 0 -32941914.579025269 -42784176.864990234 0 0 0 0 -7071061.6494369507 -35519056.833251953 0 -35519056.833251953 -47258613.782073975 0 0 0 0 -10462943.224845886 -32022098.403114319 0 -32022098.403114319 -49005699.068603516 0 0 0 0 -10963311.799564362 -38363316.278686523 0 -38363316.278686523 -46868649.845825195 0 0 0 0 -12543830.300865173 -45902112.634735107 0 -45902112.634735107 -43896086.056282043 0 0 0 0 -2150081.075340271 -46772831.736206055 0 -46772831.736206055 -58740724.983894348 0 0 0 0 -10799857.226905823 -57715615.228424072 0 -57715615.228424072 -60816748.737203598 0 0 0 0 -7644518.2055206299 -51354869.532272339 0 -51354869.532272339 -61662570.532592773 0 0 0 0 -10592146.398090363 -56455078.565597534 0 -56455078.565597534 -55815747.244232178 0 0 0 0 -836150.12885665894 -61428190.419296265 0 -61428190.419296265 -74904990.637542725 0 0 0 0 -2592360.6913414001 -69444168.477561951 0 -69444168.477561951 -86375634.093002319 0 0 0 0 9146376.3124542236 -57496422.908910751 0 -57496422.908910751 -75665331.005249023 0 0 0 0 -137590671.7611084 -59266674.137374878 0 -59266674.137374878 -45082758.765968323 0 0 0 0 -35518427.759296417 -47517936.169631958 0 -47517936.169631958 -45498484.454650879 0 0 0 0 -40503014.471073151 -51434373.274879456 0 -51434373.274879456 -45707280.500518799 0 0 0 0 -31070707.690246582 -51645166.229003906 0 -51645166.229003906 -49664232.948806763 0 0 0 0 -36055885.350868225 -71708954.150482178 0 -71708954.150482178 -62642308.757568359 0 0 0 0 -23265802.594470978 -55529281.127349854 0 -55529281.127349854 -52230083.387741089 0 0 0 0 -22080084.062440395 -41989939.209423065 0 -41989939.209423065 -40880334.573364258 0 0 0 0 -51856162.75138855 -35006609.658103943 0 -35006609.658103943 -29242224.764923096 0 0 0 0 6034585.5517833242 6376144.4490759578 0 6376144.4490759578 -3918509.2623037696 0 0 0 0 35067752.430679798 3973795.1235542297 0 3973795.1235542297 -17240735.230331421 0 0 0 0 11157698.650565114 -9453711.4080207795 0 -9453711.4080207795 -11223664.734447442 0 0 0 0 -29650492.981206894 -45771512.209449768 0 -45771512.209449768 -48017910.961578369 0 0 0 0 1440971.2334772898 2920682.418735059 0 2920682.418735059 -1119122.3380588591 0 0 0 0 25179547.045227051 27240978.440307617 0 27240978.440307617 -3672129.8779335022 0 0 0 0 29168865.940753937 20638321.266387939 0 20638321.266387939 -48197246.198760986 0 0 0 0 13653539.64389801 1952226.9229812622 0 1952226.9229812622 -3567514.4866628647 0 0 0 0 17737030.536255836 -15488868.965771675 0 -15488868.965771675 -33337020.718780518 0 0 0 0 -2799851.4523506165 -9518830.9176464081 0 -9518830.9176464081 15995031.91254425 0 0 0 0 445630.39930725098 554471.94488811493 0 554471.94488811493 49187409.266582489 0 0 0 0 -8039480.9546797164 -24877699.864651076 0 -24877699.864651076 -11944828.973817259 0 0 0 0 -6056073.1276855469 -1626762.0070953369 0 -1626762.0070953369 90464778.090839386 0 0 0 0 -8008121.5105405599 -3524760.4532331098 0 -3524760.4532331098 18105387.419665545 0 0 0 0 -20287624.876817562 -16785951.781411681 0 -16785951.781411681 31360494.857144788 0 0 0 0 200694282.6729933 13621622.39556694 0 13621622.39556694 -499530495.394104 0 0 0 0 201936522.06324768 -135695925.43422699 0 -135695925.43422699 -57754076.189086914 0 0 0 0 -5516844.6877142992 -28783127.818820585 0 -28783127.818820585 -7763110.0357052386 0 0 0 0 3884369.9710922241 -23486890.245977402 0 -23486890.245977402 15150685.972267151 0 0 0 0 -250779230.80510712 -195754118.87261581 0 -195754118.87261581 -79761347.410949707 0 0 0 0 -1076409.0992584229 50172880.569374084 0 50172880.569374084 -19492237.756027222 0 0 0 0 102578088.9478302 212534876.80554199 0 212534876.80554199 -811774777.02877808 0 0 0 0 10040396.937999725 -29471484.03887558 0 -29471484.03887558 16566502.970444679 0 0 0 0 13199788.807857513 -25897880.278888702 0 -25897880.278888702 -5358371.3328170776 0 0 0 0 357776.25325486436 -4340137.5501922034 0 -4340137.5501922034 4789486.5408767872 0 0 0 0 -9550609.2038157098 -23836921.117014736 0 -23836921.117014736 -4742441.0782792978 0 0 0 0 -413106129.3742981 -688728282.01852417 0 -688728282.01852417 982535314.75979614 0 0 0 0 -2842136.5999145508 -8476618.1168441772 0 -8476618.1168441772 23050471.884597778 0 0 0 0 -9718688.9931109548 -28253273.709799156 0 -28253273.709799156 -961347.75378665095 0 0 0 0 3443727.8358248398 -16476070.778469402 0 -16476070.778469402 -12636497.91081964 0 0 0 0 -108786719.01902771 -13433264.947563171 0 -13433264.947563171 122009035.6579895 0 0 0 0 25060380.389434814 -3849886.3220214844 0 -3849886.3220214844 79095424.119498253 0 0 0 0 -7050110.2285778262 -30593568.336802129 0 -30593568.336802129 -6401582.914873492 0 0 0 0 105512.58843695745 -1232769.4880927876 0 -1232769.4880927876 1498476.816798286 0 0 0 0 12442461.478801727 -23577914.859745026 0 -23577914.859745026 -47981653.014686584 0 0 0 0 5996362.9230422974 -24978133.909545898 0 -24978133.909545898 733760.4850769043 0 0 0 0 1607755.9645309448 -15214416.155349731 0 -15214416.155349731 -12387795.219022751 0 0 0 0 -8293128.6607780457 -109040833.34391022 0 -109040833.34391022 -132479488.50874329 0 0 0 0 -88951678.95668602 64578810.936412811 0 64578810.936412811 79173528.498535156 0 0 0 0 52124087.396785736 -40762877.734680176 0 -40762877.734680176 -6034507.0000152588 0 0 0 0 -2133894.5675067902 -40435081.720619202 0 -40435081.720619202 -39040712.620269775 0 0 0 0 30734802.406723022 -39188910.368492126 0 -39188910.368492126 -77051028.068889618 0 0 0 0 -9212788.4630832374 -26912600.292964559 0 -26912600.292964559 3881784.9466250259 0 0 0 0 9400328.4936904907 -37470553.938045502 0 -37470553.938045502 -17447325.087661743 0 0 0 0 7355603.8574819565 -41539185.20767498 0 -41539185.20767498 -1252394.3249816895 0 0 0 0 1464229.8899326324 -30720926.842543125 0 -30720926.842543125 -258901.27045440674 0 0 0 0 709722.34284973145 -25265491.068557739 0 -25265491.068557739 -7444612.781047821 0 0 0 0 1110304.6734852791 -32948989.279652596 0 -32948989.279652596 871521.33087158203 0 0 0 0 889199.31329452246 -14177173.939520694 0 -14177173.939520694 -5818428.2331060842 0 0 0 0 661165.57150268555 -31581265.603240967 0 -31581265.603240967 7516550.7103538513 0 0 0 0 2843600.7220001221 -29786163.977733612 0 -29786163.977733612 4054358.1085891724 0 0 0 0 -4105288.2557010204 -20256142.289902415 0 -20256142.289902415 -13024526.23559643 0 0 0 0 451682205.65026855 -234091090.12591553 0 -234091090.12591553 -5588701.8481330872 0 0 0 0 387541061.95581055 -96478563.949081421 0 -96478563.949081421 186385137.40559387 0 0 0 0 167260661.06307983 -195581939.41851425 0 -195581939.41851425 166812341.19694519 0 0 0 0 1267878.4082950428 -2483855.3861838477 0 -2483855.3861838477 -2067732.8523571007 0 0 0 0 4895843.2587337494 -36179288.979914665 0 -36179288.979914665 6867136.4000854492 0 0 0 0 4090543.7847671509 -24632380.55871582 0 -24632380.55871582 6008298.8334503174 0 0 0 0 2719983.078086853 -31712348.579627991 0 -31712348.579627991 -8064440.8119544983 0 0 0 0 -303710206.44000244 -367833658.92086411 0 -367833658.92086411 338817604.20620728 0 0 0 0 -384835680.67127419 -274199600.94901848 0 -274199600.94901848 -19129623.444572449 0 0 0 0 -466253440.12155151 115689329.86220169 0 115689329.86220169 40094138.660903931 0 0 0 0 527555749.69920349 104727827.84922409 0 104727827.84922409 -407255257.53140259 0 0 0 0 528542815.03862 -146147259.71891022 0 -146147259.71891022 -244777781.04180908 0 0 0 0 197910187.86404419 536333865.41810226 0 536333865.41810226 -550807325.8158226 0 0 0 0 -17567112.786865234 8153635.9779052734 0 8153635.9779052734 19329851.475891113 0 0 0 0 -532015.57968139648 -128260523.25356674 0 -128260523.25356674 112060941.70056152 0 0 0 0 126227993.61637878 -75924874.759632111 0 -75924874.759632111 21120456.719070435 0 0 0 0 121786216.30471802 -133418983.04632568 0 -133418983.04632568 119119553.29005432 0 0 0 0 260836314.59819031 -203162958.88266754 0 -203162958.88266754 146333702.45657349 0 0 0 0 85329028.858963013 -91307199.886138916 0 -91307199.886138916 51221187.887138367 0 0 0 0 106438464.17828369 -30922286.304428101 0 -30922286.304428101 209466861.15949821 0 0 0 0 -62272550.308380127 -121412249.60551071 0 -121412249.60551071 64921758.74911499 0 0 0 0 -19959957.655426025 -41722131.304424286 0 -41722131.304424286 127386062.96058178 0 0 0 0 -121084549.45656204 -163229689.67840433 0 -163229689.67840433 44010684.31338501 0 0 0 0 -141076359.14556885 -72552656.061359406 0 -72552656.061359406 109803401.91874695 0 0 0 0 -21040574.228317261 -42865509.452969313 0 -42865509.452969313 37875389.513442993 0 0 0 0 -134457487.38171387 -151673008.84886932 0 -151673008.84886932 36308334.727481842 0 0 0 0 -146681339.9069519 -213874370.23114777 0 -213874370.23114777 -29602716.240104675 0 0 0 0 -151821394.23924255 -158424505.88305283 0 -158424505.88305283 81626778.264541626 0 0 0 0 -97729203.755523682 -156293080.18811226 0 -156293080.18811226 15397910.238258362 0 0 0 0 -114016061.36891174 -138980575.37496567 0 -138980575.37496567 53987188.443241119 0 0 0 0 -84277988.948852539 -111010350.01224899 0 -111010350.01224899 77279064.275718689 0 0 0 0 -126734899.33479309 -115970054.95451355 0 -115970054.95451355 35782252.187764227 0 0 0 0 -73387480.850582123 -123271227.48854256 0 -123271227.48854256 35841653.447463989 0 0 0 0 -58638105.83820343 -97585748.014762878 0 -97585748.014762878 -25009511.308717728 0 0 0 0 17595003.252183914 -33117189.677819252 0 -33117189.677819252 27429993.18598938 0 0 0 0 -18085842.279670715 -52944936.461427689 0 -52944936.461427689 80772370.967744827 0 0 0 0 30440777.231826782 -111350811.44246864 0 -111350811.44246864 -95255852.540956497 0 0 0 0 -49003347.191711426 -201023519.30361748 0 -201023519.30361748 -156455034.5986824 0 0 0 0 -1895617.6988176927 -1399058.4191697324 0 -1399058.4191697324 4930941.4662898257 0 0 0 0 48090618.736637115 -76662301.043386459 0 -76662301.043386459 -68774814.526613235 0 0 0 0 -51205989.730247498 -97272132.634325027 0 -97272132.634325027 -45504603.87644577 0 0 0 0 -1938189.0523295682 -32766380.182174318 0 -32766380.182174318 9306041.1341716573 0 0 0 0 13794501.298392296 -65020569.628505707 0 -65020569.628505707 -37402666.841091156 0 0 0 0 1709831.4428332392 -28102998.394405168 0 -28102998.394405168 5864698.6255735233 0 0 0 0 -12751948.547482936 -27412760.135196775 0 -27412760.135196775 12432451.080834392 0 0 0 0 -25770330.667240143 -58505743.079719543 0 -58505743.079719543 -14753174.364685059 0 0 0 0 -20521691.453166962 -28540926.603931427 0 -28540926.603931427 -19538104.561020851 0 0 0 0 -5104441.7545585632 -48224626.511779785 0 -48224626.511779785 -56084162.074380398 0 0 0 0 -23562291.005147934 -26174046.809991837 0 -26174046.809991837 3026449.608291626 0 0 0 0 -15236333.934806824 -37914579.958465576 0 -37914579.958465576 7904299.7405548096 0 0 0 0 -4455031.5729751587 -31798667.265228271 0 -31798667.265228271 -2170776.4002189636 0 0 0 0 -18313956.347297668 -19528011.750011444 0 -19528011.750011444 -6604032.6215286255 0 0 0 0 -21417689.860336304 -32849071.94511795 0 -32849071.94511795 -1662965.0931434631 0 0 0 0 -18927566.979799271 -28226843.883108139 0 -28226843.883108139 6905437.3862609863 0 0 0 0 -1559986.9747710328 -17677899.315082353 0 -17677899.315082353 14028924.318281304 0 0 0 0 -3900301.5655174255 -21666529.798793793 0 -21666529.798793793 9692336.8923110962 0 0 0 0 -8416982.4081192017 -32205604.78395462 0 -32205604.78395462 6434667.1039047241 0 0 0 0 -6831488.1116485596 -35733711.733318329 0 -35733711.733318329 -3068728.1777954102 0 0 0 0 4498614.8816490173 -24793419.864509583 0 -24793419.864509583 9834626.5173835754 0 0 0 0 -5328402.1448631287 -25486279.191797256 0 -25486279.191797256 21201891.93069458 0 0 0 0 -3487162.5815873975 -17201821.843372874 0 -17201821.843372874 17343266.248817764 0 0 0 0 -459080992.35484385 -62817602.63183403 0 -62817602.63183403 271702745.07891846 0 0 0 0 -1562656.3423500061 -25740054.581195831 0 -25740054.581195831 11989949.333883286 0 0 0 0 -116593278.70874023 -51002844.648572922 0 -51002844.648572922 -78945874.6302948 0 0 0 0 35976281.173912525 -365973203.99989605 0 -365973203.99989605 437098355.97012329 0 0 0 0 -288475537.85098624 -234799719.25792408 0 -234799719.25792408 73925926.567401886 0 0 0 0 22828075.092550278 -57087297.891227722 0 -57087297.891227722 -23088458.854312897 0 0 0 0 405098268.57258224 866622.8815536499 0 866622.8815536499 -60833740.668334961 0 0 0 0 106148.31362410123 -2591788.3998488318 0 -2591788.3998488318 -542555.6111883875 0 0 0 0 -165634882.06897688 229089365.74166012 0 229089365.74166012 577372329.25851822 0 0 0 0 -222231586.19234371 -52692527.100963593 0 -52692527.100963593 232184872.70264053 0 0 0 0 -115981909.72226143 -71537315.471580505 0 -71537315.471580505 273704074.9122715 0 0 0 0 -20538492.024048805 -233907671.93942642 0 -233907671.93942642 228028558.96421432 0 0 0 0 -219068087.05407405 -193102009.88970447 0 -193102009.88970447 267847296.8478508 0 0 0 0 29727380.214947701 -194271950.94519234 0 -194271950.94519234 100082584.04967785 0 0 0 0 -58635399.857931137 -157545675.16527557 0 -157545675.16527557 92256740.202613831 0 0 0 0 -198738170.57822311 -91089335.893950939 0 -91089335.893950939 135229241.93579865 0 0 0 0 217719.0477975118 -8812078.7130746972 0 -8812078.7130746972 -3086846.9320985265 0 0 0 0 61215272.025523186 -34979521.944308281 0 -34979521.944308281 -50638704.588306427 0 0 0 0 -157907746.08977985 -113307842.66218185 0 -113307842.66218185 137268816.4818244 0 0 0 0 -137307772.76012921 -76020086.300085545 0 -76020086.300085545 12369339.833400726 0 0 0 0 -8367834.0332326889 -104031242.00678444 0 -104031242.00678444 -75393996.086395264 0 0 0 0 -57524468.697948456 -127101570.57794189 0 -127101570.57794189 -67675186.063617706 0 0 0 0 6105309.7203718014 -20887960.521188065 0 -20887960.521188065 -16482417.363605231 0 0 0 0 72850.339038848877 -43292300.019684792 0 -43292300.019684792 -68437314.719097137 0 0 0 0 -10937793.502496719 -40839541.177032471 0 -40839541.177032471 -48336083.687362194 0 0 0 0 -16555472.854442596 -54501339.741872787 0 -54501339.741872787 -76815092.323179245 0 0 0 0 39009203.412780762 -38833788.277070045 0 -38833788.277070045 -72420017.637649536 0 0 0 0 10056163.437841415 -77319825.149028778 0 -77319825.149028778 -74021604.258964539 0 0 0 0 -15048759.517796516 -65953318.976379395 0 -65953318.976379395 -78736121.704536438 0 0 0 0 69417795.326014519 -54800755.796264648 0 -54800755.796264648 -65492936.627635956 0 0 0 0 -4876770.1077136993 -119614089.16196442 0 -119614089.16196442 -33730248.323303223 0 0 0 0 47712805.974416733 -99898472.121299744 0 -99898472.121299744 -28888255.73759079 0 0 0 0 67356705.38476944 -69128760.140499115 0 -69128760.140499115 -46851883.779109955 0 0 0 0 -8663458.3895778656 -39072544.178037643 0 -39072544.178037643 -42470393.40524292 0 0 0 0 10041648.321901321 -28316622.53320694 0 -28316622.53320694 -39307839.402222633 0 0 0 0 51987245.757865906 2713156.069644928 0 2713156.069644928 -26418507.148429871 0 0 0 0 -47231944.093221664 18270491.997097015 0 18270491.997097015 32848535.683883667 0 0 0 0 -20891576.362479687 -12386241.422306061 0 -12386241.422306061 -228868.72281455994 0 0 0 0 39583173.239711761 -4341893.9651908875 0 -4341893.9651908875 -22786293.055831909 0 0 0 0 44772548.308670044 82058122.346542358 0 82058122.346542358 17893937.844772339 0 0 0 0 157958853.51000977 45142232.420139313 0 45142232.420139313 -34218319.730857849 0 0 0 0 168307153.21888924 -65933136.262124062 0 -65933136.262124062 -10787266.453941345 0 0 0 0 333017048.29420948 59441388.159141541 0 59441388.159141541 17811541.066342406 0 0 0 0 126951979.69428349 -169075953.73940277 0 -169075953.73940277 31158694.672286987 0 0 0 0 158213283.36489105 -42965243.712024689 0 -42965243.712024689 -44518895.880340576 0 0 0 0 442462346.498353 -86577380.801698685 0 -86577380.801698685 -21596076.763781071 0 0 0 0 27961743.100744247 -159505748.82835579 0 -159505748.82835579 69624016.384902954 0 0 0 0 -35642788.770393372 -242614206.14638138 0 -242614206.14638138 477982893.52570343 0 0 0 0 341116165.5051899 -370346513.73107719 0 -370346513.73107719 202985626.3183136 0 0 0 0 354712265.23216438 -318749713.02468872 0 -318749713.02468872 365945012.31422424 0 0 0 0 227808961.86063957 -83561220.170627594 0 -83561220.170627594 348362428.77789688 0 0 0 0 387568774.4162569 -341925403.60596466 0 -341925403.60596466 261675454.87020874 0 0 0 0 -49016767.566717148 29796229.018121719 0 29796229.018121719 170239259.55198669 0 0 0 0 -629412.82964891801 -433275.33020592574 0 -433275.33020592574 853947.59529762343 0 0 0 0 -462517.47553434456 -575431.00367891416 0 -575431.00367891416 340821.09401664883 0 0 0 0 -203585549.77268219 -231657888.19680786 0 -231657888.19680786 461522077.21436691 0 0 0 0 -558753787.85518992 -54669785.168803096 0 -54669785.168803096 -149918867.41937637 0 0 0 0 -545843500.65363908 -187346146.85475159 0 -187346146.85475159 192556817.31941605 0 0 0 0 -248227861.33845615 -115476109.38693619 0 -115476109.38693619 159393277.22009659 0 0 0 0 -89680211.277023822 -154169671.83191395 0 -154169671.83191395 -93713682.920898438 0 0 0 0 -670811941.49885774 -237097866.06516457 0 -237097866.06516457 99584707.670927048 0 0 0 0 -919801938.5029192 246649279.00184059 0 246649279.00184059 -120844244.79078794 0 0 0 0 306201.66758048331 668765.33517218358 0 668765.33517218358 -791015.23025808297 0 0 0 0 1187860091.4125371 -616889849.48386145 0 -616889849.48386145 -67558362.284446716 0 0 0 0 -1833830120.8172436 37315591.123883247 0 37315591.123883247 214427286.20619202 0 0 0 0 -14639562.11966753 -14591922.764533997 0 -14591922.764533997 -14732483.921077728 0 0 0 0 -564409.71885593014 -2368445.0696536368 0 -2368445.0696536368 1232938.1784499828 0 0 0 0 -421141985.31414127 80477812.790725708 0 80477812.790725708 -199541291.63658524 0 0 0 0 -1646111.3682386526 -1778965.3277035588 0 -1778965.3277035588 905805.31817541644 0 0 0 0 -29298866.534920454 -24669622.079149246 0 -24669622.079149246 -2432024.0563278198 0 0 0 0 -600913828.83057654 -220210512.25545502 0 -220210512.25545502 24695022.952377319 0 0 0 0 155129151.77418518 47028008.16837883 0 47028008.16837883 151365686.06255722 0 0 0 0 6373514.026506424 -156511738.29381561 0 -156511738.29381561 95058158.583549023 0 0 0 0 -37909072.096260548 35905913.852612972 0 35905913.852612972 144666606.72598648 0 0 0 0 545293671.19957542 -208618181.2719326 0 -208618181.2719326 190012659.16252989 0 0 0 0 356511631.56641769 17860010.391822815 0 17860010.391822815 186166218.30312788 0 0 0 0 880283873.19224072 -98800089.282432556 0 -98800089.282432556 31888103.338317871 0 0 0 0 236299538.80034351 -117145274.04914856 0 -117145274.04914856 122277953.70249367 0 0 0 0 33659863.457658768 -8068857.5093975067 0 -8068857.5093975067 156111774.7187314 0 0 0 0 31476055.624446869 -90883539.527500153 0 -90883539.527500153 -3766182.9400339127 0 0 0 0 152533592.51780939 -163462966.50237417 0 -163462966.50237417 116099322.55447388 0 0 0 0 230995028.77897549 -58544139.241632462 0 -58544139.241632462 1186122.4972438812 0 0 0 0 359772314.50379086 -181711813.25601864 0 -181711813.25601864 -81442799.509342194 0 0 0 0 69684684.745804191 -277939724.64383227 0 -277939724.64383227 -113363223.09733963 0 0 0 0 -346045208.88211536 -64921840.773555756 0 -64921840.773555756 -193586923.59055138 0 0 0 0 45660035.021230578 -21498672.862138748 0 -21498672.862138748 -125776918.28193283 0 0 0 0 38348221.850049257 -110527576.49713397 0 -110527576.49713397 -190103799.56550598 0 0 0 0 60335616.795753479 -124557820.54278564 0 -124557820.54278564 -255795867.95839214 0 0 0 0 27755588.750713348 -60124414.385785103 0 -60124414.385785103 -110675664.69774771 0 0 0 0 80805656.09258461 -37671503.949456215 0 -37671503.949456215 -121017586.07683563 0 0 0 0 2785780.2475191844 615853.56527924351 0 615853.56527924351 -417158.66191557422 0 0 0 0 -16648904.938724518 -19913747.018613815 0 -19913747.018613815 -27040605.08241272 0 0 0 0 927469.05015587807 -7079120.0809392929 0 -7079120.0809392929 -18768908.760498047 0 0 0 0 -835365432.63937974 -645180802.45716476 0 -645180802.45716476 -165377994.36701584 0 0 0 0 -293106089.83432674 -446426530.11817265 0 -446426530.11817265 -62718676.420243263 0 0 0 0 -473574190.15563202 -236714066.03614616 0 -236714066.03614616 -223142367.81972408 0 0 0 0 -1856441.4816856384 -678559521.42224693 0 -678559521.42224693 121339943.29516983 0 0 0 0 -4160493.7911270186 -10808062.110999592 0 -10808062.110999592 -247408.42724022828 0 0 0 0 26757748.191862106 4812901.2729949951 0 4812901.2729949951 14719769.347724915 0 0 0 0 32427310.313368797 38653294.319070816 0 38653294.319070816 -18287891.040565491 0 0 0 0 -78011425.758187294 -78667985.640108109 0 -78667985.640108109 -86163739.667358398 0 0 0 0 -21275761.73073101 -28295903.12871933 0 -28295903.12871933 -41599384.474693298 0 0 0 0 -3084616.2865839005 -43143944.057991982 0 -43143944.057991982 -98394708.23119545 0 0 0 0 -44505452.834375381 -38725183.523529053 0 -38725183.523529053 -38627284.085717201 0 0 0 0 -16199616.872409821 -51457888.594222069 0 -51457888.594222069 -103184156.28394699 0 0 0 0 -11819557.420825478 -33414579.415546861 0 -33414579.415546861 13602247.251790904 0 0 0 0 -22295559.872993469 -48909381.569248199 0 -48909381.569248199 -100201922.57290173 0 0 0 0 -73902575.826945662 -113412016.82517862 0 -113412016.82517862 -106269171.62976074 0 0 0 0 741857.98494620621 237784.61669833586 0 237784.61669833586 -54400.750910520554 0 0 0 0 -8432322.3037891388 -96418745.782512665 0 -96418745.782512665 -157042002.2469368 0 0 0 0 -12404967.438980103 -52997260.537742615 0 -52997260.537742615 -152082292.93736267 0 0 0 0 -30454004.566236496 -55128047.0963974 0 -55128047.0963974 -120803877.58692169 0 0 0 0 -15654387.879049301 -59991624.660362244 0 -59991624.660362244 -133007156.93383789 0 0 0 0 -32373201.100186348 -87189489.322576523 0 -87189489.322576523 -177725054.13381147 0 0 0 0 -75466522.939682007 -172057885.21090078 0 -172057885.21090078 -187121321.19655871 0 0 0 0 4305482.4036765974 -21900822.872362211 0 -21900822.872362211 -17754786.215116758 0 0 0 0 -21046711.144273758 -250777936.90339208 0 -250777936.90339208 -290547894.4807359 0 0 0 0 -30217332.14818573 -37706181.261846542 0 -37706181.261846542 -80935472.887289047 0 0 0 0 33481716.541059639 -33356804.425290182 0 -33356804.425290182 -99043647.578037262 0 0 0 0 -15967471.38909205 -34225004.32034836 0 -34225004.32034836 16253865.163960837 0 0 0 0 -39138382.970909119 -62739357.977020264 0 -62739357.977020264 -143206506.08518982 0 0 0 0 -21515425.323871613 -50314401.227630615 0 -50314401.227630615 -134528970.40795517 0 0 0 0 -8155807.2044641515 -42163681.045527928 0 -42163681.045527928 11357252.520794455 0 0 0 0 5437529.1480511501 -9014815.8983190842 0 -9014815.8983190842 -18007793.074259907 0 0 0 0 792815396.24555588 70607494.177074432 0 70607494.177074432 -901731210.68509674 0 0 0 0 13784552.7435112 -241890394.62197876 0 -241890394.62197876 -274483722.29812622 0 0 0 0 -70080772.603565216 -148584282.36715317 0 -148584282.36715317 -185998092.20541382 0 0 0 0 45084676.178253174 -102782069.82710266 0 -102782069.82710266 -137583043.2947998 0 0 0 0 140316476.63347626 -167127944.61418915 0 -167127944.61418915 -237394124.9682312 0 0 0 0 259683333.97504044 -151438730.53233337 0 -151438730.53233337 -330642766.39665222 0 0 0 0 61729203.717042923 -76179391.589923859 0 -76179391.589923859 -149775110.77111816 0 0 0 0 314849.5608959198 -72974535.254486084 0 -72974535.254486084 -151686801.22663879 0 0 0 0 3795841.3346004486 -76100482.021854401 0 -76100482.021854401 -81185586.911346436 0 0 0 0 38582415.846996307 -95464932.043548584 0 -95464932.043548584 -107903725.59228516 0 0 0 0 53095668.895843506 -76976203.88583374 0 -76976203.88583374 -85253048.134429932 0 0 0 0 19546279.887077332 -48391991.130821228 0 -48391991.130821228 -120396537.96438599 0 0 0 0 60607495.350460052 -69481297.454025269 0 -69481297.454025269 -87767634.065948486 0 0 0 0 43043968.485057831 -95314585.972991943 0 -95314585.972991943 -125346859.69361877 0 0 0 0 93654631.321418762 -90757934.992385864 0 -90757934.992385864 -93676446.755249023 0 0 0 0 54804556.629912138 -98316010.111727715 0 -98316010.111727715 -52155882.524536133 0 0 0 0 121440794.29685688 -68478552.257377625 0 -68478552.257377625 -55703681.832702637 0 0 0 0 98418089.741661072 -74144857.528915405 0 -74144857.528915405 -56138669.281295776 0 0 0 0 155880276.04596949 -74006566.534791946 0 -74006566.534791946 -101051784.8460083 0 0 0 0 156875565.03336716 -55067877.072418213 0 -55067877.072418213 -94667869.759460449 0 0 0 0 121108287.52732849 -105290874.78425598 0 -105290874.78425598 -137714957.73725128 0 0 0 0 -22334454.55235672 -119903802.79750824 0 -119903802.79750824 -199345293.01551819 0 0 0 0 -4460446.57787323 -36634531.399658203 0 -36634531.399658203 -186089569.29057312 0 0 0 0 -4039003.6188085079 -55850727.808710098 0 -55850727.808710098 -157241927.04727173 0 0 0 0 -49895463.457462311 -60174055.443634033 0 -60174055.443634033 -122976814.60662842 0 0 0 0 8437878.7489571571 -72950989.56022644 0 -72950989.56022644 -148549541.14141846 0 0 0 0 -37028123.465814114 -103103137.06286049 0 -103103137.06286049 -134543974.85083008 0 0 0 0 -134165994.30823517 -109393262.70001984 0 -109393262.70001984 -127163242.76445007 0 0 0 0 514979.92515591369 1350257.5076458268 0 1350257.5076458268 -775281.27355010808 0 0 0 0 -126517682.85666943 -174254930.61250305 0 -174254930.61250305 -120506481.53284454 0 0 0 0 -17726287.442382336 -123889332.289608 0 -123889332.289608 -290161087.40148926 0 0 0 0 -110826214.95767212 -55985546.719451904 0 -55985546.719451904 -227988100.57887268 0 0 0 0 -97497760.935390711 -149359608.47280502 0 -149359608.47280502 -240969517.9994812 0 0 0 0 -19519267.967341661 -84896110.149124146 0 -84896110.149124146 -218871975.06958008 0 0 0 0 -64120160.721156597 -213480914.1611557 0 -213480914.1611557 -299958391.38130188 0 0 0 0 78831179.627342224 -109035619.36888123 0 -109035619.36888123 -273364109.8412323 0 0 0 0 76698766.246482342 5222939.6121324301 0 5222939.6121324301 -206031355.36087036 0 0 0 0 211153526.4439497 -13156557.742492676 0 -13156557.742492676 -205110638.00531006 0 0 0 0 89215791.631351352 60913032.337856293 0 60913032.337856293 -63831324.611587524 0 0 0 0 14712434.577000141 10140848.163764954 0 10140848.163764954 -122512647.77288055 0 0 0 0 15253340.04459691 -27545287.288551331 0 -27545287.288551331 -134953534.73972321 0 0 0 0 -49352229.678756714 -78952924.914474487 0 -78952924.914474487 -152873453.56921387 0 0 0 0 -45200925.69019907 -27852232.724278927 0 -27852232.724278927 -146415216.0337677 0 0 0 0 7352586.4349210262 -46689970.925765991 0 -46689970.925765991 -140559283.99078369 0 0 0 0 11208143.294510841 -80794769.376235962 0 -80794769.376235962 -230406940.0775032 0 0 0 0 -22313911.02501297 -78882685.127761841 0 -78882685.127761841 -94440707.662857056 0 0 0 0 -21291718.283963203 -72995935.280738831 0 -72995935.280738831 -116505120.26303101 0 0 0 0 -21674943.486838341 -44392207.409263611 0 -44392207.409263611 -126217700.87181091 0 0 0 0 -9245996.3107836582 -30174133.975941211 0 -30174133.975941211 12278790.512098234 0 0 0 0 -24985000.54165405 -48823883.939153671 0 -48823883.939153671 -48725638.624450684 0 0 0 0 4463108.337023735 -69149707.287986755 0 -69149707.287986755 -88576414.439897537 0 0 0 0 17069448.459906578 -49718865.855361938 0 -49718865.855361938 -106236682.85051727 0 0 0 0 -8367617.5368622355 -34520675.61396002 0 -34520675.61396002 13120733.693811219 0 0 0 0 5385596.3873232901 -15139912.141736228 0 -15139912.141736228 -22906386.357568853 0 0 0 0 -19781926.501256943 -68422026.563316345 0 -68422026.563316345 -111048615.39401245 0 0 0 0 108340.69877409935 -23350960.300907135 0 -23350960.300907135 -60988176.470336914 0 0 0 0 61994201.287788153 35791037.380758286 0 35791037.380758286 -89618981.896331787 0 0 0 0 50814602.990991592 -7115519.6957244873 0 -7115519.6957244873 -139971389.88711548 0 0 0 0 -58558395.785678387 -96978962.043151855 0 -96978962.043151855 -130678780.06858826 0 0 0 0 -484740.19357054355 -3709087.5966480114 0 -3709087.5966480114 -4832168.1739199534 0 0 0 0 -17467469.656123996 -61792437.94033432 0 -61792437.94033432 -104886820.55126953 0 0 0 0 -2262273910.7505646 -2295053680.2728271 0 -2295053680.2728271 -1722972885.5932922 0 0 0 0 -2536036456.1600037 -134414878.99847412 0 -134414878.99847412 -477220973.65911865 0 0 0 0 1060002.2981016785 -1991307.1615883484 0 -1991307.1615883484 -1850463.2652698681 0 0 0 0 -1409154361.5296021 -895572228.82709503 0 -895572228.82709503 -154484024.50840759 0 0 0 0 -1606918259.7811584 -1082002354.5902328 0 -1082002354.5902328 -924643961.90732002 0 0 0 0 -891224.8579864502 -931214341.27879715 0 -931214341.27879715 -1362477500.7262039 0 0 0 0 -719666172.23629761 -1681564320.0783997 0 -1681564320.0783997 -2141881569.6922302 0 0 0 0 -583050427.17224121 -551807531.37161255 0 -551807531.37161255 -793054963.34703445 0 0 0 0 2040103.4429542646 -3650590.5370306373 0 -3650590.5370306373 -3158856.9315226302 0 0 0 0 -580847464.21173096 -531437684.94920826 0 -531437684.94920826 -617222527.84692383 0 0 0 0 -658229101.88452148 -619743746.19052124 0 -619743746.19052124 -627403636.62704468 0 0 0 0 -657586577.45809937 -606636990.44533539 0 -606636990.44533539 -459105700.7794342 0 0 0 0 -964475021.66143036 -503986813.99946213 0 -503986813.99946213 85224758.105163574 0 0 0 0 -988674196.53261948 -708766931.60867023 0 -708766931.60867023 -162827846.33952332 0 0 0 0 -526063914.39321899 -389359088.34845734 0 -389359088.34845734 -90277910.798461914 0 0 0 0 -871797766.31091309 -408874282.52381897 0 -408874282.52381897 132987095.12072754 0 0 0 0 -715399487.49328613 -563545978.58082581 0 -563545978.58082581 -222619389.60327148 0 0 0 0 -159265551.0738678 -327671477.61708832 0 -327671477.61708832 -190511662.45343018 0 0 0 0 -551830697.51550293 -263798704.36627197 0 -263798704.36627197 -17466309.086730957 0 0 0 0 3138229.6770324707 -201804262.89062119 0 -201804262.89062119 -177424656.45375061 0 0 0 0 -72403306.861877441 -193658396.01075745 0 -193658396.01075745 -83988181.20565033 0 0 0 0 -61631436.299560547 -259485597.8086319 0 -259485597.8086319 -103523958.46196365 0 0 0 0 20273803.021972656 -62261747.813705444 0 -62261747.813705444 96225569.970703125 0 0 0 0 -66386412.923583984 -198540860.79800034 0 -198540860.79800034 98402964.585922241 0 0 0 0 102413347.47262573 107764579.99748993 0 107764579.99748993 289107804.51850998 0 0 0 0 -233580736.80639648 426234251.18488312 0 426234251.18488312 890443185.65676498 0 0 0 0 -276445715.22515869 -327183119.31221008 0 -327183119.31221008 -65012957.192893982 0 0 0 0 -863823833.02256775 -122047718.29743958 0 -122047718.29743958 669335858.41870117 0 0 0 0 -212869319.46266174 -175545260.98694611 0 -175545260.98694611 290550002.28088379 0 0 0 0 -1114694665.0786438 -2941010201.3009338 0 -2941010201.3009338 -2780295498.2122955 0 0 0 0 -1319910.6920139566 -322585.19515936822 0 -322585.19515936822 -1300795.912551932 0 0 0 0 -1703678314.22229 -1926643220.213768 0 -1926643220.213768 -2986628743.7893372 0 0 0 0 18081665.311859131 96661895.293411255 0 96661895.293411255 233922053.77580261 0 0 0 0 55154911.746704102 -97601125.208660126 0 -97601125.208660126 130679233.16720581 0 0 0 0 -44918468.816619873 -64760769.768745422 0 -64760769.768745422 159454798.27560425 0 0 0 0 -5006390.614440918 -99604917.04385376 0 -99604917.04385376 189747006.09455872 0 0 0 0 -2149879281.8260536 -2678967262.6703415 0 -2678967262.6703415 -2872606538.5507507 0 0 0 0 -6679917.9508521855 -474080.68428785354 0 -474080.68428785354 -1602107.4528550208 0 0 0 0 -1694304903.8891144 -1889735030.2217102 0 -1889735030.2217102 -2929594657.0640106 0 0 0 0 -1573768101.5122986 -2090358142.4263535 0 -2090358142.4263535 -2452190233.4337845 0 0 0 0 -1683894046.8339081 -1626666229.0787659 0 -1626666229.0787659 -2042866298.3485222 0 0 0 0 -2395595490.0175858 -2016337722.233654 0 -2016337722.233654 -2329870662.4831543 0 0 0 0 -1600708958.6365662 -2216902251.0617371 0 -2216902251.0617371 -2289663672.2631836 0 0 0 0 -895496049.62947845 -1707858422.4510574 0 -1707858422.4510574 -2502378652.0421906 0 0 0 0 -431483.53834533691 -1423408289.2427979 0 -1423408289.2427979 -2316525613.1808872 0 0 0 0 -791284692.55212784 -1956793823.7628307 0 -1956793823.7628307 -2111044524.7387695 0 0 0 0 -833667433.37638855 -1529484606.6311951 0 -1529484606.6311951 -2013111222.6063004 0 0 0 0 -640055.41091918945 -2388127871.6872444 0 -2388127871.6872444 -1146978290.8064423 0 0 0 0 -922264544.2413168 -2174073218.7768722 0 -2174073218.7768722 -1649427794.9023895 0 0 0 0 -1186942671.5174255 -1182891608.5045662 0 -1182891608.5045662 -1329910002.9902496 0 0 0 0 -1554639.8887072653 -3016605.0385675877 0 -3016605.0385675877 -844293.33754092455 0 0 0 0 -1342055888.7482452 -1146085768.65382 0 -1146085768.65382 465739548.11495209 0 0 0 0 -1751007252.7559624 -2778156702.6010895 0 -2778156702.6010895 2218506.3639526367 0 0 0 0 -2749021.0910858116 -3182372684.3183689 0 -3182372684.3183689 -2692226361.9437866 0 0 0 0 -4521918722.7587376 -1240653712.435648 0 -1240653712.435648 2009786531.8795776 0 0 0 0 -3001409.8913409114 -3312983.9343077838 0 -3312983.9343077838 -533061.89873729646 0 0 0 0 -4216539245.1320496 -2919029978.6383667 0 -2919029978.6383667 2666734189.6214294 0 0 0 0 -792646.79412157834 -2024373.8189986572 0 -2024373.8189986572 96226.732864536345 0 0 0 0 -2723192136.5377808 -3379176015.9475403 0 -3379176015.9475403 -2152987625.3223877 0 0 0 0 950707225.40629578 -235953284.12382507 0 -235953284.12382507 -745289115.63705444 0 0 0 0 -3352389513.6968079 -1182934241.6430597 0 -1182934241.6430597 1748525318.3994141 0 0 0 0 -1878363613.2026901 -1227390372.1167908 0 -1227390372.1167908 -1065443453.8844604 0 0 0 0 -2064722085.3094482 -1531157181.5052376 0 -1531157181.5052376 -1241747303.6741791 0 0 0 0 -34364216.591522217 -1336564471.4257355 0 -1336564471.4257355 -1670337942.9959106 0 0 0 0 -1557744882.2440796 -1536430087.8858185 0 -1536430087.8858185 -1594765254.6001396 0 0 0 0 -1874374203.6243896 -1636375745.9696655 0 -1636375745.9696655 -1263651077.0600986 0 0 0 0 -1833888439.3193054 -1425550552.354454 0 -1425550552.354454 -936919454.64670563 0 0 0 0 -2079865560.4470367 -2051965934.4356842 0 -2051965934.4356842 -1825878358.8538055 0 0 0 0 -1623885822.4982147 -1415596825.2044449 0 -1415596825.2044449 -1842062423.5373383 0 0 0 0 -2173604991.8796997 -1831828576.9630814 0 -1831828576.9630814 -2127871331.7047272 0 0 0 0 -1782410539.4462624 -2078145942.0041313 0 -2078145942.0041313 -1972866976.8349304 0 0 0 0 -14538734.759454057 461775.80576648563 0 461775.80576648563 -1409542.619326055 0 0 0 0 -1779264127.7778625 -2888626786.1135712 0 -2888626786.1135712 -2013401699.8909931 0 0 0 0 -2575846113.9899597 -2634414248.4642487 0 -2634414248.4642487 -1985522676.4055119 0 0 0 0 -11876285.315879822 55957264.059860229 0 55957264.059860229 45755058.946960449 0 0 0 0 -90436214.466491699 -33173182.518600464 0 -33173182.518600464 34407104.869359016 0 0 0 0 -2186433801.4244423 -1293083037.6895943 0 -1293083037.6895943 -1232997616.0092163 0 0 0 0 -24851169.926280782 569719.52485933155 0 569719.52485933155 116344.30980892479 0 0 0 0 -70570962.186462402 1874062.5121231079 0 1874062.5121231079 33434997.704313755 0 0 0 0 -1717626170.9026794 -1919290925.7299728 0 -1919290925.7299728 -4145761905.2410889 0 0 0 0 -3909143161.3050842 -2932717140.90979 0 -2932717140.90979 -1014793145.8598022 0 0 0 0 -2940924826.7002497 -2161658699.4388256 0 -2161658699.4388256 -997106265.04364014 0 0 0 0 -3934024081.4618225 -2087307900.309021 0 -2087307900.309021 466583933.22906494 0 0 0 0 1710373442.6425018 -2834534224.165062 0 -2834534224.165062 -1857116099.6729126 0 0 0 0 -1983851.1066119298 -2595864.1995941121 0 -2595864.1995941121 -1805171.418978475 0 0 0 0 -942987025.52236938 -3262544204.7430649 0 -3262544204.7430649 -1843618573.9306335 0 0 0 0 -1844452331.7436523 -465009293.3768158 0 -465009293.3768158 1159839222.7605896 0 0 0 0 -3844213820.4818115 -1781809918.1016846 0 -1781809918.1016846 868798109.75134277 0 0 0 0 -2966100023.5941772 -1882802151.3027191 0 -1882802151.3027191 114980730.25431824 0 0 0 0 -3590821742.0144844 -1454578904.3630009 0 -1454578904.3630009 -196588006.27944946 0 0 0 0 -3552121744.716423 -1628746393.9637299 0 -1628746393.9637299 584062233.3729248 0 0 0 0 -3583860890.8105087 -1700397738.5051041 0 -1700397738.5051041 -836739.17851257324 0 0 0 0 -924916882.53189087 -319548259.8772583 0 -319548259.8772583 167222056.98930359 0 0 0 0 2097456954.7896881 -1200723956.0189285 0 -1200723956.0189285 -354815650.01652527 0 0 0 0 -499259035.43492126 -1601629139.9714508 0 -1601629139.9714508 1881625.9441600442 0 0 0 0 15391017.478683472 -253185660.90444946 0 -253185660.90444946 -803390.44770812988 0 0 0 0 -59825882.906730652 -70401478.166881561 0 -70401478.166881561 489580047.51168823 0 0 0 0 -12437423.909826044 -2814825.806104131 0 -2814825.806104131 -1517301.3948688209 0 0 0 0 -6006602651.5118866 -1182321146.3932953 0 -1182321146.3932953 684656349.72332764 0 0 0 0 137313842.98519897 -149497727.24715424 0 -149497727.24715424 83551593.23638916 0 0 0 0 -13921389.673849592 -5712603.9558209702 0 -5712603.9558209702 -5092515.6079461277 0 0 0 0 -3022972682.0031128 -1631578503.9617996 0 -1631578503.9617996 -144810826.47164154 0 0 0 0 -9891475.160949707 -40875061.781318665 0 -40875061.781318665 12557539.005485535 0 0 0 0 -6878039.1660319641 -6868568.1606494635 0 -6868568.1606494635 722360.37497553229 0 0 0 0 -39143458.586502075 -41393944.727905273 0 -41393944.727905273 20570316.145187378 0 0 0 0 -74227947.248962402 186720686.66017151 0 186720686.66017151 69649894.479328156 0 0 0 0 -2231907.0952882245 -2150056.7077629268 0 -2150056.7077629268 379081.9083647728 0 0 0 0 -84680806.889282227 -65449322.169921875 0 -65449322.169921875 -42528980.380737305 0 0 0 0 123897.6028137207 -113682233.68286133 0 -113682233.68286133 -57001026.090332031 0 0 0 0 726836.61363220215 -49442279.607154846 0 -49442279.607154846 -67244203.777099609 0 0 0 0 61761532.327270508 -92008983.06640625 0 -92008983.06640625 -91442008.107330322 0 0 0 0 87350467.681869507 26810512.139300346 0 26810512.139300346 -7359445.4529724121 0 0 0 0 -33154578.510620117 -46301431.322311401 0 -46301431.322311401 -7648346.8447265625 0 0 0 0 -31971206.737433434 -63083160.638326645 0 -63083160.638326645 -17819887.44619751 0 0 0 0 -103810167.6056366 -115677917.03710175 0 -115677917.03710175 -34168781.631530762 0 0 0 0 -56454116.371948242 -7391190.5234603882 0 -7391190.5234603882 16743239.756500244 0 0 0 0 49982090.450027466 -17356803.247917175 0 -17356803.247917175 -39522416.200836182 0 0 0 0 -5616149.2349345535 -16705369.814000089 0 -16705369.814000089 -8883829.2963742614 0 0 0 0 8784763.9260253906 -49404083.465164185 0 -49404083.465164185 -42523309.726989746 0 0 0 0 -20695188.346923828 -4994569.1839904785 0 -4994569.1839904785 -4246835.8536682129 0 0 0 0 -45290349.950622559 -67795113.282073975 0 -67795113.282073975 -17130646.900196075 0 0 0 0 -77032004.563568115 -43014921.848121643 0 -43014921.848121643 -8921617.3043899536 0 0 0 0 -53286475.282577515 -77859170.671638489 0 -77859170.671638489 -24490700.820251465 0 0 0 0 -46850679.706573486 -50769255.204284668 0 -50769255.204284668 -8987339.9744873047 0 0 0 0 -43216894.065704346 -58222594.24407959 0 -58222594.24407959 4583063.8501586914 0 0 0 0 17366048.136505127 -76355998.564834595 0 -76355998.564834595 -113378579.63336182 0 0 0 0 -3914974.684029365 -3900367.2628537454 0 -3900367.2628537454 1033151.9021583349 0 0 0 0 -51686238.250701904 -102736349.08670044 0 -102736349.08670044 -513365.92761230469 0 0 0 0 -58528839.369766235 -82246288.627746582 0 -82246288.627746582 -20143406.743896484 0 0 0 0 -46072457.880279541 -91295432.1847229 0 -91295432.1847229 -64105020.551086426 0 0 0 0 -2713346.2355127931 36264.863193139434 0 36264.863193139434 3140844.0492894799 0 0 0 0 -22227016.373657227 20271318.659683228 0 20271318.659683228 45238175.46685791 0 0 0 0 -29837437.279510498 -60856203.607299805 0 -60856203.607299805 -65993398.456869125 0 0 0 0 -10587655.040054321 15640160.348220825 0 15640160.348220825 25124239.993408203 0 0 0 0 -13786646.199624397 -20519843.117020413 0 -20519843.117020413 -3966068.2895399015 0 0 0 0 -103512127.75022507 -35720707.325653076 0 -35720707.325653076 15512301.584533691 0 0 0 0 -49326827.340660095 -35558960.974206924 0 -35558960.974206924 19949497.252258301 0 0 0 0 -6588856.5817483515 -22412812.071721368 0 -22412812.071721368 -4645630.4029598534 0 0 0 0 -3685145.8534851074 -12658349.383743286 0 -12658349.383743286 53958.451751708984 0 0 0 0 -5450146.7808532715 -12670959.834854126 0 -12670959.834854126 2072113.2604827881 0 0 0 0 -5846282.8332519531 -11707787.831703186 0 -11707787.831703186 -265268.57821655273 0 0 0 0 -5172494.0148358122 -9492764.6655778289 0 -9492764.6655778289 -2222006.2420613468 0 0 0 0 -6504359.6358528137 -12283568.825842857 0 -12283568.825842857 298627.45086669922 0 0 0 0 -6118405.5006256104 -9625398.2998962402 0 -9625398.2998962402 -2453940.9182128906 0 0 0 0 -47594480.389953613 -47852308.732147217 0 -47852308.732147217 -1024595.0885162354 0 0 0 0 -8010699.7851257324 -10963910.747955322 0 -10963910.747955322 -3951592.8705444336 0 0 0 0 35321.590454101562 -52004879.358215332 0 -52004879.358215332 -22860507.882278442 0 0 0 0 523886.9508902058 -20309996.166399822 0 -20309996.166399822 -4371326.7615855038 0 0 0 0 2697274.8561172485 -16201730.570556641 0 -16201730.570556641 2121209.8448181152 0 0 0 0 -83011.265865594149 -174285.99095132202 0 -174285.99095132202 110690.36731309444 0 0 0 0 -10257238.649963379 -14378357.313415527 0 -14378357.313415527 -7903519.3084716797 0 0 0 0 -48760457.127319336 -133178032.62435913 0 -133178032.62435913 -34008041.054595947 0 0 0 0 -88344806.824890137 -22574217.734451294 0 -22574217.734451294 21634120.656463623 0 0 0 0 -40195823.818473816 -82378971.420516968 0 -82378971.420516968 77257512.967529297 0 0 0 0 -3591524.2715173811 -3571889.1742300317 0 -3571889.1742300317 -326167.04924923182 0 0 0 0 -4053017.5484065115 -17143605.59619052 0 -17143605.59619052 -12121948.667570174 0 0 0 0 -515879.74138832092 -34539671.587116241 0 -34539671.587116241 -24173779.867553711 0 0 0 0 -41315449.610244751 -47727457.10302639 0 -47727457.10302639 -25934962.143798828 0 0 0 0 -50755653.224990845 -25306376.068664551 0 -25306376.068664551 -6909309.5005493164 0 0 0 0 -39461147.388457194 -14888929.254575659 0 -14888929.254575659 8776494.1407924853 0 0 0 0 -49566785.192749023 -11693251.070419312 0 -11693251.070419312 9379056.1735610962 0 0 0 0 -185126952.80758667 -6976841.8364906311 0 -6976841.8364906311 66073744.848968506 0 0 0 0 -32274496.198303223 -86095599.401435852 0 -86095599.401435852 -95161165.754257202 0 0 0 0 -19914448.841844559 -46073113.566504955 0 -46073113.566504955 43885205.042449951 0 0 0 0 -2718689.9371245354 -7352574.2414037883 0 -7352574.2414037883 -997643.52734567598 0 0 0 0 29544975.7109375 -22557641.01184845 0 -22557641.01184845 -1991499.8275146484 0 0 0 0 -171282670.5362854 -76304214.436401367 0 -76304214.436401367 107809222.96820068 0 0 0 0 -46017403.522399902 -122184217.72801971 0 -122184217.72801971 24592413.858444214 0 0 0 0 -179867111.03617096 -50055373.05745697 0 -50055373.05745697 45562440.178283691 0 0 0 0 -187045621.14941406 -46684507.382644653 0 -46684507.382644653 86455031.587905884 0 0 0 0 -168462093.34091187 -4789220.5068588257 0 -4789220.5068588257 58371883.638580322 0 0 0 0 -162836030.32821655 -12023119.090835571 0 -12023119.090835571 4483491.0085678101 0 0 0 0 -129562375.41436768 -144364864.80770111 0 -144364864.80770111 -103212270.94683838 0 0 0 0 -124439548.70668221 -103653308.28243303 0 -103653308.28243303 32062135.602478027 0 0 0 0 -30433700.140472412 -183465421.06961823 0 -183465421.06961823 -38728474.704032898 0 0 0 0 -11983915.173583984 -83096314.485534668 0 -83096314.485534668 -58941134.975631714 0 0 0 0 7608064.2937011719 -172230617.68075562 0 -172230617.68075562 -99304856.16819191 0 0 0 0 -24250904.509231567 -188686302.04754639 0 -188686302.04754639 -101622082.96313477 0 0 0 0 -262281688.84284973 -177730653.15058899 0 -177730653.15058899 -13777893.508659363 0 0 0 0 -169888947.24716187 -106319949.85498047 0 -106319949.85498047 -53484111.978965759 0 0 0 0 1670479.0313908942 -1768976.6926005781 0 -1768976.6926005781 -1119846.4178384393 0 0 0 0 34928404.069152832 -2068016.1934967041 0 -2068016.1934967041 1871054.6798820496 0 0 0 0 85322421.470809937 -5850409.9993019104 0 -5850409.9993019104 -38822346.165740967 0 0 0 0 416821.19022200443 -13370033.919077031 0 -13370033.919077031 -2681419.9823065847 0 0 0 0 -8016799.1737461612 -18242629.880699478 0 -18242629.880699478 -3876666.5751847476 0 0 0 0 -23150170.095840454 -18237546.750038147 0 -18237546.750038147 -1329157.3948135376 0 0 0 0 21335046.991226196 -20974733.684059143 0 -20974733.684059143 -23211386.151275635 0 0 0 0 -5631210.0896911621 -16247870.502591133 0 -16247870.502591133 12175780.69593811 0 0 0 0 -9146160.3817749023 -5945189.4499969482 0 -5945189.4499969482 1577408.0096054077 0 0 0 0 -18332556.660651147 -14976835.059859343 0 -14976835.059859343 -673784.35680937767 0 0 0 0 36361507.801452637 -65374550.370773315 0 -65374550.370773315 -110979693.8499527 0 0 0 0 19271330.439834595 -34051936.839530945 0 -34051936.839530945 -7425067.1266098022 0 0 0 0 3739826.9511413574 -52069035.884750366 0 -52069035.884750366 -2621540.5834350586 0 0 0 0 10906224.356826782 -39345402.11341095 0 -39345402.11341095 16340751.172622681 0 0 0 0 554134.25378417969 -24047704.870155334 0 -24047704.870155334 15332230.436080456 0 0 0 0 29910886.873901367 -33612000.621574402 0 -33612000.621574402 -1137790.8364105225 0 0 0 0 2616893.1631962042 -3276328.2020572275 0 -3276328.2020572275 547232.14411003888 0 0 0 0 -32460229.764602661 -16413053.862998962 0 -16413053.862998962 19949312.274047852 0 0 0 0 27466130.918960571 -23253208.748832703 0 -23253208.748832703 -4404554.1101303101 0 0 0 0 742080.16607666016 -21355721.362609863 0 -21355721.362609863 -11433801.80670166 0 0 0 0 -19751799.356918335 -32625350.553565979 0 -32625350.553565979 17044296.584602356 0 0 0 0 -65489145.584854126 1322741.514793396 0 1322741.514793396 -3427123.6703796387 0 0 0 0 -124908058.9846344 -27690736.226821899 0 -27690736.226821899 30258756.122467041 0 0 0 0 941771.11720187124 -284250.85824013501 0 -284250.85824013501 3443.0493056774139 0 0 0 0 77057340.623672485 -21480749.0079422 0 -21480749.0079422 -26251986.722953796 0 0 0 0 -21991530.80116272 -15675088.937255859 0 -15675088.937255859 9295.1034355163574 0 0 0 0 -6731914.5767669678 -46165955.712646484 0 -46165955.712646484 59739699.135498047 0 0 0 0 -24365517.083877563 -55559508.942771912 0 -55559508.942771912 15445607.358764648 0 0 0 0 19538499.852478027 -43370168.160049438 0 -43370168.160049438 -11894669.832107544 0 0 0 0 20672012.824890137 -48147207.94977951 0 -48147207.94977951 -17879108.53793335 0 0 0 0 67539591.79473877 -81099040.642318726 0 -81099040.642318726 4635896.5926513672 0 0 0 0 115125462.26158905 -21570925.642238617 0 -21570925.642238617 -57576433.661346436 0 0 0 0 1307963.9002367035 -1353755.3722805157 0 -1353755.3722805157 -1255191.2250489518 0 0 0 0 384723597.07466125 -913500255.67830658 0 -913500255.67830658 114560271.5213089 0 0 0 0 -238252498.4772644 -110178295.14903259 0 -110178295.14903259 621883026.85228729 0 0 0 0 439900446.05874252 669036772.40627575 0 669036772.40627575 -614768256.21234131 0 0 0 0 382376765.93910217 -448992527.27668762 0 -448992527.27668762 179105232.00196838 0 0 0 0 132293224.99835205 -145608177.08427429 0 -145608177.08427429 -92881108.246505737 0 0 0 0 -516393679.66612244 -292056418.92054749 0 -292056418.92054749 -82963689.095153809 0 0 0 0 102337111.5460968 -322749284.63858795 0 -322749284.63858795 -520206620.47891235 0 0 0 0 36979819.848526001 11948133.504776001 0 11948133.504776001 -53244911.507534027 0 0 0 0 28360860.74609375 -37994603.947097778 0 -37994603.947097778 -8707016.7778320312 0 0 0 0 68975604.145999908 -514020575.31562805 0 -514020575.31562805 -14415321.821060181 0 0 0 0 713838.63116231561 -954262.89571660943 0 -954262.89571660943 723095.96473111957 0 0 0 0 212210698.50665283 -12656031.829345703 0 -12656031.829345703 74255385.626045227 0 0 0 0 187534412.44508362 181582458.99299049 0 181582458.99299049 110035951.59152222 0 0 0 0 -3276495.2118346989 -17306967.540843546 0 -17306967.540843546 1309295.4371788874 0 0 0 0 230652940.52134705 220419864.18693542 0 220419864.18693542 -368425758.2337265 0 0 0 0 -535853169.83547592 34787766.543201447 0 34787766.543201447 432167422.3249588 0 0 0 0 -5025972.4610476121 -16586567.938033424 0 -16586567.938033424 4645135.8779443912 0 0 0 0 21925379.824134827 -48468627.719612122 0 -48468627.719612122 -60158080.394943237 0 0 0 0 7792949.771270752 -12921169.842781067 0 -12921169.842781067 -49558290.895141602 0 0 0 0 -5951352.8110160828 -31375453.302799225 0 -31375453.302799225 -52935719.521179199 0 0 0 0 -1212979.9841918945 -12128792.155563354 0 -12128792.155563354 -35596327.06552124 0 0 0 0 -4078234.0800476074 -17712434.326309204 0 -17712434.326309204 -43315620.921646118 0 0 0 0 1786406.7599073909 -9510832.4645468965 0 -9510832.4645468965 -12729714.966835871 0 0 0 0 -671315.04711222649 -2257040.0041235536 0 -2257040.0041235536 -3294360.7898791954 0 0 0 0 212059937.48957062 11291874.795154572 0 11291874.795154572 18602919.218513489 0 0 0 0 4003676.8306427002 -19329870.336929321 0 -19329870.336929321 -52633296.565284729 0 0 0 0 60264.325356985442 -3255502.4843275845 0 -3255502.4843275845 485059.23933914304 0 0 0 0 480796.65378253162 -2775392.2340881191 0 -2775392.2340881191 4505604.917884782 0 0 0 0 3648559.6159057617 -7400928.8622512817 0 -7400928.8622512817 698806.58044815063 0 0 0 0 2207993.6048733182 -6347117.4546984807 0 -6347117.4546984807 -684222.17892345786 0 0 0 0 -6168844.4953155518 -8787072.225730896 0 -8787072.225730896 -1963538.4210090637 0 0 0 0 269268.176804021 -12671474.23854281 0 -12671474.23854281 -3310744.3586662263 0 0 0 0 5054597.6079406738 -10990671.668907166 0 -10990671.668907166 -6697729.3054199219 0 0 0 0 2059645.9899050668 -10976367.084443145 0 -10976367.084443145 -5979753.2558320016 0 0 0 0 4149116.3767195344 -6963927.1405149996 0 -6963927.1405149996 897693.40447606146 0 0 0 0 4983536.7347717285 -10695048.966247559 0 -10695048.966247559 1458791.346282959 0 0 0 0 6849133.2509155273 -8628372.8056640625 0 -8628372.8056640625 1129105.4816589355 0 0 0 0 -1752459.6919588298 -8521949.6798212007 0 -8521949.6798212007 6123571.3552408367 0 0 0 0 1324315.4572753906 -8979502.1343994141 0 -8979502.1343994141 4073571.0511474609 0 0 0 0 -5477456.6051330268 -10637865.539822098 0 -10637865.539822098 3411912.5965662301 0 0 0 0 4406981.3852233887 -10823345.447952271 0 -10823345.447952271 2933541.7443847656 0 0 0 0 250832.60770846158 -7232632.2612690628 0 -7232632.2612690628 -9720230.1565908417 0 0 0 0 5438904.9477386475 -9688195.8258361816 0 -9688195.8258361816 -1469547.5810241699 0 0 0 0 -4053966.6260877401 -12064674.542701423 0 -12064674.542701423 -9888150.2349988446 0 0 0 0 1026466.0065917969 -8624773.8547973633 0 -8624773.8547973633 4386540.7009735107 0 0 0 0 -5166439.6591408318 -10591201.235438187 0 -10591201.235438187 3035743.8003369719 0 0 0 0 1538017.3499755859 -7850970.7562866211 0 -7850970.7562866211 1365076.5899658203 0 0 0 0 -88712700.673934937 -49651820.251754761 0 -49651820.251754761 -20855556.517303467 0 0 0 0 -1221751.2483972125 -2740687.1161269248 0 -2740687.1161269248 611182.45242775977 0 0 0 0 -24592491.641775131 -37898674.99213028 0 -37898674.99213028 -20976109.438293457 0 0 0 0 945427.98882876709 -4694848.8588755317 0 -4694848.8588755317 -8174822.2286839783 0 0 0 0 -1683131.3508758545 -5007315.3980865479 0 -5007315.3980865479 -2987905.2256393433 0 0 0 0 -4462375.2798161134 -4827472.4748012424 0 -4827472.4748012424 55608.394905239344 0 0 0 0 -5107349.169128418 -8295922.1176528931 0 -8295922.1176528931 -17834233.216430664 0 0 0 0 -395333.5860748291 -5030923.811630249 0 -5030923.811630249 -22013747.866836548 0 0 0 0 -505702.00846099854 -9226200.7149200439 0 -9226200.7149200439 -25902825.82699585 0 0 0 0 -4413576.4213409424 -4109749.588684082 0 -4109749.588684082 -10918189.46786499 0 0 0 0 -6995715.7662658691 1294442.7551879883 0 1294442.7551879883 -12117542.345245361 0 0 0 0 -20928.338653564453 986063.27956390381 0 986063.27956390381 -20701596.028015137 0 0 0 0 -2619344.8526492966 -564315.07824425399 0 -564315.07824425399 -2024416.5564487129 0 0 0 0 -14336.795837402344 -7544084.174331665 0 -7544084.174331665 -23275732.046569824 0 0 0 0 -284118413.18457031 -109785152.8036499 0 -109785152.8036499 -15790957.857009888 0 0 0 0 -118450350.1038208 -24421569.678207397 0 -24421569.678207397 -8167757.8802642822 0 0 0 0 -188147.86450855806 -1074119.3552279398 0 -1074119.3552279398 -785720.84164997935 0 0 0 0 -120385621.17687988 -161104317.73867035 0 -161104317.73867035 -240487535.82217407 0 0 0 0 -250153.01432800293 302988.14782714844 0 302988.14782714844 2016793.8538131714 0 0 0 0 -70323391.340484619 209392600.48204041 0 209392600.48204041 -273944804.73156738 0 0 0 0 -15376708.052947998 -1356892.4860992432 0 -1356892.4860992432 6667248.0479125977 0 0 0 0 -3171618.787109375 -9742458.4184875488 0 -9742458.4184875488 -16035562.183746338 0 0 0 0 -1007125.2345199585 -3180840.8643341064 0 -3180840.8643341064 915422.67398071289 0 0 0 0 2386849.4631385803 -6094289.4997634888 0 -6094289.4997634888 1156807.504119873 0 0 0 0 -5855134.3809967041 -15545894.52173996 0 -15545894.52173996 7325652.03956604 0 0 0 0 -1397862.0766296387 1126746.9391727448 0 1126746.9391727448 4343031.9281616211 0 0 0 0 -877982.5966572389 -2834744.1169629246 0 -2834744.1169629246 -963468.83116094954 0 0 0 0 1957076.9185791016 -2891195.7285461426 0 -2891195.7285461426 85740.492701780036 0 0 0 0 -870806267.61802673 -138778304.21733475 0 -138778304.21733475 1007621559.2508545 0 0 0 0 -1831365.172325667 1523579.9919573143 0 1523579.9919573143 -29771.255234539509 0 0 0 0 -589216188.28363037 225900213.41122437 0 225900213.41122437 -380136544.19543457 0 0 0 0 1445540.3650519159 2555851.8341047056 0 2555851.8341047056 -691167.43875750899 0 0 0 0 3185631.052154541 -612291360.69821167 0 -612291360.69821167 129842643.59124756 0 0 0 0 7932741.5102530867 -669822.02791801468 0 -669822.02791801468 -3072931.2846578807 0 0 0 0 16292104.33731842 -10290242.718086243 0 -10290242.718086243 -729249.92486572266 0 0 0 0 155978244.05341339 -65022294.823860168 0 -65022294.823860168 -3481775.2710266113 0 0 0 0 166346366.64784241 -39046304.725311279 0 -39046304.725311279 15696486.694824219 0 0 0 0 -58309430.312358446 19603561.463298395 0 19603561.463298395 7192158.8345252126 0 0 0 0 -134659.02008866519 6186.1392727196217 0 6186.1392727196217 -2520038.8657065425 0 0 0 0 6194300.6719360352 -2168621.6444168091 0 -2168621.6444168091 4422249.0284557343 0 0 0 0 -6266053.6733627319 7609927.7122268677 0 7609927.7122268677 279843035.86222839 0 0 0 0 7734340.5664520264 -3188639.2138442993 0 -3188639.2138442993 -15288378.669418335 0 0 0 0 7346405.0771026611 -3245050.6955032349 0 -3245050.6955032349 958606.76854324341 0 0 0 0 24734716.517770767 -13742977.614440918 0 -13742977.614440918 -11951338.999389648 0 0 0 0 19943648.758523941 409481.7504901886 0 409481.7504901886 -16815458.021942139 0 0 0 0 1564003.1321029663 -4880332.245847702 0 -4880332.245847702 -15090447.822174072 0 0 0 0 2003015.135635376 -1824001.5864715576 0 -1824001.5864715576 -18186743.642616272 0 0 0 0 4692176.9490585327 -9964467.0551528931 0 -9964467.0551528931 -22960227.672637939 0 0 0 0 19945344.438720703 -815730.77282714844 0 -815730.77282714844 -57518270.961242676 0 0 0 0 18809847.160491943 2305632.5284118652 0 2305632.5284118652 -16488578.984558105 0 0 0 0 2132137.9020546712 555661.01883699745 0 555661.01883699745 -1652912.2810046673 0 0 0 0 21417997.137130737 29781346.298057556 0 29781346.298057556 -119818271.56912994 0 0 0 0 36549874.968475342 -58841515.564300537 0 -58841515.564300537 -97691523.749816895 0 0 0 0 -23845972.795532227 -137251662.8289032 0 -137251662.8289032 -27665912.143493652 0 0 0 0 -53089863.033340454 -127787763.30519867 0 -127787763.30519867 26362721.552062988 0 0 0 0 67224728.624542236 -52919011.824150085 0 -52919011.824150085 34635774.768490791 0 0 0 0 5037824.1585337929 479915.49382530898 0 479915.49382530898 -3096016.8940242976 0 0 0 0 104860461.82237244 -47217120.968765259 0 -47217120.968765259 28355056.056596756 0 0 0 0 111429977.04838562 -109422307.71058273 0 -109422307.71058273 21414820.115447998 0 0 0 0 -9114072.1533203125 -112607921.22805786 0 -112607921.22805786 16670037.6665802 0 0 0 0 -23743020.858268738 -89641431.744903564 0 -89641431.744903564 19232.53701028413 0 0 0 0 59936761.224337578 -45449089.361884117 0 -45449089.361884117 -7532962.2801361084 0 0 0 0 64525442.026170731 -70824549.369352341 0 -70824549.369352341 28033078.069763184 0 0 0 0 116639270.90356445 -79159063.527694702 0 -79159063.527694702 1275.1247634708075 0 0 0 0 -140927554.58308464 -80163751.471862465 0 -80163751.471862465 11329788.004821777 0 0 0 0 -109244701.45703888 -88642518.977249146 0 -88642518.977249146 18452.639602661133 0 0 0 0 -54690931.357170105 -53674696.640151978 0 -53674696.640151978 -1262920.5367126465 0 0 0 0 -120404241.46691895 -63779093.191215515 0 -63779093.191215515 10550403.003265381 0 0 0 0 -17080776.874172211 -83486260.145763397 0 -83486260.145763397 -50822179.045150757 0 0 0 0 -119799850.84148407 -90878532.261520386 0 -90878532.261520386 2012571.510559082 0 0 0 0 -78589803.762878418 -15762288.127029419 0 -15762288.127029419 7857063.4247131348 0 0 0 0 -48866429.94329834 -136504055.23252106 0 -136504055.23252106 19249920.718254089 0 0 0 0 -5679627.655380249 -101020997.87004852 0 -101020997.87004852 44439188.403686523 0 0 0 0 31534724.863250732 -36733869.595428467 0 -36733869.595428467 21724273.686450958 0 0 0 0 -1184348.2763261423 -1548270.8501687646 0 -1548270.8501687646 1678997.0612368546 0 0 0 0 26500398.006195068 -32429101.416137695 0 -32429101.416137695 18296084.8412323 0 0 0 0 -37039490.417129517 4636219.2149353027 0 4636219.2149353027 142614479.43202972 0 0 0 0 8517926.8823423386 -51998070.263828278 0 -51998070.263828278 -75154049.71572876 0 0 0 0 44972224.240066528 -22045628.465713501 0 -22045628.465713501 -53796696.785644531 0 0 0 0 31275328.812286377 26098477.493980408 0 26098477.493980408 -222451022.14505005 0 0 0 0 26355835.312957764 -202562334.96562958 0 -202562334.96562958 -163711322.37229919 0 0 0 0 -4630910.0824542791 -17197321.453043401 0 -17197321.453043401 7023294.0978352837 0 0 0 0 -12595977.275482178 -116973365.08573914 0 -116973365.08573914 98298457.026031494 0 0 0 0 -145273439.26269531 5733030.1908340454 0 5733030.1908340454 -2453823.2647628784 0 0 0 0 -177013490.55360413 158024794.25121307 0 158024794.25121307 195983574.60629272 0 0 0 0 -5504415.0325217545 -16758554.803655565 0 -16758554.803655565 6305375.9762148391 0 0 0 0 45726013.475341797 -62642239.849716187 0 -62642239.849716187 -135995100.37194443 0 0 0 0 173868805.73978424 -58956449.83681488 0 -58956449.83681488 -427774681.08519745 0 0 0 0 1229457.4967700243 130993.46914112568 0 130993.46914112568 -1527114.0821866095 0 0 0 0 -54624226.15901947 -283384427.02876282 0 -283384427.02876282 -140915676.85739899 0 0 0 0 -9844251.6110076904 16208178.073287964 0 16208178.073287964 -21313799.807907104 0 0 0 0 13345371.816413879 -8283239.4018726349 0 -8283239.4018726349 -14226671.726898193 0 0 0 0 10357785.051900513 -7411192.7793298811 0 -7411192.7793298811 -2041632.9515102878 0 0 0 0 -220182348.34976578 151533547.36062622 0 151533547.36062622 -81638535.594924927 0 0 0 0 8275451.5004932284 -8296392.3578940183 0 -8296392.3578940183 3027444.1192491353 0 0 0 0 -311649.00079771131 -4067891.6108314395 0 -4067891.6108314395 -114456.03448919579 0 0 0 0 -445069055.72346497 123196600.00340271 0 123196600.00340271 -28227147.821533203 0 0 0 0 37512808.288276672 28836056.213226318 0 28836056.213226318 -48075693.643554688 0 0 0 0 9053641.0604476929 -23518321.161506653 0 -23518321.161506653 -44938631.890701294 0 0 0 0 9532030.202911377 -2140728.2717285156 0 -2140728.2717285156 -21447344.52506128 0 0 0 0 7175731.2400970459 2367402.1350631714 0 2367402.1350631714 -21465119.82272771 0 0 0 0 7602918.9438323975 449613.24488067627 0 449613.24488067627 -17836565.579891682 0 0 0 0 6263923.7065734863 -1308638.816947937 0 -1308638.816947937 -12340045.236923218 0 0 0 0 10626938.692718506 -4379476.6930084229 0 -4379476.6930084229 -17962535.756860018 0 0 0 0 1022204.3885955811 -4019290.814453125 0 -4019290.814453125 -13713482.864730835 0 0 0 0 6207750.0332389623 -7600821.3096732721 0 -7600821.3096732721 -1798673.7777418587 0 0 0 0 13678562.182945251 -11976260.823293686 0 -11976260.823293686 -51744057.583007812 0 0 0 0 7897976.9201049805 -6572158.2436523438 0 -6572158.2436523438 -13422994.103569031 0 0 0 0 1304375.6672134399 -19436960.177383423 0 -19436960.177383423 12363357.884277344 0 0 0 0 4734361.3459777832 -20908944.96414566 0 -20908944.96414566 -11958448.243988037 0 0 0 0 -337574.74769592285 -27381882.729415894 0 -27381882.729415894 -13631103.583877563 0 0 0 0 -1986497.8420410156 -23445190.581413269 0 -23445190.581413269 -18583512.516815186 0 0 0 0 -14101787.71471405 -30006789.758308411 0 -30006789.758308411 -4320136.4189453125 0 0 0 0 -359896.97955814376 -331869.66032275558 0 -331869.66032275558 -171231.86282876134 0 0 0 0 -10438995.451698303 -19254351.460189819 0 -19254351.460189819 -443450.9071559906 0 0 0 0 658838.38517869264 -1740639.6728087515 0 -1740639.6728087515 -632807.5549028106 0 0 0 0 6349752.0824203491 -4483404.4839401245 0 -4483404.4839401245 -5965071.1352539062 0 0 0 0 207409.41552475095 -634877.95530121028 0 -634877.95530121028 -112361.31796103343 0 0 0 0 9424135.5886878967 18006743.929969788 0 18006743.929969788 12095679.757804871 0 0 0 0 -3602470.6707611084 -6359185.5984573364 0 -6359185.5984573364 31308080.64100647 0 0 0 0 3364892.7117462158 -33129626.428390503 0 -33129626.428390503 80611676.805038452 0 0 0 0 51705408.661392212 -68031480.75894165 0 -68031480.75894165 45601201.77432251 0 0 0 0 143041006.81028748 -18162974.75604248 0 -18162974.75604248 -11063590.466186523 0 0 0 0 24898180.585968018 -3384314.3321685791 0 -3384314.3321685791 -6676767.9263305664 0 0 0 0 60016605.158241272 -47843576.259292603 0 -47843576.259292603 3821849.5763549805 0 0 0 0 25746047.671966553 -25462974.903991699 0 -25462974.903991699 -13530102.559486389 0 0 0 0 33576980.57635498 -25340543.936843872 0 -25340543.936843872 -13725011.837921143 0 0 0 0 25737284.885040283 -4488305.1876068115 0 -4488305.1876068115 -20525055.82611084 0 0 0 0 47556324.538757324 -6221015.6892471313 0 -6221015.6892471313 -13775721.647888184 0 0 0 0 19709684.036376953 -9359824.8936004639 0 -9359824.8936004639 -13115493.520751953 0 0 0 0 18896667.177993774 -12079199.432525635 0 -12079199.432525635 -19921176.955566406 0 0 0 0 7965944.7627410889 -33637091.364715576 0 -33637091.364715576 28179137.308855057 0 0 0 0 20107299.043670654 -33016078.032318115 0 -33016078.032318115 29468816.061294556 0 0 0 0 18261961.243637085 -26257747.475517273 0 -26257747.475517273 11603094.839996338 0 0 0 0 30532348.149740219 -39214969.305116653 0 -39214969.305116653 2362278.6829223633 0 0 0 0 20562331.749481201 -26774539.675735474 0 -26774539.675735474 -8960433.9978637695 0 0 0 0 22096525.507064819 -32640396.661178589 0 -32640396.661178589 -17549502.438644409 0 0 0 0 10453288.800460815 -29053352.532081604 0 -29053352.532081604 -18404801.352081299 0 0 0 0 15201275.316711426 -24902809.306427002 0 -24902809.306427002 -23445338.570617676 0 0 0 0 31763017.110870361 -29190202.760971069 0 -29190202.760971069 -22477788.742370605 0 0 0 0 5087090.0094909668 -29849805.13898468 0 -29849805.13898468 -27020344.907836914 0 0 0 0 21241537.465354919 -29473076.784793854 0 -29473076.784793854 -27048871.649383545 0 0 0 0 2268399.8090515137 -14937034.012008667 0 -14937034.012008667 -35569587.74005127 0 0 0 0 6102416.3179016113 -8908953.2980041504 0 -8908953.2980041504 -26115164.93170166 0 0 0 0 25035918.056243896 -6972183.7170562744 0 -6972183.7170562744 -27230189.753051758 0 0 0 0 15411058.82598877 -4395486.115234375 0 -4395486.115234375 -36607701.096832275 0 0 0 0 18996240.160797119 -18293371.974304199 0 -18293371.974304199 -27897415.277458191 0 0 0 0 35143213.691940308 -23382633.670433044 0 -23382633.670433044 -28901356.052764893 0 0 0 0 1607580.2016143799 -12654663.093322754 0 -12654663.093322754 -28571666.07232666 0 0 0 0 26600175.219802856 -18710647.561203003 0 -18710647.561203003 -30578641.638946533 0 0 0 0 11797587.17175293 -8707167.0062408447 0 -8707167.0062408447 -41594045.545196533 0 0 0 0 6829081.067401886 -912076.59637641907 0 -912076.59637641907 -35264132.824783325 0 0 0 0 -6128293.2322540283 -39339701.873733521 0 -39339701.873733521 -9982822.092300415 0 0 0 0 29352673.885673523 -9657007.1752204895 0 -9657007.1752204895 -32247759.546863556 0 0 0 0 39426715.464712143 -58758576.422232151 0 -58758576.422232151 -3093782.4220428467 0 0 0 0 2878549.9715058357 -20033227.837621346 0 -20033227.837621346 -7962881.1407433935 0 0 0 0 15487367.469863892 -22159715.180480957 0 -22159715.180480957 -22879010.632278442 0 0 0 0 4953131.8455352783 -22742531.71975708 0 -22742531.71975708 -22711420.411413193 0 0 0 0 4057321.6027572826 -19902200.515893623 0 -19902200.515893623 -9056242.0979016684 0 0 0 0 2107290.987931978 -17610087.749793384 0 -17610087.749793384 -9635847.967507042 0 0 0 0 5198440.9525375366 -24103227.16059494 0 -24103227.16059494 -16774898.833526611 0 0 0 0 4670590.9559402466 -20035327.145462036 0 -20035327.145462036 -11561616.458496094 0 0 0 0 -2153809.2430801392 -26207045.93072319 0 -26207045.93072319 -7441394.9880523682 0 0 0 0 -534359.38822937012 -17925918.357139587 0 -17925918.357139587 891809.44318389893 0 0 0 0 951006.52250125259 -18045412.833509963 0 -18045412.833509963 -7885031.8443697169 0 0 0 0 -2482560.3605194092 -28463982.967590332 0 -28463982.967590332 -18760777.677223206 0 0 0 0 -28710714.888946533 -41956034.862510681 0 -41956034.862510681 -13312110.689994812 0 0 0 0 -24491185.853713989 -20155289.464492798 0 -20155289.464492798 -11242581.078842163 0 0 0 0 9968873.2016477585 -33301166.771865845 0 -33301166.771865845 -34764015.43649292 0 0 0 0 9811453.1196289062 -6147446.9461593628 0 -6147446.9461593628 -12438155.37556839 0 0 0 0 8691547.7172852904 -6894400.6363638863 0 -6894400.6363638863 -14954925.733141672 0 0 0 0 -17517580.339889526 -44395610.856805801 0 -44395610.856805801 -29244766.916229248 0 0 0 0 15037819.560424805 -18819322.466888428 0 -18819322.466888428 -48018620.667327881 0 0 0 0 1276512.7628515549 -740991.71964888647 0 -740991.71964888647 354933.78885885328 0 0 0 0 5920160.4084431529 -20170017.672414877 0 -20170017.672414877 -17472542.997498609 0 0 0 0 4969988.5270996094 -22742393.855205536 0 -22742393.855205536 4833589.325668335 0 0 0 0 45191485.238605499 -3153815.7218818665 0 -3153815.7218818665 -29070444.370361328 0 0 0 0 414333.82366943359 -17092463.646568298 0 -17092463.646568298 5135054.412301302 0 0 0 0 13517680.258987427 -20123440.301040649 0 -20123440.301040649 -23345030.742401123 0 0 0 0 10952.531471252441 -19252401.985084534 0 -19252401.985084534 12103120.846252441 0 0 0 0 -1367867.4736251831 -13314009.742713928 0 -13314009.742713928 4533048.8464660645 0 0 0 0 -3458130.2321958169 -12668115.811613794 0 -12668115.811613794 6790413.9402069524 0 0 0 0 -20742294.598430634 -13694962.203947544 0 -13694962.203947544 55912834.772453308 0 0 0 0 122418.29662555456 -3157929.8079262413 0 -3157929.8079262413 -294915.37645064213 0 0 0 0 -17093658.567962646 -35508480.215576172 0 -35508480.215576172 50975101.783429384 0 0 0 0 5017536.9975662231 -10633027.760746002 0 -10633027.760746002 18498503.014625549 0 0 0 0 -668473.4755076617 -17897107.65666759 0 -17897107.65666759 -4283904.2958179787 0 0 0 0 -538500.34230384231 -12688015.615555957 0 -12688015.615555957 -6885284.0091299489 0 0 0 0 -4716693.4565887451 -10815936.344978333 0 -10815936.344978333 16820323.477561951 0 0 0 0 -5131129.6780974865 -7295215.9699929282 0 -7295215.9699929282 22309507.195107844 0 0 0 0 -4800212.286945343 -20974782.499571323 0 -20974782.499571323 35100982.265037537 0 0 0 0 -65284326.003067017 -15371478.562490463 0 -15371478.562490463 35907053.727662086 0 0 0 0 5998528.3331832886 -11341455.302072525 0 -11341455.302072525 23563502.797580719 0 0 0 0 1199373.2771348208 -3532875.0138305016 0 -3532875.0138305016 1241820.1172539145 0 0 0 0 -22573775.479362488 -9375528.3353614807 0 -9375528.3353614807 24502130.174286842 0 0 0 0 -19827787.241607666 -16286210.161475182 0 -16286210.161475182 7443539.8476409912 0 0 0 0 -24480698.36391449 -19913648.918780327 0 -19913648.918780327 49419067.635078907 0 0 0 0 320843.44922637939 -7025644.0762052536 0 -7025644.0762052536 42340472.938203812 0 0 0 0 -3221989.7155082449 -7075513.9732656218 0 -7075513.9732656218 10655755.618889712 0 0 0 0 2875978.1275482178 -43379688.147517204 0 -43379688.147517204 57288239.856887817 0 0 0 0 28968276.640968323 -56569662.183082581 0 -56569662.183082581 -70274.274765014648 0 0 0 0 13119256.860702515 -22848718.217887878 0 -22848718.217887878 -38697773.684547424 0 0 0 0 336527.92610120028 -17237676.405302674 0 -17237676.405302674 -343517.635898754 0 0 0 0 -12351178.434631348 -14041281.682742596 0 -14041281.682742596 46630461.221488953 0 0 0 0 -17481546.923431396 -35201219.886116028 0 -35201219.886116028 19217359.246536255 0 0 0 0 -4317313.255410213 -13073000.482126212 0 -13073000.482126212 7162972.802346617 0 0 0 0 -241831.81411277503 -1411827.0620718375 0 -1411827.0620718375 -3768301.2303898036 0 0 0 0 -11617571.75012207 -82917716.069511414 0 -82917716.069511414 -3622326.2447471619 0 0 0 0 -65329835.7358284 -57261579.598619461 0 -57261579.598619461 28443966.08883667 0 0 0 0 -40593519.894254684 -48799815.553341866 0 -48799815.553341866 4550852.7059631348 0 0 0 0 -1871862.2249579728 -15679218.502375297 0 -15679218.502375297 8007416.265730381 0 0 0 0 -10799592.865707397 22540008.322032928 0 22540008.322032928 -42005848.228179932 0 0 0 0 -12710041.316251755 -50673454.351164818 0 -50673454.351164818 -14832948.746856689 0 0 0 0 -5526563.8210754395 -38490724.554122925 0 -38490724.554122925 5326226.8861846924 0 0 0 0 5718880.659154892 24803236.547503948 0 24803236.547503948 -49834633.357414246 0 0 0 0 -2642849.4803068228 -2281262.1946864324 0 -2281262.1946864324 6875889.07552981 0 0 0 0 -35831994.656990051 -10252992.987052917 0 -10252992.987052917 39429701.880775452 0 0 0 0 -10712278.605888367 -24517655.538544655 0 -24517655.538544655 48005015.913983822 0 0 0 0 -2854225.3107790053 -18772512.723102443 0 -18772512.723102443 8558875.1336718518 0 0 0 0 1440263.7088470459 -20614795.694890022 0 -20614795.694890022 38288176.7192173 0 0 0 0 18516973.971954346 -49807737.097162247 0 -49807737.097162247 -19549770.818468094 0 0 0 0 44689234.290939331 -52363850.310136795 0 -52363850.310136795 -24270322.513362885 0 0 0 0 600417.2391246371 -13698908.117426891 0 -13698908.117426891 13546098.322692689 0 0 0 0 41856866.955703735 -3783990.0617542267 0 -3783990.0617542267 5521158.1467475891 0 0 0 0 14280444.22026062 -26259382.562316895 0 -26259382.562316895 -8866040.9158172607 0 0 0 0 -4885058.5442002192 -22257017.876312457 0 -22257017.876312457 12991128.995120592 0 0 0 0 -9593194.4931640625 -29720008.235168457 0 -29720008.235168457 11524626.180541992 0 0 0 0 -2608782.8314857483 -20403600.132938385 0 -20403600.132938385 54268241.657493591 0 0 0 0 -16781493.932769775 -12287562.080039978 0 -12287562.080039978 -17679527.87915802 0 0 0 0 2234965.0627947599 -24088544.633832112 0 -24088544.633832112 13407533.213329338 0 0 0 0 -1112099.5787353516 -9214102.0696411133 0 -9214102.0696411133 4770517.8643798828 0 0 0 0 -710447.72728556395 -22291928.882176265 0 -22291928.882176265 14314012.97534623 0 0 0 0 -33798956.058532715 -49824044.923978806 0 -49824044.923978806 30083356.905456543 0 0 0 0 -8234723.4268798828 -10707293.066856384 0 -10707293.066856384 8685960.3520965576 0 0 0 0 -11421551.228313945 -13451685.331795219 0 -13451685.331795219 613253.83194357157 0 0 0 0 27273327.595184326 -39089104.00903511 0 -39089104.00903511 -24715717.465164185 0 0 0 0 6341789.973526001 -66128206.91853714 0 -66128206.91853714 -36935144.781990051 0 0 0 0 -1041957.3111454919 -22163075.514547512 0 -22163075.514547512 22831550.943176668 0 0 0 0 4274815.5973927379 -1820203.855250638 0 -1820203.855250638 -5619348.788582297 0 0 0 0 14805319.388122559 -44792783.266860962 0 -44792783.266860962 -10893014.26651001 0 0 0 0 10133362.120605469 -89260133.447250366 0 -89260133.447250366 57927482.338378906 0 0 0 0 5154430.9042092822 -22992870.580175389 0 -22992870.580175389 -58071.81911739707 0 0 0 0 -158239189.42385864 -6187289.0262451172 0 -6187289.0262451172 20268731.200164795 0 0 0 0 4997091.6211047471 -953486.1522041671 0 -953486.1522041671 -1211194.9560120925 0 0 0 0 -5654826.5424863882 -15270106.677058727 0 -15270106.677058727 1628205.8953874558 0 0 0 0 -5972800.6613464355 -36544111.593467712 0 -36544111.593467712 -2092175.080078125 0 0 0 0 -1442925.2332611084 -34267508.793136597 0 -34267508.793136597 -14487231.823020935 0 0 0 0 -23352139.463100433 -39108837.87317276 0 -39108837.87317276 -10002659.01410675 0 0 0 0 -38136564.646209717 -30922873.235778809 0 -30922873.235778809 -1805927.0023498535 0 0 0 0 2037125.0297287386 -30997750.341807626 0 -30997750.341807626 -4105769.9846394435 0 0 0 0 11336798.902168274 -44246649.254867554 0 -44246649.254867554 -15662212.217056274 0 0 0 0 -66837975.829406738 -64422018.243278503 0 -64422018.243278503 5727331.0334777832 0 0 0 0 -10795040.60118103 -43499793.96673584 0 -43499793.96673584 6470951.7500839233 0 0 0 0 67156096.366653442 -57280789.756538391 0 -57280789.756538391 -17073329.646995544 0 0 0 0 -30240.603330804035 -25823410.174323 0 -25823410.174323 -9807597.761786513 0 0 0 0 570232.20119857788 -75978074.039150238 0 -75978074.039150238 -3317669.3396148682 0 0 0 0 68869589.26259613 -11734860.026153564 0 -11734860.026153564 -9682715.0447540283 0 0 0 0 -58056275.593673706 -42255114.955718994 0 -42255114.955718994 20445438.496444702 0 0 0 0 -78963773.390899658 -53694159.549362183 0 -53694159.549362183 15533320.927139282 0 0 0 0 -74582309.84312439 -137364091.27282715 0 -137364091.27282715 -100747469.53494263 0 0 0 0 -141207231.41311646 -57273007.081726074 0 -57273007.081726074 39685707.705108643 0 0 0 0 -34182195.557617188 -77629615.027435303 0 -77629615.027435303 -18911820.120326996 0 0 0 0 -2391543.0182647705 -84975653.832077026 0 -84975653.832077026 -21275458.453298569 0 0 0 0 -37469485.81414032 -46146390.47454834 0 -46146390.47454834 20818937.797088623 0 0 0 0 -10995461.295379639 -42202672.961341858 0 -42202672.961341858 -1313867.8758850098 0 0 0 0 -25427804.690567017 -16730594.892024994 0 -16730594.892024994 15369998.93586731 0 0 0 0 -43102319.968719482 -35638396.172279358 0 -35638396.172279358 3780579.2131466866 0 0 0 0 240707.40253014863 -19603378.287583642 0 -19603378.287583642 9950203.3536279574 0 0 0 0 -6276967.8720474243 -39756039.160682678 0 -39756039.160682678 27109122.781686544 0 0 0 0 -14146449.456222534 6837509.3141098022 0 6837509.3141098022 -34962782.505264282 0 0 0 0 -16883276.743225098 4127294.8104171753 0 4127294.8104171753 -7040005.9684143066 0 0 0 0 -18728910.074157715 10629034.794311523 0 10629034.794311523 -38161623.884635925 0 0 0 0 307476.126763843 -439517.67793861032 0 -439517.67793861032 -903092.96210180223 0 0 0 0 -17980054.999099731 6819661.6085090637 0 6819661.6085090637 -14478288.983703613 0 0 0 0 -7421932.9615586996 -10223797.994656544 0 -10223797.994656544 8545233.9971646294 0 0 0 0 -32970469.83934021 -21623279.018310547 0 -21623279.018310547 16258970.150474548 0 0 0 0 -44848231.360748291 40833800.690532684 0 40833800.690532684 43766640.73425293 0 0 0 0 -62275119.839836121 -17742207.202453613 0 -17742207.202453613 -5312426.4902133942 0 0 0 0 -312135970.27166176 -1947548.7940073013 0 -1947548.7940073013 5756957.0909423828 0 0 0 0 -169519914.80975199 -294089960.94325423 0 -294089960.94325423 -257485683.16719055 0 0 0 0 7625087.8799364045 -6985358.3197888732 0 -6985358.3197888732 -2333001.9104402214 0 0 0 0 -1106882.5758809671 59279.451041325927 0 59279.451041325927 859363.85829059035 0 0 0 0 384983.93662488461 -401357.34890585952 0 -401357.34890585952 -61039.222985349596 0 0 0 0 -294342747.16191101 -126077902.52020264 0 -126077902.52020264 -118270356.27508545 0 0 0 0 -176077488.18858337 -175364287.80299377 0 -175364287.80299377 -370553359.25325012 0 0 0 0 -38899174.291915894 41643969.793716431 0 41643969.793716431 24265642.96774292 0 0 0 0 8183304.8293037415 13001222.412078857 0 13001222.412078857 -16472999.400756836 0 0 0 0 33595432.536071777 4913479.2400512695 0 4913479.2400512695 -14190900.79447937 0 0 0 0 -1534754.6120843887 -148114651.73332977 0 -148114651.73332977 22908817.3828125 0 0 0 0 28163445.631698608 53347876.59337616 0 53347876.59337616 6974712.7378082275 0 0 0 0 -462974019.91117859 -109015400.17624664 0 -109015400.17624664 81879910.787818909 0 0 0 0 8153255.0337699652 -7931528.7842264399 0 -7931528.7842264399 1686309.8108032644 0 0 0 0 -147303453.10864258 -109643491.72270203 0 -109643491.72270203 -91463596.391815186 0 0 0 0 -32548707.544433594 -65235983.344467163 0 -65235983.344467163 -145089959.17025757 0 0 0 0 57757635.519012451 -235216882.44046021 0 -235216882.44046021 -363459872.29577637 0 0 0 0 123356616.62902832 -89003676.905776978 0 -89003676.905776978 -336408659.99499512 0 0 0 0 178040597.12595367 95395272.305147171 0 95395272.305147171 -157284170.81329346 0 0 0 0 -59513412.909645081 128534865.41309357 0 128534865.41309357 190020737.51686096 0 0 0 0 3813241.2522904277 -5522570.7932597175 0 -5522570.7932597175 -3792767.0324416235 0 0 0 0 -110222937.46981812 9449349.2838745117 0 9449349.2838745117 15396311.701858521 0 0 0 0 12326181.457946777 -55730299.311584473 0 -55730299.311584473 45631103.489059448 0 0 0 0 25769066.771728516 -13947567.225982666 0 -13947567.225982666 -37901520.517587662 0 0 0 0 125927160.19918823 18997983.745483398 0 18997983.745483398 -34823111.845035553 0 0 0 0 3558197.8292754889 -15848181.120973766 0 -15848181.120973766 -5255070.6338451356 0 0 0 0 -18848975.735214233 -22245853.491073608 0 -22245853.491073608 -12862023.380523682 0 0 0 0 68095269.857116699 59039551.878585815 0 59039551.878585815 46596251.132461548 0 0 0 0 -9112506.4216308594 -31958976.287155151 0 -31958976.287155151 -4537187.8638305664 0 0 0 0 -44399709.91178894 -74781649.249721527 0 -74781649.249721527 -38276269.581390381 0 0 0 0 63873572.046508789 47715060.111312866 0 47715060.111312866 -12958616.287857056 0 0 0 0 111615506.68402863 68957245.194755554 0 68957245.194755554 -21703923.349914551 0 0 0 0 81889336.399549007 -15968569.260645866 0 -15968569.260645866 -91672512.923187256 0 0 0 0 114997902.21690369 -19100257.353187561 0 -19100257.353187561 -52247050.984344482 0 0 0 0 82178602.582659245 -636354.30735850334 0 -636354.30735850334 24406618.276229858 0 0 0 0 30598698.709396362 -76954997.529747009 0 -76954997.529747009 -105690023.36087036 0 0 0 0 36677512.767242432 -20597247.100540161 0 -20597247.100540161 -66110194.70652771 0 0 0 0 27251539.652297974 -71020463.328262329 0 -71020463.328262329 -200982860.40158081 0 0 0 0 -61386249.429107666 -86864767.236480713 0 -86864767.236480713 -92863597.320217133 0 0 0 0 -321671048.82961559 -207124534.97274113 0 -207124534.97274113 -73265642.078308105 0 0 0 0 -87294057.860290527 -167586402.31854248 0 -167586402.31854248 -321968232.76379395 0 0 0 0 -69082022.066299438 -43429924.305091858 0 -43429924.305091858 -105679201.49954224 0 0 0 0 -89271970.911071777 13708042.369293213 0 13708042.369293213 -265079665.92904663 0 0 0 0 35713518.155151367 -2103102.7919311523 0 -2103102.7919311523 -120814836.61791992 0 0 0 0 -4467459.4030007496 -8492172.2246923149 0 -8492172.2246923149 -205826.70615458488 0 0 0 0 -27787837.369613647 -29930056.416904449 0 -29930056.416904449 -13333282.030485153 0 0 0 0 -138111.98812139034 -26094939.187416948 0 -26094939.187416948 -14085745.248969972 0 0 0 0 -4840912.7301940918 -11998531.396987915 0 -11998531.396987915 -6672241.6164474487 0 0 0 0 -20135716.06502533 -18024664.272327423 0 -18024664.272327423 1708202.1806793213 0 0 0 0 -21652141.760205582 -17571169.976799306 0 -17571169.976799306 2093928.7856854238 0 0 0 0 -1619824.9989680806 -15871291.917314366 0 -15871291.917314366 -6646926.5871073678 0 0 0 0 17634479.954299927 -13046169.923179626 0 -13046169.923179626 3764573.0047922134 0 0 0 0 -694955.83726593852 -17167971.423497081 0 -17167971.423497081 -3976921.2177535743 0 0 0 0 -43947707.893447876 -67927253.548522949 0 -67927253.548522949 -66108658.629608154 0 0 0 0 27420162.072616577 -9410769.3129425049 0 -9410769.3129425049 -4683664.9725799561 0 0 0 0 4610493.1259921975 -2947240.5791336 0 -2947240.5791336 -2405681.6676348299 0 0 0 0 90316331.693702698 23341473.977035522 0 23341473.977035522 -23706360.05721283 0 0 0 0 1252452.1570416242 -278840.32077206671 0 -278840.32077206671 -1156456.8487652503 0 0 0 0 -18114611.330886841 -19233540.312225342 0 -19233540.312225342 -8673076.5820007324 0 0 0 0 -1012530.9921055436 -11125912.440383427 0 -11125912.440383427 -2732233.2565023005 0 0 0 0 -29536785.455631256 -25886589.606679916 0 -25886589.606679916 -6949863.1438293457 0 0 0 0 560258.47489459813 -4658003.5904508829 0 -4658003.5904508829 -297396.21865078807 0 0 0 0 -9781367.7100067139 -8607866.1425857544 0 -8607866.1425857544 -23274148.307037354 0 0 0 0 64941764.674884796 -130471898.0671072 0 -130471898.0671072 231280121.07017517 0 0 0 0 279697678.51953125 -263435946.35260391 0 -263435946.35260391 25212455.712837219 0 0 0 0 768731044.05697632 -256427387.85134697 0 -256427387.85134697 -91117871.934127808 0 0 0 0 309436.95182997733 -1655557.5335295871 0 -1655557.5335295871 -82341.648012936115 0 0 0 0 87474866.173583984 -521425415.39879608 0 -521425415.39879608 98882537.849647522 0 0 0 0 -110124687.97303772 -86979585.478012085 0 -86979585.478012085 -15506418.02822113 0 0 0 0 -86245154.470001221 -56341429.022621155 0 -56341429.022621155 43148539.023269653 0 0 0 0 -2293768.853712853 -3959494.3984601647 0 -3959494.3984601647 850920.46034036577 0 0 0 0 -45056201.111083984 -43220867.048530579 0 -43220867.048530579 -62871460.67905426 0 0 0 0 -49139483.659698486 -26813857.964073181 0 -26813857.964073181 16891592.675476074 0 0 0 0 -7564449.9953613281 -55322712.745361328 0 -55322712.745361328 -34841880.617622375 0 0 0 0 -42146657.180892944 -40268319.445995331 0 -40268319.445995331 -22632600.788009644 0 0 0 0 -74571448.733093262 -33738980.156024933 0 -33738980.156024933 -12699229.856193542 0 0 0 0 -38171987.206977844 -31153039.380033493 0 -31153039.380033493 -8444004.9938201904 0 0 0 0 -11788008.427642822 -20053293.032093048 0 -20053293.032093048 -24957573.108299255 0 0 0 0 -8717906.0361938477 -14023340.783958435 0 -14023340.783958435 -16496341.728382111 0 0 0 0 -72050148.331178665 -22939908.916599751 0 -22939908.916599751 70649598.772796631 0 0 0 0 41163540.936187744 -21683581.117973328 0 -21683581.117973328 -18398276.516485214 0 0 0 0 -6867806.5625915527 -30302217.25541687 0 -30302217.25541687 19488436.25038147 0 0 0 0 154563684.84886169 -51867466.977588654 0 -51867466.977588654 17814547.120376587 0 0 0 0 13151131.977386475 45254039.400016785 0 45254039.400016785 111744620.50744629 0 0 0 0 2659023.736907959 -81787355.49508667 0 -81787355.49508667 68860772.370376587 0 0 0 0 -127424831.87808228 -46562028.680419922 0 -46562028.680419922 90686482.225105286 0 0 0 0 -19910013.401016235 -139098545.21878815 0 -139098545.21878815 155371503.20046997 0 0 0 0 -125773643.02265167 -30034786.648262024 0 -30034786.648262024 240167198.35073853 0 0 0 0 -65391371.448974609 -120770273.05937958 0 -120770273.05937958 112200658.0776062 0 0 0 0 -34641743.788604736 -158394411.66707611 0 -158394411.66707611 158211718.95803833 0 0 0 0 -62904173.707092285 -112003462.46977234 0 -112003462.46977234 7483987.6661224365 0 0 0 0 -266819075.199646 -144381837.18080139 0 -144381837.18080139 158962012.01828003 0 0 0 0 -222374189.86965942 31772572.650474548 0 31772572.650474548 -108605531.5814209 0 0 0 0 1894014.6012573242 -200872527.08197784 0 -200872527.08197784 -49592813.11730957 0 0 0 0 -350905456.25723267 -81694645.135177612 0 -81694645.135177612 117214844.05958557 0 0 0 0 408184982.97312927 -31070598.280147552 0 -31070598.280147552 -81252047.014007568 0 0 0 0 4697444.9983021393 -3473423.6801932231 0 -3473423.6801932231 -2007883.0652445629 0 0 0 0 211474767.80859375 -235660224.95623779 0 -235660224.95623779 25460897.966331482 0 0 0 0 -67644465.760070801 -135950466.77867126 0 -135950466.77867126 43592862.379425049 0 0 0 0 181315221.30041504 7124254.5735015869 0 7124254.5735015869 -9584309.7005968094 0 0 0 0 207783838.17362213 -165652027.24081135 0 -165652027.24081135 16999840.79675293 0 0 0 0 13353079.064575195 -80257617.266403198 0 -80257617.266403198 4910531.0532226562 0 0 0 0 28181247.100668281 -34189604.305254862 0 -34189604.305254862 2628515.5328202718 0 0 0 0 68840874.192932129 -52503060.91444397 0 -52503060.91444397 -26385853.137863159 0 0 0 0 70877374.497375488 -51608129.878601074 0 -51608129.878601074 -26278678.489490509 0 0 0 0 25159539.671653748 -56578994.545808315 0 -56578994.545808315 -51057552.606612206 0 0 0 0 85591668.491210938 -88799352.328842163 0 -88799352.328842163 2469833.2596130371 0 0 0 0 73773433.095657349 -51135685.712341309 0 -51135685.712341309 -27742517.599655151 0 0 0 0 77716692.382507324 -18406735.181152344 0 -18406735.181152344 -10836668.797877312 0 0 0 0 72607891.795715332 -52505947.724182129 0 -52505947.724182129 -29221325.973114014 0 0 0 0 149016084.56887817 -53575277.031982422 0 -53575277.031982422 -29223190.578277588 0 0 0 0 45960608.434036255 -41077407.330467224 0 -41077407.330467224 -8936396.7535552979 0 0 0 0 27017901.871948242 -312888161.318367 0 -312888161.318367 227191846.07519531 0 0 0 0 150983156.00872803 -207846373.6335144 0 -207846373.6335144 -259738500.29535675 0 0 0 0 16834739.842895731 -13853995.604721241 0 -13853995.604721241 -8588005.4773659036 0 0 0 0 -10089791.836486816 -262095874.38667297 0 -262095874.38667297 39232096.916168213 0 0 0 0 -22416562.821533203 -241505220.16744995 0 -241505220.16744995 18046396.103637695 0 0 0 0 -47942177.443572998 -229883768.97891998 0 -229883768.97891998 34302693.29196167 0 0 0 0 -40293887.663452148 -238695652.98204041 0 -238695652.98204041 33914161.980768204 0 0 0 0 -9247360.212934494 54029920.15204525 0 54029920.15204525 -81663047.553009033 0 0 0 0 10010391.928017847 -723793.90937672555 0 -723793.90937672555 -10400384.821902454 0 0 0 0 -47793430.182357788 -112506931.87012148 0 -112506931.87012148 -19853295.074150085 0 0 0 0 112370805.62255859 -69490422.152099609 0 -69490422.152099609 -48193949.653873444 0 0 0 0 15666251.837369174 -14805138.740522429 0 -14805138.740522429 -10314111.131383594 0 0 0 0 25639817.878263436 -30449356.84885744 0 -30449356.84885744 15475114.402274055 0 0 0 0 -21696847.103210449 1171378.4839458466 0 1171378.4839458466 -46736093.124851227 0 0 0 0 7484693.5870361328 -59506962.104722977 0 -59506962.104722977 -27849230.463790894 0 0 0 0 41439874.645950317 -69908100.364629269 0 -69908100.364629269 -50297639.163322449 0 0 0 0 8010171.1627474278 -9493138.1200723387 0 -9493138.1200723387 2921176.9698742628 0 0 0 0 77425054.442123413 17828057.314937592 0 17828057.314937592 -185813706.59133148 0 0 0 0 2681897.005065918 -8447337.4755058289 0 -8447337.4755058289 171947.96539878845 0 0 0 0 1725343.0547973812 -12706833.894543692 0 -12706833.894543692 13412002.737535048 0 0 0 0 7996281.5269810557 -14145646.446205892 0 -14145646.446205892 8689001.8126879707 0 0 0 0 2590289.5611724854 -7878781.0047874451 0 -7878781.0047874451 -3355062.333322525 0 0 0 0 10535342.408675261 -17676873.248552199 0 -17676873.248552199 14660329.450297341 0 0 0 0 25353607.34469986 -146493219.74564505 0 -146493219.74564505 -38303823.195619583 0 0 0 0 111984296.0357666 -101894667.94498444 0 -101894667.94498444 -247457844.39811707 0 0 0 0 -40415742.611873627 -72906610.826214552 0 -72906610.826214552 -107324041.9907074 0 0 0 0 230834811.50888062 -200936139.54302216 0 -200936139.54302216 -49237464.540008545 0 0 0 0 211637113.76156616 3247823.328994751 0 3247823.328994751 -117106322.96200562 0 0 0 0 -16543718.111953735 -1300189.7420501709 0 -1300189.7420501709 -110441345.75669861 0 0 0 0 23737234.781524658 96063081.387096405 0 96063081.387096405 48605527.517471313 0 0 0 0 77628914.660736084 60485815.613395691 0 60485815.613395691 44751500.289291382 0 0 0 0 249787441.55465698 254269234.03501892 0 254269234.03501892 198705349.42919922 0 0 0 0 5634551.9769897461 -228730928.89518738 0 -228730928.89518738 155556174.81997681 0 0 0 0 121895538.777771 -32515607.757133484 0 -32515607.757133484 -53023735.230758667 0 0 0 0 646411724.92858887 -110198295.70137024 0 -110198295.70137024 -46899812.254684448 0 0 0 0 162308588.61244202 -389181206.2420311 0 -389181206.2420311 399353368.42951965 0 0 0 0 -8258833.9639587402 -134299566.31466675 0 -134299566.31466675 104186787.43067932 0 0 0 0 -140318888.34075928 -46630828.757095337 0 -46630828.757095337 255495639.01316833 0 0 0 0 725336882.94415283 -220598502.44658279 0 -220598502.44658279 -6955956.9398498535 0 0 0 0 -596096.62958199531 -1263074.1743494719 0 -1263074.1743494719 379532.42009818554 0 0 0 0 -102473371.7684021 23897823.403091431 0 23897823.403091431 68003861.497077942 0 0 0 0 274245157.90936279 174200204.73683548 0 174200204.73683548 -247956042.29823303 0 0 0 0 645706820.78878784 -291789734.43486786 0 -291789734.43486786 227732917.58764172 0 0 0 0 -270188359.97822571 -80148036.592632294 0 -80148036.592632294 152601683.15299225 0 0 0 0 -986090.55050753057 1286703.3343520276 0 1286703.3343520276 -432186.59305498842 0 0 0 0 -62201331.395721436 -73367904.674911499 0 -73367904.674911499 -85012505.078286171 0 0 0 0 40390655.834671021 -23852114.895126343 0 -23852114.895126343 -327573416.827353 0 0 0 0 -9361409.5294036865 -2295186.248462677 0 -2295186.248462677 -2713736.3182144165 0 0 0 0 -67834323.256546021 7588325.8570632935 0 7588325.8570632935 -3740043.0259780884 0 0 0 0 -87537723.323196411 33003256.214092255 0 33003256.214092255 49520698.938667297 0 0 0 0 1250301.0620422363 115607199.41899109 0 115607199.41899109 124549968.1482172 0 0 0 0 30143848.589767456 85495511.455291748 0 85495511.455291748 -48562169.637062073 0 0 0 0 -32703025.031219482 54946664.75100708 0 54946664.75100708 -52974165.719749451 0 0 0 0 633225.09950135648 -7993925.9597125743 0 -7993925.9597125743 4592611.4327889681 0 0 0 0 390065.56790716201 -4027532.5575333517 0 -4027532.5575333517 2590641.5918074697 0 0 0 0 13658287.062026978 -17822300.193983078 0 -17822300.193983078 9161130.4898986816 0 0 0 0 20619719.40133667 -31659319.299314499 0 -31659319.299314499 28019803.443572998 0 0 0 0 -877693.72066920996 -2576479.1098135971 0 -2576479.1098135971 2215214.5375770796 0 0 0 0 -10550505.560882568 -18608321.146995544 0 -18608321.146995544 73714183.662208557 0 0 0 0 2098986.3468780518 -22735502.876098633 0 -22735502.876098633 31886623.135643005 0 0 0 0 55180.120391845703 -23395265.738613129 0 -23395265.738613129 34954946.540657043 0 0 0 0 2245784.8361206055 -27917221.313396454 0 -27917221.313396454 48070981.500144958 0 0 0 0 12129191.836883545 -23666262.335163116 0 -23666262.335163116 25065207.113481522 0 0 0 0 5960848.1585540771 -23678262.14617157 0 -23678262.14617157 33508835.012489319 0 0 0 0 -9076.1004791259766 -19016394.294391632 0 -19016394.294391632 30198997.426300049 0 0 0 0 9693255.1693115234 -20488303.007585526 0 -20488303.007585526 25706940.327774048 0 0 0 0 5110245.4833374023 -16253318.018867493 0 -16253318.018867493 25550355.995542049 0 0 0 0 -155581.13664771616 -1180106.4615936596 0 -1180106.4615936596 3053082.2063726634 0 0 0 0 -2983728.2925015837 3603830.5480843484 0 3603830.5480843484 -1292866.4138492718 0 0 0 0 -7565336.4869384766 30892006.049766541 0 30892006.049766541 -276755515.19709969 0 0 0 0 -16374706.905014038 4296262.6618423462 0 4296262.6618423462 -2907302.6666107178 0 0 0 0 355807.25487302244 3368894.9992900863 0 3368894.9992900863 -1481036.7491277149 0 0 0 0 5123172.2480010986 -14496630.082778931 0 -14496630.082778931 33016089.873504639 0 0 0 0 -6868448.2161102295 90850671.119796753 0 90850671.119796753 -838786351.16242981 0 0 0 0 2069.2990112304688 -4335995.1485824585 0 -4335995.1485824585 -545072.57845497131 0 0 0 0 -3572833.1903743893 -316332.8288097661 0 -316332.8288097661 3242410.9859166369 0 0 0 0 -63655446.293746948 -306766754.72928238 0 -306766754.72928238 -182285804.44241333 0 0 0 0 799500.66299438477 -490439292.04191589 0 -490439292.04191589 -703617868.31386948 0 0 0 0 -305469899.59465027 -442798801.57360077 0 -442798801.57360077 -241522512.48156738 0 0 0 0 -3110789.1630096436 -648795282.69113159 0 -648795282.69113159 -106081347.81067657 0 0 0 0 -202833401.30056 -260231835.11320496 0 -260231835.11320496 12218152.924301147 0 0 0 0 -276155422.79727173 -332512085.48675537 0 -332512085.48675537 -32475366.406295776 0 0 0 0 -95056196.844390869 -159942990.09947205 0 -159942990.09947205 -456203682.22317505 0 0 0 0 -21655679.122077942 -870278.9126701355 0 -870278.9126701355 -127433941.46382141 0 0 0 0 -100617910.01675415 35144655.69682312 0 35144655.69682312 -19214477.828689575 0 0 0 0 335039861.3686676 -190204051.8348465 0 -190204051.8348465 -38856679.001908779 0 0 0 0 49382780.563735962 19192125.983482361 0 19192125.983482361 67605496.27230835 0 0 0 0 -151426319.56311035 -198333892.29369354 0 -198333892.29369354 -168009846.39705658 0 0 0 0 -276944158.07821655 -261356581.94672394 0 -261356581.94672394 -50996359.478569031 0 0 0 0 124484948.72921753 -417087163.68637848 0 -417087163.68637848 7731624.5840682983 0 0 0 0 -273349944.68193054 -179694614.0018158 0 -179694614.0018158 236935897.83095551 0 0 0 0 298770210.16815186 -133663847.13680649 0 -133663847.13680649 -192654713.51766968 0 0 0 0 103162876.59915161 -140300407.67729187 0 -140300407.67729187 -149917946.15409851 0 0 0 0 -269058301.93161011 -244833871.61654663 0 -244833871.61654663 -153582962.17281342 0 0 0 0 9044914.5326004028 -347168015.77168274 0 -347168015.77168274 -168797852.85107422 0 0 0 0 -877221705.72015381 -225688565.46489716 0 -225688565.46489716 -187164056.89446259 0 0 0 0 -464665414.6479187 -426618335.87759018 0 -426618335.87759018 -186253449.90719604 0 0 0 0 -605759678.87524414 -327997181.98384857 0 -327997181.98384857 -174946371.68047523 0 0 0 0 -274509736.04928589 -238719972.68051529 0 -238719972.68051529 -189990038.86109924 0 0 0 0 -647145693.89254379 -478431359.42127609 0 -478431359.42127609 -505576999.02172852 0 0 0 0 -1197345312.2945862 -682217462.65977097 0 -682217462.65977097 26840808.940063477 0 0 0 0 -593494.79412841797 -130430416.39912796 0 -130430416.39912796 -129976884.52947998 0 0 0 0 1933992.360315457 -3559995.1678763255 0 -3559995.1678763255 -3268254.0769741386 0 0 0 0 -611277719.58892822 -720317435.49970245 0 -720317435.49970245 -19006524.903747559 0 0 0 0 -523671070.84240723 -280212945.68507385 0 -280212945.68507385 1908584.7629776001 0 0 0 0 -607952968.58966064 -439760190.39537811 0 -439760190.39537811 -67324619.209869385 0 0 0 0 6299743.4819335938 -58499815.012413025 0 -58499815.012413025 107446589.73660278 0 0 0 0 -1609030.4834289551 -72145968.305393219 0 -72145968.305393219 133471379.31809616 0 0 0 0 969726.97045898438 -59275457.681373596 0 -59275457.681373596 163891097.48500824 0 0 0 0 16622511.266845703 -94141321.157836914 0 -94141321.157836914 144910508.20114708 0 0 0 0 11497726.443847656 -78603658.233398438 0 -78603658.233398438 123392848.36169052 0 0 0 0 9219062.2231063843 -65822177.120815277 0 -65822177.120815277 91765564.706134796 0 0 0 0 -17778.608734130859 -75689016.844741821 0 -75689016.844741821 124831807.70314789 0 0 0 0 3303533.6794128418 -40366746.126659393 0 -40366746.126659393 80553935.947917938 0 0 0 0 -19410242.422912598 -60286367.194091797 0 -60286367.194091797 68275016.662916183 0 0 0 0 -12002904.962905884 -56589803.842357635 0 -56589803.842357635 112151292.2428894 0 0 0 0 26043739.947052002 -72832605.337795258 0 -72832605.337795258 49862034.29006958 0 0 0 0 -5645218.6924438477 -59756714.052085876 0 -59756714.052085876 46718094.86181736 0 0 0 0 16589029.831481934 -71267838.92898941 0 -71267838.92898941 54316131.502244949 0 0 0 0 47429987.755310059 -104028985.70082092 0 -104028985.70082092 74097743.785015106 0 0 0 0 46914296.569000244 -37674711.602935791 0 -37674711.602935791 96306940.522117615 0 0 0 0 -11554393.874084473 -42519629.316547394 0 -42519629.316547394 87256437.799675941 0 0 0 0 20421889.765029907 -81794180.044195175 0 -81794180.044195175 558273.64057540894 0 0 0 0 -15387958.26098638 -5039387.9648902388 0 -5039387.9648902388 3251455.4045184217 0 0 0 0 -12626021.922531128 -64079633.003232956 0 -64079633.003232956 96673169.156593323 0 0 0 0 -3518626.6816253662 -6173335.3058319092 0 -6173335.3058319092 1715510.5757865906 0 0 0 0 -7959178.7766418457 -9289491.5179672241 0 -9289491.5179672241 8988806.018913269 0 0 0 0 -11701076.953941166 -7690166.8998793401 0 -7690166.8998793401 6701392.1902891975 0 0 0 0 -2378090.2764963508 -1059825.0230446979 0 -1059825.0230446979 1207665.9200859759 0 0 0 0 -15350188.653930664 -51435715.823249817 0 -51435715.823249817 203905185.55368805 0 0 0 0 77691688.54208374 -78682714.135131836 0 -78682714.135131836 45269656.70432663 0 0 0 0 -13207645.247802734 -18072372.570556641 0 -18072372.570556641 -6285186.8977508545 0 0 0 0 -9000928.3421058208 -9429203.8892625142 0 -9429203.8892625142 -658529.82248184085 0 0 0 0 -2071652.1614379883 -18908948.135047913 0 -18908948.135047913 -32243489.664390564 0 0 0 0 12882915.554153442 47109947.381832123 0 47109947.381832123 -4131753.8144073486 0 0 0 0 -37642.155978083611 -2676938.7539728824 0 -2676938.7539728824 -576994.93996826047 0 0 0 0 -3458642.9543151855 -10490368.59778595 0 -10490368.59778595 -22240801.355762482 0 0 0 0 -17421503.257141113 -22482479.026748657 0 -22482479.026748657 -10871841.936721802 0 0 0 0 -13105739.892868042 -13482224.279165268 0 -13482224.279165268 -5535496.4813461304 0 0 0 0 -14627334.534790039 -5603199.6905860901 0 -5603199.6905860901 21653515.580131531 0 0 0 0 -40170158.73651123 -32689613.201400757 0 -32689613.201400757 -7068972.4973859787 0 0 0 0 -13155392.075980857 -4223188.3501739539 0 -4223188.3501739539 6375267.4161638487 0 0 0 0 62686156.59024179 13589427.069073677 0 13589427.069073677 7974490.9777297974 0 0 0 0 292223.0841761902 899912.53280379996 0 899912.53280379996 989390.77043034881 0 0 0 0 33719228.611587524 -159659059.17744827 0 -159659059.17744827 522872304.39612198 0 0 0 0 65400782.548805237 192401388.43082619 0 192401388.43082619 283454446.00174332 0 0 0 0 -137696154.54483032 28314881.071304321 0 28314881.071304321 381689332.20829809 0 0 0 0 -117999525.75540924 223706440.57126617 0 223706440.57126617 557627712.91820526 0 0 0 0 -149481393.17816162 145750930.34541702 0 145750930.34541702 383975389.18315786 0 0 0 0 -54148724.102722168 75246004.655614853 0 75246004.655614853 334005888.33496857 0 0 0 0 59174195.780883789 187487634.22321701 0 187487634.22321701 384763380.36258125 0 0 0 0 -130465836.76473999 73350954.648189545 0 73350954.648189545 469842728.16877747 0 0 0 0 -340065.64044749737 -4888095.1516411658 0 -4888095.1516411658 -1768443.6148740998 0 0 0 0 1231093.7298202515 -1719579.2072811127 0 -1719579.2072811127 -2931208.1609191895 0 0 0 0 -67389424.484664917 -260361986.57563019 0 -260361986.57563019 -180149276.77843475 0 0 0 0 1874088.5917053223 -72906550.467090607 0 -72906550.467090607 120443710.10133743 0 0 0 0 -3682824.3258791715 -4923734.7750880104 0 -4923734.7750880104 178879.5947281979 0 0 0 0 2257593.6722412109 -1642196.1212158203 0 -1642196.1212158203 -8557984.6415100098 0 0 0 0 8257929.1722793579 -50849997.020530701 0 -50849997.020530701 165014041.41537476 0 0 0 0 687943.14976719022 -3019723.6248926939 0 -3019723.6248926939 852650.88031791523 0 0 0 0 49159.5009765625 -14358837.900566101 0 -14358837.900566101 -1826858.636439085 0 0 0 0 95655.911487430334 -2284899.3954787925 0 -2284899.3954787925 -2294888.9823024799 0 0 0 0 3836455337.5608521 1374768850.8807983 0 1374768850.8807983 -2006891914.3595734 0 0 0 0 -1519846.5144195557 -1055982209.9230728 0 -1055982209.9230728 1004145882.6286449 0 0 0 0 -126827832.90054321 677870963.18949127 0 677870963.18949127 1149980192.7884579 0 0 0 0 1852649.8535137475 -2926373.7155179605 0 -2926373.7155179605 3510528.8289202116 0 0 0 0 -932915725.22238159 -342256296.93987274 0 -342256296.93987274 1375242146.7272797 0 0 0 0 452070282.72693253 -73945819.084237576 0 -73945819.084237576 -46572025.776435852 0 0 0 0 9653890.2590484619 -44319278.716590881 0 -44319278.716590881 16912905.782531738 0 0 0 0 6253724.534709923 -8912772.1429200545 0 -8912772.1429200545 9207051.3169243149 0 0 0 0 11055818.966394424 -38699863.679912567 0 -38699863.679912567 -14845622.906143188 0 0 0 0 749085.90258789062 -31668575.105079651 0 -31668575.105079651 3498529.4229469299 0 0 0 0 9142196.2592468262 -21018279.911254883 0 -21018279.911254883 9234374.6060142517 0 0 0 0 6178810.7933807373 -24327047.599563599 0 -24327047.599563599 10576682.675384521 0 0 0 0 8423501.8269615173 -28170315.522830009 0 -28170315.522830009 -2921681.0233612061 0 0 0 0 21477144.451034546 -12077248.212852478 0 -12077248.212852478 29764927.973770142 0 0 0 0 5344859.4471206665 -26790214.587445259 0 -26790214.587445259 19838981.395996094 0 0 0 0 -198716.9330291748 -24576240.138103485 0 -24576240.138103485 31192179.995246887 0 0 0 0 -9670642.8234710693 -38008875.863394737 0 -38008875.863394737 17406716.455986023 0 0 0 0 -3210782.6445922852 -21190610.930149078 0 -21190610.930149078 16010570.438724518 0 0 0 0 -4342576.5010375977 -18535566.677598 0 -18535566.677598 19207090.426208496 0 0 0 0 5701254.968963623 -42269273.940322876 0 -42269273.940322876 35529999.865997314 0 0 0 0 1801347.5408935547 -14677952.172073364 0 -14677952.172073364 8409165.0292205811 0 0 0 0 7276191.3826541901 -35374471.344277382 0 -35374471.344277382 -11488386.07308197 0 0 0 0 -11751141.335845947 -47182095.906036377 0 -47182095.906036377 -8007185.5117883682 0 0 0 0 -150464912.37320709 2347317.2204627991 0 2347317.2204627991 89785062.588279724 0 0 0 0 -132315931.82776165 -388984392.69558895 0 -388984392.69558895 -211625622.04735184 0 0 0 0 11199485.445280455 -14703523.234657232 0 -14703523.234657232 12809620.748897176 0 0 0 0 -9850572.7790527344 -19675346.219940186 0 -19675346.219940186 -6505703.0141983032 0 0 0 0 -258717702.39575195 -273127624.30220032 0 -273127624.30220032 264959834.39445496 0 0 0 0 -314183050.32208252 -144640806.37337351 0 -144640806.37337351 711565149.62848663 0 0 0 0 -48659039.823875427 179894720.00120163 0 179894720.00120163 771250065.56717682 0 0 0 0 247951753.29017639 -6511713.7678108215 0 -6511713.7678108215 -183590345.17877102 0 0 0 0 -98494933.001350403 101683756.56801987 0 101683756.56801987 534643049.71379852 0 0 0 0 -43385387.339904785 69419662.248849869 0 69419662.248849869 299532945.95734596 0 0 0 0 -94240373.684204102 125962463.25164795 0 125962463.25164795 650660063.20108032 0 0 0 0 -30517048.13444519 270958012.62108231 0 270958012.62108231 926343006.66811085 0 0 0 0 -1771897.417332992 -1382401.8309906684 0 -1382401.8309906684 2328407.5307303201 0 0 0 0 -19950212.609054565 203077702.65325165 0 203077702.65325165 517771064.27130127 0 0 0 0 552744.88441085815 -79976596.116037369 0 -79976596.116037369 325534445.01092529 0 0 0 0 -4353808.9077510834 -76815526.115087032 0 -76815526.115087032 825542367.22736359 0 0 0 0 160862629.30112457 -90797455.071840286 0 -90797455.071840286 -19682659.131401062 0 0 0 0 176713355.58831787 -222500693.08234215 0 -222500693.08234215 381904409.80296326 0 0 0 0 -109733950.00109863 -109227914.6315155 0 -109227914.6315155 226183573.92067719 0 0 0 0 -12106442.768722534 -93228225.072275162 0 -93228225.072275162 333112161.84173965 0 0 0 0 7584689.6270446777 -100842471.96541786 0 -100842471.96541786 26918788.9298172 0 0 0 0 16642722.807977885 -20457560.366270214 0 -20457560.366270214 13615374.351103965 0 0 0 0 -93373212.790740967 -234873899.78103638 0 -234873899.78103638 -192655216.39575005 0 0 0 0 -29682546.670135498 11928279.34031868 0 11928279.34031868 -76352506.239360809 0 0 0 0 -23437501.974136353 -220080163.52697182 0 -220080163.52697182 -211374953.24251175 0 0 0 0 65705678.36315155 -32596952.565396309 0 -32596952.565396309 -109029636.40261459 0 0 0 0 -174077681.92883301 -141613014.09592819 0 -141613014.09592819 -131787854.25414276 0 0 0 0 83938833.650909424 -76198491.74533844 0 -76198491.74533844 -21920715.534218311 0 0 0 0 256596657.17372131 -91224954.168819427 0 -91224954.168819427 -182376941.82600784 0 0 0 0 52920558.438713074 -108616532.87379408 0 -108616532.87379408 -79822137.393009186 0 0 0 0 -228462427.00714111 -185611805.33927155 0 -185611805.33927155 -92907391.022338867 0 0 0 0 345291529.92863464 95744454.349394798 0 95744454.349394798 -106044369.82748413 0 0 0 0 140159168.71113586 42458518.110525131 0 42458518.110525131 -195772080.67300797 0 0 0 0 25715514.346580505 -88419256.720952034 0 -88419256.720952034 7857162.5380477905 0 0 0 0 -92389793.563429832 -169352512.380597 0 -169352512.380597 -347901498.31185913 0 0 0 0 286364.11560465395 -1283372.5442770086 0 -1283372.5442770086 2085871.0383058712 0 0 0 0 77792216.20149231 -75098938.879590988 0 -75098938.879590988 -33831010.751319885 0 0 0 0 32818399.569797516 -68074906.60648489 0 -68074906.60648489 9117041.4755439758 0 0 0 0 43863031.483589172 -90568718.718770742 0 -90568718.718770742 -36769908.909698486 0 0 0 0 2848161.4693005197 -1569587.2170565799 0 -1569587.2170565799 -1330867.4027769752 0 0 0 0 -9541870.582611084 -136414071.45965004 0 -136414071.45965004 66050463.098114014 0 0 0 0 -187571426.24668884 -65902813.658209801 0 -65902813.658209801 61389198.26849556 0 0 0 0 162305540.36101532 549619.18912506104 0 549619.18912506104 1009074.3590278625 0 0 0 0 -170119814.8936615 291167712.62386131 0 291167712.62386131 185418124.24014664 0 0 0 0 67603151.638442993 40949833.550434113 0 40949833.550434113 53859893.206632018 0 0 0 0 345476017.47385406 209160217.62673378 0 209160217.62673378 144786426.34805298 0 0 0 0 -52819590.851417542 4384745.6072349548 0 4384745.6072349548 645532500.10121536 0 0 0 0 -32599728.075057983 -29422942.859366894 0 -29422942.859366894 -8595245.6013145447 0 0 0 0 1919769.8012266159 -177308462.5719955 0 -177308462.5719955 136908696.83506775 0 0 0 0 2855796.4887905121 -184561932.15072298 0 -184561932.15072298 148123491.25191498 0 0 0 0 -41882439.657928467 -63342875.143466949 0 -63342875.143466949 71429088.06883359 0 0 0 0 117402683.52688599 -144215491.20447159 0 -144215491.20447159 63947017.610685349 0 0 0 0 319411827.82062531 -189966378.39247322 0 -189966378.39247322 8355376.7925033569 0 0 0 0 185016117.34181213 -372613527.1284008 0 -372613527.1284008 329930785.04936409 0 0 0 0 46613428.252082825 -63766354.386190414 0 -63766354.386190414 44593675.382820129 0 0 0 0 224263155.02366638 -31338369.686672211 0 -31338369.686672211 -27299212.160873413 0 0 0 0 -66154782.843306541 -23324188.198328316 0 -23324188.198328316 34230627.600341797 0 0 0 0 -21819518.883010864 176757406.52322578 0 176757406.52322578 444591502.99266815 0 0 0 0 41948715.633331299 -111752213.00417328 0 -111752213.00417328 273194147.73670197 0 0 0 0 -4707770.0692568943 -3973333.6006120555 0 -3973333.6006120555 5711950.5782235581 0 0 0 0 -65999187.839812517 -6474623.2499762326 0 -6474623.2499762326 3795032.6669464111 0 0 0 0 -5392684.6719207764 -6183609.9783859253 0 -6183609.9783859253 2135964.5591850281 0 0 0 0 -5240516.0514068604 -4755247.579990387 0 -4755247.579990387 1942207.4356384277 0 0 0 0 -2980924.0670771673 -4136532.7184266895 0 -4136532.7184266895 -728703.23029100895 0 0 0 0 -21694340.527885437 -5619172.5237617493 0 -5619172.5237617493 2180800.1753363609 0 0 0 0 -2226645.6936750105 901336.90044164658 0 901336.90044164658 -252980.95725414529 0 0 0 0 -57006264.331954956 146228.44664573669 0 146228.44664573669 41070931.994066238 0 0 0 0 87028118.117980957 -8245702.4860458374 0 -8245702.4860458374 -26019639.409252167 0 0 0 0 -4045825.4634246826 -4917991.9208488464 0 -4917991.9208488464 1581832.7010822296 0 0 0 0 -11536478.154876515 -12229336.922069373 0 -12229336.922069373 -2715801.9423848689 0 0 0 0 -141853.44174194336 -9590827.2591648102 0 -9590827.2591648102 4564682.4375743866 0 0 0 0 7898455.1118621826 -73261987.580623627 0 -73261987.580623627 38472466.089839935 0 0 0 0 30120386.53935051 10015741.593390942 0 10015741.593390942 -30825535.239021301 0 0 0 0 4399912.8951329887 57560.073717858642 0 57560.073717858642 -2800585.4565772079 0 0 0 0 -13369060.186281821 -6250360.9670873024 0 -6250360.9670873024 -1446940.2874311022 0 0 0 0 -103791629.71224213 24939525.369417191 0 24939525.369417191 2774430.6946678162 0 0 0 0 -61482402.168624878 -37529784.990947723 0 -37529784.990947723 -19588182.958413124 0 0 0 0 -17381004.743080139 -44169423.441928864 0 -44169423.441928864 -30926691.428348541 0 0 0 0 -89061495.014938354 -41670915.589605331 0 -41670915.589605331 65015348.821231842 0 0 0 0 -36868515.832912445 -99873094.429738998 0 -99873094.429738998 178188382.87868118 0 0 0 0 -6622890.2128982544 -88033367.700654984 0 -88033367.700654984 37391597.561820984 0 0 0 0 9672367.1846084595 -28053921.263616562 0 -28053921.263616562 -9028506.9182815552 0 0 0 0 -17579821.753211975 -30008543.355644226 0 -30008543.355644226 97723313.083518028 0 0 0 0 -26194229.015846252 -131312131.50258064 0 -131312131.50258064 281161503.50994873 0 0 0 0 13434154.348587036 -89573479.330818176 0 -89573479.330818176 54464554.692429543 0 0 0 0 -32017208.132247925 -54452540.783638 0 -54452540.783638 68111507.133405685 0 0 0 0 -7835808.8246459961 -67083533.335227966 0 -67083533.335227966 85521424.42969799 0 0 0 0 -12489199.240142822 -76726470.853382111 0 -76726470.853382111 51574891.471534729 0 0 0 0 -48752710.732795715 -17467371.37358284 0 -17467371.37358284 106201431.32198143 0 0 0 0 -43581361.704982758 -20812993.477850914 0 -20812993.477850914 37049017.538085938 0 0 0 0 -19123881.606552124 -92025011.880723953 0 -92025011.880723953 194990812.15591049 0 0 0 0 -281115767.71158218 59403977.055631638 0 59403977.055631638 162637454.37694931 0 0 0 0 -159812398.31356812 7524393.423746109 0 7524393.423746109 418529493.89271545 0 0 0 0 -157924724.77431488 -35584281.860906601 0 -35584281.860906601 213704977.20751905 0 0 0 0 -67387053.276872635 -224219524.04956675 0 -224219524.04956675 53740865.898351669 0 0 0 0 -10712701.38243103 -128619369.74040604 0 -128619369.74040604 77587650.95045948 0 0 0 0 190199325.69324493 -284392949.9403429 0 -284392949.9403429 227647100.65812302 0 0 0 0 1410689.3425877243 803580.93079990521 0 803580.93079990521 -1179849.0633287728 0 0 0 0 36107699.248817444 -129929016.61259079 0 -129929016.61259079 164244132.02193451 0 0 0 0 1103123.7744598389 -177203832.18920135 0 -177203832.18920135 137157949.58449936 0 0 0 0 -85092875.179977417 -185684023.51515961 0 -185684023.51515961 245299839.63599205 0 0 0 0 -118718308.56970978 -79154965.296188354 0 -79154965.296188354 153975477.99984741 0 0 0 0 2353663.5849995017 1409563.2154141366 0 1409563.2154141366 -1805394.8499170262 0 0 0 0 -23348511.326869965 -126337625.57937384 0 -126337625.57937384 81260980.558357239 0 0 0 0 -45294170.387504578 -67566745.446884155 0 -67566745.446884155 109512378.87456512 0 0 0 0 33893794.351379395 -68658496.489432335 0 -68658496.489432335 108952747.04319024 0 0 0 0 13921618.863243103 -103262120.28320742 0 -103262120.28320742 127446143.00004578 0 0 0 0 1478637.5030014962 894377.54275695607 0 894377.54275695607 -1155524.667713521 0 0 0 0 102437968.41891861 -178682408.33427382 0 -178682408.33427382 265445279.1404171 0 0 0 0 55919509.562576294 57956323.994041443 0 57956323.994041443 224102965.37245727 0 0 0 0 48169964.747467041 -35765953.086447716 0 -35765953.086447716 24358469.595443726 0 0 0 0 38990090.016971588 -39895591.341974735 0 -39895591.341974735 98264500.279193878 0 0 0 0 85691953.159912109 -13507400.141475677 0 -13507400.141475677 4578183.2764015198 0 0 0 0 -6173954.5682220459 -21419218.289482594 0 -21419218.289482594 20460785.958044052 0 0 0 0 23724204.036605835 -12734101.220336437 0 -12734101.220336437 73555144.267814636 0 0 0 0 4557977.6604833268 -5539299.8849336263 0 -5539299.8849336263 1860095.5780422483 0 0 0 0 -21402139.158561707 -13051556.400865555 0 -13051556.400865555 36552361.076975822 0 0 0 0 46599655.673156738 -116229789.24767399 0 -116229789.24767399 123687603.84750366 0 0 0 0 31638170.074920654 -90298467.040838242 0 -90298467.040838242 136799201.99648666 0 0 0 0 -61779290.306331635 -9964767.8026938438 0 -9964767.8026938438 19282449.698762894 0 0 0 0 3762671.8810957409 -2101365.0435941741 0 -2101365.0435941741 -1182110.3889367916 0 0 0 0 21485112.303596497 -106129546.6369915 0 -106129546.6369915 121262430.60150242 0 0 0 0 28232077.305213928 -96121704.371364594 0 -96121704.371364594 98648161.701652527 0 0 0 0 155564706.20849991 -197457065.63347244 0 -197457065.63347244 38690199.036903381 0 0 0 0 106648105.29889679 -99565915.218536377 0 -99565915.218536377 -72075375.354550362 0 0 0 0 -125679560.47191238 -190409604.8238306 0 -190409604.8238306 -13433696.41774559 0 0 0 0 -298544897.82019806 -36400157.846152306 0 -36400157.846152306 2863543.7264194489 0 0 0 0 1690131.907364808 -429326.18295288086 0 -429326.18295288086 -1045010.0428682789 0 0 0 0 -19012165.761367798 -27331285.947347641 0 -27331285.947347641 2379683.8217288256 0 0 0 0 -72921853.381462097 -135783469.31012487 0 -135783469.31012487 -79608309.771564484 0 0 0 0 31622990.020334244 -91308398.599524975 0 -91308398.599524975 34590262.734062195 0 0 0 0 53641682.701339722 -28240802.025243759 0 -28240802.025243759 -3276169.5352878571 0 0 0 0 -155427899.52046919 18130608.985844254 0 18130608.985844254 18858007.617336273 0 0 0 0 -316564360.17315674 8561592.8635635376 0 8561592.8635635376 19726111.171455383 0 0 0 0 925338.92141760141 -1097037.977564374 0 -1097037.977564374 -457691.51942756027 0 0 0 0 69386284.372319221 -94431597.112623096 0 -94431597.112623096 -218427965.87799072 0 0 0 0 -191244469.04027557 -284286028.14146423 0 -284286028.14146423 -153580207.0616765 0 0 0 0 -882604.79500579834 -83307025.957624435 0 -83307025.957624435 157604377.73210144 0 0 0 0 -678115.8915225938 -1029011.5748652685 0 -1029011.5748652685 666622.72287167609 0 0 0 0 13133539.740289688 -145588583.32976943 0 -145588583.32976943 -69087308.052154541 0 0 0 0 16024928.299285889 -183432817.13726044 0 -183432817.13726044 -57167150.371232033 0 0 0 0 -17138442.393325806 -41873707.298582077 0 -41873707.298582077 220519070.09625053 0 0 0 0 -18278747.202278137 32874635.124303341 0 32874635.124303341 324345643.76514816 0 0 0 0 29032630.894145966 -44341511.600418091 0 -44341511.600418091 218166641.36063004 0 0 0 0 305004518.54292297 -358157595.80251694 0 -358157595.80251694 403401476.19024563 0 0 0 0 -32785239.306694031 31183458.75727272 0 31183458.75727272 434441025.35617447 0 0 0 0 112710210.86408997 72909860.351922989 0 72909860.351922989 116217589.59354401 0 0 0 0 -61670891.530319214 -330029577.67269707 0 -330029577.67269707 322474938.65624619 0 0 0 0 244540.54559248686 931021.48827232048 0 931021.48827232048 266848.00882439315 0 0 0 0 -137047139.62890244 135408466.83427906 0 135408466.83427906 132910418.32150841 0 0 0 0 -56286499.39239502 -33489735.808078766 0 -33489735.808078766 31906695.506158829 0 0 0 0 -56075548.222625732 -41267874.033519745 0 -41267874.033519745 52731732.066265106 0 0 0 0 -77469108.743186951 -35746263.606323242 0 -35746263.606323242 38838392.032203674 0 0 0 0 -92640688.762597084 -16363031.422292233 0 -16363031.422292233 27606718.10710907 0 0 0 0 -87668087.258682251 13411734.160919189 0 13411734.160919189 18441213.495346069 0 0 0 0 -5252654.4152663723 -681564.9337572474 0 -681564.9337572474 5979035.9083629325 0 0 0 0 131462462.45210648 -269886410.83209419 0 -269886410.83209419 390168079.98352432 0 0 0 0 111019218.17550659 -181300703.64588737 0 -181300703.64588737 207996854.18974298 0 0 0 0 314979297.25704193 -205383777.39414787 0 -205383777.39414787 106513173.364151 0 0 0 0 122045879.22571182 -90093876.145662308 0 -90093876.145662308 379018637.41763306 0 0 0 0 137265495.54698944 -86679517.014417648 0 -86679517.014417648 62130961.878242493 0 0 0 0 161656721.24575806 -190862785.62723732 0 -190862785.62723732 208290962.35261536 0 0 0 0 31460517.304214478 8132150.3000679016 0 8132150.3000679016 5518350.8846740723 0 0 0 0 35861918.815612793 7651907.7509565353 0 7651907.7509565353 -7119929.9936599731 0 0 0 0 16405610.928966522 1826072.4240913391 0 1826072.4240913391 8885068.1650810242 0 0 0 0 36811776.877304077 3981928.1053466797 0 3981928.1053466797 -12042311.360450745 0 0 0 0 37021001.874145508 12411922.17024231 0 12411922.17024231 11638142.108551025 0 0 0 0 -1017435.8412739486 -1703893.7521714382 0 -1703893.7521714382 -66099.532290434465 0 0 0 0 34495090.71572876 17624757.440689087 0 17624757.440689087 21358496.31187439 0 0 0 0 35072036.27116394 4107981.7177009583 0 4107981.7177009583 -10060501.983421326 0 0 0 0 9252249.6981414855 1404685.4957345333 0 1404685.4957345333 -6637273.2755900398 0 0 0 0 70115555.096656799 -12743067.663667679 0 -12743067.663667679 39272265.225047112 0 0 0 0 343440494.65391922 -105327203.71430779 0 -105327203.71430779 -25441588.497116089 0 0 0 0 321306560.02756882 -361195522.31388187 0 -361195522.31388187 209505166.18843079 0 0 0 0 120979922.63466644 -261985606.61672783 0 -261985606.61672783 161821308.10421753 0 0 0 0 457401225.49905396 -162134022.32374096 0 -162134022.32374096 -1008407.8741378784 0 0 0 0 -2225205.6332735904 -1544202.6454139203 0 -1544202.6454139203 -147679.19525283203 0 0 0 0 -11630473.901824951 13900558.559734344 0 13900558.559734344 9923780.5082168579 0 0 0 0 33643812.483520508 -27997026.144836426 0 -27997026.144836426 -23214095.261169434 0 0 0 0 -19640885.173120942 -20221327.380309772 0 -20221327.380309772 -11194261.243817296 0 0 0 0 -53645036.790397644 -28244807.884454727 0 -28244807.884454727 19890196.732646942 0 0 0 0 -55134348.009552002 -23880983.804124832 0 -23880983.804124832 26684638.819458008 0 0 0 0 -45261700.447929382 -37079342.935207367 0 -37079342.935207367 19439781.361967087 0 0 0 0 -57281206.225395203 -34536246.680084229 0 -34536246.680084229 18903121.174072266 0 0 0 0 -40482396.512348175 -34409854.224410057 0 -34409854.224410057 -13548306.501869202 0 0 0 0 31544489.327301025 20056128.362747192 0 20056128.362747192 -8544663.5042114258 0 0 0 0 -84559227.563354492 -70294220.220910072 0 -70294220.220910072 -35038536.055921078 0 0 0 0 -36608615.139218368 -19247850.86786326 0 -19247850.86786326 9309239.2395084575 0 0 0 0 12686767.079955034 -11226671.134299599 0 -11226671.134299599 -27254017.782066967 0 0 0 0 27672680.90562439 8593400.5060443878 0 8593400.5060443878 -3441068.6461486816 0 0 0 0 41033154.688232422 721013.84358215332 0 721013.84358215332 -36568589.306427002 0 0 0 0 40502300.949035645 -1867618.7031021118 0 -1867618.7031021118 -34166692.388534546 0 0 0 0 -90985581.594726562 -99246835.040667534 0 -99246835.040667534 -85296558.297765613 0 0 0 0 11713684.395755541 -9951204.6173202917 0 -9951204.6173202917 -26877523.628927749 0 0 0 0 -1367136.5964508057 -37584542.737576962 0 -37584542.737576962 -91210566.125437737 0 0 0 0 -111976973.00744629 -112504166.18634224 0 -112504166.18634224 -68542467.901321411 0 0 0 0 -91040750.507324219 -101673138.43649292 0 -101673138.43649292 -115383979.71890259 0 0 0 0 39444323.095039368 2952137.8111696243 0 2952137.8111696243 -32961134.864616394 0 0 0 0 38474060.9087677 -6382859.424238205 0 -6382859.424238205 -40284994.808273315 0 0 0 0 36168220.068511963 -8140758.0018520355 0 -8140758.0018520355 -25362461.454666138 0 0 0 0 409810.29143533204 744454.41198883206 0 744454.41198883206 -105414.83332923148 0 0 0 0 39668552.843162537 6240742.9849777222 0 6240742.9849777222 -51856201.832443237 0 0 0 0 37893508.233093262 499878.15743255615 0 499878.15743255615 -35013186.905075073 0 0 0 0 39202487.783081055 3306851.0517196655 0 3306851.0517196655 -39766746.155899048 0 0 0 0 42857263.305114746 -10213478.650279999 0 -10213478.650279999 -45231075.830863953 0 0 0 0 38307450.845558167 -7339425.5195884705 0 -7339425.5195884705 -45594902.829727173 0 0 0 0 42523539.885894775 -12598900.654907227 0 -12598900.654907227 -62251970.302837372 0 0 0 0 34816465.15814209 518672.13911437988 0 518672.13911437988 -43352980.717021942 0 0 0 0 20357730.191619873 22748320.153659821 0 22748320.153659821 -70177019.453762054 0 0 0 0 30463956.719528198 16892063.68769455 0 16892063.68769455 -38608659.577312469 0 0 0 0 12128688.7784729 6892454.9951725006 0 6892454.9951725006 -12136929.422660828 0 0 0 0 3682919.5206143036 286845.24732338823 0 286845.24732338823 -3018931.3207767569 0 0 0 0 4792476.4795570374 23953624.418154716 0 23953624.418154716 -46182775.663513184 0 0 0 0 15879252.219688416 7388204.2473397255 0 7388204.2473397255 -58880682.717243195 0 0 0 0 -2751557.6531105042 40177752.882202148 0 40177752.882202148 -83769910.669986725 0 0 0 0 70082428.089042664 521491.22448921204 0 521491.22448921204 -231833117.59521866 0 0 0 0 79944350.666938782 -36357028.138080597 0 -36357028.138080597 -93963603.3354702 0 0 0 0 54870977.806213379 -49364931.40760231 0 -49364931.40760231 -64964634.541557312 0 0 0 0 56766012.86733532 -8547540.3424677849 0 -8547540.3424677849 -111882497.7321167 0 0 0 0 13392224.082862854 -133018419.64021301 0 -133018419.64021301 74168403.818695068 0 0 0 0 13732335.26365602 -84969860.589392364 0 -84969860.589392364 -34035359.795455933 0 0 0 0 156194165.54388428 -159336569.70388412 0 -159336569.70388412 -126022998.36691475 0 0 0 0 93772460.289764404 13989917.975687981 0 13989917.975687981 -181280899.2798233 0 0 0 0 96349998.354496002 -165513942.35727787 0 -165513942.35727787 198575560.83747101 0 0 0 0 615765.62733645737 -1946005.2325031757 0 -1946005.2325031757 -4973697.9528909735 0 0 0 0 -47590253.416290283 -39323366.221282959 0 -39323366.221282959 40894685.433919907 0 0 0 0 1964527.2828517277 -4828865.2773612775 0 -4828865.2773612775 -3651567.8210993223 0 0 0 0 -10099378.801017761 -56039054.743587494 0 -56039054.743587494 1859546.6623153687 0 0 0 0 2149168.1292419434 -41133868.22026062 0 -41133868.22026062 -38199057.832744598 0 0 0 0 161381567.88343048 -11300902.226039886 0 -11300902.226039886 -99320884.159456253 0 0 0 0 7749707.3406432718 -23586116.196909536 0 -23586116.196909536 -6446943.8544144314 0 0 0 0 -315392628.3909893 -221798823.23199987 0 -221798823.23199987 -777494045.51512146 0 0 0 0 312518814.36563873 -123831663.75544989 0 -123831663.75544989 -22917651.77707839 0 0 0 0 4552844.555365175 8218189.9977269825 0 8218189.9977269825 -34135337.605998561 0 0 0 0 -784864758.1942215 -604411566.83749771 0 -604411566.83749771 -362097621.45799255 0 0 0 0 -1517941149.3139038 -683810028.30700684 0 -683810028.30700684 -635051086.50291443 0 0 0 0 -434649671.67840576 -959071650.15072632 0 -959071650.15072632 -853791316.52674103 0 0 0 0 -33093908.785873413 -52927663.773851871 0 -52927663.773851871 -1577179.6848843098 0 0 0 0 -1080335.6781852543 -33593776.220208757 0 -33593776.220208757 -3810648.5926272678 0 0 0 0 -47043757.657099485 -72377887.707934007 0 -72377887.707934007 82565787.367006302 0 0 0 0 -46918289.140434265 -76047496.982763767 0 -76047496.982763767 100071918.06834602 0 0 0 0 2607073.8105545044 -32544512.821052551 0 -32544512.821052551 -52838443.910390854 0 0 0 0 -14080571.304517746 -40555338.27052021 0 -40555338.27052021 -37540533.803794861 0 0 0 0 1797249.3024368286 -36294788.991327286 0 -36294788.991327286 -40738576.8530159 0 0 0 0 7242258.2689697985 -20877387.744578112 0 -20877387.744578112 -32822386.534440026 0 0 0 0 9789082.0131835938 -32084293.370994568 0 -32084293.370994568 -39095794.790782928 0 0 0 0 36735678.980072021 -24514191.958095551 0 -24514191.958095551 -45537427.057756424 0 0 0 0 22932498.774795532 -55549321.411277771 0 -55549321.411277771 -31811844.035747528 0 0 0 0 19229433.385108948 -69727529.627731323 0 -69727529.627731323 -69983225.637825012 0 0 0 0 36275625.726768494 -36259022.637569427 0 -36259022.637569427 -71950585.68863678 0 0 0 0 36720625.345975876 -26477244.43617022 0 -26477244.43617022 -48915616.365982056 0 0 0 0 40111749.625930786 -19930710.597961426 0 -19930710.597961426 -56529599.580421448 0 0 0 0 54294315.624135971 -18448160.194153309 0 -18448160.194153309 -60418254.706367493 0 0 0 0 8677977.989956148 -14555559.289343111 0 -14555559.289343111 -33418292.158247165 0 0 0 0 33652448.134088516 -22352957.462119579 0 -22352957.462119579 -43106280.612487793 0 0 0 0 36799773.923370361 -19444600.811019897 0 -19444600.811019897 -39376304.435107231 0 0 0 0 37939696.758621216 -16295557.186531067 0 -16295557.186531067 -34554580.422424316 0 0 0 0 4227918.1907405853 -28444837.519709826 0 -28444837.519709826 -48017543.289121628 0 0 0 0 -4875619.7137045413 -7655678.1399247311 0 -7655678.1399247311 -6163967.0073302574 0 0 0 0 -50110064.150848389 -173374428.13618374 0 -173374428.13618374 -45448151.725996733 0 0 0 0 -93150968.710083008 -104273101.30649328 0 -104273101.30649328 -78013103.872933865 0 0 0 0 -7963831.1389770508 -156779617.85497665 0 -156779617.85497665 -127518444.4132061 0 0 0 0 199093371.77905273 -112350461.11935282 0 -112350461.11935282 -166854703.75160027 0 0 0 0 16493671.882938385 -258736083.38163221 0 -258736083.38163221 -81070416.902467728 0 0 0 0 76039615.569038391 -337079750.6272769 0 -337079750.6272769 -210666002.83307457 0 0 0 0 -39902259.79145813 -110435091.6620636 0 -110435091.6620636 42539251.585139275 0 0 0 0 -1824022.7257976979 -2318121.0557442456 0 -2318121.0557442456 -1420131.7867618352 0 0 0 0 114984564.49761963 -284263207.34729528 0 -284263207.34729528 40429015.04381039 0 0 0 0 84394907.678701401 -3931653.9218224883 0 -3931653.9218224883 -47700606.343271255 0 0 0 0 -37342547.078018188 -31331829.715592861 0 -31331829.715592861 -8216575.7627334595 0 0 0 0 131755660.29310608 -67573692.633379459 0 -67573692.633379459 -11434279.47158742 0 0 0 0 70022833.547864914 -14822056.599496871 0 -14822056.599496871 -50676328.656012535 0 0 0 0 371393336.77676392 16904602.154875755 0 16904602.154875755 -191109492.89776045 0 0 0 0 115825456.62647438 -160449682.89428589 0 -160449682.89428589 -218898376.8552475 0 0 0 0 -111271570.44093323 311333784.80469048 0 311333784.80469048 192331360.18958431 0 0 0 0 180729579.3766098 -718327487.35419548 0 -718327487.35419548 -152716778.86875391 0 0 0 0 199005725.96566772 -184166599.67931604 0 -184166599.67931604 80932933.72096777 0 0 0 0 -1417404.322022751 -12866431.524808165 0 -12866431.524808165 -1964448.5841592012 0 0 0 0 161769759.16880035 86450328.972586632 0 86450328.972586632 60401989.3076998 0 0 0 0 -386763144.99563599 -80140533.473042369 0 -80140533.473042369 -49539785.026159525 0 0 0 0 -133289265.92218018 83041718.14393878 0 83041718.14393878 33920723.144548416 0 0 0 0 1077955.7444330379 -339321.44216908887 0 -339321.44216908887 -1093456.2299437313 0 0 0 0 -1662794659.6326141 -483724092.17667615 0 -483724092.17667615 437382917.65484339 0 0 0 0 7946.7043070741929 1070820.306539394 0 1070820.306539394 -1511468.6582912719 0 0 0 0 330130920.20269775 -164285599.45143574 0 -164285599.45143574 -283948936.77742779 0 0 0 0 -503081228.22821045 -331536984.67576647 0 -331536984.67576647 -84981768.372420311 0 0 0 0 -579819430.07588196 31632517.584862232 0 31632517.584862232 -309799283.03823996 0 0 0 0 -21606225.631439209 6096228.3577742577 0 6096228.3577742577 83065850.121409893 0 0 0 0 23124571.548934937 -26246707.74392128 0 -26246707.74392128 -772302.72690391541 0 0 0 0 -13959427.824295044 -5944149.7434030771 0 -5944149.7434030771 29192107.374886513 0 0 0 0 -6077956.2731481642 -4804271.5512540061 0 -4804271.5512540061 6208137.2055286756 0 0 0 0 -14582562.486785889 -4317065.7043945789 0 -4317065.7043945789 24945544.368649244 0 0 0 0 635547.1628092844 -299004.97621482611 0 -299004.97621482611 -5200484.9397454411 0 0 0 0 -790280150.3614502 -154383347.41064215 0 -154383347.41064215 161549324.66497421 0 0 0 0 -656347.33473989367 -362712.47812281922 0 -362712.47812281922 315698.38140395423 0 0 0 0 -548906856.44540405 -102927893.02808619 0 -102927893.02808619 189418637.33188438 0 0 0 0 -606135513.00701904 -278102447.50590897 0 -278102447.50590897 -280509427.88906097 0 0 0 0 -224770967.54780579 -67158071.804144382 0 -67158071.804144382 -4275230.9356555939 0 0 0 0 51351208.551696777 42482994.233004659 0 42482994.233004659 -6474529.7502918243 0 0 0 0 -2337803.4798517311 -388009.53406518698 0 -388009.53406518698 1791657.7031293032 0 0 0 0 -564359337.19812012 126899831.29969311 0 126899831.29969311 99232919.231591225 0 0 0 0 -308885560.8447876 -369410713.65173912 0 -369410713.65173912 -116932675.92209435 0 0 0 0 -61590885.333129883 128058042.2737999 0 128058042.2737999 -34951551.678394318 0 0 0 0 -187008611.42474365 -209993547.20800877 0 -209993547.20800877 -52255538.970066071 0 0 0 0 -234952356.11749268 -66441567.664014816 0 -66441567.664014816 7935144.1767234802 0 0 0 0 -18445412.47869873 -12854799.694182634 0 -12854799.694182634 39463209.968499184 0 0 0 0 -14554548.069152832 -9607624.5418874025 0 -9607624.5418874025 25507976.673027992 0 0 0 0 -13842844.787841797 3008493.6954932213 0 3008493.6954932213 29362343.168174744 0 0 0 0 -26413582.176330566 -2517754.7325468063 0 -2517754.7325468063 40796129.503255844 0 0 0 0 -34946986.811859131 -10909021.862423897 0 -10909021.862423897 48412626.675168991 0 0 0 0 -55966323.499816895 -1455053.4525165558 0 -1455053.4525165558 47787951.757475853 0 0 0 0 -16949019.659759521 -29609967.759119511 0 -29609967.759119511 49919337.508182019 0 0 0 0 -61495949.352399826 100617355.26401758 0 100617355.26401758 70191135.907117844 0 0 0 0 -65418842.500099182 -79479720.94655478 0 -79479720.94655478 -14935340.642070293 0 0 0 0 -5160807.6783417836 -344890.71608809382 0 -344890.71608809382 8829613.9217645377 0 0 0 0 -49935766.505126953 -17897983.134147644 0 -17897983.134147644 -11623805.275381088 0 0 0 0 -28396088.49429182 -22956120.649997294 0 -22956120.649997294 7512503.3059495054 0 0 0 0 -40164629.233657837 -14872990.210674286 0 -14872990.210674286 -10722836.53994751 0 0 0 0 178369006.38319397 235517875.70372725 0 235517875.70372725 21405477.091474533 0 0 0 0 -15664514.082885742 -38259468.340003967 0 -38259468.340003967 -60838473.716640472 0 0 0 0 -37032777.318695068 -25046631.175006866 0 -25046631.175006866 -36785495.106582642 0 0 0 0 131672613.4498291 117251639.42948484 0 117251639.42948484 92102238.134197235 0 0 0 0 -85321467.931930542 -82656130.66887331 0 -82656130.66887331 228561357.06960297 0 0 0 0 39536651.378734589 -115566636.83515435 0 -115566636.83515435 39428148.767616272 0 0 0 0 -729722.54529726086 84457.950756505132 0 84457.950756505132 564872.81063610176 0 0 0 0 -140087793.97697449 -72941154.863941193 0 -72941154.863941193 495572396.9781189 0 0 0 0 -102298607.17648315 -74022575.025505066 0 -74022575.025505066 52375713.159440279 0 0 0 0 -93737533.101715088 -38133282.193236351 0 -38133282.193236351 7231524.9663467109 0 0 0 0 -91450918.577613831 -70560800.723050117 0 -70560800.723050117 -5222961.8965921402 0 0 0 0 -65050929.597106934 -58898316.739282131 0 -58898316.739282131 -6419095.2139462605 0 0 0 0 -59882837.971618652 -165560089.04079294 0 -165560089.04079294 -5192393.8485450745 0 0 0 0 -162092852.5241642 -113793954.85995013 0 -113793954.85995013 -101692469.01503944 0 0 0 0 -105237037.55957031 -149894562.06155205 0 -149894562.06155205 -100856788.65296745 0 0 0 0 -129345729.56336212 -64311118.801593661 0 -64311118.801593661 -40436653.22675705 0 0 0 0 -68987122.660308838 -70434709.843549728 0 -70434709.843549728 -113294784.35966086 0 0 0 0 -91305567.704437256 -54162192.556400776 0 -54162192.556400776 -1919672.6742944717 0 0 0 0 -89756034.733573914 -7831259.7062721252 0 -7831259.7062721252 22612032.913174629 0 0 0 0 -56590857.524772644 -44307707.645987988 0 -44307707.645987988 -50267623.529582977 0 0 0 0 -28613093.196182072 -18082572.354381308 0 -18082572.354381308 8716998.8512943257 0 0 0 0 -25235685.370742798 -3252745.6275541782 0 -3252745.6275541782 5914725.2705831528 0 0 0 0 10649130.427520752 5219881.1373510361 0 5219881.1373510361 -67645160.925786972 0 0 0 0 -3406441.700920105 -24734649.54983902 0 -24734649.54983902 -57364531.09563446 0 0 0 0 -54411205.880554199 -34932205.709423065 0 -34932205.709423065 -18351741.072032928 0 0 0 0 -31606105.59798716 -16896910.019971523 0 -16896910.019971523 9175425.3343937416 0 0 0 0 -24321323.406738281 -54416858.664180756 0 -54416858.664180756 -35689471.322353363 0 0 0 0 -36468256.004859924 -56665282.552459717 0 -56665282.552459717 19178626.190296173 0 0 0 0 -35688959.303901196 -40170261.158496261 0 -40170261.158496261 14868824.872787476 0 0 0 0 6723139.6850166321 -47684208.543618202 0 -47684208.543618202 3026370.4115982056 0 0 0 0 -6595413.6410064697 -52328480.695240021 0 -52328480.695240021 -13911979.001722336 0 0 0 0 -26414122.787002563 -37656876.965824127 0 -37656876.965824127 2685522.7163238525 0 0 0 0 -18184515.490905762 -13628641.995384216 0 -13628641.995384216 -21974120.515749931 0 0 0 0 19593030.377368927 -54083555.17269516 0 -54083555.17269516 -32948135.05229187 0 0 0 0 -17429001.278320312 -18767608.547996521 0 -18767608.547996521 -39565814.368041992 0 0 0 0 -59158588.661849976 4317981.0187301636 0 4317981.0187301636 -21373380.469444275 0 0 0 0 -27297322.687599182 -1240096.7908878326 0 -1240096.7908878326 -45799648.147621155 0 0 0 0 -24909913.996826172 -23201836.602684021 0 -23201836.602684021 -37620218.021137238 0 0 0 0 -10911696.525543213 -17607333.766117096 0 -17607333.766117096 -38852736.02571106 0 0 0 0 7133222.6261749268 -29758515.306446075 0 -29758515.306446075 -36683618.50402832 0 0 0 0 -24045682.057540894 -68063448.229671478 0 -68063448.229671478 -78813210.944137573 0 0 0 0 -112947832.11018372 -47972846.726295471 0 -47972846.726295471 6085791.2570571899 0 0 0 0 9777146.902671814 -16074196.995153427 0 -16074196.995153427 -1445563.0200881958 0 0 0 0 -14096946.348129272 -78034793.864406586 0 -78034793.864406586 29996317.41327858 0 0 0 0 -11413589.47517395 -28855008.760902405 0 -28855008.760902405 -4512638.7124900818 0 0 0 0 -111681935.68640137 21496063.437156677 0 21496063.437156677 -16308858.540086746 0 0 0 0 -49907439.285827637 -16935507.443763733 0 -16935507.443763733 4472402.1330528259 0 0 0 0 -28643829.753356934 16894786.837873459 0 16894786.837873459 -118541498.76390839 0 0 0 0 -99746470.187988281 -76618421.560741425 0 -76618421.560741425 -41994992.291999817 0 0 0 0 -113801940.56196594 17612071.662368774 0 17612071.662368774 -32881414.525975227 0 0 0 0 6538758.3295261785 -5112044.5523916371 0 -5112044.5523916371 -6391709.4481998682 0 0 0 0 -114224992.88404846 19896230.164417267 0 19896230.164417267 -28075175.564944267 0 0 0 0 25197813.092651367 -35362046.308700562 0 -35362046.308700562 -83776044.027229309 0 0 0 0 34900564.875198364 -23889129.827543259 0 -23889129.827543259 -71115264.71635437 0 0 0 0 45356414.667922974 -30976148.781695366 0 -30976148.781695366 -58695841.910345078 0 0 0 0 -17270376.297224592 -18691051.946112525 0 -18691051.946112525 -10894103.482238267 0 0 0 0 -30595426.789657593 -47303821.936531067 0 -47303821.936531067 32347411.826187134 0 0 0 0 -33510443.274688721 -64379586.408354759 0 -64379586.408354759 48345278.522979736 0 0 0 0 -4093220.9256896973 -102076264.18349838 0 -102076264.18349838 -7328251.8066940308 0 0 0 0 7572549.8011467159 -3037986.5597959384 0 -3037986.5597959384 -5583069.5145422742 0 0 0 0 22163643.003509521 -11825887.211874008 0 -11825887.211874008 26430271.300270081 0 0 0 0 235489.83868408203 -83623513.551483154 0 -83623513.551483154 41486098.922761917 0 0 0 0 -2353667.7106790561 -1657289.6317773163 0 -1657289.6317773163 320931.71402992122 0 0 0 0 33720107.698608398 -4934639.7501583099 0 -4934639.7501583099 110027575.67803001 0 0 0 0 -38761261.903499603 -65443187.029844284 0 -65443187.029844284 163752958.61086655 0 0 0 0 -1509852.2429736406 1145897.8292679656 0 1145897.8292679656 1247099.1027493514 0 0 0 0 -41785618.199829102 -86324919.944484711 0 -86324919.944484711 162665189.0633086 0 0 0 0 -30857909.726243973 -53714586.094015837 0 -53714586.094015837 110794734.23848724 0 0 0 0 73865884.025848389 -60075585.922149658 0 -60075585.922149658 48515374.082078457 0 0 0 0 -15355634.489013672 75499784.876413345 0 75499784.876413345 14165762.677806854 0 0 0 0 -34007440.178588867 -2349382.6061973572 0 -2349382.6061973572 127342122.89668274 0 0 0 0 20409287.678039551 -35261202.793556213 0 -35261202.793556213 -118230327.62297821 0 0 0 0 52879066.164428711 -15229746.558455467 0 -15229746.558455467 -123021156.20508575 0 0 0 0 3956154.9163360596 -97934542.54373455 0 -97934542.54373455 -147942162.34689331 0 0 0 0 -197256168.10864258 -116153902.77967072 0 -116153902.77967072 -142644733.95159149 0 0 0 0 -114757276.5078125 -54309986.528488159 0 -54309986.528488159 -102085843.37692833 0 0 0 0 -29779280.331420898 -136600333.1540947 0 -136600333.1540947 -201646672.4285965 0 0 0 0 34932662.361010551 -33327258.944941998 0 -33327258.944941998 -329732872.58804321 0 0 0 0 -94194555.940856934 -206185408.18795776 0 -206185408.18795776 -350295354.87335205 0 0 0 0 -67741540.581481934 -140435475.16379166 0 -140435475.16379166 -200576744.84973145 0 0 0 0 36011894.909898758 -73996879.930973768 0 -73996879.930973768 -466804395.34562683 0 0 0 0 -5290.6095702052116 -427372.64517680183 0 -427372.64517680183 553216.49611325469 0 0 0 0 -171396419.08093262 -207778082.32284546 0 -207778082.32284546 -235093879.9164896 0 0 0 0 -272607657.22998047 -148586685.57932281 0 -148586685.57932281 -55365180.47882843 0 0 0 0 -662706.32771191001 -878647.7484007068 0 -878647.7484007068 1111455.9024211755 0 0 0 0 -55333391.283508301 633663.64721870422 0 633663.64721870422 -272179112.32975769 0 0 0 0 -56906730.779006958 -16267252.52794838 0 -16267252.52794838 -109625830.75112915 0 0 0 0 -79805195.299560547 -88349513.903717041 0 -88349513.903717041 -84964230.403144836 0 0 0 0 17418161.733642578 -81060499.108394623 0 -81060499.108394623 -209231287.8572464 0 0 0 0 -4223278.6185760498 -62408267.924983978 0 -62408267.924983978 -144746079.56944275 0 0 0 0 -5495865.607635498 -123541340.49236488 0 -123541340.49236488 -143515772.74205017 0 0 0 0 -1748016.7553405762 -9937768.8292412758 0 -9937768.8292412758 16856016.747140646 0 0 0 0 7877268.7658398598 -12438529.040880697 0 -12438529.040880697 -2648238.4621189777 0 0 0 0 6691682.0812683105 -107821383.28185844 0 -107821383.28185844 -169631051.58907318 0 0 0 0 44779258.647705078 -146868860.27486038 0 -146868860.27486038 -165449311.26185989 0 0 0 0 -20586655.916931152 -112672549.18379593 0 -112672549.18379593 -150538576.46453857 0 0 0 0 -3587390.5497894287 -16807263.099517345 0 -16807263.099517345 17275838.228494167 0 0 0 0 -30584797.232128143 25444761.953541994 0 25444761.953541994 -33378600.690128326 0 0 0 0 8305963.3566938639 -20730565.737303227 0 -20730565.737303227 -1910333.411444556 0 0 0 0 -5325984.7827758789 -14916288.87321949 0 -14916288.87321949 19339611.482935905 0 0 0 0 24315393.812942505 -117019432.34134054 0 -117019432.34134054 -13888225.934711456 0 0 0 0 -26444943.655456543 -90194152.561706543 0 -90194152.561706543 120890578.36394501 0 0 0 0 -23507654.733664483 -24013501.555627596 0 -24013501.555627596 -2849642.8050126825 0 0 0 0 -33706633.178337097 -59884918.062319279 0 -59884918.062319279 107703931.31344986 0 0 0 0 -30979900.33303833 -46001535.08795166 0 -46001535.08795166 18909095.044223785 0 0 0 0 -68584283.149719238 -15885060.85824585 0 -15885060.85824585 12214863.200866699 0 0 0 0 -30908988.615350544 -27248219.444048539 0 -27248219.444048539 3459691.417060934 0 0 0 0 -4162988.3011016846 -17413884.046422243 0 -17413884.046422243 20226845.289577961 0 0 0 0 -4895743.496963501 -24834769.314378262 0 -24834769.314378262 34778866.974565506 0 0 0 0 -5466655.3946533203 -16380635.387687683 0 -16380635.387687683 23980791.056330681 0 0 0 0 -10150745.173797607 -9401375.9141139984 0 -9401375.9141139984 26577019.639588237 0 0 0 0 -5794369.911605835 -6342555.0621235967 0 -6342555.0621235967 11907897.924333572 0 0 0 0 -768101.43974304199 -11358035.317839861 0 -11358035.317839861 17574682.938374519 0 0 0 0 -2915325.4451293945 -10610179.966477394 0 -10610179.966477394 17858433.922286987 0 0 0 0 -8722517.5534343868 -5694508.2174077928 0 -5694508.2174077928 7583042.5197447585 0 0 0 0 -10549884.914098263 -3287543.3298204057 0 -3287543.3298204057 12755482.291544914 0 0 0 0 -9785706.0034561157 -4957457.2039541006 0 -4957457.2039541006 13363489.159915924 0 0 0 0 -10421449.30670166 -9182072.8761558533 0 -9182072.8761558533 9607526.6027773917 0 0 0 0 -10593851.544313297 -4961430.4452118538 0 -4961430.4452118538 8897925.7814547643 0 0 0 0 -19162231.930526733 3985034.085185051 0 3985034.085185051 17441053.350052118 0 0 0 0 -793071.73278804123 -668392.63851092756 0 -668392.63851092756 2412810.5663975007 0 0 0 0 1032005.5659838468 -6246904.6736217514 0 -6246904.6736217514 3952248.5340411449 0 0 0 0 -21491516.025634766 -25940558.927124977 0 -25940558.927124977 7139192.5398302078 0 0 0 0 33714303.345413208 -126330460.86859059 0 -126330460.86859059 643346199.91506052 0 0 0 0 -469969977.69552231 603637134.47693431 0 603637134.47693431 1371242558.9000938 0 0 0 0 76166608.891700745 -1230252888.0869007 0 -1230252888.0869007 880919161.64127588 0 0 0 0 895967344.02185059 16995997.769528851 0 16995997.769528851 594835185.6892184 0 0 0 0 1145542.3561245054 -1072981.6981691346 0 -1072981.6981691346 415884.32366303471 0 0 0 0 194853485.09765625 5169788.6816964149 0 5169788.6816964149 -76279074.253220081 0 0 0 0 56303124.527297974 970349036.54980898 0 970349036.54980898 1358756700.3771405 0 0 0 0 -28492705.69708252 -8167011.6215677261 0 -8167011.6215677261 81867103.866066933 0 0 0 0 328666160.744133 -191218639.76556778 0 -191218639.76556778 54248508.017911911 0 0 0 0 49477781.873527527 -41419325.478307247 0 -41419325.478307247 56324930.903260231 0 0 0 0 43719760.742523193 -61801729.170672417 0 -61801729.170672417 27673255.036407471 0 0 0 0 62767840.919960022 -26473227.370894909 0 -26473227.370894909 14322200.88044548 0 0 0 0 -3067212.217376709 12802846.471170425 0 12802846.471170425 2097053.2249479294 0 0 0 0 -2853025.9470825195 -9336999.8950161934 0 -9336999.8950161934 17330378.849243164 0 0 0 0 -24154102.536407471 8367869.1802062988 0 8367869.1802062988 2553412.0461959839 0 0 0 0 -7367397.90846508 -1592883.8209520169 0 -1592883.8209520169 11200888.858587101 0 0 0 0 43141484.357635498 -68761843.314605713 0 -68761843.314605713 -29446249.118759155 0 0 0 0 5139507.98021698 -83387965.886694908 0 -83387965.886694908 18019480.927219391 0 0 0 0 29390252.253952026 -19279011.833546162 0 -19279011.833546162 -189439.54835891724 0 0 0 0 -81745972.915618896 -32640506.634212494 0 -32640506.634212494 168863.69485855103 0 0 0 0 -22622735.587482452 20650106.888228416 0 20650106.888228416 -3391264.221496582 0 0 0 0 -33310830.130096436 -105532578.48864174 0 -105532578.48864174 -87273656.350021362 0 0 0 0 -29862129.841491699 -89914788.208973885 0 -89914788.208973885 -34694232.168560028 0 0 0 0 47224563.826263428 -82743915.598190308 0 -82743915.598190308 -119393510.66677094 0 0 0 0 44535308.61895752 -86694452.288673401 0 -86694452.288673401 -45346584.428955078 0 0 0 0 68067515.591430664 -89310657.732028961 0 -89310657.732028961 -54526111.588088989 0 0 0 0 27108227.2315979 -98855297.45919323 0 -98855297.45919323 5637634.7974662781 0 0 0 0 59709263.029632568 -88470125.913085938 0 -88470125.913085938 -13810268.224119186 0 0 0 0 60640406.251415253 -110198896.74046445 0 -110198896.74046445 27171188.479925156 0 0 0 0 62336121.151306152 -169132627.49482751 0 -169132627.49482751 93704263.491136551 0 0 0 0 87387572.637054443 -133175726.34181118 0 -133175726.34181118 27194399.0703054 0 0 0 0 115975112.28884888 -185451197.97277784 0 -185451197.97277784 93118175.535374641 0 0 0 0 103965918.38238525 -111044010.39369488 0 -111044010.39369488 -2472533.8540577888 0 0 0 0 68547173.10798645 -136523586.48413181 0 -136523586.48413181 73737900.813739777 0 0 0 0 151814579.37207031 -92335920.385836124 0 -92335920.385836124 32782659.815878034 0 0 0 0 93006727.146942139 -148757813.1513164 0 -148757813.1513164 140154263.4797368 0 0 0 0 184228510.32688141 -334179726.41920316 0 -334179726.41920316 335647260.97309685 0 0 0 0 67272363.126243591 -221109525.59745395 0 -221109525.59745395 217395983.81070995 0 0 0 0 41611671.623687744 -112863599.88393581 0 -112863599.88393581 231004961.3782177 0 0 0 0 -7664031.8112182617 -106080667.69748402 0 -106080667.69748402 279572520.47109413 0 0 0 0 60627060.566925049 -14153103.649376035 0 -14153103.649376035 741419725.42255139 0 0 0 0 -27543972.259613037 -126810027.91865444 0 -126810027.91865444 259805403.84236431 0 0 0 0 -28392763.479988098 -100187673.11983585 0 -100187673.11983585 186842216.80946749 0 0 0 0 -9271.0505676269531 -105344488.73812735 0 -105344488.73812735 115446301.74022627 0 0 0 0 10982804.744262695 -157796956.87170315 0 -157796956.87170315 193669209.60082924 0 0 0 0 -270.51573181152344 -120458052.06269884 0 -120458052.06269884 122803520.56652069 0 0 0 0 12186827.637435913 -142126914.73835802 0 -142126914.73835802 135241273.45721817 0 0 0 0 33410457.983757019 -109227116.68847013 0 -109227116.68847013 49881149.055835724 0 0 0 0 42645394.420196533 -123114088.57091522 0 -123114088.57091522 70701304.135668755 0 0 0 0 21071830.341629028 -132488318.42282963 0 -132488318.42282963 115434359.79066038 0 0 0 0 31429.344147053886 -107459792.04941124 0 -107459792.04941124 86726734.255508423 0 0 0 0 -3951106.8855285645 -78202185.739451408 0 -78202185.739451408 135655515.83571148 0 0 0 0 -567622.81658935547 -67234940.492870331 0 -67234940.492870331 -59627565.681959152 0 0 0 0 1252174.7144675702 3056082.4421158284 0 3056082.4421158284 -1185833.3520049741 0 0 0 0 -22905287.898040771 -31735784.817714691 0 -31735784.817714691 25795229.253721237 0 0 0 0 8356660.3871765137 -75145988.393587112 0 -75145988.393587112 64247988.959329605 0 0 0 0 42677131.183776855 -45569867.346412659 0 -45569867.346412659 -20268572.148620605 0 0 0 0 52944122.18737793 -62277357.077106476 0 -62277357.077106476 -6562988.1346178055 0 0 0 0 59723887.306884766 -37832656.26423645 0 -37832656.26423645 -19394641.07882309 0 0 0 0 39477973.897384644 -45155740.975273132 0 -45155740.975273132 -12418413.660575867 0 0 0 0 39956668.275634766 -42536999.148555756 0 -42536999.148555756 -12296423.542554855 0 0 0 0 56897536.97555542 -51880679.190547943 0 -51880679.190547943 -116234186.58457565 0 0 0 0 22834022.296676636 -55590402.834569454 0 -55590402.834569454 -91963392.409896851 0 0 0 0 61241208.054199219 -40002094.963941574 0 -40002094.963941574 -84167507.582565308 0 0 0 0 64552495.284591675 -54812936.177207947 0 -54812936.177207947 -35070517.114601135 0 0 0 0 56382523.019165039 -27335279.941801071 0 -27335279.941801071 -52372932.504423141 0 0 0 0 34324323.359573364 -31932275.58881855 0 -31932275.58881855 1833108.9170684814 0 0 0 0 26260676.532447815 9048532.9195861816 0 9048532.9195861816 -56757752.608070374 0 0 0 0 29628276.739685059 -19590708.156318665 0 -19590708.156318665 -23692558.124168396 0 0 0 0 1830579.4519042969 -92568290.981685638 0 -92568290.981685638 96595208.03483963 0 0 0 0 -2543873.9755046368 1933920.2862147316 0 1933920.2862147316 2118753.9189085709 0 0 0 0 -17796114.138549805 -52467040.985107422 0 -52467040.985107422 121532385.47203112 0 0 0 0 12546880.552398682 -7357261.73163414 0 -7357261.73163414 19598918.610786438 0 0 0 0 5839515.0293579102 6656148.5698757172 0 6656148.5698757172 -7017135.7561645508 0 0 0 0 36037751.411132812 -60088193.243370056 0 -60088193.243370056 65456325.63312912 0 0 0 0 32167739.386657715 -47554793.065299988 0 -47554793.065299988 41338091.506515503 0 0 0 0 38226839.527954102 -53635794.350299835 0 -53635794.350299835 69513596.620361328 0 0 0 0 21188434.613830566 -72666203.672512054 0 -72666203.672512054 83543225.102241516 0 0 0 0 52195234.598754883 -24458355.52387619 0 -24458355.52387619 119857040.14572906 0 0 0 0 31556067.956283569 -18440731.899471283 0 -18440731.899471283 -44170169.534599304 0 0 0 0 706257.72129388154 1661043.2838700674 0 1661043.2838700674 -645442.93708594702 0 0 0 0 -1228582.2216186523 -74546058.849880219 0 -74546058.849880219 143285802.44019508 0 0 0 0 49584605.70413208 -52180249.347015381 0 -52180249.347015381 -58537932.420924187 0 0 0 0 45052097.951370239 -38526461.271413803 0 -38526461.271413803 -19822624.922828674 0 0 0 0 42606978.357299805 -32760332.374259949 0 -32760332.374259949 -18572767.046180725 0 0 0 0 76112555.736877441 -52786174.191436768 0 -52786174.191436768 149213947.04719162 0 0 0 0 38333886.122375488 -74802383.917831421 0 -74802383.917831421 10675972.670642853 0 0 0 0 730894.89349365234 -68357961.001319885 0 -68357961.001319885 151066122.96393919 0 0 0 0 -1436316.260228917 1194578.0430741627 0 1194578.0430741627 1270616.399451525 0 0 0 0 52065370.002342224 -41160371.808472633 0 -41160371.808472633 -153028472.42687225 0 0 0 0 36644629.78314209 -85928706.003002167 0 -85928706.003002167 -70311879.313837051 0 0 0 0 -4777004.616027832 -62527191.665912628 0 -62527191.665912628 86819950.921253204 0 0 0 0 36499955.213592529 -30357973.9600811 0 -30357973.9600811 -67589717.307388306 0 0 0 0 36278224.384719849 -42190683.384041786 0 -42190683.384041786 17986591.391784668 0 0 0 0 38450828.906738281 -48718531.508457184 0 -48718531.508457184 -87063910.962936401 0 0 0 0 37596641.464553833 -65379055.843459129 0 -65379055.843459129 -8865501.7393417358 0 0 0 0 12630953.558700562 -119335612.31476212 0 -119335612.31476212 -108844615.83456421 0 0 0 0 20984568.984764099 -70684012.779173851 0 -70684012.779173851 -28488725.612884521 0 0 0 0 35659303.90512085 -87362185.180042267 0 -87362185.180042267 -64692102.458736658 0 0 0 0 24778668.129562378 -99020608.458925247 0 -99020608.458925247 -17147894.123561859 0 0 0 0 18469573.105102539 -68829293.479640961 0 -68829293.479640961 -17388809.930088043 0 0 0 0 -53446196.909332275 -68942234.027603149 0 -68942234.027603149 -16683468.1824646 0 0 0 0 18034.627563186707 -70412848.641797796 0 -70412848.641797796 -3441174.3102111816 0 0 0 0 -850839.56698608398 -50252992.218610764 0 -50252992.218610764 -20188963.900741577 0 0 0 0 -16847.552886480709 -69860517.208620265 0 -69860517.208620265 -53266951.941051483 0 0 0 0 -17338323.240127563 -76736983.795293808 0 -76736983.795293808 153311082.02047348 0 0 0 0 -15680264.915237427 -73504637.148881912 0 -73504637.148881912 -51401770.00674057 0 0 0 0 2796733.729183197 -59503154.600309372 0 -59503154.600309372 -65935141.14528656 0 0 0 0 -712762476.04658675 -485786220.08197927 0 -485786220.08197927 162614777.25653839 0 0 0 0 -453886194.74274254 -187988155.72449875 0 -187988155.72449875 98527593.257705688 0 0 0 0 -2067043.097994175 983771.81497890875 0 983771.81497890875 3051631.1518240795 0 0 0 0 -550592937.63450384 46506308.17698288 0 46506308.17698288 701662154.21390533 0 0 0 0 132135167.21828747 -495954136.96278763 0 -495954136.96278763 31722869.554885864 0 0 0 0 88255681.949357986 -158005620.2340107 0 -158005620.2340107 -519697959.19966125 0 0 0 0 62946801.260610938 -109271116.77150536 0 -109271116.77150536 -293543085.16223907 0 0 0 0 -98762350.549458981 -448514526.53983498 0 -448514526.53983498 -362061199.58759117 0 0 0 0 -28215663.870067596 -313431689.20178223 0 -313431689.20178223 -272655420.09481716 0 0 0 0 -412876862.21775723 -237397177.30758095 0 -237397177.30758095 69147353.800186157 0 0 0 0 -424955749.465765 -289920974.65061951 0 -289920974.65061951 209678732.4039917 0 0 0 0 -15461671.9075737 -315480726.13228798 0 -315480726.13228798 78678851.67286396 0 0 0 0 -174601256.92877579 -19566731.699562073 0 -19566731.699562073 11468448.976791382 0 0 0 0 -680874.89604189992 51719622.779940426 0 51719622.779940426 28054174.01461792 0 0 0 0 -383481659.56758499 -52964433.380710602 0 -52964433.380710602 -58796039.145375252 0 0 0 0 -140361387.52753067 11049965.382249832 0 11049965.382249832 -47010300.528991699 0 0 0 0 -255558453.89225006 -230647083.85656357 0 -230647083.85656357 54811698.579927444 0 0 0 0 -425117367.22735214 -110595278.00419235 0 -110595278.00419235 -24273370.663188934 0 0 0 0 -411925578.90402842 -208195616.05654907 0 -208195616.05654907 -104515456.43551636 0 0 0 0 -364592802.18559647 -51672693.875461578 0 -51672693.875461578 -69497422.052049637 0 0 0 0 -2341567.1535550263 1341465.3250295008 0 1341465.3250295008 2844290.1294931136 0 0 0 0 -350464648.22615135 72652354.175179124 0 72652354.175179124 -80902376.44719696 0 0 0 0 -367819427.49555206 -80175243.72418189 0 -80175243.72418189 -133024055.45783234 0 0 0 0 -489698595.42485261 171064466.33148336 0 171064466.33148336 -246128730.24913025 0 0 0 0 -539304304.94138265 -97223372.851861477 0 -97223372.851861477 -122378189.93929291 0 0 0 0 -500583406.40656376 -132724059.7961235 0 -132724059.7961235 -45390481.382411957 0 0 0 0 -497007708.74515963 -40126887.972072601 0 -40126887.972072601 -614995985.72053528 0 0 0 0 -456201487.82213497 55483070.265552521 0 55483070.265552521 -66596361.7003479 0 0 0 0 -544511116.98468208 -48398447.17423439 0 -48398447.17423439 -111575944.91053009 0 0 0 0 -299913949.01796818 -199026532.91493797 0 -199026532.91493797 -51904794.391815186 0 0 0 0 2952240.5154892206 -244822028.89042091 0 -244822028.89042091 -66932156.803565979 0 0 0 0 -259969884.40543938 -116830529.09132004 0 -116830529.09132004 117109299.35299301 0 0 0 0 -223047266.34673214 -87800014.332298279 0 -87800014.332298279 -219481405.18169022 0 0 0 0 -275475793.14980251 -205277251.16388607 0 -205277251.16388607 -63416546.212516785 0 0 0 0 -719132859.21148109 -205190929.58219147 0 -205190929.58219147 -243499216.07064819 0 0 0 0 -108589006.59308672 -389455817.31812286 0 -389455817.31812286 -949342011.42017365 0 0 0 0 9208968.3836371005 -114257665.76000977 0 -114257665.76000977 -355313088.5359726 0 0 0 0 139393429.16665691 -42199937.754891038 0 -42199937.754891038 -296687591.33589172 0 0 0 0 139365556.11768997 -38689654.82094574 0 -38689654.82094574 -595625593.99674225 0 0 0 0 84515731.191744328 -218906599.78800583 0 -218906599.78800583 -441024474.41307259 0 0 0 0 169568456.04797173 -151376716.31188202 0 -151376716.31188202 -335661996.6960535 0 0 0 0 138459631.17641401 -53807430.596290588 0 -53807430.596290588 -321041850.86016083 0 0 0 0 88707799.820382118 -86307086.61987114 0 -86307086.61987114 -251853270.24100113 0 0 0 0 130256424.23157787 -105702899.00907898 0 -105702899.00907898 -276585812.29289246 0 0 0 0 142759692.71045315 -74003473.225509644 0 -74003473.225509644 -286556653.68551636 0 0 0 0 121911945.65393233 -172840548.87128639 0 -172840548.87128639 -80985667.118621826 0 0 0 0 114180739.20417166 -261185208.35214043 0 -261185208.35214043 125654202.43502617 0 0 0 0 227261657.45788288 -184042272.85158539 0 -184042272.85158539 -85499391.456870079 0 0 0 0 -58370960.46235919 -142399515.75423336 0 -142399515.75423336 517189484.94152069 0 0 0 0 194396360.92265558 -60794811.918519974 0 -60794811.918519974 5112665.1606836319 0 0 0 0 78690921.660321116 -214578392.89879036 0 -214578392.89879036 -77833406.239517212 0 0 0 0 25282883.408859253 -197148176.81844711 0 -197148176.81844711 -300593997.8097229 0 0 0 0 -21067386.02955246 -118367390.13484573 0 -118367390.13484573 -232749732.09671021 0 0 0 0 -87696747.771396637 -176148381.22602844 0 -176148381.22602844 -36468615.924385071 0 0 0 0 -79606288.031605363 -106629987.78024876 0 -106629987.78024876 -133371683.46714783 0 0 0 0 -26759520.992668152 -221945568.97573471 0 -221945568.97573471 -189845396.0080719 0 0 0 0 -34954162.990358353 -191524220.03849411 0 -191524220.03849411 -121285168.49460411 0 0 0 0 -27355052.938926697 -234322076.84126282 0 -234322076.84126282 -139785463.76091957 0 0 0 0 -1342091.7428722382 -249102984.77944565 0 -249102984.77944565 -220039545.84081268 0 0 0 0 77405395.182079315 -121320981.98244858 0 -121320981.98244858 -97268554.93082428 0 0 0 0 33838722.917366028 -144988626.63240814 0 -144988626.63240814 -2447799.7508926392 0 0 0 0 185369468.48506165 -127140039.11630249 0 -127140039.11630249 79027787.540466309 0 0 0 0 86017809.350082397 -22007335.810676575 0 -22007335.810676575 -24686792.098527908 0 0 0 0 87255575.451255798 -85044364.813102722 0 -85044364.813102722 -153704559.11387634 0 0 0 0 20184979.750907898 -205589375.17221832 0 -205589375.17221832 -135137640.81873608 0 0 0 0 48928752.474195957 -232986586.61521244 0 -232986586.61521244 -109395244.25032043 0 0 0 0 -31756429.957755089 -362065921.08627701 0 -362065921.08627701 -244361799.8321228 0 0 0 0 1038151.5880814996 -6550459.468952924 0 -6550459.468952924 -2129120.2820489407 0 0 0 0 62165602.189804077 -101516029.47327423 0 -101516029.47327423 -424412035.66976929 0 0 0 0 32765832.31628418 -272889538.53539276 0 -272889538.53539276 -383067409.12207794 0 0 0 0 -35707356.741035461 -269970283.53807831 0 -269970283.53807831 -166544432.17261505 0 0 0 0 -474706.44153594971 -212742602.76662445 0 -212742602.76662445 -159434382.05277252 0 0 0 0 15595362.950128555 -208349549.25509071 0 -208349549.25509071 -187100306.96705627 0 0 0 0 -61449216.271469116 3587140.2764434814 0 3587140.2764434814 -68177146.626266479 0 0 0 0 47889707.182666779 -49583503.020698547 0 -49583503.020698547 -184006937.10852051 0 0 0 0 -70096850.083328247 -288931788.9928894 0 -288931788.9928894 -47871278.480848789 0 0 0 0 236909605.8781147 -325358076.22768211 0 -325358076.22768211 146732224.5815506 0 0 0 0 130808270.41597366 -298747005.61109161 0 -298747005.61109161 185502826.38069916 0 0 0 0 18331716.85779345 -16599431.686195374 0 -16599431.686195374 -30344971.701499939 0 0 0 0 -11770374.958991051 -24221675.510231018 0 -24221675.510231018 -14337067.874359131 0 0 0 0 -8597370.9989590645 -140784472.49124527 0 -140784472.49124527 321601570.43252563 0 0 0 0 761353.99489473226 -2411754.0599255092 0 -2411754.0599255092 -2453972.2352220938 0 0 0 0 -336126554.2947998 -81682131.188537598 0 -81682131.188537598 413065319.01733398 0 0 0 0 30060.321204151027 -77539.872878119349 0 -77539.872878119349 42422.169823158532 0 0 0 0 61447503.05242157 145050339.19294357 0 145050339.19294357 248008389.54406738 0 0 0 0 -7356425.7490950823 3620938.1729507446 0 3620938.1729507446 -22945856.068313599 0 0 0 0 758772009.09479523 586376449.00303268 0 586376449.00303268 -227962227.89818573 0 0 0 0 656261372.48220825 659149830.89788818 0 659149830.89788818 12874460.006225586 0 0 0 0 -456281762.06223869 -330582515.80695915 0 -330582515.80695915 90659675.071540833 0 0 0 0 -460121.2053241916 377421.25094625726 0 377421.25094625726 386943.08154451102 0 0 0 0 755722757.6775074 -405364754.55809498 0 -405364754.55809498 213727101.2553978 0 0 0 0 1217645286.9553719 -66758355.51574707 0 -66758355.51574707 -140931679.38827515 0 0 0 0 457013162.7166748 -285857329.6498642 0 -285857329.6498642 137047689.85731506 0 0 0 0 5380022.8796300888 -103633130.50207329 0 -103633130.50207329 -265510628.15032864 0 0 0 0 -160970625.90457058 -530266015.26375484 0 -530266015.26375484 779765192.50426102 0 0 0 0 2123500.6001297226 -1617135.0568937771 0 -1617135.0568937771 -841624.49805873539 0 0 0 0 6627895.3837017361 -3801712.6303250175 0 -3801712.6303250175 -2491164.6393622616 0 0 0 0 -47778761.970638275 -20653705.334403992 0 -20653705.334403992 -9299168.4998703003 0 0 0 0 -108958102.29956627 -177675466.80463791 0 -177675466.80463791 -107878848.20277786 0 0 0 0 -451596.6347028017 -58359767.027980804 0 -58359767.027980804 -106007549.85255432 0 0 0 0 -119476627.07778311 -50871694.539905548 0 -50871694.539905548 -355992.07514667511 0 0 0 0 -180955614.20624948 -223147346.74580765 0 -223147346.74580765 195550527.23058319 0 0 0 0 -97071824.900742054 -282388951.08089066 0 -282388951.08089066 -170337734.39476013 0 0 0 0 -186068294.36393547 -188051298.73433304 0 -188051298.73433304 12755859.090445042 0 0 0 0 -86159633.580198646 -236293085.65369844 0 -236293085.65369844 4022298.178817749 0 0 0 0 -87523624.9235847 -129393861.27306747 0 -129393861.27306747 -6881695.061164856 0 0 0 0 -219449912.68361092 -128334537.69005966 0 -128334537.69005966 -6708148.4341843128 0 0 0 0 -270156561.44536948 -31007035.24782753 0 -31007035.24782753 -17386980.621178627 0 0 0 0 -160138839.31323427 -74600491.350488663 0 -74600491.350488663 -2324413.1993255615 0 0 0 0 -315008934.78997278 -140699698.01677132 0 -140699698.01677132 59190613.778318405 0 0 0 0 -149369676.81900024 -188340979.5697155 0 -188340979.5697155 -612871.80110931396 0 0 0 0 -187014969.17318749 -178438962.93153477 0 -178438962.93153477 43243132.810482025 0 0 0 0 28127257.690980911 -25511552.106412888 0 -25511552.106412888 72596698.686637878 0 0 0 0 870226021.269732 101856385.57634521 0 101856385.57634521 -60498419.187606812 0 0 0 0 -54036.314674265683 -1354211.9875166211 0 -1354211.9875166211 839192.92048667744 0 0 0 0 91368.737101924227 -2523486.7275820221 0 -2523486.7275820221 -1590248.9716290422 0 0 0 0 993986636.58798218 -769976691.07613373 0 -769976691.07613373 148407505.35750771 0 0 0 0 626949514.60112381 -367590306.65045643 0 -367590306.65045643 9613637.5354042053 0 0 0 0 -163740396.58224711 -71527760.013185501 0 -71527760.013185501 -1027359.2398834229 0 0 0 0 476053412.98763847 -279370790.61043549 0 -279370790.61043549 206920160.78361893 0 0 0 0 277375024.62234497 12428048.897491455 0 12428048.897491455 -29483929.165019989 0 0 0 0 217637361.17245674 -7759432.0107917786 0 -7759432.0107917786 -37733003.039047241 0 0 0 0 29908.310873107985 -1792865.5371160842 0 -1792865.5371160842 -403509.4480185397 0 0 0 0 209028855.25475121 -19800117.439504623 0 -19800117.439504623 74350045.846076965 0 0 0 0 28747.234614035202 -1745271.5686392838 0 -1745271.5686392838 -1973990.3043777272 0 0 0 0 964474301.92268562 -387808441.79989338 0 -387808441.79989338 -238976161.74930954 0 0 0 0 484046906.15197468 156961363.03318024 0 156961363.03318024 50974201.449401855 0 0 0 0 1146067070.4923878 -147379411.63607407 0 -147379411.63607407 -115377792.11741257 0 0 0 0 69767491.510293007 -229070845.73126888 0 -229070845.73126888 69147354.871116638 0 0 0 0 27154244.33070755 -109784513.05838203 0 -109784513.05838203 -240810557.22388268 0 0 0 0 -153059506.49755144 -197524726.14399862 0 -197524726.14399862 -4929415.5162658691 0 0 0 0 -400528468.47695708 -170634036.87536812 0 -170634036.87536812 54216077.636594772 0 0 0 0 -373966115.17705226 -113670823.85639 0 -113670823.85639 -30333163.516986847 0 0 0 0 -536204873.21408296 -52912210.009151459 0 -52912210.009151459 66909994.684257507 0 0 0 0 265254.23204405367 -175697.68714305339 0 -175697.68714305339 -1685252.9214903526 0 0 0 0 -992033642.98517454 79884452.009297371 0 79884452.009297371 91113878.950492859 0 0 0 0 -492992440.61039972 -94730174.180707932 0 -94730174.180707932 39196659.832954407 0 0 0 0 -136647440.09458733 -297430494.40385628 0 -297430494.40385628 7170214.4683113098 0 0 0 0 -228525301.83897781 -394776078.07540321 0 -394776078.07540321 303808010.24983978 0 0 0 0 -127620676.56738281 -261800846.90907311 0 -261800846.90907311 10312888.534858704 0 0 0 0 58954741.024738312 -228870198.08147526 0 -228870198.08147526 -6130222.3990135193 0 0 0 0 337595533.47709465 -3849154.0422792435 0 -3849154.0422792435 204698494.51657867 0 0 0 0 468567385.0027132 -555575161.59936142 0 -555575161.59936142 229284595.98757362 0 0 0 0 61564809.775969505 -84754561.525878906 0 -84754561.525878906 -56341583.078594208 0 0 0 0 -76989668.71946764 -250167331.91510868 0 -250167331.91510868 265160445.69815826 0 0 0 0 328512919.99700737 -102124899.62491608 0 -102124899.62491608 -92281679.868602753 0 0 0 0 107308207.97299671 -232293437.87614059 0 -232293437.87614059 -61532067.095340729 0 0 0 0 148740535.78506756 -95803282.343013763 0 -95803282.343013763 -139277766.70314789 0 0 0 0 -8695789.7510771751 -112804705.92960739 0 -112804705.92960739 39920852.262145996 0 0 0 0 -24352841.817681789 -226849472.86390305 0 -226849472.86390305 185626918.91197205 0 0 0 0 -126456819.77500248 -78726043.496164322 0 -78726043.496164322 5060220.3176212311 0 0 0 0 -142804123.01390564 105754573.59012318 0 105754573.59012318 -10729249.874897003 0 0 0 0 -606105450.6583674 -63156847.587452888 0 -63156847.587452888 334434902.91799545 0 0 0 0 -465892598.27929091 188588874.8889184 0 188588874.8889184 184203448.09415817 0 0 0 0 -886375.06881083758 392999.40795411356 0 392999.40795411356 1395856.2828478515 0 0 0 0 -360777403.89087307 -24501063.980852604 0 -24501063.980852604 -445742212.67759705 0 0 0 0 -88388731.278970718 -361052917.77650642 0 -361052917.77650642 -110431748.87953568 0 0 0 0 -127029126.1874795 -329128095.0238266 0 -329128095.0238266 106058616.39793777 0 0 0 0 20206094.656485558 -276801215.6078372 0 -276801215.6078372 216870967.0021534 0 0 0 0 -96744811.077827454 -13227492.029073715 0 -13227492.029073715 219050535.20425463 0 0 0 0 246405.75879140757 -1053479.7848460199 0 -1053479.7848460199 -1149555.5583125092 0 0 0 0 -314466218.90266609 167864892.24234772 0 167864892.24234772 183758412.66034508 0 0 0 0 201188.80793282855 -1935458.7307424834 0 -1935458.7307424834 -1983435.2721338402 0 0 0 0 -42658521.095409393 -119440420.59602356 0 -119440420.59602356 240273763.25580311 0 0 0 0 -576988352.50649977 -99923281.541642189 0 -99923281.541642189 198678236.89045143 0 0 0 0 102024527.10194111 -85130132.828007221 0 -85130132.828007221 -439447655.39775467 0 0 0 0 -114300073.18570614 269555807.87737083 0 269555807.87737083 -245476233.37444878 0 0 0 0 -398644563.98766994 -336492229.86048985 0 -336492229.86048985 26559165.628631592 0 0 0 0 -538158768.83177805 19729939.408936024 0 19729939.408936024 222863321.05442429 0 0 0 0 -88785944.955214977 54149522.039592743 0 54149522.039592743 -516210507.31377983 0 0 0 0 -1223857.1593677346 -1902896.3229265269 0 -1902896.3229265269 1248412.0919978246 0 0 0 0 90341972.939189911 -462651018.09561157 0 -462651018.09561157 122816280.05900478 0 0 0 0 207592254.11116695 18705468.717744827 0 18705468.717744827 -393906823.49226618 0 0 0 0 108725278.80443001 -265623952.91742516 0 -265623952.91742516 15032703.721057892 0 0 0 0 407969.24502682686 -1143351.2866936252 0 -1143351.2866936252 -1303544.4177211672 0 0 0 0 43083650.621290684 258928445.84825325 0 258928445.84825325 -344918827.18771553 0 0 0 0 -119979643.88923645 -184286991.98770523 0 -184286991.98770523 -13076712.702846527 0 0 0 0 222592773.04890251 665422704.78887367 0 665422704.78887367 372883524.03436065 0 0 0 0 -4095756.4030313883 -8007740.458688112 0 -8007740.458688112 4712916.2038889928 0 0 0 0 -11267410.191837311 -11051449.88697052 0 -11051449.88697052 3893079.4734573364 0 0 0 0 767619.00894927979 -9000206.530796051 0 -9000206.530796051 -3213667.1407852173 0 0 0 0 -92477.652621161193 -13857374.72507672 0 -13857374.72507672 -324090.18104632571 0 0 0 0 3820238.221578598 -5884177.5234260559 0 -5884177.5234260559 -994951.98406219482 0 0 0 0 197794247.24010849 157135828.73409843 0 157135828.73409843 -309745131.0670166 0 0 0 0 -334698566.98237419 -164261812.86051178 0 -164261812.86051178 157662845.33468628 0 0 0 0 -3676455.4149412042 -9034891.3954574727 0 -9034891.3954574727 4010650.7643033322 0 0 0 0 -39504943.798532963 -65698641.606831074 0 -65698641.606831074 56873612.119739532 0 0 0 0 -160559416.41007233 29135918.665779114 0 29135918.665779114 2217095.8586044312 0 0 0 0 -5065158.8457805309 -6773373.1472419314 0 -6773373.1472419314 2754175.48220516 0 0 0 0 1889214.0427627563 -13484169.770492554 0 -13484169.770492554 2630293.5313110352 0 0 0 0 1220788.9650331587 -8464639.6434346475 0 -8464639.6434346475 -4609918.4211388901 0 0 0 0 -20418200.096061707 10721206.474685669 0 10721206.474685669 30612615.075538635 0 0 0 0 -7017007.5225275606 -9610200.8589265477 0 -9610200.8589265477 -202177.99095791206 0 0 0 0 5425222.6145172119 -25872454.273052216 0 -25872454.273052216 -38652216.961690903 0 0 0 0 -70526810.050354004 -42121436.098114014 0 -42121436.098114014 15750084.151098251 0 0 0 0 7189111.4483874533 -2332160.6170698311 0 -2332160.6170698311 -4118384.3276348859 0 0 0 0 -161497333.31350517 37076528.567914009 0 37076528.567914009 89505406.083974838 0 0 0 0 -115985767.1114769 83414551.658027649 0 83414551.658027649 94853216.600281239 0 0 0 0 13921126.645208359 -52974647.468666077 0 -52974647.468666077 122316473.94294405 0 0 0 0 -256119910.57995033 68292375.117816925 0 68292375.117816925 75061133.157377243 0 0 0 0 -72548411.41094017 65834297.494362354 0 65834297.494362354 69210587.720703125 0 0 0 0 -20049630.112148285 42831207.385111809 0 42831207.385111809 -35373182.508081436 0 0 0 0 35672241.152778625 87112069.409921646 0 87112069.409921646 -418406445.02871895 0 0 0 0 -264529521.33310413 -214896766.38559055 0 -214896766.38559055 -108907520.66384506 0 0 0 0 -88630789.614349365 -103290314.47890472 0 -103290314.47890472 -38384988.902938843 0 0 0 0 -174717017.7867136 -141341262.49797404 0 -141341262.49797404 30419630.743370056 0 0 0 0 -65894889.098342896 -103394374.26197052 0 -103394374.26197052 3794032.3140945435 0 0 0 0 -83469988.161548615 -85858365.046879768 0 -85858365.046879768 16540162.1039505 0 0 0 0 -44599247.763626099 -116465962.51804161 0 -116465962.51804161 -24353231.873420715 0 0 0 0 27078103.142196655 -78086753.834693909 0 -78086753.834693909 -3832646.7405128479 0 0 0 0 -61362730.586990356 -81762725.416917324 0 -81762725.416917324 79517685.311569214 0 0 0 0 45932165.267303467 -35251030.440166473 0 -35251030.440166473 64186711.188001633 0 0 0 0 135981454.47810364 -121664232.64046764 0 -121664232.64046764 -18232686.215984344 0 0 0 0 27274195.291108847 -63784533.606014162 0 -63784533.606014162 -8641869.0945968628 0 0 0 0 29165547.145683289 -653399.04518318176 0 -653399.04518318176 -150862709.72556496 0 0 0 0 193867543.849823 -6123555.826883316 0 -6123555.826883316 -161617234.70456123 0 0 0 0 89115902.461120605 -99878823.315282822 0 -99878823.315282822 -11501699.098323822 0 0 0 0 -346180.23988478631 -880203.67297779396 0 -880203.67297779396 530219.78994752467 0 0 0 0 135344414.55986023 -112126576.29404068 0 -112126576.29404068 -26976262.611343384 0 0 0 0 -8804345.4000038728 -11069350.009051835 0 -11069350.009051835 -705914.50799126178 0 0 0 0 128777788.97286987 -67922614.182729721 0 -67922614.182729721 -49413304.376995087 0 0 0 0 142199357.75480843 -124099352.48609829 0 -124099352.48609829 2319695.9441833496 0 0 0 0 257180943.63129425 -61098308.260192871 0 -61098308.260192871 7685920.0487861633 0 0 0 0 128874131.21948242 -129095615.35889053 0 -129095615.35889053 485836.51802825928 0 0 0 0 142412901.99670029 -129154648.18961668 0 -129154648.18961668 -20392824.779846191 0 0 0 0 11130879.35043335 -15905351.596317291 0 -15905351.596317291 3478337.9420871735 0 0 0 0 -1642439.1899776459 -9561314.5223417282 0 -9561314.5223417282 6439447.2271003723 0 0 0 0 -3766632.8857627548 -9103396.090313822 0 -9103396.090313822 -3475510.7215855159 0 0 0 0 84883440.906921387 31689676.901916504 0 31689676.901916504 56788938.82837677 0 0 0 0 12699383.898878098 -19767282.516670227 0 -19767282.516670227 3612493.9382400513 0 0 0 0 121360272.69177246 -112326580.34832382 0 -112326580.34832382 -9846043.3235301971 0 0 0 0 123153234.27818298 -43627506.089447021 0 -43627506.089447021 -46312555.324954987 0 0 0 0 159571753.08385086 21013788.710641861 0 21013788.710641861 -71165147.64074707 0 0 0 0 35443858.97052002 -35716035.118812561 0 -35716035.118812561 -37433602.791898727 0 0 0 0 80909247.755126953 32755421.226854324 0 32755421.226854324 -59059741.9608078 0 0 0 0 237846149.8687973 108689188.8478775 0 108689188.8478775 -24837133.404758453 0 0 0 0 -108883644.34597397 116753616.20078468 0 116753616.20078468 141674429.98204803 0 0 0 0 398577824.18278503 316209848.09326553 0 316209848.09326553 71179794.077312469 0 0 0 0 172616060.29684448 -50985887.339202881 0 -50985887.339202881 92171164.286382958 0 0 0 0 602719208.55073547 -218862206.52724457 0 -218862206.52724457 93270970.497528553 0 0 0 0 -56765050.532486439 -219773944.84042358 0 -219773944.84042358 640597674.79549789 0 0 0 0 78558694.643129349 69228551.108086109 0 69228551.108086109 -53187834.066905975 0 0 0 0 -42283008.97168541 -128038269.62101364 0 -128038269.62101364 137897520.3295784 0 0 0 0 -77570064.552047729 -51199405.435243607 0 -51199405.435243607 440971765.3941803 0 0 0 0 9629541.7801132202 61007409.122486115 0 61007409.122486115 246864892.76039124 0 0 0 0 -693665.76961517334 -107127649.40160751 0 -107127649.40160751 243683219.33620644 0 0 0 0 -85900321.72341156 20966590.434024811 0 20966590.434024811 143131821.40474892 0 0 0 0 -811590.33976826817 -1595229.9688514154 0 -1595229.9688514154 986559.11392786819 0 0 0 0 76170556.51115036 -129511697.43374729 0 -129511697.43374729 -119568624.85139847 0 0 0 0 -81414735.489570618 165976484.49426651 0 165976484.49426651 169154299.88319588 0 0 0 0 100066074.30750275 -110266929.81900215 0 -110266929.81900215 77157922.357070923 0 0 0 0 121365.12787477765 1080447.6462783366 0 1080447.6462783366 317279.88442756236 0 0 0 0 -66243610.765762329 -114749288.43164635 0 -114749288.43164635 406998762.76587009 0 0 0 0 -38363524.14465332 25093818.368076324 0 25093818.368076324 -165669.1345500946 0 0 0 0 -50171903.556915283 -4463697.8906230927 0 -4463697.8906230927 21645576.19947052 0 0 0 0 -41824167.75869751 -15213157.802261353 0 -15213157.802261353 -55056177.055128098 0 0 0 0 -186448208.7802124 92086650.508835793 0 92086650.508835793 133099358.94282913 0 0 0 0 -134879697.92588425 -63248864.641597748 0 -63248864.641597748 557726606.41214752 0 0 0 0 78690939.359580994 -706729708.46030617 0 -706729708.46030617 442860019.17339325 0 0 0 0 -22324557.130256653 -633840815.60534477 0 -633840815.60534477 690770085.87557983 0 0 0 0 5748698.518198967 -160422710.79057586 0 -160422710.79057586 189834263.17877579 0 0 0 0 705353670.75259018 -345594866.78590012 0 -345594866.78590012 212606727.91083527 0 0 0 0 353095.47124667652 1029049.8323895298 0 1029049.8323895298 1568315.1243111268 0 0 0 0 197303220.62312698 -925167811.28669262 0 -925167811.28669262 434802678.97840881 0 0 0 0 746286185.96588135 -1052085116.3382893 0 -1052085116.3382893 184699982.97444534 0 0 0 0 -282308778.38508797 658937407.61913204 0 658937407.61913204 426450748.69809341 0 0 0 0 -122122158.63767815 -18907336.601364136 0 -18907336.601364136 1368256.9694633484 0 0 0 0 891136.37331262417 2539348.3986637164 0 2539348.3986637164 2541701.7070626244 0 0 0 0 -68312735.873458862 21395181.493156433 0 21395181.493156433 31486578.289596558 0 0 0 0 -80995067.04876709 -2717225.3343505859 0 -2717225.3343505859 -17395612.060325623 0 0 0 0 180819.10322851315 1721335.2564610355 0 1721335.2564610355 673338.65737523139 0 0 0 0 -63849443.378349304 -13245365.44178009 0 -13245365.44178009 -10940602.993846893 0 0 0 0 145884033.8290863 -103107814.06746292 0 -103107814.06746292 -42106144.561344147 0 0 0 0 -234911291.77281952 -10346982.76240921 0 -10346982.76240921 149030978.10192108 0 0 0 0 24172614.720864296 11350958.346080303 0 11350958.346080303 8215793.7904205322 0 0 0 0 -156105996.59921265 125973590.55358887 0 125973590.55358887 -44490874.424176216 0 0 0 0 3518523.5409690225 -694113.27330961591 0 -694113.27330961591 -2713216.1719204262 0 0 0 0 -133130981.50991821 83356483.548797607 0 83356483.548797607 -80501207.81313324 0 0 0 0 -105426364.86132717 76366034.248171806 0 76366034.248171806 -82710751.739536285 0 0 0 0 -85869204.150129318 60459297.651841164 0 60459297.651841164 -39110501.643608093 0 0 0 0 17452042.219211578 -11294011.522922516 0 -11294011.522922516 -3168640.5865478516 0 0 0 0 3819215.9107345492 -1318091.4483591765 0 -1318091.4483591765 -3016298.0212743618 0 0 0 0 1403632229.8505402 -598346882.86683464 0 -598346882.86683464 -21857679.359230042 0 0 0 0 -2178123.7573254695 -1502886.6241657473 0 -1502886.6241657473 1513120.5943211652 0 0 0 0 -15566070.462281227 -23677757.814434767 0 -23677757.814434767 546379300.61095619 0 0 0 0 33360322.110713959 -23065334.390342712 0 -23065334.390342712 -657841.96458435059 0 0 0 0 -6228708.9044701159 -10056830.372381628 0 -10056830.372381628 -6284307.1692047901 0 0 0 0 228059791.50460815 -423023849.89605331 0 -423023849.89605331 458723281.02293396 0 0 0 0 88401938.734527588 -368585383.8573494 0 -368585383.8573494 542528435.30168533 0 0 0 0 275590764.17439079 -370618602.95637274 0 -370618602.95637274 250560142.93516541 0 0 0 0 170430537.95517731 -24381631.89575386 0 -24381631.89575386 -163727802.58413696 0 0 0 0 51031351.951812744 -203116679.50476456 0 -203116679.50476456 608939233.56972122 0 0 0 0 100961317.70375824 -95380296.63950634 0 -95380296.63950634 271066735.66498566 0 0 0 0 -39951850.867599487 -166903279.11912155 0 -166903279.11912155 965415631.71109056 0 0 0 0 -6333584.0276379436 -9163122.6681639124 0 -9163122.6681639124 -7308012.4489585645 0 0 0 0 47565433.319807053 -126495675.82408142 0 -126495675.82408142 -25777174.023345947 0 0 0 0 179978097.82292175 -650609601.38664365 0 -650609601.38664365 938525753.61862946 0 0 0 0 1548789.4397463743 77275.106788955163 0 77275.106788955163 -1411807.8772711866 0 0 0 0 -330965479.0562315 32225901.693737984 0 32225901.693737984 -131340716.68255424 0 0 0 0 -4350583.5347092357 -7764289.7111375537 0 -7764289.7111375537 -8058070.6277501434 0 0 0 0 -77977865.157497406 -337194145.40746307 0 -337194145.40746307 -201391321.69763184 0 0 0 0 48888765.076330185 94534384.317253113 0 94534384.317253113 156747751.80739021 0 0 0 0 468868696.21043396 -1173793333.0278606 0 -1173793333.0278606 616206643.82453156 0 0 0 0 72635990.128093719 -1429570005.6097698 0 -1429570005.6097698 1660033774.9110565 0 0 0 0 181427772.62168694 83841598.291335106 0 83841598.291335106 286864769.11764526 0 0 0 0 -154972539.83861256 -1258146392.0113611 0 -1258146392.0113611 -969447003.60697937 0 0 0 0 933121850.23968887 -887138654.72175217 0 -887138654.72175217 -3396423856.2367821 0 0 0 0 -1246349456.1472778 -1317999294.4854736 0 -1317999294.4854736 -989402896.33659744 0 0 0 0 -119479881.61920452 35755361.09581995 0 35755361.09581995 -1657677140.3155212 0 0 0 0 -1098485366.3234673 419522044.27149963 0 419522044.27149963 -225532438.41578102 0 0 0 0 234411234.99402142 5086009.4893641472 0 5086009.4893641472 383579864.29692841 0 0 0 0 -21609077.756332397 -257365447.65252495 0 -257365447.65252495 114954362.47537994 0 0 0 0 60090653.077854156 280093355.70478821 0 280093355.70478821 -242745207.78139877 0 0 0 0 -276486969.42516327 156438457.32026672 0 156438457.32026672 305768303.10983753 0 0 0 0 42363289.819282532 243200489.84179878 0 243200489.84179878 -83922106.075616837 0 0 0 0 -164225021.8523407 59612250.22618866 0 59612250.22618866 -75933132.074438095 0 0 0 0 -250638712.93104553 -411288812.21517563 0 -411288812.21517563 -230362294.13974762 0 0 0 0 8058753.2030334473 -438028482.39703751 0 -438028482.39703751 -510746478.30778503 0 0 0 0 676221.82427511085 1338119.6523426082 0 1338119.6523426082 -285680.89669157565 0 0 0 0 -356539723.44376373 -559760178.12435913 0 -559760178.12435913 -161732365.5084343 0 0 0 0 -464326101.35292053 -416336516.00237274 0 -416336516.00237274 -12563825.178524017 0 0 0 0 -549427346.91127014 -480358191.83882141 0 -480358191.83882141 -55747424.392250061 0 0 0 0 -939450832.52914429 -642703860.21360779 0 -642703860.21360779 -53903897.703344166 0 0 0 0 -479752231.05896759 -395686000.05664825 0 -395686000.05664825 -14649890.595787048 0 0 0 0 -659869961.27675247 -357325123.77149773 0 -357325123.77149773 157550980.56951904 0 0 0 0 -505217537.12923431 -248817004.96031189 0 -248817004.96031189 139962685.00396919 0 0 0 0 -2075341.9637448657 -3877379.7199719623 0 -3877379.7199719623 -1615787.6485555246 0 0 0 0 242150760.26332092 -48896212.59552002 0 -48896212.59552002 -59553439.288146973 0 0 0 0 -203127300.6984024 8629285.0767173767 0 8629285.0767173767 75609806.105587006 0 0 0 0 368792770.83280945 -72827021.056221008 0 -72827021.056221008 143946949.0447731 0 0 0 0 -220275295.00762367 277960734.92237949 0 277960734.92237949 -70850315.927490234 0 0 0 0 -5046820.6101590768 -4195841.7234170288 0 -4195841.7234170288 2775028.468850594 0 0 0 0 -1172543472.7434387 144816537.48779678 0 144816537.48779678 398215302.57770157 0 0 0 0 -718679813.95480347 -1167878076.4687653 0 -1167878076.4687653 -1150215647.2869263 0 0 0 0 -340851882.5050621 -635943113.38856697 0 -635943113.38856697 -673492859.0654068 0 0 0 0 -677485451.01055908 -303819273.42572021 0 -303819273.42572021 -1124239.5604248047 0 0 0 0 -1611286827.0420876 -834524261.63427734 0 -834524261.63427734 -125784136.47181702 0 0 0 0 60484321.826210022 -85745062.068832397 0 -85745062.068832397 214588328.098212 0 0 0 0 145757829.68402481 -117829374.88216019 0 -117829374.88216019 25049069.409610748 0 0 0 0 71924729.393516541 -257640519.75359917 0 -257640519.75359917 216048096.51168823 0 0 0 0 105237566.58227158 -253595992.07975578 0 -253595992.07975578 195303913.11046982 0 0 0 0 113518.95335796336 941509.8763143681 0 941509.8763143681 309377.92332860082 0 0 0 0 -93280090.216116905 37824174.1558249 0 37824174.1558249 71795881.602119446 0 0 0 0 145109061.41907501 -188376055.17770195 0 -188376055.17770195 136684505.60443878 0 0 0 0 -100604940.2536087 -45070761.470571518 0 -45070761.470571518 254548243.48982048 0 0 0 0 -77694145.130390167 -29598686.584815979 0 -29598686.584815979 49350120.779827118 0 0 0 0 1143103.2113276245 2664459.353734253 0 2664459.353734253 778200.37719652429 0 0 0 0 -24344505.469741821 -86033436.742462635 0 -86033436.742462635 101316261.00551605 0 0 0 0 219976383.78413677 -161603287.71249008 0 -161603287.71249008 -109032790.88380814 0 0 0 0 -144264731.11103058 -333758373.45137405 0 -333758373.45137405 -172160308.88719177 0 0 0 0 -57491757.701499939 -161286281.09154892 0 -161286281.09154892 78181459.903727531 0 0 0 0 5765829.154706955 -282387108.23025513 0 -282387108.23025513 -262160684.14686584 0 0 0 0 -65619388.837142229 -76523004.779886723 0 -76523004.779886723 78806275.65177536 0 0 0 0 107546457.53722382 -109233193.17292213 0 -109233193.17292213 -2812881.9667854309 0 0 0 0 -135649805.97035217 -92328909.184165955 0 -92328909.184165955 4024789.0012874603 0 0 0 0 37997541.929885864 -46159660.347013474 0 -46159660.347013474 31737523.839870453 0 0 0 0 -357081214.72754669 -102054239.66046715 0 -102054239.66046715 -168396207.24926758 0 0 0 0 -98474984.620445251 -190813006.44124603 0 -190813006.44124603 -385720078.95111084 0 0 0 0 -51439537.832744598 148272548.5447731 0 148272548.5447731 -318019878.03229904 0 0 0 0 1300530.4218577109 235219.01360326819 0 235219.01360326819 -1271202.9947596341 0 0 0 0 -110148862.64541245 -280962290.1216507 0 -280962290.1216507 -170193461.87089157 0 0 0 0 -421725052.38136292 -263816613.15252304 0 -263816613.15252304 -428489704.21741867 0 0 0 0 -133372411.72748566 -120056953.89463425 0 -120056953.89463425 -356998964.06079865 0 0 0 0 -195007006.23047066 -351288023.75285673 0 -351288023.75285673 -384970549.55841827 0 0 0 0 -170291179.78482819 -259618332.59313202 0 -259618332.59313202 -497413181.70952225 0 0 0 0 -222470588.17398071 -282749378.36151886 0 -282749378.36151886 -261914280.09620094 0 0 0 0 -111093352.68079376 -304644478.03365135 0 -304644478.03365135 -412750429.17810059 0 0 0 0 -125431771.1026001 -252485108.15982437 0 -252485108.15982437 -618980576.46736145 0 0 0 0 -224243378.95672607 -345352384.91418457 0 -345352384.91418457 -426535461.15170288 0 0 0 0 -10252213.853104673 4537080.1601578593 0 4537080.1601578593 9981974.1176379062 0 0 0 0 -159092741.43983078 -399164721.16641235 0 -399164721.16641235 -715524601.50297546 0 0 0 0 -343281371.93202209 233243532.90306473 0 233243532.90306473 303282945.4143219 0 0 0 0 -406126565.2822361 -116319835.77189255 0 -116319835.77189255 41646918.733673096 0 0 0 0 -609362216.10682678 403816627.90368843 0 403816627.90368843 -38514038.449157715 0 0 0 0 447732673.13194275 49995133.602390289 0 49995133.602390289 -849380067.03215027 0 0 0 0 41491986.51789856 9899006.6216583252 0 9899006.6216583252 196825700.06629181 0 0 0 0 260313273.92325211 1322187.0367183685 0 1322187.0367183685 260084377.89368439 0 0 0 0 167821859.97636414 195199905.3347435 0 195199905.3347435 -126191612.29089546 0 0 0 0 562400839.7122345 -371445059.9164772 0 -371445059.9164772 70953111.680992126 0 0 0 0 -222164430.66159439 -236247425.92798615 0 -236247425.92798615 -592078450.4682312 0 0 0 0 -299606947.19799042 -333998701.29914474 0 -333998701.29914474 -529265170.91749382 0 0 0 0 -444852010.69438171 -693725505.80312729 0 -693725505.80312729 -936769196.25235558 0 0 0 0 -5159361.5753086209 1953320.3076308519 0 1953320.3076308519 3831455.5991381127 0 0 0 0 26100106.483444214 -8294557.1696624756 0 -8294557.1696624756 262149742.81437302 0 0 0 0 -147282098.37329102 120808578.95780182 0 120808578.95780182 842358050.53456116 0 0 0 0 -1087091.7306930646 625824.67125119269 0 625824.67125119269 698670.4914468471 0 0 0 0 358224475.28439331 -399848418.31175995 0 -399848418.31175995 -1769090162.9272757 0 0 0 0 -282672816.50785828 -1392521640.2086372 0 -1392521640.2086372 -1937206957.6943569 0 0 0 0 -630947829.24838638 -328741149.61165714 0 -328741149.61165714 -253566474.38741302 0 0 0 0 -186724877.59159851 -330339090.47567749 0 -330339090.47567749 103292082.95964432 0 0 0 0 -179604638.21225739 -317810224.48577499 0 -317810224.48577499 -436914740.76358414 0 0 0 0 20739717.815707207 -193751109.96218979 0 -193751109.96218979 -127397513.90704346 0 0 0 0 11771016.292255878 51463725.169188261 0 51463725.169188261 -185119343.71311951 0 0 0 0 -157958146.19485474 -80873037.900878906 0 -80873037.900878906 -123725488.15432739 0 0 0 0 -17726455.188415527 -44634398.374974489 0 -44634398.374974489 -741472.33116316795 0 0 0 0 -9995378.8747257516 -26202571.477398902 0 -26202571.477398902 -21739111.036704764 0 0 0 0 -2426423.1657613581 -56768029.630738281 0 -56768029.630738281 -15341096.28385633 0 0 0 0 -44012043.285144255 -17372399.692404456 0 -17372399.692404456 56551480.648747668 0 0 0 0 -193372279.14019775 -76773172.77848053 0 -76773172.77848053 8742460.7313728333 0 0 0 0 -213446414.64746094 -118783655.79541016 0 -118783655.79541016 32474074.962463379 0 0 0 0 -122866655.11196899 -136300982.91978455 0 -136300982.91978455 -328365385.52043152 0 0 0 0 997482.53327570856 1851570.243807774 0 1851570.243807774 2881199.3068606816 0 0 0 0 -18097802.56823349 -45835796.434171915 0 -45835796.434171915 12017510.643313169 0 0 0 0 -22312087.818338394 -46710498.363944292 0 -46710498.363944292 28066809.237504959 0 0 0 0 -5617880.0338144302 -57776528.248162925 0 -57776528.248162925 -12334779.279625058 0 0 0 0 -7086208.8552207947 -61295781.006283164 0 -61295781.006283164 -4277741.2400212884 0 0 0 0 -9181449.6562538147 -56675112.922968924 0 -56675112.922968924 -10787001.049900115 0 0 0 0 -8969361.1272735596 -102108572.68623352 0 -102108572.68623352 -165238323.70063019 0 0 0 0 -5721390.3879020065 -28625707.332670595 0 -28625707.332670595 7617595.5516996784 0 0 0 0 -8804779.9367523193 -57410198.063341141 0 -57410198.063341141 -10492680.46801877 0 0 0 0 -10410295.70538044 -54029821.086219817 0 -54029821.086219817 -11900343.59349227 0 0 0 0 -187186509.73410797 -215526469.56808853 0 -215526469.56808853 -149103807.3830719 0 0 0 0 -2651405.0982974358 -17967160.771859847 0 -17967160.771859847 -10662764.804814935 0 0 0 0 -7837840.919809334 -8093553.743212414 0 -8093553.743212414 8381457.03652367 0 0 0 0 -536493014.43573761 -275155450.82641983 0 -275155450.82641983 -68766002.453704834 0 0 0 0 -450021819.59238052 -333845347.23599815 0 -333845347.23599815 -121523542.26712799 0 0 0 0 -241607453.29858398 -407055734.56369019 0 -407055734.56369019 -281244236.25312042 0 0 0 0 -280529224.31781006 -387519001.63284302 0 -387519001.63284302 -170443685.08135605 0 0 0 0 -265668916.78426361 -379864727.30596542 0 -379864727.30596542 -208850287.38514709 0 0 0 0 -46621623.315895081 -318273453.44550323 0 -318273453.44550323 -282105270.54636002 0 0 0 0 -54306515.022239685 -490088360.21899033 0 -490088360.21899033 -244768081.36607742 0 0 0 0 -162132183.7816925 -375524406.92868328 0 -375524406.92868328 -310107600.33367157 0 0 0 0 -102507191.99189758 -357703920.81364822 0 -357703920.81364822 -406419262.8780365 0 0 0 0 -135480145.28525925 -385736130.7747364 0 -385736130.7747364 -282209639.82710266 0 0 0 0 -177865349.04568481 -273807855.41888428 0 -273807855.41888428 -401239254.16542649 0 0 0 0 -154635412.48461914 -308974838.79322052 0 -308974838.79322052 -348392856.99813843 0 0 0 0 -15219558.341277607 7977374.5631845053 0 7977374.5631845053 23737040.415862754 0 0 0 0 -201421359.80085754 -315813328.62247086 0 -315813328.62247086 -349284039.02601624 0 0 0 0 -225335340.46435547 -271794855.09828949 0 -271794855.09828949 -244313782.79526138 0 0 0 0 66420365.305984497 -174835693.62146378 0 -174835693.62146378 -235017200.35107422 0 0 0 0 -3380159.5071422011 -7697402.9114681184 0 -7697402.9114681184 -6369159.7806855515 0 0 0 0 -16382827.670200497 -28342651.577415511 0 -28342651.577415511 35621044.838745013 0 0 0 0 -175823775.02587891 -266566503.44100952 0 -266566503.44100952 -117997265.27835083 0 0 0 0 278326090.56890869 68658260.953330994 0 68658260.953330994 -119970826.1735878 0 0 0 0 -93755413.008392334 -51293308.945404053 0 -51293308.945404053 238618855.78612518 0 0 0 0 -237155680.56947327 -179800672.31742096 0 -179800672.31742096 -128306850.38743973 0 0 0 0 -224979852.76252747 -277786175.86353683 0 -277786175.86353683 -228266013.99008179 0 0 0 0 -8252506.9004500285 -26117347.153413773 0 -26117347.153413773 39291633.087910585 0 0 0 0 -63732183.618583679 -193127735.62416649 0 -193127735.62416649 -217331537.53780365 0 0 0 0 -127432775.70265198 -120760547.02972031 0 -120760547.02972031 -103803170.27898693 0 0 0 0 45818807.964254379 -10774335.330265045 0 -10774335.330265045 -55289366.855541229 0 0 0 0 -74757565.309082031 -184336715.31285095 0 -184336715.31285095 -156806377.70825577 0 0 0 0 37219166.216879658 -24977418.307841126 0 -24977418.307841126 -23518999.325583816 0 0 0 0 -214641126.16341019 -206269017.61861801 0 -206269017.61861801 -5521605.0431976318 0 0 0 0 -236961590.5249939 -250942242.77286911 0 -250942242.77286911 -94702775.278049469 0 0 0 0 -239362330.3993988 -124230121.15370178 0 -124230121.15370178 -11732996.768188477 0 0 0 0 6973592.282989502 -89348830.214431763 0 -89348830.214431763 -105435848.19641113 0 0 0 0 20388176.015515596 -4459250.4816421382 0 -4459250.4816421382 -17473239.144402869 0 0 0 0 -319347275.69003487 -100443004.30594063 0 -100443004.30594063 -2038930.8793334961 0 0 0 0 -299609020.85851669 -204477627.43124199 0 -204477627.43124199 31749440.228897095 0 0 0 0 -18857989.20558548 -35178639.064477324 0 -35178639.064477324 32852302.379815102 0 0 0 0 -20631874.526368141 -44820188.087106466 0 -44820188.087106466 21764056.40717411 0 0 0 0 25921757.877380371 -2709445.5421829224 0 -2709445.5421829224 -14639316.738204956 0 0 0 0 22835594.509902075 -29988831.702675577 0 -29988831.702675577 -26835614.437042058 0 0 0 0 21502926.121795937 -21557288.958022859 0 -21557288.958022859 -21443118.659737688 0 0 0 0 2860465.3635947704 -14006640.495781381 0 -14006640.495781381 -18950980.358400203 0 0 0 0 -25764151.336402893 -15649825.454764366 0 -15649825.454764366 -20433449.403373718 0 0 0 0 31225276.194278717 -10207008.651515961 0 -10207008.651515961 -9872524.0879745483 0 0 0 0 31166722.155700684 -12679186.862062454 0 -12679186.862062454 -13066960.254922867 0 0 0 0 26923565.975967091 -12766594.640269259 0 -12766594.640269259 -22073562.456839971 0 0 0 0 26937953.012715966 -2053155.3193647657 0 -2053155.3193647657 -14161328.980162032 0 0 0 0 107772238.39874268 9828844.4445967674 0 9828844.4445967674 -8287470.6615004539 0 0 0 0 1365578.3707847595 -11805760.746776104 0 -11805760.746776104 -25425416.157665253 0 0 0 0 -229867424.45141602 -10238417.721328735 0 -10238417.721328735 49889649.849895477 0 0 0 0 -73662980.948272705 -188052601.58906174 0 -188052601.58906174 -40756539.489380717 0 0 0 0 75369722.237724304 -111805467.04023695 0 -111805467.04023695 -302599022.16607094 0 0 0 0 -161824414.73688889 -65016506.855467319 0 -65016506.855467319 58718240.926662445 0 0 0 0 -7494299.3545417786 -83398075.401342869 0 -83398075.401342869 -46512993.729042053 0 0 0 0 79756495.066184998 25080291.079511881 0 25080291.079511881 -37116843.393646359 0 0 0 0 163224081.65148544 -91148854.718252659 0 -91148854.718252659 -138792746.98039818 0 0 0 0 5468997.9773959657 -27746505.145470005 0 -27746505.145470005 -15235023.254865758 0 0 0 0 -1417053.1252124496 -3280882.3572756578 0 -3280882.3572756578 -4934179.2388733532 0 0 0 0 42023341.581596375 -124057894.3890419 0 -124057894.3890419 7625041.4724845886 0 0 0 0 34382906.094329834 -80083962.587994576 0 -80083962.587994576 58326322.754382133 0 0 0 0 -23372782.977745056 -16658704.982720375 0 -16658704.982720375 -17127306.18127203 0 0 0 0 -5918916.9207543656 -933841.67013875581 0 -933841.67013875581 4430652.0182150956 0 0 0 0 -2398143.1823320687 -2910894.7964038905 0 -2910894.7964038905 513104.36975041311 0 0 0 0 -2336903.859413147 -177873699.89043713 0 -177873699.89043713 -33808844.433506012 0 0 0 0 -92364567.330638885 -282997701.63772941 0 -282997701.63772941 -156411687.66573143 0 0 0 0 13303480.107103348 -92317555.106442213 0 -92317555.106442213 119032096.85586739 0 0 0 0 -22398895.77170372 -192845240.06680918 0 -192845240.06680918 -16731336.08033371 0 0 0 0 1758598.4170532227 -148136637.6960125 0 -148136637.6960125 43175641.3444767 0 0 0 0 84436329.147529602 -102751595.31864262 0 -102751595.31864262 -451289814.45334244 0 0 0 0 -77536953.918808937 -212676316.71320736 0 -212676316.71320736 70919016.871782303 0 0 0 0 -57316147.590536118 -284077898.13715887 0 -284077898.13715887 -30713590.717571259 0 0 0 0 69417862.217288971 -133173777.61011934 0 -133173777.61011934 -84210060.121823788 0 0 0 0 82321339.136744261 -71083321.516389757 0 -71083321.516389757 33742959.212518692 0 0 0 0 190392295.76565552 130759013.17808247 0 130759013.17808247 -122592886.12646484 0 0 0 0 -190587489.52427673 135030849.17780399 0 135030849.17780399 -26100646.547920227 0 0 0 0 22726198.703325272 -51358106.698146343 0 -51358106.698146343 -28151972.947296619 0 0 0 0 -743046.03046035767 -70137871.447685897 0 -70137871.447685897 5419272.8225526512 0 0 0 0 -17581936.060447693 -55845057.383993626 0 -55845057.383993626 44339627.094952583 0 0 0 0 2197554.2988319397 -78430410.666259766 0 -78430410.666259766 28487508.545493215 0 0 0 0 135762485.78162384 71443546.621168137 0 71443546.621168137 54930739.443586886 0 0 0 0 12457241.736940408 -24296952.914191257 0 -24296952.914191257 -11194623.504102714 0 0 0 0 -148797551.68253326 -19831907.979279507 0 -19831907.979279507 110210818.01480681 0 0 0 0 16550646.524353992 -23572985.985782269 0 -23572985.985782269 -8790089.3678441811 0 0 0 0 -58396812.212614059 -40652630.236113787 0 -40652630.236113787 -18628803.444823742 0 0 0 0 4796199.4378395081 -46635501.387721211 0 -46635501.387721211 -30179954.066947613 0 0 0 0 -19837115.911989212 -26003839.080764949 0 -26003839.080764949 -34876877.241211593 0 0 0 0 -23736891.595672607 -36106316.754356384 0 -36106316.754356384 -30289762.918594953 0 0 0 0 1729513.9136876427 -23199922.485035855 0 -23199922.485035855 7689892.6651979387 0 0 0 0 -833942.36923980713 -280267811.49297047 0 -280267811.49297047 -93916986.131355286 0 0 0 0 166823915.73008347 -285917252.88650894 0 -285917252.88650894 45087932.159362793 0 0 0 0 -189889578.19099426 -18774013.71521759 0 -18774013.71521759 125162673.99594116 0 0 0 0 75088215.413208008 -152985707.59090996 0 -152985707.59090996 -142816678.34502411 0 0 0 0 -142576623.73836517 -161664204.03123093 0 -161664204.03123093 413647532.50920105 0 0 0 0 -37728899.953063965 -37229873.71725893 0 -37229873.71725893 -14231357.302164316 0 0 0 0 -174986999.7412262 -17341537.238071442 0 -17341537.238071442 49449290.990844727 0 0 0 0 -4905008.3230708092 -22973449.461243112 0 -22973449.461243112 11805086.621560585 0 0 0 0 -24889277.68241632 -47084788.966670945 0 -47084788.966670945 -20656982.293932915 0 0 0 0 56584380.580821991 5191811.6332092285 0 5191811.6332092285 38898868.346511841 0 0 0 0 -22190523.95790863 37482352.213578224 0 37482352.213578224 80179408.162600517 0 0 0 0 -88636065.124940872 -100050469.99043179 0 -100050469.99043179 96270317.674280167 0 0 0 0 36140181.883323669 -14154291.309384346 0 -14154291.309384346 29621547.665046692 0 0 0 0 72039358.01171875 28525649.203285217 0 28525649.203285217 74012777.971923828 0 0 0 0 -39969591.319777489 -45039180.786221743 0 -45039180.786221743 -17118898.429327011 0 0 0 0 20789229.014142536 -25889552.653385468 0 -25889552.653385468 -8684949.0180316772 0 0 0 0 2068278.7840232849 -34165857.567428589 0 -34165857.567428589 -6984741.0502624512 0 0 0 0 -20451343.16699028 -25793942.943532944 0 -25793942.943532944 -7737378.9087743759 0 0 0 0 -20135531.693077631 -28657408.732487097 0 -28657408.732487097 19864231.094259642 0 0 0 0 692858493.85716057 106744857.97261047 0 106744857.97261047 -285186875.96670532 0 0 0 0 -7603935.1923032068 -18044245.578711756 0 -18044245.578711756 6953421.949468514 0 0 0 0 26248770.868173331 -16593487.047048623 0 -16593487.047048623 -10908391.924714176 0 0 0 0 23948956.143965721 -12057589.410295486 0 -12057589.410295486 -13007496.902435899 0 0 0 0 56024762.844646811 -21617595.573692322 0 -21617595.573692322 -73268305.943908691 0 0 0 0 -15073639.587186813 -21444158.091360092 0 -21444158.091360092 9425130.7543525696 0 0 0 0 24674002.452718318 -10014890.411017952 0 -10014890.411017952 -12736805.038831301 0 0 0 0 603923.31632473436 -532392.71991367987 0 -532392.71991367987 -556778.044169534 0 0 0 0 46163720.903335571 107658607.03488159 0 107658607.03488159 -5566217.548538208 0 0 0 0 7293731.4230942726 -4482493.6279296875 0 -4482493.6279296875 -36837229.342689514 0 0 0 0 13013938.706459999 35021729.735641479 0 35021729.735641479 -73989139.090545654 0 0 0 0 1260957.2556985491 34837.422806743532 0 34837.422806743532 -1377260.8206679597 0 0 0 0 798216.42684175796 -2457538.9291505921 0 -2457538.9291505921 863521.58649692312 0 0 0 0 -446707638.80756569 -635437229.84844398 0 -635437229.84844398 -255724205.98208618 0 0 0 0 -280858217.07172012 208796101.76722717 0 208796101.76722717 -168592923.98141479 0 0 0 0 20162054.033568382 217151614.84303284 0 217151614.84303284 -739955429.4932518 0 0 0 0 2052734.7973656654 138630458.86516571 0 138630458.86516571 -164142106.42651367 0 0 0 0 -471313463.03329659 -377597143.10779572 0 -377597143.10779572 -332869149.33836746 0 0 0 0 -548728349.76546669 -496447503.94429016 0 -496447503.94429016 -81282208.850805283 0 0 0 0 -445622368.50915337 -434366441.12317848 0 -434366441.12317848 -278492072.8054657 0 0 0 0 -388049800.35689163 -531762099.69289398 0 -531762099.69289398 -614715627.35834205 0 0 0 0 -1298838944.7509193 -51751377.551353455 0 -51751377.551353455 39048483.127960205 0 0 0 0 -486463909.89528799 -337919866.77286339 0 -337919866.77286339 27841868.652793884 0 0 0 0 -1308198.9751924691 836233.15806239843 0 836233.15806239843 1285111.3788193949 0 0 0 0 -2537046638.5600281 -767579861.36837769 0 -767579861.36837769 33727209.986398458 0 0 0 0 -797816430.00114059 643202543.95315742 0 643202543.95315742 -214417461.7015152 0 0 0 0 159097567.146492 122973332.1651535 0 122973332.1651535 -329519814.96059799 0 0 0 0 1230445716.3783722 354673020.55179214 0 354673020.55179214 826913337.2229805 0 0 0 0 564205809.62319469 -1033953767.8592186 0 -1033953767.8592186 -289989471.76553345 0 0 0 0 -1938585356.2132301 711085564.6247673 0 711085564.6247673 91856125.012420654 0 0 0 0 1133205928.1154613 -1404284203.8174801 0 -1404284203.8174801 -711106450.64004517 0 0 0 0 -730068.6764657218 -3300065.1717319489 0 -3300065.1717319489 -4833344.0626701638 0 0 0 0 1551402360.0903702 -1014325108.7135582 0 -1014325108.7135582 -1308225972.0202332 0 0 0 0 1050858543.8632469 166858557.04049683 0 166858557.04049683 -1792694620.0168056 0 0 0 0 376321509.48878479 -550529780.99832916 0 -550529780.99832916 -827280218.06513596 0 0 0 0 905528139.29512787 -979748761.59336472 0 -979748761.59336472 -1387041836.2913971 0 0 0 0 -16332082.263488961 -12904577.701540124 0 -12904577.701540124 10585061.44433414 0 0 0 0 -3497724595.9672394 -1031016032.2610474 0 -1031016032.2610474 -100670346.01374912 0 0 0 0 -1943354062.4694901 -3764949970.2521515 0 -3764949970.2521515 -2330171361.1656151 0 0 0 0 -3467325544.9667664 -631460929.48128128 0 -631460929.48128128 547552737.60870361 0 0 0 0 -769628299.0747757 -664296943.58594513 0 -664296943.58594513 -73065503.434223175 0 0 0 0 -517471547.36896515 -819043583.25577831 0 -819043583.25577831 -528897453.97040558 0 0 0 0 12487335.629739761 -35704576.60017395 0 -35704576.60017395 -60996749.715183258 0 0 0 0 21315810.132985979 -14912055.255976636 0 -14912055.255976636 3497718.1583653651 0 0 0 0 -390332610.88449097 -290751202.28229141 0 -290751202.28229141 -421152930.07564545 0 0 0 0 -627533066.54154968 -166861736.13002777 0 -166861736.13002777 457649182.95139694 0 0 0 0 728197965.30717468 155403052.46900749 0 155403052.46900749 41320918.362419128 0 0 0 0 -603100451.03485107 77643366.970636368 0 77643366.970636368 809119492.20515251 0 0 0 0 -459099.01916401833 -5076385.9435967058 0 -5076385.9435967058 1448708.5524004367 0 0 0 0 -11581388.379560471 -38831962.950397491 0 -38831962.950397491 42565409.990383148 0 0 0 0 19007226.842700966 -9783746.8645423651 0 -9783746.8645423651 662424.00049870834 0 0 0 0 447764799.91739655 -1166881800.2457244 0 -1166881800.2457244 -1146553201.1035194 0 0 0 0 -74815282.268894196 -125949216.50350952 0 -125949216.50350952 -71255983.059562683 0 0 0 0 54400547.011615753 -138955261.46677399 0 -138955261.46677399 -255577578.95668411 0 0 0 0 110975720.77443409 -41491798.639793396 0 -41491798.639793396 -254728918.37303162 0 0 0 0 55630666.05399704 -59670030.723609924 0 -59670030.723609924 -176069620.47002411 0 0 0 0 95982891.836920261 -81959002.167694092 0 -81959002.167694092 -180575999.27406311 0 0 0 0 26122681.533194482 166593664.70985031 0 166593664.70985031 -261550113.48106384 0 0 0 0 118306897.2927289 -31140470.12638092 0 -31140470.12638092 -302181180.3165741 0 0 0 0 55103713.426958084 -19736555.076286316 0 -19736555.076286316 -161967182.2020607 0 0 0 0 55571844.876841068 46236649.264533997 0 46236649.264533997 -213723622.72402954 0 0 0 0 30953399.130960822 29897566.691673279 0 29897566.691673279 -132960535.94052124 0 0 0 0 47514216.642092228 4927829.2027130127 0 4927829.2027130127 -137198924.9111557 0 0 0 0 27943545.910023838 66624373.510223389 0 66624373.510223389 -223272551.51179504 0 0 0 0 11899458.659616947 -19344573.35382843 0 -19344573.35382843 2563345.3230056763 0 0 0 0 32942103.210960273 -13092585.839923188 0 -13092585.839923188 -7337722.1300202394 0 0 0 0 27877345.31290102 -16857070.31785965 0 -16857070.31785965 -79986040.976074219 0 0 0 0 40505401.547339201 10985482.86186409 0 10985482.86186409 -64888981.384246826 0 0 0 0 2517058.3106975555 -69983820.113319397 0 -69983820.113319397 -73016652.325149536 0 0 0 0 34188862.750137329 -45393187.803703308 0 -45393187.803703308 -82746603.332807541 0 0 0 0 54103148.969854355 -25836484.325942993 0 -25836484.325942993 -88120155.423736572 0 0 0 0 -282614213.15365601 -318023021.66017532 0 -318023021.66017532 -247892568.87136841 0 0 0 0 31472907.246815085 -5724201.4903690815 0 -5724201.4903690815 -3639277.7304382324 0 0 0 0 24081438.686831642 -17727981.127739631 0 -17727981.127739631 2746901.2252503857 0 0 0 0 -412009834.11161423 -144432484.89738369 0 -144432484.89738369 43147243.981208801 0 0 0 0 -234845366.96372986 -93056120.813568115 0 -93056120.813568115 9295614.7812080383 0 0 0 0 -107884243.02994537 -145099950.97298622 0 -145099950.97298622 -30479585.693828583 0 0 0 0 -167984951.72260284 -160773351.25401306 0 -160773351.25401306 -32689015.758003235 0 0 0 0 5699179.27018914 2519567.5940105049 0 2519567.5940105049 -4415871.077877121 0 0 0 0 -252359253.21446991 -85545042.346494675 0 -85545042.346494675 73190344.338035583 0 0 0 0 -208379.47264862061 -28086960.057559967 0 -28086960.057559967 -10930825.267076492 0 0 0 0 82546968.471099854 -16046392.77689743 0 -16046392.77689743 -15622013.022556722 0 0 0 0 16509381.222501155 -7679272.956324907 0 -7679272.956324907 -4334338.8290088549 0 0 0 0 90305933.755569458 -82610455.056202412 0 -82610455.056202412 80181127.877780914 0 0 0 0 9427055.4766921997 -51127735.269583702 0 -51127735.269583702 -22385701.88343811 0 0 0 0 -145835521.14771271 -21090915.813504219 0 -21090915.813504219 18081655.606613159 0 0 0 0 -145050299.93300629 17207109.546683311 0 17207109.546683311 49170596.976247787 0 0 0 0 -195682197.09723663 -64405602.646518707 0 -64405602.646518707 66997396.059846401 0 0 0 0 -249662217.43854523 5773202.6347093582 0 5773202.6347093582 132861678.62671661 0 0 0 0 -115521449.95457458 112541877.45045185 0 112541877.45045185 117553764.30975342 0 0 0 0 -141231135.49428558 70452393.189758301 0 70452393.189758301 72593649.317991257 0 0 0 0 -208648632.9828186 64987735.579695702 0 64987735.579695702 205086937.299366 0 0 0 0 -338164585.37969589 -48662374.342283249 0 -48662374.342283249 149035628.91838074 0 0 0 0 -114801519.85688019 118711804.39104652 0 118711804.39104652 182370907.87129402 0 0 0 0 -110777432.9250946 75670711.164122581 0 75670711.164122581 381746195.20127869 0 0 0 0 -53157589.368263245 12869168.753770828 0 12869168.753770828 20420998.321847916 0 0 0 0 248981571.82118988 160940871.96992588 0 160940871.96992588 75755451.357271194 0 0 0 0 117005447.96784735 72616679.84103024 0 72616679.84103024 -82484946.111057281 0 0 0 0 -241670879.30949783 64441743.742910862 0 64441743.742910862 8444791.2129764557 0 0 0 0 -37185970.954534531 -62571019.450696945 0 -62571019.450696945 -237247287.63952637 0 0 0 0 -211804601.90560913 -216363106.08227158 0 -216363106.08227158 -363383666.79636002 0 0 0 0 -25430319.854156494 -26591458.073310852 0 -26591458.073310852 -145445729.61176014 0 0 0 0 124992596.24335289 -9024477.6404633522 0 -9024477.6404633522 -260231990.42049217 0 0 0 0 252840661.39255524 -97331891.922669888 0 -97331891.922669888 -97420485.896924973 0 0 0 0 -108996381.58627939 -294185687.00876606 0 -294185687.00876606 -204247047.86116123 0 0 0 0 6301545.2349030785 -4755520.7754421663 0 -4755520.7754421663 -2458467.8402331518 0 0 0 0 -148832878.84557343 27488846.79191494 0 27488846.79191494 21473022.931968689 0 0 0 0 1571645.4341836609 -1600261.1791306082 0 -1600261.1791306082 -901276.51275448408 0 0 0 0 -374060741.93596649 -57168314.2075243 0 -57168314.2075243 -85881596.475717545 0 0 0 0 104864794.13552856 271315518.13881826 0 271315518.13881826 -280427392.98465729 0 0 0 0 -342865.52603811026 -588010.01470473222 0 -588010.01470473222 -559155.33827073034 0 0 0 0 116350828.09819031 277852611.04592609 0 277852611.04592609 -365056261.15119958 0 0 0 0 166558745.71498871 -134568511.73992157 0 -134568511.73992157 -100777257.81170654 0 0 0 0 168202387.93704224 -86672494.0153265 0 -86672494.0153265 34330894.47317791 0 0 0 0 -1079478.303722471 -1548168.4354938492 0 -1548168.4354938492 -930374.04918421153 0 0 0 0 -312720162.74324036 388977307.56027317 0 388977307.56027317 -150954793.75312424 0 0 0 0 207697675.44837189 -494823270.90446663 0 -494823270.90446663 -397850797.45728815 0 0 0 0 -1991409.3004489988 -2205546.579584159 0 -2205546.579584159 -197450.24802158307 0 0 0 0 58985259.166023254 -374801744.37069511 0 -374801744.37069511 164083034.24374199 0 0 0 0 145890368.48519135 -310867557.98208714 0 -310867557.98208714 -87735978.335748672 0 0 0 0 38581537.826911926 -131008689.23453474 0 -131008689.23453474 29930025.91327095 0 0 0 0 96325404.721908569 -204793789.76202488 0 -204793789.76202488 107211729.91516113 0 0 0 0 96765324.916175842 -203099050.22213268 0 -203099050.22213268 107715678.91576576 0 0 0 0 46819930.218757629 65124056.190711975 0 65124056.190711975 -219334793.12943983 0 0 0 0 105293959.85159302 72126488.492853165 0 72126488.492853165 -583391706.19089508 0 0 0 0 40973285.8489151 45369226.726081848 0 45369226.726081848 -285819264.5281868 0 0 0 0 -128408924.20139313 20943491.434981346 0 20943491.434981346 246298254.5253582 0 0 0 0 -136628531.49567413 210190365.64799881 0 210190365.64799881 -113306913.01624489 0 0 0 0 26974935.40096283 -151549354.57972717 0 -151549354.57972717 187410925.92003512 0 0 0 0 -35178073.38508606 85733116.71531105 0 85733116.71531105 -60231872.104976654 0 0 0 0 14604871.425460815 9935720.8038711548 0 9935720.8038711548 28573082.881750107 0 0 0 0 -39224365.557060242 28410747.538129807 0 28410747.538129807 79224380.209283829 0 0 0 0 -5896688.2365112305 -10223963.398266315 0 -10223963.398266315 56008467.544479847 0 0 0 0 -5733756.723079592 12908290.545767579 0 12908290.545767579 33854711.341920853 0 0 0 0 -3132710.48853302 9833578.9068584442 0 9833578.9068584442 37232186.673150063 0 0 0 0 -27103316.803823471 -300806148.53481722 0 -300806148.53481722 -32383843.116703033 0 0 0 0 112398453.28977966 -45898139.342422962 0 -45898139.342422962 4521559.1785847247 0 0 0 0 -99315360.955533981 -31419212.695768893 0 -31419212.695768893 7137781.3495121002 0 0 0 0 -2726306.9246277623 -3227430.5084648076 0 -3227430.5084648076 202870.64591574855 0 0 0 0 1807620.4394700825 -2676643.289871702 0 -2676643.289871702 -1067234.6656910689 0 0 0 0 -334219.40402749181 -3441879.3628447885 0 -3441879.3628447885 -2112302.8999304934 0 0 0 0 39040812.208582878 -53207063.373476148 0 -53207063.373476148 179665874.6515255 0 0 0 0 -24971779.749816895 -106095203.71158123 0 -106095203.71158123 419292541.40059757 0 0 0 0 297880992.42453003 122696203.68874264 0 122696203.68874264 46207167.083601952 0 0 0 0 347302564.24714661 495840549.00362301 0 495840549.00362301 296539490.40646362 0 0 0 0 -4223071.479598999 -315492763.9073658 0 -315492763.9073658 332377241.85568237 0 0 0 0 592620807.27806091 7644855.0557668209 0 7644855.0557668209 -140151980.52176666 0 0 0 0 480778132.03553772 -415054016.93615437 0 -415054016.93615437 -160477453.56264544 0 0 0 0 309930653.0408783 -155238462.66342831 0 -155238462.66342831 -97286155.930083275 0 0 0 0 284748365.52955627 -145810727.74930215 0 -145810727.74930215 -98859039.83057943 0 0 0 0 255553184.0014801 -90066170.553106785 0 -90066170.553106785 -126935090.72249985 0 0 0 0 335486404.26217651 -1273262.6909627914 0 -1273262.6909627914 -42112816.719222069 0 0 0 0 -6292196.6004333496 34784186.67415905 0 34784186.67415905 29279824.554165363 0 0 0 0 -65268529.006286621 24536447.979718685 0 24536447.979718685 66343606.825078011 0 0 0 0 -4588914.3709148802 -8778845.0269330908 0 -8778845.0269330908 -5771917.8150560241 0 0 0 0 69995731.509109497 -59113421.872355223 0 -59113421.872355223 -39680192.964839935 0 0 0 0 85263098.327301025 -51969808.0652318 0 -51969808.0652318 -50991311.964048862 0 0 0 0 18229334.947975159 -10189910.478946477 0 -10189910.478946477 -20833450.606464148 0 0 0 0 -7825963.679968481 -6072611.8481200896 0 -6072611.8481200896 6270005.5111178141 0 0 0 0 5443930.5324668884 -10218355.615922928 0 -10218355.615922928 -1147686.567276001 0 0 0 0 -11867048.520614624 -52581447.701250076 0 -52581447.701250076 24692952.483535767 0 0 0 0 -3765455.943211779 -10134462.826792985 0 -10134462.826792985 -11046429.704407709 0 0 0 0 315999541.61203003 -282105436.03491467 0 -282105436.03491467 7506954.5296375751 0 0 0 0 -2475592.5290756226 -149094364.06928414 0 -149094364.06928414 8340165.701343447 0 0 0 0 280755143.30090332 -142666488.04218352 0 -142666488.04218352 -48073609.096754074 0 0 0 0 -81081432.27142334 -186643019.01654243 0 -186643019.01654243 -111736486.37101364 0 0 0 0 -2300411.1781075001 -5834965.8917198088 0 -5834965.8917198088 -7136814.2039385587 0 0 0 0 126015229.37287903 189123686.1720407 0 189123686.1720407 244739703.66470742 0 0 0 0 29446626.787666321 34283985.608958244 0 34283985.608958244 43218920.119436264 0 0 0 0 -38345.409229207784 131603.10148951691 0 131603.10148951691 -9221133.6365212221 0 0 0 0 4536241.8400059212 18682.871605755296 0 18682.871605755296 -3589185.2772298092 0 0 0 0 61495381.506950378 46195129.55859375 0 46195129.55859375 11365682.584186554 0 0 0 0 168209184.3896265 -130071668.65281296 0 -130071668.65281296 98383304.028564453 0 0 0 0 -196453516.92654419 -474160327.89954162 0 -474160327.89954162 -391416612.15661585 0 0 0 0 -749148737.95695496 -1001140476.6251674 0 -1001140476.6251674 -716846929.95866919 0 0 0 0 -1467804.6942920759 -1485700.346411733 0 -1485700.346411733 331467.67538445909 0 0 0 0 -28965456.501592636 -142393762.74984011 0 -142393762.74984011 -798771540.88974249 0 0 0 0 -5482755.4862394333 123735514.1944034 0 123735514.1944034 -129562090.51395977 0 0 0 0 2067510.5484097451 -2687505.4357317667 0 -2687505.4357317667 -1212019.773905958 0 0 0 0 131136096.93927002 -40516464.839540958 0 -40516464.839540958 -52553165.630106926 0 0 0 0 900709.33492027596 -896520.1839192342 0 -896520.1839192342 -604906.1465771778 0 0 0 0 581741550.27706146 33654173.598238289 0 33654173.598238289 -51355068.442493886 0 0 0 0 -118122752.63725853 -200131113.60037595 0 -200131113.60037595 227957821.59685516 0 0 0 0 260439425.39421082 -202995850.38868296 0 -202995850.38868296 -62962540.838400364 0 0 0 0 -431072288.70653534 -502481187.26024103 0 -502481187.26024103 147279330.62966204 0 0 0 0 -336610609.52711487 -595944041.34628367 0 -595944041.34628367 172063007.75622568 0 0 0 0 -273893432.37930679 -606703095.09445846 0 -606703095.09445846 -53076924.575466394 0 0 0 0 -534758251.7207489 -779761547.94093144 0 -779761547.94093144 -74915071.672278047 0 0 0 0 -317299938.75863647 -561729908.88000262 0 -561729908.88000262 47524395.041181803 0 0 0 0 -853800613.14655304 -464766915.72486806 0 -464766915.72486806 -74256397.711271644 0 0 0 0 -357366801.29084015 -742914626.09278929 0 -742914626.09278929 -552920694.4778285 0 0 0 0 -1102588099.2128601 -1117052555.3119316 0 -1117052555.3119316 398563791.32200956 0 0 0 0 -345811493.4099865 -916471149.83035064 0 -916471149.83035064 -10212782.030985355 0 0 0 0 -2283684.6098086275 -4316738.2171719931 0 -4316738.2171719931 2128017.4571028948 0 0 0 0 -47664964.681774139 -33805506.594046354 0 -33805506.594046354 -130679.20140647888 0 0 0 0 93972024.043987274 941864618.3840822 0 941864618.3840822 -1351057716.035331 0 0 0 0 -281274531.97246933 -993298399.6378746 0 -993298399.6378746 -661676851.82780981 0 0 0 0 357837439.13163757 -441631393.79248619 0 -441631393.79248619 -1936750782.3312244 0 0 0 0 297734916.72711945 -486871809.01692939 0 -486871809.01692939 -926501858.62491226 0 0 0 0 -39155797.1302948 7020452.3453655243 0 7020452.3453655243 -1155538147.8653641 0 0 0 0 -1367262843.9482498 -490723380.60228038 0 -490723380.60228038 249576048.05707002 0 0 0 0 -593237.13209416717 -1864264.4567411505 0 -1864264.4567411505 -2766934.7846141057 0 0 0 0 -1035904606.5870056 122381568.5082258 0 122381568.5082258 -141704415.53088665 0 0 0 0 2398069.2114044316 -113025.50841921195 0 -113025.50841921195 -2124040.8620174499 0 0 0 0 -84444569.149009705 -182609810.64232492 0 -182609810.64232492 -734632630.83424759 0 0 0 0 -96489021.868591309 343085454.20620918 0 343085454.20620918 84440086.475608826 0 0 0 0 615953.48565101624 127939352.04649532 0 127939352.04649532 -80685383.565235138 0 0 0 0 -773463360.18403244 -810980231.30470705 0 -810980231.30470705 -715650409.56350803 0 0 0 0 496177.59002001723 1812345.1251710411 0 1812345.1251710411 -4063168.2050336115 0 0 0 0 686343096.30268145 -231461282.09527349 0 -231461282.09527349 -1348332444.5895844 0 0 0 0 -320947656.88119507 -380926480.18440151 0 -380926480.18440151 -318437697.99117064 0 0 0 0 -219477344.58689117 -672032743.95556498 0 -672032743.95556498 -815562907.38818455 0 0 0 0 10331146.91960144 -525378485.39221382 0 -525378485.39221382 -752444264.78947449 0 0 0 0 73822412.129684448 -602482882.43250573 0 -602482882.43250573 -1004351879.989177 0 0 0 0 71907552.840377808 -649754797.69471693 0 -649754797.69471693 -1005604528.6762114 0 0 0 0 11988586.50642395 117078329.89088321 0 117078329.89088321 -648534270.28567004 0 0 0 0 50792592.342094421 -467571766.51823658 0 -467571766.51823658 -604592040.9960494 0 0 0 0 97374757.698357582 -543767091.25394988 0 -543767091.25394988 -1755731503.7283916 0 0 0 0 -189656710.43019104 619796822.96333027 0 619796822.96333027 -1286448133.3893571 0 0 0 0 -135301671.29166794 324701666.71106565 0 324701666.71106565 143238580.95590925 0 0 0 0 -152664479.08827209 24662184.47099185 0 24662184.47099185 -58963706.527336597 0 0 0 0 -237513499.97367096 -47941268.921405554 0 -47941268.921405554 195749058.01657438 0 0 0 0 -135232849.57543182 183340770.93074274 0 183340770.93074274 274935513.4822731 0 0 0 0 788052517.31499672 -322049965.62985969 0 -322049965.62985969 -1179267554.8610487 0 0 0 0 669426545.27459717 -612904093.32843351 0 -612904093.32843351 -1678682398.137434 0 0 0 0 -780570654.59251404 -794003921.79080462 0 -794003921.79080462 -470571398.04534125 0 0 0 0 -1127570616.0267334 333690785.28279483 0 333690785.28279483 122433922.15860701 0 0 0 0 -257395782.37319183 -78774658.132952094 0 -78774658.132952094 166714155.55969667 0 0 0 0 -390648121.59001541 -203919519.34216714 0 -203919519.34216714 1059340843.574707 0 0 0 0 -579420359.39116669 153622089.23880577 0 153622089.23880577 1505742171.6723595 0 0 0 0 223578690.11180115 -30858328.153437614 0 -30858328.153437614 65782317.330965996 0 0 0 0 178757634.96211243 -33143940.726435423 0 -33143940.726435423 721661217.36678886 0 0 0 0 -5121754.3482451998 -7123365.3295872137 0 -7123365.3295872137 -157526.01215586183 0 0 0 0 -88615076.015148163 -259057445.51549435 0 -259057445.51549435 687733306.34800375 0 0 0 0 -374646261.46785545 183810531.09552789 0 183810531.09552789 47108706.945547104 0 0 0 0 12212229.727535248 7108242.3243455887 0 7108242.3243455887 23486849.225801468 0 0 0 0 -2425242.2500466071 995363.19914139248 0 995363.19914139248 4104621.7885091808 0 0 0 0 -333753167.04678345 -687222276.60162926 0 -687222276.60162926 1593766588.8903711 0 0 0 0 -15531452.697505739 -7749329.5578827113 0 -7749329.5578827113 15724379.293107063 0 0 0 0 -15915109.057624817 -23932883.402244568 0 -23932883.402244568 298527.50854492188 0 0 0 0 7023880.5272598267 -8045210.1550951004 0 -8045210.1550951004 257329664.39207053 0 0 0 0 67570961.907367706 64328967.907609463 0 64328967.907609463 337354587.13983154 0 0 0 0 -7631060.212623246 -19618238.587789305 0 -19618238.587789305 -980652.98162283748 0 0 0 0 207777646.83612061 -173970714.41514683 0 -173970714.41514683 497476714.75038719 0 0 0 0 4059651.2518920898 -586826045.12195587 0 -586826045.12195587 509097435.83572245 0 0 0 0 -211880937.42235184 99607199.611218929 0 99607199.611218929 618710765.63349533 0 0 0 0 191350465.69700623 -470137575.89412117 0 -470137575.89412117 895552422.26638603 0 0 0 0 328708231.692276 140360562.23539543 0 140360562.23539543 1239954174.9028816 0 0 0 0 35343.800347082317 -455932.62157896347 0 -455932.62157896347 -475718.26058118604 0 0 0 0 -16426900.125013351 -23031170.730127335 0 -23031170.730127335 12473752.407859802 0 0 0 0 -32943017.436790466 -10388199.172801495 0 -10388199.172801495 6134020.4779205322 0 0 0 0 -6005409.7270891331 -10586863.840361418 0 -10586863.840361418 6670032.8904557675 0 0 0 0 91520239.583198547 245580602.53793144 0 245580602.53793144 317408386.94720602 0 0 0 0 -47312174.363386154 -25898220.131185293 0 -25898220.131185293 -2308602.8537006378 0 0 0 0 -226797509.83076477 -586639117.26975846 0 -586639117.26975846 210054426.47588378 0 0 0 0 -130035492.0329895 166206286.59865522 0 166206286.59865522 466929274.26849276 0 0 0 0 30867504.25693512 -241748159.93583298 0 -241748159.93583298 -155170570.50413036 0 0 0 0 -64521985.443233013 307659096.75003505 0 307659096.75003505 351992925.82123852 0 0 0 0 461941203.75979972 -199197773.53296518 0 -199197773.53296518 -867679052.76557541 0 0 0 0 415275715.99063349 244857121.73783505 0 244857121.73783505 288109459.08873463 0 0 0 0 -2321801.2789970757 2543408.1560426364 0 2543408.1560426364 1201590.8102831747 0 0 0 0 -211471398.77852249 -482256305.98571789 0 -482256305.98571789 -366763052.33856523 0 0 0 0 -37232958.772245407 -471037835.82608104 0 -471037835.82608104 -147810671.49335575 0 0 0 0 143492017.40439987 -212504777.03711748 0 -212504777.03711748 -181039846.64479208 0 0 0 0 -225703439.43943977 191822096.86596775 0 191822096.86596775 160520610.07017517 0 0 0 0 -289405235.49834251 71002709.540394962 0 71002709.540394962 -60137480.878819227 0 0 0 0 -13041.904131836258 -687905.30214897543 0 -687905.30214897543 -2105934.1931235879 0 0 0 0 -50811267.055692673 -355108326.75316763 0 -355108326.75316763 -609573448.05497932 0 0 0 0 -1297252047.6593056 -91528457.43422699 0 -91528457.43422699 -124864862.14867401 0 0 0 0 -535956022.03328705 167845528.99177504 0 167845528.99177504 -97097456.920848846 0 0 0 0 -651043761.62355924 -486299940.18202734 0 -486299940.18202734 -270706985.03018141 0 0 0 0 55724419.152023315 -364866706.3851999 0 -364866706.3851999 -372641419.53316021 0 0 0 0 -51042689.380329132 -363370609.87555218 0 -363370609.87555218 -291068441.5821104 0 0 0 0 350095185.54690075 -237275803.04418564 0 -237275803.04418564 -617121486.28155422 0 0 0 0 -27308101.969380617 306833752.77781868 0 306833752.77781868 93532234.770627975 0 0 0 0 69659785.592475891 361435457.12235546 0 361435457.12235546 -1079089654.5243645 0 0 0 0 -785148058.65608215 -925338959.15473843 0 -925338959.15473843 -1009261814.8867188 0 0 0 0 -617306639.1541729 -35830447.452291489 0 -35830447.452291489 342625001.92959976 0 0 0 0 -71301683.109909058 -123569932.46377182 0 -123569932.46377182 338340741.41517556 0 0 0 0 354772911.91965485 208380027.39987373 0 208380027.39987373 112383765.93760681 0 0 0 0 21278380.7870121 -128009194.36915779 0 -128009194.36915779 -181649328.21205902 0 0 0 0 -4079534.6921888599 4607983.5730246343 0 4607983.5730246343 1856178.1235749237 0 0 0 0 70713699.506288946 -309034165.29626465 0 -309034165.29626465 -121192655.97467804 0 0 0 0 371291133.56224632 -157222183.06089115 0 -157222183.06089115 -271300846.72395706 0 0 0 0 173439393.61739159 -291473557.14873695 0 -291473557.14873695 -371584583.66855621 0 0 0 0 639892361.5750829 389987021.88051081 0 389987021.88051081 -195265218.1398201 0 0 0 0 -4135593.1582891047 4808474.423127519 0 4808474.423127519 1568583.592335145 0 0 0 0 493615522.96174812 33890850.998212814 0 33890850.998212814 -376382781.52316761 0 0 0 0 344631980.25311577 -30669847.444028854 0 -30669847.444028854 -214559915.06534386 0 0 0 0 316704129.30595994 157363273.07163382 0 157363273.07163382 -1077752586.6544304 0 0 0 0 -457737701.54485607 -833041934.73256969 0 -833041934.73256969 -707268139.68576431 0 0 0 0 40303762.729760766 -314803970.80506134 0 -314803970.80506134 -181496347.11040497 0 0 0 0 38863180.665507078 -269840577.18209648 0 -269840577.18209648 -168747029.53965759 0 0 0 0 -8788649.5629554987 -224452040.81921768 0 -224452040.81921768 -295682676.18260956 0 0 0 0 69149484.969758987 -322651421.34351349 0 -322651421.34351349 -185765640.93998528 0 0 0 0 -17050925.186846137 -289998408.72538376 0 -289998408.72538376 -192159509.25580215 0 0 0 0 -100094257.07903576 -140800290.34780121 0 -140800290.34780121 177148313.67732239 0 0 0 0 -171995547.01957226 -78513689.700296402 0 -78513689.700296402 -115507444.32433128 0 0 0 0 -301554845.98013115 -24197428.449300289 0 -24197428.449300289 289986323.33683777 0 0 0 0 -1247313.5622001102 -2529028.3852634653 0 -2529028.3852634653 1825766.3090524143 0 0 0 0 -35320447.50246048 -158166726.68365479 0 -158166726.68365479 177554417.48100281 0 0 0 0 21601479.460916519 -371731818.89392471 0 -371731818.89392471 -425158964.40213084 0 0 0 0 142782653.12749195 -238346562.61825943 0 -238346562.61825943 -429764743.25544739 0 0 0 0 64310058.38697052 -232001568.12355042 0 -232001568.12355042 -16158771.342849731 0 0 0 0 -2618397.7010559132 -1526876.0355386566 0 -1526876.0355386566 2063550.8336060718 0 0 0 0 -301156035.87676239 -289768476.46029282 0 -289768476.46029282 -186652114.07015848 0 0 0 0 57400236.935270429 -34617337.893632889 0 -34617337.893632889 211683200.73692322 0 0 0 0 43629885.973431587 -86806553.167768478 0 -86806553.167768478 59514549.103981018 0 0 0 0 7937803.8481140137 -165441886.56274414 0 -165441886.56274414 177327575.98277903 0 0 0 0 35346621.755447388 -122107828.5218277 0 -122107828.5218277 -36749427.216644287 0 0 0 0 36857451.988519669 -188115654.32426071 0 -188115654.32426071 -47515502.026702881 0 0 0 0 36082273.66270256 -212296071.17329359 0 -212296071.17329359 71159186.561004639 0 0 0 0 46856654.583709717 -105234262.30070496 0 -105234262.30070496 108722280.85069275 0 0 0 0 53528188.653385162 -95358427.914283752 0 -95358427.914283752 -2782533.8046722412 0 0 0 0 -34914289.865917206 26527500.536552429 0 26527500.536552429 -21377962.708021164 0 0 0 0 15205627.235549927 -74597215.562343597 0 -74597215.562343597 113888247.95018005 0 0 0 0 -88689427.959975719 24826832.682218552 0 24826832.682218552 412332772.38098526 0 0 0 0 -9590883.8626718521 19316335.990180969 0 19316335.990180969 -33553525.241912842 0 0 0 0 -1149637.0015907744 -8031866.679037001 0 -8031866.679037001 -2946057.2349822037 0 0 0 0 -138980575.37659645 -105892686.32087708 0 -105892686.32087708 326472975.33813477 0 0 0 0 -214307953.17266464 13386941.569314957 0 13386941.569314957 213205184.32178497 0 0 0 0 -1109958.1813491655 995918.65663046855 0 995918.65663046855 283377.57634486817 0 0 0 0 49851779.117595673 -484801.63112831116 0 -484801.63112831116 -28256013.008096695 0 0 0 0 -434420692.53091908 -490345840.44374943 0 -490345840.44374943 -158231301.79414368 0 0 0 0 509671472.31733704 101931820.61896515 0 101931820.61896515 62422706.833415985 0 0 0 0 -2215277.8606985072 2309413.8940958781 0 2309413.8940958781 1450076.4464140497 0 0 0 0 239530433.6105566 161186921.79762435 0 161186921.79762435 122083185.04769135 0 0 0 0 369698864.08128738 -282515450.36648178 0 -282515450.36648178 -530146547.89254761 0 0 0 0 -47297994.515910327 -328922292.29654598 0 -328922292.29654598 -484482887.10415649 0 0 0 0 -198365308.65375137 -475048823.48975945 0 -475048823.48975945 -321165186.08589172 0 0 0 0 -569165323.35481262 -88395394.647041321 0 -88395394.647041321 300111390.08691406 0 0 0 0 -54879529.189620972 -82018904.493759155 0 -82018904.493759155 -44016219.92072916 0 0 0 0 -73953931.963394165 -68486070.938341141 0 -68486070.938341141 -151369335.07791138 0 0 0 0 -11178374.071128845 233116304.80154419 0 233116304.80154419 -50721507.214248657 0 0 0 0 252010251.21484756 4209697.3267822266 0 4209697.3267822266 -595791274.25930023 0 0 0 0 185197637.04290771 389845046.60515213 0 389845046.60515213 -174599385.28462219 0 0 0 0 5098310.3374252319 107925291.64471436 0 107925291.64471436 384114066.36914062 0 0 0 0 3054785.2199287415 -11906346.189612389 0 -11906346.189612389 174112.67474746704 0 0 0 0 -25895429.454704285 -61558271.597751617 0 -61558271.597751617 -10503985.595441341 0 0 0 0 -5099814.6667155763 -5704515.8774833921 0 -5704515.8774833921 1951316.8892721348 0 0 0 0 -931751.7423842568 -10028925.04309909 0 -10028925.04309909 -11585164.259801947 0 0 0 0 -106728.46778106689 -4158025.2903673649 0 -4158025.2903673649 396123.83258628845 0 0 0 0 -8729073.9624552429 -9363029.9805494621 0 -9363029.9805494621 -6867532.2543622237 0 0 0 0 -862102.00252193585 -4033865.5575349573 0 -4033865.5575349573 -2267611.8484895956 0 0 0 0 690315.45387268066 -10072772.359260559 0 -10072772.359260559 -635483.16428756714 0 0 0 0 669400.29722595215 -10842989.78991127 0 -10842989.78991127 -133790.94699668884 0 0 0 0 451544.82005119324 -11277528.750006437 0 -11277528.750006437 -579176.25930404663 0 0 0 0 -5954069.7405931205 -14890826.373348823 0 -14890826.373348823 -15085133.833234897 0 0 0 0 -13574912.253465926 -28538914.034133658 0 -28538914.034133658 -14290501.519976197 0 0 0 0 -20475423.037338257 -7794455.6689186096 0 -7794455.6689186096 -572278.9804315567 0 0 0 0 -17920714.394507922 -18337035.134451665 0 -18337035.134451665 -12287587.965999695 0 0 0 0 -1894888.428358078 -10350303.621294975 0 -10350303.621294975 3346893.5879211426 0 0 0 0 -12489107.837349264 -12305164.561126139 0 -12305164.561126139 1333882.8640274722 0 0 0 0 23028711.71440506 -111853521.7167511 0 -111853521.7167511 457903884.58541107 0 0 0 0 -4409862.6210724581 -15268344.768107925 0 -15268344.768107925 -4612048.0820039809 0 0 0 0 12292114.569782257 -3438.1750183105469 0 -3438.1750183105469 175907376.27819061 0 0 0 0 -24855578.312427044 -54067417.860316217 0 -54067417.860316217 31442484.124621391 0 0 0 0 -47698331.116172791 -42647610.312034845 0 -42647610.312034845 39374913.225793839 0 0 0 0 -15830983.260152575 -6639457.0080730505 0 -6639457.0080730505 10695381.742804144 0 0 0 0 -71456522.862510681 -22666460.819013715 0 -22666460.819013715 37571557.257389069 0 0 0 0 -2607558.9933859291 -4052277.411943242 0 -4052277.411943242 1097940.9487998346 0 0 0 0 -47899909.08928299 -8722715.9101729393 0 -8722715.9101729393 23521929.393386841 0 0 0 0 -6892025.68800354 -11798123.730346203 0 -11798123.730346203 4506321.5396492481 0 0 0 0 -33334791.992965698 -21375683.25894928 0 -21375683.25894928 23582591.054066658 0 0 0 0 -14195490.242767334 -29713016.141916275 0 -29713016.141916275 17880719.406545639 0 0 0 0 -9957817.2965964749 -11769228.470589254 0 -11769228.470589254 1336036.0777190337 0 0 0 0 -18386666.401306152 -6152258.3711614609 0 -6152258.3711614609 5534585.0567121506 0 0 0 0 -7786180.9114532471 -32454910.736972809 0 -32454910.736972809 -51874613.36125946 0 0 0 0 -15526021.579311013 -76095998.378840685 0 -76095998.378840685 -137840092.17262268 0 0 0 0 16439714.818539619 -31722885.187705994 0 -31722885.187705994 -73072522.363365173 0 0 0 0 -62180486.032356262 60504128.596946716 0 60504128.596946716 153918488.13259506 0 0 0 0 30968517.203315735 -42663107.803985596 0 -42663107.803985596 -36634052.782045364 0 0 0 0 -2092382.0252858484 -15469226.945633475 0 -15469226.945633475 -8133568.1164387614 0 0 0 0 24191053.519347191 -33701990.232471466 0 -33701990.232471466 -33370292.344108582 0 0 0 0 17592483.6155653 -24980591.344392776 0 -24980591.344392776 -42814321.742935181 0 0 0 0 32352220.583222389 -36355096.898704529 0 -36355096.898704529 -46873965.256358147 0 0 0 0 8817832.6557312012 -3117681.5265655518 0 -3117681.5265655518 22005113.971633434 0 0 0 0 1645117.6174402237 -39982006.915214539 0 -39982006.915214539 3755083.8571853638 0 0 0 0 -5407035.8194212373 -34134041.457321376 0 -34134041.457321376 -21038670.508239366 0 0 0 0 -193643.167345047 -66360192.057449341 0 -66360192.057449341 5858977.2516326904 0 0 0 0 -7050470.7453536987 -65261586.78175354 0 -65261586.78175354 -66209742.378107071 0 0 0 0 128068.49773890176 -1601461.2086519375 0 -1601461.2086519375 1351808.6054970138 0 0 0 0 -68322230.026521683 -48615292.760089874 0 -48615292.760089874 5147582.943359375 0 0 0 0 19639791.134884357 -25711598.104092598 0 -25711598.104092598 10427718.8697052 0 0 0 0 -8155445.2735004313 -22491851.955370467 0 -22491851.955370467 903130.45812075585 0 0 0 0 44335885.037457943 -11996037.093815804 0 -11996037.093815804 -16583253.881656647 0 0 0 0 -58621764.73684454 -92783812.521925926 0 -92783812.521925926 -78283637.689289093 0 0 0 0 3647543.8857520334 -2687621.1966030803 0 -2687621.1966030803 -3351734.3284753039 0 0 0 0 55432005.117996216 35341397.766439438 0 35341397.766439438 -38097208.044792175 0 0 0 0 122332117.90822601 -74703623.144813538 0 -74703623.144813538 -121992783.85488796 0 0 0 0 64321389.211771011 26896687.675945282 0 26896687.675945282 -107515494.91252804 0 0 0 0 68754843.282884121 1684968.2559013367 0 1684968.2559013367 -49061219.627861023 0 0 0 0 -130605491.73500061 -172414827.00455856 0 -172414827.00455856 -214914921.44520664 0 0 0 0 37740588.464432999 -14404380.303601889 0 -14404380.303601889 -21351271.604838606 0 0 0 0 -138339903.23996353 -238531784.22985911 0 -238531784.22985911 -256641474.76825714 0 0 0 0 34561448.997723386 -7333522.9070173893 0 -7333522.9070173893 -22501978.251213364 0 0 0 0 47355226.693434954 -87150498.452355146 0 -87150498.452355146 -78853066.292366028 0 0 0 0 8737078.1444263458 -23490236.972925186 0 -23490236.972925186 -35604918.639753342 0 0 0 0 143177941.63381386 -176435098.97566223 0 -176435098.97566223 101648676.39085579 0 0 0 0 -24512647.789309978 -81061724.307187557 0 -81061724.307187557 10794674.346702576 0 0 0 0 -21278362.487107277 11683833.872968674 0 11683833.872968674 21345914.593677521 0 0 0 0 -20213838.070156097 45085208.141719818 0 45085208.141719818 44314034.256720066 0 0 0 0 -49703000.419334412 27264754.373235703 0 27264754.373235703 39623210.162204742 0 0 0 0 -81343820.630027771 22525245.697022438 0 22525245.697022438 327480924.66026306 0 0 0 0 47172150.630252838 -477744136.39757729 0 -477744136.39757729 181208677.80864906 0 0 0 0 76520047.067024231 290532155.56637573 0 290532155.56637573 43613584.664894104 0 0 0 0 -41015146.432898521 -209638196.27433014 0 -209638196.27433014 514911369.77957535 0 0 0 0 163082628.10406828 -82774926.310184479 0 -82774926.310184479 -193429798.01660156 0 0 0 0 252404527.1934967 -319665795.3652153 0 -319665795.3652153 -287361501.42432594 0 0 0 0 -1616953.6757894885 -4051318.6470691888 0 -4051318.6470691888 2812595.6655483516 0 0 0 0 -244750561.39588976 222266050.24710655 0 222266050.24710655 84416185.11807251 0 0 0 0 156244691.55165672 196613412.69644928 0 196613412.69644928 -203346734.60616875 0 0 0 0 -838058.78921458218 -2872708.6970057609 0 -2872708.6970057609 -290084.82111619692 0 0 0 0 70304277.950674057 27411357.672153473 0 27411357.672153473 38892012.776641846 0 0 0 0 12514811.041007042 295741797.88278198 0 295741797.88278198 589198629.3444128 0 0 0 0 159379950.40910149 62091223.79732132 0 62091223.79732132 142578024.31523895 0 0 0 0 22968751.582899094 32418164.623394012 0 32418164.623394012 -149356401.12960196 0 0 0 0 -69650653.713458061 -40079718.492200851 0 -40079718.492200851 9262807.5081329346 0 0 0 0 196534407.99768209 -23795478.603133678 0 -23795478.603133678 -87543388.521522522 0 0 0 0 -399505569.16561508 -54065872.782176018 0 -54065872.782176018 -268956987.33250809 0 0 0 0 138251126.54135132 -100266795.11938858 0 -100266795.11938858 -65639875.46471405 0 0 0 0 -5413755.1698913574 -83847663.107582092 0 -83847663.107582092 -62410404.222568512 0 0 0 0 5201260.2656068392 -2824014.7270112373 0 -2824014.7270112373 -3829809.0020367242 0 0 0 0 65228010.768707275 67709779.535081863 0 67709779.535081863 -30121639.356086731 0 0 0 0 26074397.85654068 -36717140.305196762 0 -36717140.305196762 299978482.20912933 0 0 0 0 14329027.256456375 -163136365.55685091 0 -163136365.55685091 417862546.30207825 0 0 0 0 -93534175.562683105 140546566.01303101 0 140546566.01303101 797222830.69070816 0 0 0 0 -91620582.44744873 74401406.242523193 0 74401406.242523193 440474464.22799873 0 0 0 0 -44349481.297306061 -20734564.028271675 0 -20734564.028271675 570210671.96611023 0 0 0 0 -34893007.441009521 36061167.362530708 0 36061167.362530708 460704003.09877777 0 0 0 0 -228122220.31550646 -376117086.44677567 0 -376117086.44677567 -400563707.98999786 0 0 0 0 131823684.18994141 -658020890.28964233 0 -658020890.28964233 -309599620.96552086 0 0 0 0 -3650101.8412811756 -24212465.626195952 0 -24212465.626195952 40796132.193181947 0 0 0 0 -152070692.81119728 -276463497.36393952 0 -276463497.36393952 -302913529.71412659 0 0 0 0 -236694550.20425415 -253041640.34334183 0 -253041640.34334183 -277612573.75838089 0 0 0 0 2585625.7809749916 -567930.26850260049 0 -567930.26850260049 -1998800.0857670028 0 0 0 0 236627413.29100037 -269447450.5318985 0 -269447450.5318985 570013187.06472778 0 0 0 0 -4568820.495826833 -25165437.571085557 0 -25165437.571085557 40800234.832147241 0 0 0 0 334057091.44458008 -1097465162.2883301 0 -1097465162.2883301 308119627.52264404 0 0 0 0 -796969092.94363403 14310683.747455597 0 14310683.747455597 -611709466.34114075 0 0 0 0 -211451712.57011414 -302243935.81649399 0 -302243935.81649399 -285054981.79940033 0 0 0 0 -215614367.30311584 -224584376.99086761 0 -224584376.99086761 -217660937.1762867 0 0 0 0 -158982515.61657715 -196521892.4371376 0 -196521892.4371376 -250192050.05792141 0 0 0 0 7504150.6583080292 26976243.062200546 0 26976243.062200546 20465375.992149353 0 0 0 0 8256670.909702301 17114163.033234596 0 17114163.033234596 1380150.0096607208 0 0 0 0 29747013.846544381 -2069728.6437350232 0 -2069728.6437350232 -25651928.793655146 0 0 0 0 -158414058.09802246 -181950381.51931763 0 -181950381.51931763 -287247537.32765961 0 0 0 0 -141379140.09545422 -261376971.28177214 0 -261376971.28177214 -385699359.65809631 0 0 0 0 -300154308.45861053 -320859111.83875275 0 -320859111.83875275 -299458526.81375909 0 0 0 0 11503551.948776245 -114424333.91866302 0 -114424333.91866302 -312715064.41251612 0 0 0 0 -198446161.29353905 -533688185.06544685 0 -533688185.06544685 -552805507.83905029 0 0 0 0 -202362679.40089417 -328663112.16053772 0 -328663112.16053772 -460592559.41993332 0 0 0 0 -32452660.494125366 -306373535.7744503 0 -306373535.7744503 -204026635.3954196 0 0 0 0 -4744842.4927242994 -23279617.702706095 0 -23279617.702706095 40400048.30873467 0 0 0 0 56527365.344991684 43887935.851967335 0 43887935.851967335 -67639528.167867661 0 0 0 0 16110735.430033274 2997966.4978614114 0 2997966.4978614114 -36101169.192875616 0 0 0 0 -11114658.397295475 -420419355.94111156 0 -420419355.94111156 -427374187.53031921 0 0 0 0 -143968693.84764099 -185333822.45800781 0 -185333822.45800781 -20970078.082229614 0 0 0 0 23736564.471019004 1664697.1241096216 0 1664697.1241096216 -30159537.399280123 0 0 0 0 49210005.902385712 23664342.477064133 0 23664342.477064133 -2897369.9437274933 0 0 0 0 56456395.906749725 62102994.345364571 0 62102994.345364571 16589049.112941265 0 0 0 0 30517255.11713028 -9735126.9815397263 0 -9735126.9815397263 -241182310.25548744 0 0 0 0 -1156472.2539018635 -1392546.4461722649 0 -1392546.4461722649 1074951.44519345 0 0 0 0 33002101.637004852 67168742.46932888 0 67168742.46932888 77670632.895763397 0 0 0 0 18066100.405212402 18511881.453914642 0 18511881.453914642 38732230.986373901 0 0 0 0 47270143.254274845 33146858.021922231 0 33146858.021922231 7967089.6566085815 0 0 0 0 14176421.529746771 32577776.380418539 0 32577776.380418539 -4523181.7207794189 0 0 0 0 -1935143.1400921103 -2653671.0295913043 0 -2653671.0295913043 1996211.3427529242 0 0 0 0 -26453660.767938614 -167096261.12216473 0 -167096261.12216473 -328889814.07610321 0 0 0 0 49969266.568820953 -93788558.50839138 0 -93788558.50839138 -299459325.04685211 0 0 0 0 -85472131.605445862 -153790094.94678497 0 -153790094.94678497 -290864638.53192902 0 0 0 0 -83480983.914523125 -152387829.84431124 0 -152387829.84431124 -297450898.05282593 0 0 0 0 -84896308.298977852 -153699182.38258934 0 -153699182.38258934 -279740611.88934326 0 0 0 0 -2119142.1336562112 -1690773.970808303 0 -1690773.970808303 -1289097.4094000282 0 0 0 0 200210123.77739334 18936892.876226425 0 18936892.876226425 -83406999.820030212 0 0 0 0 -212048960.80094528 -197411289.08326817 0 -197411289.08326817 -140585451.03295994 0 0 0 0 -407896616.55820847 -287906028.98000622 0 -287906028.98000622 -167441813.6818428 0 0 0 0 -102956887.01294708 -213895605.99860573 0 -213895605.99860573 -328920127.49491882 0 0 0 0 -159276849.95537376 -145993593.34101629 0 -145993593.34101629 -198946876.79487991 0 0 0 0 -71623467.421215057 -112053186.86309052 0 -112053186.86309052 -190721796.29759407 0 0 0 0 -80682952.553230286 -76753970.100637436 0 -76753970.100637436 -92888933.801372528 0 0 0 0 -7378533.7458496094 -21555824.558476925 0 -21555824.558476925 -158173952.58795166 0 0 0 0 40149653.939959049 -15064222.366568923 0 -15064222.366568923 -243641608.8560524 0 0 0 0 -21696636.777359009 -87748323.633138657 0 -87748323.633138657 -263269853.10910797 0 0 0 0 -35154965.353927612 -76490999.795960426 0 -76490999.795960426 -257707395.68424606 0 0 0 0 42355615.378295898 756271.56837272644 0 756271.56837272644 -233482260.43851852 0 0 0 0 10593202.055923462 -78312148.223158836 0 -78312148.223158836 -177260565.45754123 0 0 0 0 10561769.245829582 -67244779.199380279 0 -67244779.199380279 -60885041.850564957 0 0 0 0 103826653.88257217 -8466871.0324401855 0 -8466871.0324401855 -83074689.295033932 0 0 0 0 46175073.107696772 27049732.302885532 0 27049732.302885532 -96029123.345663071 0 0 0 0 30826815.149671555 322332210.25158787 0 322332210.25158787 -104691762.96454239 0 0 0 0 21029303.858066559 -189053020.10997391 0 -189053020.10997391 -344378222.22216797 0 0 0 0 -151022324.90007401 -503480688.63817406 0 -503480688.63817406 -847072048.0722394 0 0 0 0 293891089.82778358 218361708.25639725 0 218361708.25639725 -1021888187.6384726 0 0 0 0 -562212084.28595734 -28868136.262739182 0 -28868136.262739182 349419746.69462585 0 0 0 0 -5066212.8893736806 -2229599.6452170545 0 -2229599.6452170545 3357628.2500310577 0 0 0 0 -173456890.98386955 -26137008.81079483 0 -26137008.81079483 -23376880.471176147 0 0 0 0 -1123456330.8796406 -342740078.89533329 0 -342740078.89533329 308008611.84796143 0 0 0 0 -4499546.3078303738 -1682308.0351153705 0 -1682308.0351153705 2679521.0017490778 0 0 0 0 140588305.24558449 -111915506.33765793 0 -111915506.33765793 -168942214.73834705 0 0 0 0 73587905.812412262 30653549.599190712 0 30653549.599190712 -245284109.05112076 0 0 0 0 -143303704.74556732 15661737.529478073 0 15661737.529478073 30844399.622533798 0 0 0 0 -1667351.4569358788 -3438772.8066370767 0 -3438772.8066370767 2431566.9378552632 0 0 0 0 -20542779.750356674 40246687.600907326 0 40246687.600907326 14302141.589826584 0 0 0 0 80267126.601172924 -132470150.9530654 0 -132470150.9530654 -150964622.99235153 0 0 0 0 -120443843.02913284 101520667.16412926 0 101520667.16412926 -65466922.637225151 0 0 0 0 63677720.546356201 -97926193.681370735 0 -97926193.681370735 -508336669.25192547 0 0 0 0 -1977659.2575842794 -923090.81631619856 0 -923090.81631619856 1315738.5460907519 0 0 0 0 83711992.281627655 -143517952.49320173 0 -143517952.49320173 -408464716.39393234 0 0 0 0 -17276168.099885941 -166934308.73561096 0 -166934308.73561096 -391166797.95305061 0 0 0 0 -148397104.08808136 -144906638.23935509 0 -144906638.23935509 -268991020.15250397 0 0 0 0 -79193756.320163727 -11838844.54593277 0 -11838844.54593277 -370940951.90377808 0 0 0 0 13304691.974884033 -82842498.023015976 0 -82842498.023015976 -337041404.81230831 0 0 0 0 60645066.578567505 -148350164.61203766 0 -148350164.61203766 -267833600.49426603 0 0 0 0 -16018405.925987244 -187354372.18664169 0 -187354372.18664169 -269428919.41884995 0 0 0 0 -55228761.451165199 -98926128.556097507 0 -98926128.556097507 -212555990.64637756 0 0 0 0 43697609.552238464 -50568643.262163162 0 -50568643.262163162 -200754711.34140682 0 0 0 0 -3420959.2096734047 -101418211.23764777 0 -101418211.23764777 -107869914.90407562 0 0 0 0 89318683.259616852 -84905369.679129601 0 -84905369.679129601 -108674804.41451645 0 0 0 0 53831829.225448608 -141449566.25530243 0 -141449566.25530243 -41963943.800035 0 0 0 0 -18146655.56139946 -89900030.508979797 0 -89900030.508979797 -207419297.92845345 0 0 0 0 -12959034.444011688 -88144311.739432335 0 -88144311.739432335 -282937300.64845848 0 0 0 0 -81318563.128070831 -105561810.57981873 0 -105561810.57981873 -129923167.35642624 0 0 0 0 12806464.594894886 -39770546.651534796 0 -39770546.651534796 -174989281.81204987 0 0 0 0 -31577066.062904358 -111359586.43287468 0 -111359586.43287468 -96243117.365720749 0 0 0 0 -46979752.825027466 -67096725.358867645 0 -67096725.358867645 -109110647.28491879 0 0 0 0 -211907500.78243446 -121551351.90827942 0 -121551351.90827942 -70824100.03946352 0 0 0 0 -86175439.616930485 -127285134.73941422 0 -127285134.73941422 -224001893.62647247 0 0 0 0 -43732099.415370941 -163338580.93258476 0 -163338580.93258476 -232540681.16215467 0 0 0 0 -161144025.36773205 -323195201.52997303 0 -323195201.52997303 -424920606.23406219 0 0 0 0 20014016.888002396 -161757419.20413876 0 -161757419.20413876 -426098184.69390106 0 0 0 0 -1149229.1433346949 1963690.4198144851 0 1963690.4198144851 -3871290.9961891668 0 0 0 0 -31961531.258826256 364234261.00573158 0 364234261.00573158 -107922272.84650755 0 0 0 0 -761126023.1366787 -405780878.30774546 0 -405780878.30774546 -238211625.22480774 0 0 0 0 -365518296.17434764 -119293042.29484177 0 -119293042.29484177 -55341028.606580734 0 0 0 0 -168797216.6580689 -17328818.993682146 0 -17328818.993682146 -44566067.790184021 0 0 0 0 -112157660.23906517 -30776345.902345657 0 -30776345.902345657 -55145523.52902317 0 0 0 0 -129714698.20558453 -22111865.408479214 0 -22111865.408479214 -9584099.7556419373 0 0 0 0 -5140521.126971351 198908.02443765756 0 198908.02443765756 -9978451.745784618 0 0 0 0 -103814254.90914273 6717577.7103765011 0 6717577.7103765011 11417301.315706253 0 0 0 0 -49560890.224201202 -25279116.378517628 0 -25279116.378517628 30125344.237135649 0 0 0 0 -26710649.082801819 -62176882.132880688 0 -62176882.132880688 29131091.855449796 0 0 0 0 -80541795.88350296 -46138217.981902122 0 -46138217.981902122 26487022.245279074 0 0 0 0 -150559662.40198231 -46788971.999180317 0 -46788971.999180317 3165829.5050735474 0 0 0 0 -74925048.442891121 -56441364.553692102 0 -56441364.553692102 4335515.4721374512 0 0 0 0 -93313962.814136505 -60937246.454881668 0 -60937246.454881668 -51288278.317358971 0 0 0 0 -103111947.06169462 -106749738.13137841 0 -106749738.13137841 -29430513.377187729 0 0 0 0 -47471036.968502045 -68851227.399126053 0 -68851227.399126053 -3919628.6394834518 0 0 0 0 -12225003.616954803 -139351896.51086712 0 -139351896.51086712 24720724.992372513 0 0 0 0 7942285.3332366943 -101875889.01987457 0 -101875889.01987457 34870037.771680832 0 0 0 0 -808661.3755569458 -44776110.10618782 0 -44776110.10618782 -16024811.195039749 0 0 0 0 138251455.37608719 -98087822.51033783 0 -98087822.51033783 -12044456.028095245 0 0 0 0 -2185541.9345899611 -6186944.8755648984 0 -6186944.8755648984 -1959942.1394523624 0 0 0 0 358565.51485443115 -16491520.052268982 0 -16491520.052268982 3416634.4498291016 0 0 0 0 -15321842.065896239 -24807137.472981922 0 -24807137.472981922 -13404308.551113073 0 0 0 0 2157526.4364242554 -90416060.411375999 0 -90416060.411375999 -11911261.565945983 0 0 0 0 1696451.6535892487 -6399050.4178638458 0 -6399050.4178638458 -6140504.3515014648 0 0 0 0 -14536383.762011874 -20064789.17396142 0 -20064789.17396142 -2976448.4551960155 0 0 0 0 -51349.455148696899 -74839204.362288952 0 -74839204.362288952 21171215.640015125 0 0 0 0 -58420158.828760147 -101002130.11145222 0 -101002130.11145222 12706086.627084732 0 0 0 0 -49753973.405495644 -74342821.321499825 0 -74342821.321499825 42945530.981272221 0 0 0 0 -86330373.553771973 -5279020.6163330078 0 -5279020.6163330078 69870070.722320557 0 0 0 0 -32028591.899442445 -30162283.434623931 0 -30162283.434623931 -19105991.064961229 0 0 0 0 -17788868.702441256 -9011172.9465424977 0 -9011172.9465424977 12421846.885507345 0 0 0 0 -26521619.550689697 -20810229.918083191 0 -20810229.918083191 13520990.754356384 0 0 0 0 -7350571.8478425499 -14895219.350286687 0 -14895219.350286687 -6499314.8667607754 0 0 0 0 -38926144.71900177 -34166285.405403137 0 -34166285.405403137 4341033.7385864258 0 0 0 0 -10085256.618400749 -13931040.187476115 0 -13931040.187476115 -13271875.462755537 0 0 0 0 -37912310.613571167 -17543544.853340149 0 -17543544.853340149 -6459211.4331703186 0 0 0 0 -12667698.237112045 -47669493.161085129 0 -47669493.161085129 -57304.572319030762 0 0 0 0 -40514823.953636169 -41704333.316566467 0 -41704333.316566467 13045884.099761963 0 0 0 0 -40603596.8490448 -54327359.852836609 0 -54327359.852836609 45362725.02036953 0 0 0 0 99144802.8409729 -144465446.49234009 0 -144465446.49234009 -12891961.719146729 0 0 0 0 -38381981.786466375 -32695601.806868389 0 -32695601.806868389 -16898483.890662175 0 0 0 0 -64292746.486532927 -21355662.784864187 0 -21355662.784864187 56749174.898232937 0 0 0 0 -79459665.939811707 -81563272.443500519 0 -81563272.443500519 65681254.280136108 0 0 0 0 -3000219.7111071199 -25818904.315566175 0 -25818904.315566175 -50264269.210270092 0 0 0 0 425261.49913451076 -18865530.314061094 0 -18865530.314061094 -54147093.226881415 0 0 0 0 134339044.19755363 -78747741.924921036 0 -78747741.924921036 -99024244.690421104 0 0 0 0 -32797785.957138062 -62060778.282523155 0 -62060778.282523155 -33937338.256691933 0 0 0 0 -37585307.825588226 -80738838.892870426 0 -80738838.892870426 -59054436.550256729 0 0 0 0 14304525.852828979 -105421424.65243077 0 -105421424.65243077 -32580390.935954101 0 0 0 0 -26400505.16649437 -62303161.434161067 0 -62303161.434161067 -29229974.408116102 0 0 0 0 -13275654.763636926 -12219373.162908092 0 -12219373.162908092 8853174.1718863286 0 0 0 0 -138345610.79458785 -114714475.664509 0 -114714475.664509 -41361155.482913971 0 0 0 0 -98455895.026794434 -74430831.453178406 0 -74430831.453178406 -41315874.033434391 0 0 0 0 -806666.65535600856 2490233.1053401795 0 2490233.1053401795 2747527.0379442628 0 0 0 0 -136684058.89399719 -99054548.498797417 0 -99054548.498797417 -31050590.993991852 0 0 0 0 -111704040.0665741 -113828665.31187439 0 -113828665.31187439 -39352442.440280914 0 0 0 0 -120406009.86662292 -110989561.19514275 0 -110989561.19514275 -35429687.970579147 0 0 0 0 -105950800.90927505 -121824825.22336578 0 -121824825.22336578 -81290724.165077209 0 0 0 0 -191920713.93464279 -126522647.85341549 0 -126522647.85341549 -87010220.438154221 0 0 0 0 -105985076.34914263 -94803652.068144053 0 -94803652.068144053 -76200543.096956253 0 0 0 0 347932.28746032715 -16404252.004501343 0 -16404252.004501343 -7760426.0562438965 0 0 0 0 -1486265.4443740845 -22133637.2253685 0 -22133637.2253685 -8274418.5405426025 0 0 0 0 -11293981.078952657 -18893243.718091037 0 -18893243.718091037 -12920769.015192948 0 0 0 0 -11661051.290083284 -5931947.3820512686 0 -5931947.3820512686 11497783.408720702 0 0 0 0 150801.06112670898 -9253719.6038360596 0 -9253719.6038360596 -10846567.447412491 0 0 0 0 -2383536.32421875 -10553029.809547424 0 -10553029.809547424 -206452.08447265625 0 0 0 0 -2602819.7072296143 -12620552.597747803 0 -12620552.597747803 -9193183.6951675415 0 0 0 0 -11896212.588949189 -11925126.304570194 0 -11925126.304570194 -1360058.9945211187 0 0 0 0 -13514223.485061646 -21366620.031745911 0 -21366620.031745911 -8434904.5449905396 0 0 0 0 71248.275634326041 -737148.73731772229 0 -737148.73731772229 -2226316.1598064937 0 0 0 0 -11273216.10112381 -23665337.696185112 0 -23665337.696185112 -28359495.985198975 0 0 0 0 -22136750.431777954 -28322185.885276794 0 -28322185.885276794 -17293499.075017929 0 0 0 0 -8317862.3251876831 -14032272.674797058 0 -14032272.674797058 -20878965.928787231 0 0 0 0 -5881903.3566665649 -29555720.804786682 0 -29555720.804786682 -71917773.828323364 0 0 0 0 -45069398.558547974 -36500117.494369507 0 -36500117.494369507 -25441582.150421143 0 0 0 0 -3558402.2037983388 -12396109.197515769 0 -12396109.197515769 -18748251.62719848 0 0 0 0 -23074893.55941391 -30979652.978050232 0 -30979652.978050232 -24782166.631652832 0 0 0 0 -14671905.297432639 -17323554.829250455 0 -17323554.829250455 20363582.612907719 0 0 0 0 -11876107.676383972 -87603086.813598633 0 -87603086.813598633 -57097758.559799194 0 0 0 0 -62806643.828968048 -59638847.249806404 0 -59638847.249806404 -7509730.1312406063 0 0 0 0 -142310101.7081604 -68367686.761901855 0 -68367686.761901855 -54683923.970352173 0 0 0 0 -79476074.551181793 -93900768.572725296 0 -93900768.572725296 -78755635.214645386 0 0 0 0 -16432487.823684692 94078689.534988403 0 94078689.534988403 -146412709.56164551 0 0 0 0 -4099468.319120165 -4378513.967503123 0 -4378513.967503123 -7348437.5834720805 0 0 0 0 -4793018.5332020894 -4782111.1995468494 0 -4782111.1995468494 -4858929.5161508396 0 0 0 0 23121153.117015839 -209234518.74715805 0 -209234518.74715805 -167455507.21185303 0 0 0 0 -179997996.56478882 26737405.934310913 0 26737405.934310913 -253877933.39337158 0 0 0 0 -124681908.74427032 -100275252.93516541 0 -100275252.93516541 -28494888.290161133 0 0 0 0 348578329.78860664 70214627.868852615 0 70214627.868852615 -23131608.923736572 0 0 0 0 -2326128.8873366229 -2360235.0361106098 0 -2360235.0361106098 1643761.7844801396 0 0 0 0 -16023408.135375977 -678190220.25480652 0 -678190220.25480652 987045685.18423462 0 0 0 0 665257317.33482361 -494792132.14260864 0 -494792132.14260864 142328053.71976614 0 0 0 0 234999042.57366943 69324135.212219238 0 69324135.212219238 166208396.05156946 0 0 0 0 42483163.65435791 6862101.6394195557 0 6862101.6394195557 35148609.919242859 0 0 0 0 -1581983.6481873468 -1080930.8026474882 0 -1080930.8026474882 -1917090.2332134619 0 0 0 0 302435977.09597015 -184053697.75035095 0 -184053697.75035095 -188516183.76953125 0 0 0 0 14801628.489463806 -75670208.021484375 0 -75670208.021484375 114450352.57575989 0 0 0 0 -200180243.7783432 -272834434.19954681 0 -272834434.19954681 63096881.38444519 0 0 0 0 1654253.6908874512 -47446616.039573669 0 -47446616.039573669 -133741442.05882263 0 0 0 0 -62857621.050575256 22476737.370857239 0 22476737.370857239 -45290312.554840088 0 0 0 0 46388249.970474243 -57095866.425041199 0 -57095866.425041199 12354891.968048096 0 0 0 0 575601419.81790161 -225320764.03744507 0 -225320764.03744507 69351588.502975464 0 0 0 0 133163170.06022453 31655302.641077995 0 31655302.641077995 98444006.962768555 0 0 0 0 187889734.96842957 -335204216.16659546 0 -335204216.16659546 62461248.062820435 0 0 0 0 198467802.82597351 -91916787.782821655 0 -91916787.782821655 161747695.40753937 0 0 0 0 -16648203.097518921 -76636473.278999329 0 -76636473.278999329 108977196.2521553 0 0 0 0 30489903.559146881 42545305.967315674 0 42545305.967315674 374181287.2149353 0 0 0 0 -17011102.221405029 -9948739.1752243042 0 -9948739.1752243042 137233922.59993362 0 0 0 0 37471309.317298889 51079361.13152504 0 51079361.13152504 19303112.382965088 0 0 0 0 -2859351.71534729 -1665771.1611022949 0 -1665771.1611022949 -43384344.633460999 0 0 0 0 2538158.4694061279 -10576240.882858276 0 -10576240.882858276 -34025932.289489746 0 0 0 0 4068011.7350382805 19630576.52858305 0 19630576.52858305 -6218075.621887207 0 0 0 0 -4178735.8119508522 -5198455.0838965457 0 -5198455.0838965457 -2580761.3707562312 0 0 0 0 -18109563.828521729 -3272177.4271697998 0 -3272177.4271697998 -28960951.553543091 0 0 0 0 -18576754.823577881 -53106288.348907471 0 -53106288.348907471 65789887.328033447 0 0 0 0 -1247607.7186372234 -1527430.5993100163 0 -1527430.5993100163 -771491.2411262691 0 0 0 0 -16756742.859395981 -14147361.251828671 0 -14147361.251828671 -3730569.9631652832 0 0 0 0 -123688922.75526619 -202550881.59550953 0 -202550881.59550953 -85452661.05255127 0 0 0 0 -89803484.801532745 -30719054.326928139 0 -30719054.326928139 102165785.53276062 0 0 0 0 -239958.20459765941 535910.86709023267 0 535910.86709023267 115095.15527720517 0 0 0 0 -190615498.50067139 -185178539.85746002 0 -185178539.85746002 809835797.25266361 0 0 0 0 44061107.595657349 -287019409.72853088 0 -287019409.72853088 -327340288.22525358 0 0 0 0 268966251.00835419 -316838993.24773788 0 -316838993.24773788 321499810.51838684 0 0 0 0 -29988667.150413513 -418622057.59564209 0 -418622057.59564209 351728925.27740479 0 0 0 0 -19270207.480064392 -57751416.009124756 0 -57751416.009124756 57693390.85194397 0 0 0 0 -132046751.66959381 -304110939.36399078 0 -304110939.36399078 149315118.00344849 0 0 0 0 17441226.32119751 -399979940.63363647 0 -399979940.63363647 -168142098.48576355 0 0 0 0 142607258.32492065 -348852404.58378601 0 -348852404.58378601 175940382.68127441 0 0 0 0 268373354.66897583 -530833324.17399597 0 -530833324.17399597 1037420551.9438171 0 0 0 0 361055128.39524841 161958118.22702026 0 161958118.22702026 483040823.56164551 0 0 0 0 402643694.08122253 -278573995.21098328 0 -278573995.21098328 206750375.3132782 0 0 0 0 116060884.28424072 -144038725.71121216 0 -144038725.71121216 190742085.6889801 0 0 0 0 714847640.98944092 -125839424.37513733 0 -125839424.37513733 -13163589.871459961 0 0 0 0 125903528.37939453 -429285571.22763062 0 -429285571.22763062 400966439.35630989 0 0 0 0 167444838.88491821 -249716569.13462067 0 -249716569.13462067 410394483.66168213 0 0 0 0 60687252.151855469 -281626058.04364014 0 -281626058.04364014 256757244.89276123 0 0 0 0 239178703.56808472 -428395632.96504211 0 -428395632.96504211 -10135549.730743408 0 0 0 0 493508748.2649231 -704273336.7424736 0 -704273336.7424736 878246433.06919861 0 0 0 0 231423395.49760437 -402108647.89334869 0 -402108647.89334869 135412340.09984589 0 0 0 0 -2640340.1376946978 -1896820.2292806357 0 -1896820.2292806357 1515936.9002310112 0 0 0 0 395286925.02722168 -761323211.6385498 0 -761323211.6385498 962896010.3550415 0 0 0 0 486611065.50875854 -734271682.52410889 0 -734271682.52410889 749194550.51837158 0 0 0 0 256485627.94372559 -199086990.2956543 0 -199086990.2956543 -90398851.442626953 0 0 0 0 282605005.21899414 -528745157.35235596 0 -528745157.35235596 660316326.85784912 0 0 0 0 441952918.80319214 -719650364.74363708 0 -719650364.74363708 808470347.43045044 0 0 0 0 377416452.7288208 -801322015.49737549 0 -801322015.49737549 743948885.59591675 0 0 0 0 397836162.51513672 -539065235.30426025 0 -539065235.30426025 329607659.16363525 0 0 0 0 466313486.74002075 -831837355.30432129 0 -831837355.30432129 963677942.28424835 0 0 0 0 398380082.91204834 -799476944.50079346 0 -799476944.50079346 989078460.61444092 0 0 0 0 458880035.11872864 -749321173.03019714 0 -749321173.03019714 1022036795.5737686 0 0 0 0 456638922.51560593 -791301303.5601635 0 -791301303.5601635 970147721.56887817 0 0 0 0 483158044.89447021 -548517934.65692139 0 -548517934.65692139 789836841.21058655 0 0 0 0 -25022177.390457153 -30344903.304840088 0 -30344903.304840088 23821677.177139282 0 0 0 0 129493828.05271149 64419881.012733459 0 64419881.012733459 11786725.558130264 0 0 0 0 -3096953.6935398467 -2767975.0548623428 0 -2767975.0548623428 544124.7656263262 0 0 0 0 1823459.6795685142 -200797.92750596255 0 -200797.92750596255 -494340.8836575225 0 0 0 0 256126550.81404877 57042617.840923309 0 57042617.840923309 -679457.50836181641 0 0 0 0 366980979.34092712 -344155108.13549805 0 -344155108.13549805 784264430.65635681 0 0 0 0 499184117.06703186 -641542200.90215302 0 -641542200.90215302 719051691.52133942 0 0 0 0 -231260.29969146848 -72543.222932636738 0 -72543.222932636738 411527.6091295965 0 0 0 0 283392056.44528961 27173124.484962463 0 27173124.484962463 -63820513.682991028 0 0 0 0 15243632.152069092 -192809665.33416367 0 -192809665.33416367 -308506970.59225082 0 0 0 0 -133470193.37607574 198492560.02418137 0 198492560.02418137 59236503.069671631 0 0 0 0 320155087.97885895 -60248660.411804199 0 -60248660.411804199 -417582818.07940674 0 0 0 0 -249148319.46049881 -213878828.43920517 0 -213878828.43920517 101202121.43643188 0 0 0 0 -3831954.6308910996 -2040103.4943057671 0 -2040103.4943057671 2044771.1458969712 0 0 0 0 -336396942.75564575 76708847.904342651 0 76708847.904342651 24903039.315512657 0 0 0 0 4381366.1073226929 23566131.520709991 0 23566131.520709991 -214721428.9818573 0 0 0 0 3032233.4202728271 18093827.28187561 0 18093827.28187561 -51606760.464599609 0 0 0 0 3969186.0201778412 -66399577.848643303 0 -66399577.848643303 -185300848.35481262 0 0 0 0 2081705.5638427734 -71306115.912708282 0 -71306115.912708282 -52631982.836540222 0 0 0 0 -91209942.863044739 -62011325.473733902 0 -62011325.473733902 -43057954.340835571 0 0 0 0 -202831129.39588165 -138027876.31685925 0 -138027876.31685925 -48444443.501533508 0 0 0 0 15379329.899688721 -165863592.24216843 0 -165863592.24216843 -50192320.739562988 0 0 0 0 142434427.23220062 -73727727.284557343 0 -73727727.284557343 99198984.155555725 0 0 0 0 -50181616.75453186 -97486278.821540833 0 -97486278.821540833 103297039.15299988 0 0 0 0 35164583.023849487 -144794999.93345642 0 -144794999.93345642 -69348658.654708862 0 0 0 0 -372438.86590228975 889636.52124715596 0 889636.52124715596 177910.7664768938 0 0 0 0 59467098.702362061 -260644566.19238281 0 -260644566.19238281 83708437.216993332 0 0 0 0 -94941971.487564087 -111759046.6803894 0 -111759046.6803894 250778698.27133942 0 0 0 0 -146921.36339395493 676850.89321839809 0 676850.89321839809 90161.605350034544 0 0 0 0 182628616.12548828 -115578433.85527802 0 -115578433.85527802 -422500401.64959097 0 0 0 0 102922177.32255554 -148605543.32302856 0 -148605543.32302856 115586047.84701538 0 0 0 0 -168311740.09382629 -120047134.38359451 0 -120047134.38359451 549641273.28878784 0 0 0 0 -327192389.53985596 -75659060.742069244 0 -75659060.742069244 180025548.0466156 0 0 0 0 99777439.3322258 139029557.38491249 0 139029557.38491249 53606884.262786865 0 0 0 0 28733184.703430176 -100366593.54391479 0 -100366593.54391479 179661743.47177362 0 0 0 0 16232598.038398743 -63653122.769111633 0 -63653122.769111633 78758826.265533447 0 0 0 0 56227865.033828735 -69380689.548469543 0 -69380689.548469543 -15025610.366088867 0 0 0 0 -11823021.447555542 -15254085.027000427 0 -15254085.027000427 -1531076.8349456787 0 0 0 0 -21620711.893447876 -35178425.020141602 0 -35178425.020141602 -28049297.098571777 0 0 0 0 -5102124.1588030942 -16100991.279506613 0 -16100991.279506613 -5162138.9937851876 0 0 0 0 -32627056.497497559 -22247267.551513672 0 -22247267.551513672 -293583.51422119141 0 0 0 0 -20578197.296157837 -21890672.71295166 0 -21890672.71295166 -1885614.6467285156 0 0 0 0 -11330424.926555634 -11204418.755378723 0 -11204418.755378723 2463172.3656921387 0 0 0 0 -7234052.4180764779 -19084720.669922374 0 -19084720.669922374 -712837.55574092269 0 0 0 0 -12211212.877128601 -8211831.3615264893 0 -8211831.3615264893 5193863.0134429932 0 0 0 0 -4730169.5650358777 -9465360.3708004467 0 -9465360.3708004467 6006132.9173936024 0 0 0 0 -18693907.895027161 -8657661.8271026611 0 -8657661.8271026611 3087559.7359313965 0 0 0 0 -18725853.106759444 -8811827.921093192 0 -8811827.921093192 1089120.9285259023 0 0 0 0 -27896256.006591797 -6632949.4070358276 0 -6632949.4070358276 4142773.3487854004 0 0 0 0 7057016.5690345764 -17333030.752399445 0 -17333030.752399445 -15967309.025299072 0 0 0 0 -49233295.721199036 -7240630.550819397 0 -7240630.550819397 4694403.544128418 0 0 0 0 -118114.23273416236 -490378.79781472683 0 -490378.79781472683 569229.7921615541 0 0 0 0 -15296850.574977234 -17576931.232121654 0 -17576931.232121654 -5243375.9409656525 0 0 0 0 -21639953.913894653 -16934468.146324158 0 -16934468.146324158 1875870.1228637695 0 0 0 0 -8043725.5114756925 -19374693.926292449 0 -19374693.926292449 -7272381.1565996632 0 0 0 0 -11319102.79662323 -14621668.01347065 0 -14621668.01347065 -2637227.4061279297 0 0 0 0 -83422515.208976746 -42127016.309867859 0 -42127016.309867859 -3899110.7992019653 0 0 0 0 -12256307.96619083 -8528310.428316012 0 -8528310.428316012 -3860973.8472324535 0 0 0 0 -16565829.895935059 -8312511.0469207764 0 -8312511.0469207764 -7704758.82188797 0 0 0 0 -10499726.865444183 -11799744.512269974 0 -11799744.512269974 -1994559.194732666 0 0 0 0 -21697898.287344571 -18999785.575331397 0 -18999785.575331397 -8456358.7116845474 0 0 0 0 -7661644.5521754185 -18987524.401453368 0 -18987524.401453368 -12686069.037452906 0 0 0 0 -13801363.407268524 -15894820.446224213 0 -15894820.446224213 -3289209.6518630981 0 0 0 0 -13611636.53162384 -18927294.247615814 0 -18927294.247615814 -228437.23403358459 0 0 0 0 -25503702.883915901 -26137657.248339653 0 -26137657.248339653 -6654726.8797683716 0 0 0 0 -5880630.746425393 -19290840.009000108 0 -19290840.009000108 -1390772.3222289383 0 0 0 0 -7278694.8475036621 -29363360.756334305 0 -29363360.756334305 -5027057.4613800049 0 0 0 0 -16532145.297056198 -17207454.445396423 0 -17207454.445396423 -5634350.8762717247 0 0 0 0 -16595760.254107703 -22689576.523441531 0 -22689576.523441531 -5902846.6981830075 0 0 0 0 2950355.0404663086 -20812410.78339386 0 -20812410.78339386 -17294650.424201965 0 0 0 0 -6529876.9295686651 -16025575.58167541 0 -16025575.58167541 -2729945.9470680319 0 0 0 0 -30390704.662745476 -22500045.194351196 0 -22500045.194351196 3476229.4809379578 0 0 0 0 -27630115.863009691 -36201123.381411552 0 -36201123.381411552 -20274133.509002686 0 0 0 0 -17515617.573869705 -20634339.140132904 0 -20634339.140132904 -2075812.6992759705 0 0 0 0 -10486701.417889468 -17624414.113478336 0 -17624414.113478336 1920168.5757570565 0 0 0 0 -34648507.249912262 -23904697.183391571 0 -23904697.183391571 -213397.37243270874 0 0 0 0 -22620003.040617466 -20995662.452749252 0 -20995662.452749252 -12126090.712348938 0 0 0 0 -12521411.387299161 -13885558.045880899 0 -13885558.045880899 -482345.50668209791 0 0 0 0 -6200308.8760259598 -11701945.08984811 0 -11701945.08984811 3539761.6652741432 0 0 0 0 -33053139.046167374 -31143456.657020569 0 -31143456.657020569 -9915285.80946064 0 0 0 0 -10722927.396880236 -13595630.338465862 0 -13595630.338465862 4320937.6864096969 0 0 0 0 -26262242.946084976 -28741911.784011841 0 -28741911.784011841 -955288.25708007812 0 0 0 0 -25648705.290546894 -20332539.704783678 0 -20332539.704783678 3606414.2394104004 0 0 0 0 -4468585.749782498 -10609165.699103916 0 -10609165.699103916 11090345.934295975 0 0 0 0 -66844895.389746189 -70381446.541000366 0 -70381446.541000366 3162247.6380119324 0 0 0 0 643418.14907988324 -2089507.9333242178 0 -2089507.9333242178 450051.79055279493 0 0 0 0 -41866378.115998745 49507642.516170502 0 49507642.516170502 134573090.77217102 0 0 0 0 43318608.345399857 -155691992.00123596 0 -155691992.00123596 15558385.068778992 0 0 0 0 -29298323.046303749 -26475511.126350403 0 -26475511.126350403 -5275756.0408782959 0 0 0 0 -44521255.446164131 -64102638.774303436 0 -64102638.774303436 16245963.767166138 0 0 0 0 -18939121.636545181 -32413324.491004944 0 -32413324.491004944 5504774.218963623 0 0 0 0 -44263600.469573975 -40414111.32850647 0 -40414111.32850647 -10296348.77525425 0 0 0 0 -25619930.694116592 -22195143.033370972 0 -22195143.033370972 -6447165.8782348633 0 0 0 0 -46783575.517868996 -13464141.153312683 0 -13464141.153312683 -9359811.5285415649 0 0 0 0 90662661.258598804 -130775929.79597855 0 -130775929.79597855 -76562527.662414551 0 0 0 0 1093240.8928392404 -731525.18899323791 0 -731525.18899323791 -722179.4321212694 0 0 0 0 96415829.547863007 -94042469.016036987 0 -94042469.016036987 -6427733.5043258667 0 0 0 0 30889605.13675499 -110053492.93239212 0 -110053492.93239212 35317503.828994751 0 0 0 0 9359292.9536514282 -30570213.787567139 0 -30570213.787567139 -35931628.622589111 0 0 0 0 519473940.09120178 -172099337.99505615 0 -172099337.99505615 242609528.52110147 0 0 0 0 -3551349.2762470245 -115092473.5898819 0 -115092473.5898819 -212180587.38980103 0 0 0 0 -1133621.5129473181 -189665.63118220121 0 -189665.63118220121 -2967699.154402975 0 0 0 0 54055318.480509281 -200093917.01812935 0 -200093917.01812935 133614908.10848999 0 0 0 0 -192325368.40213966 513595159.20220184 0 513595159.20220184 239425948.94360352 0 0 0 0 -185754431.9514966 -116538018.06943703 0 -116538018.06943703 -11085769.699279785 0 0 0 0 62915423.81075573 -62932808.781433105 0 -62932808.781433105 -150246666.41590881 0 0 0 0 -130055514.18350172 54815711.99382782 0 54815711.99382782 24822911.669555664 0 0 0 0 51211742.810081482 73133570.029693604 0 73133570.029693604 -15646411.002433777 0 0 0 0 -4389555.599023819 -60835101.416282654 0 -60835101.416282654 -11845558.003571272 0 0 0 0 26633983.761917114 21068119.147361755 0 21068119.147361755 -117039977.31365967 0 0 0 0 -83728801.649335861 -44158552.887550354 0 -44158552.887550354 94731489.35484314 0 0 0 0 -38660319.871255875 -33999568.316226959 0 -33999568.316226959 -5204903.24336344 0 0 0 0 -4683310.6866239291 -12552295.562135857 0 -12552295.562135857 9435378.1662667394 0 0 0 0 32728496.965964317 -101282908.2966156 0 -101282908.2966156 -45108845.679328918 0 0 0 0 -36719350.386693001 -33418113.280139923 0 -33418113.280139923 -10917155.772537231 0 0 0 0 -35679122.585168362 -30612266.067900658 0 -30612266.067900658 -13864363.201660156 0 0 0 0 -35917551.413455963 -32293009.840015411 0 -32293009.840015411 -10824257.344267845 0 0 0 0 -9591914.8813610021 -14072320.070787732 0 -14072320.070787732 966943.17096886039 0 0 0 0 -5339857.4637760641 -20108123.189625248 0 -20108123.189625248 3247538.8056210428 0 0 0 0 -24478204.659384966 -32575431.065887928 0 -32575431.065887928 -837016.60988616943 0 0 0 0 -22064269.472953796 -17493074.861091614 0 -17493074.861091614 5766262.1256866455 0 0 0 0 -19904431.551396068 -18109839.918055084 0 -18109839.918055084 14211246.470528249 0 0 0 0 -35578757.626371384 -76210382.259958267 0 -76210382.259958267 50618193.042981148 0 0 0 0 -24912107.79746424 -16336550.276165204 0 -16336550.276165204 26011589.389996871 0 0 0 0 -41388760.7809816 72603002.77939117 0 72603002.77939117 -19669031.356834412 0 0 0 0 4942416.1859321594 -34518244.614776611 0 -34518244.614776611 -32780171.157035828 0 0 0 0 4694318.6096906662 -36342422.609164715 0 -36342422.609164715 -8535364.2767410278 0 0 0 0 -25700487.154533386 -23141555.306255341 0 -23141555.306255341 -13899605.000778198 0 0 0 0 36755051.461040497 -47415862.967144012 0 -47415862.967144012 -17553113.809669495 0 0 0 0 -20379209.043359395 -22403197.930356409 0 -22403197.930356409 2965415.3031637184 0 0 0 0 -5161410.4575843811 -56019526.836521149 0 -56019526.836521149 25433563.232467651 0 0 0 0 -40731644.907188416 -56018485.30115509 0 -56018485.30115509 -6972270.1198348999 0 0 0 0 -9801757.3826418873 -20729414.045401119 0 -20729414.045401119 -561018.53807784617 0 0 0 0 -386180.18218612671 -36318117.935935974 0 -36318117.935935974 -8253511.9075012207 0 0 0 0 -1530030.6573383585 -3100059.5132409036 0 -3100059.5132409036 -2287844.2544916272 0 0 0 0 -50430590.373397827 -37059501.111106873 0 -37059501.111106873 -26512857.646972656 0 0 0 0 -79193327.625572205 -91907346.424343109 0 -91907346.424343109 14823090.745009422 0 0 0 0 -43343556.482889175 -47497437.026928902 0 -47497437.026928902 -4735746.8429260254 0 0 0 0 -802662.06747817993 -40216386.211158752 0 -40216386.211158752 -35330231.809844971 0 0 0 0 -2041246.7520179749 -34069342.710048676 0 -34069342.710048676 -36948907.344009399 0 0 0 0 -2251039.8416900635 -34093357.784126282 0 -34093357.784126282 -36926472.127174377 0 0 0 0 11868211.034534454 -51090079.087203979 0 -51090079.087203979 -17859700.952644348 0 0 0 0 -10037173.900544669 -17792622.525913365 0 -17792622.525913365 4898772.6856364552 0 0 0 0 -16548860.91519928 -25146782.776935577 0 -25146782.776935577 -42496879.672210693 0 0 0 0 -13357604.43936348 -13872549.74119091 0 -13872549.74119091 -46712260.253860474 0 0 0 0 -10840026.125205994 -34521090.696895599 0 -34521090.696895599 -37902560.437034607 0 0 0 0 21588916.043071747 -19814379.426834106 0 -19814379.426834106 18558146.966247559 0 0 0 0 17007943.801735401 -52877401.191269398 0 -52877401.191269398 -23848172.058837891 0 0 0 0 -32577236.450138092 -66320325.978193283 0 -66320325.978193283 30618795.303562164 0 0 0 0 -24662043.422512054 -23021126.72605896 0 -23021126.72605896 82560690.084266663 0 0 0 0 -17755142.037347794 -23782015.262989044 0 -23782015.262989044 19190752.187519789 0 0 0 0 -68376761.708953857 -46762275.246025085 0 -46762275.246025085 -4563218.2705535889 0 0 0 0 -19384118.632162772 -13888775.690464057 0 -13888775.690464057 15249432.83045304 0 0 0 0 -90418926.514709473 -21470279.960086823 0 -21470279.960086823 21651390.490566254 0 0 0 0 -1536226.4835583661 -1423241.2490055375 0 -1423241.2490055375 -898512.7511742264 0 0 0 0 -39227815.939239502 -44065524.974023819 0 -44065524.974023819 -40735129.148426056 0 0 0 0 -3773979.7125802375 4122895.8140138779 0 4122895.8140138779 5686155.3333531721 0 0 0 0 19036623.604217529 12107780.491184235 0 12107780.491184235 26631496.467681885 0 0 0 0 -21860102.736969694 -9781624.2476855069 0 -9781624.2476855069 11179162.839262817 0 0 0 0 55187.829257965088 -11686572.085536003 0 -11686572.085536003 -9895879.6217918396 0 0 0 0 -17926662.676498413 -30636545.113209248 0 -30636545.113209248 -305639.35955047607 0 0 0 0 -181995024.11037445 26983226.342579842 0 26983226.342579842 25713288.695659637 0 0 0 0 18907604.499734879 -21921240.733009338 0 -21921240.733009338 -27410666.413331985 0 0 0 0 -1405897.152661778 -1589773.5201220396 0 -1589773.5201220396 1285466.3651403561 0 0 0 0 -14368012.019489288 8547008.0021820068 0 8547008.0021820068 -12932577.231637955 0 0 0 0 -77345516.319768906 3368994.8365631104 0 3368994.8365631104 32518382.824352264 0 0 0 0 -59798810.258926392 -35516357.874477386 0 -35516357.874477386 76902677.389152527 0 0 0 0 26094156.519147873 -40556704.351587296 0 -40556704.351587296 6405596.0061187744 0 0 0 0 -170420723.9381218 -260195060.46182823 0 -260195060.46182823 82592403.276519299 0 0 0 0 -6249964.6335443389 -6893816.6429243973 0 -6893816.6429243973 5913734.4073740151 0 0 0 0 -13963785.853506301 -10391235.844386432 0 -10391235.844386432 16118279.521171581 0 0 0 0 -267733186.81878662 32646596.496291161 0 32646596.496291161 -115283117.10357952 0 0 0 0 -154047583.66643715 -327975403.84253597 0 -327975403.84253597 207645919.61321497 0 0 0 0 -256151782.15577412 -82333161.131498367 0 -82333161.131498367 439478502.01646709 0 0 0 0 112201353.68912792 26355436.96282506 0 26355436.96282506 -70613457.542715073 0 0 0 0 -98272410.953250885 -95210366.72785759 0 -95210366.72785759 165799469.35439968 0 0 0 0 -55874771.735923529 -4513582.738404274 0 -4513582.738404274 -24946519.95880127 0 0 0 0 -4588685.8146927878 -3038724.6091981092 0 -3038724.6091981092 -363761.91597325914 0 0 0 0 -68214463.507918358 -10404065.376198292 0 -10404065.376198292 85825467.548906326 0 0 0 0 -2939416.8267059326 -62334111.270954132 0 -62334111.270954132 -558339550.35065365 0 0 0 0 -83230816.071871281 -96511833.581503868 0 -96511833.581503868 49166961.355901718 0 0 0 0 -91118559.150960684 190527248.86452579 0 190527248.86452579 146592616.6854372 0 0 0 0 87826838.276025057 -155527110.31374264 0 -155527110.31374264 43195396.813640594 0 0 0 0 -15560282.521224855 -18862736.308272175 0 -18862736.308272175 -11830932.589787796 0 0 0 0 -39818359.253180027 -145717959.88631439 0 -145717959.88631439 173078085.59835422 0 0 0 0 -113908344.87846279 -1443417.1777229309 0 -1443417.1777229309 -2370595.3346557617 0 0 0 0 -135806389.54044533 -55411583.592570305 0 -55411583.592570305 100033275.25188828 0 0 0 0 -42487322.669109523 -56048789.60837841 0 -56048789.60837841 -12106966.217298508 0 0 0 0 -13905509.043269183 -29428304.568701968 0 -29428304.568701968 -17902952.056457672 0 0 0 0 -50806878.962561607 -61068247.738548279 0 -61068247.738548279 36231518.855559349 0 0 0 0 40453902.119980812 -105541846.97981644 0 -105541846.97981644 17132939.176850319 0 0 0 0 -6226530.6437451048 -13531775.972574838 0 -13531775.972574838 -55155.792245939374 0 0 0 0 2176559.9528312683 -18424396.492259979 0 -18424396.492259979 -8411293.1930456161 0 0 0 0 -19679083.023123473 -30270168.38391155 0 -30270168.38391155 -16519174.067886416 0 0 0 0 -6258634.6536769867 -18242424.905812263 0 -18242424.905812263 7999963.5405883789 0 0 0 0 -16205956.616577148 -17901721.21660614 0 -17901721.21660614 -1640214.8187255859 0 0 0 0 -16528435.136022568 -23076890.560962677 0 -23076890.560962677 -3695267.2813262939 0 0 0 0 -16320197.301936964 -22870928.097950485 0 -22870928.097950485 -7673421.0319312029 0 0 0 0 -33561679.840437412 -32707842.986570358 0 -32707842.986570358 -2130540.8843383789 0 0 0 0 -19114971.503442183 -30502780.906024024 0 -30502780.906024024 7619187.0312132407 0 0 0 0 -15416163.237533569 -23966348.341812134 0 -23966348.341812134 -5787960.1883544922 0 0 0 0 -31981657.129295349 -15560538.129943848 0 -15560538.129943848 -19069885.106719971 0 0 0 0 -26205121.92788814 -6910805.9135801382 0 -6910805.9135801382 33834492.577963278 0 0 0 0 -1124984.6659214208 -902828.33587998664 0 -902828.33587998664 -691526.29202643782 0 0 0 0 -18530144.497233685 -19109436.75463336 0 -19109436.75463336 11971311.122894041 0 0 0 0 -24267764.02161026 -23616310.716449738 0 -23616310.716449738 21800803.48097229 0 0 0 0 -16211784.547172546 -41818656.176826477 0 -41818656.176826477 16616760.867830276 0 0 0 0 -47539733.866378784 -26691513.89427948 0 -26691513.89427948 -24429062.94950676 0 0 0 0 -30668157.707069397 -46932830.191137314 0 -46932830.191137314 -1326664.4098129272 0 0 0 0 -3646381.6696567535 -28475612.295528412 0 -28475612.295528412 -11853599.378486633 0 0 0 0 -32366659.293586731 -43216985.433891296 0 -43216985.433891296 -9108025.9960021973 0 0 0 0 -1390099.9159360919 -1280704.762312171 0 -1280704.762312171 -803516.12486783043 0 0 0 0 -13756558.486232901 -19283141.32057485 0 -19283141.32057485 11746497.33997995 0 0 0 0 -7562205.42504026 -17992297.181117948 0 -17992297.181117948 -10513767.275945339 0 0 0 0 -17732991.638708115 -34516347.573439598 0 -34516347.573439598 -57580242.495285034 0 0 0 0 -42532296.681022644 -138216117.61040306 0 -138216117.61040306 -91151851.777568579 0 0 0 0 -41063642.797241211 -170725064.24915791 0 -170725064.24915791 -338987645.70739365 0 0 0 0 -105731.87066650391 -131654869.03807449 0 -131654869.03807449 -301999826.99169159 0 0 0 0 4527658.0574543625 -1323881.553360749 0 -1323881.553360749 -8115800.1709891129 0 0 0 0 -52601425.515054703 -109878363.6075474 0 -109878363.6075474 -168811081.81035614 0 0 0 0 -5141656.7057890743 -2367751.1051196568 0 -2367751.1051196568 4758966.0064233011 0 0 0 0 -491177.1389465332 -13634587.679466248 0 -13634587.679466248 -28390112.801567078 0 0 0 0 8636349.6342277974 -5515978.0010537915 0 -5515978.0010537915 -7511030.6773954509 0 0 0 0 -4286730.4030456543 -17686270.350896835 0 -17686270.350896835 -32390764.29368782 0 0 0 0 -84330442.594921112 -33871658.351562977 0 -33871658.351562977 -83650094.515789032 0 0 0 0 -31029021.218490601 -125050796.07180214 0 -125050796.07180214 -227794918.36606979 0 0 0 0 8399295.5446624756 -189520080.01767063 0 -189520080.01767063 -626370720.82315159 0 0 0 0 -214498936.33267212 -334387770.23242569 0 -334387770.23242569 -260953039.52151394 0 0 0 0 -184398880.67003822 -124276038.32485741 0 -124276038.32485741 80349193.058835983 0 0 0 0 -454292.30105377734 -556670.67210760713 0 -556670.67210760713 -2468077.0129972603 0 0 0 0 -73988968.363327026 -429927612.38095808 0 -429927612.38095808 -535210404.2206955 0 0 0 0 -130241511.16427612 -46879009.974904537 0 -46879009.974904537 -445030889.5499773 0 0 0 0 6251732.237326622 -182206074.21114284 0 -182206074.21114284 -398962232.97105408 0 0 0 0 54143.357856750488 -155883278.84400749 0 -155883278.84400749 -343982873.1187582 0 0 0 0 90571.586952209473 -137041283.34380865 0 -137041283.34380865 -222980708.18830872 0 0 0 0 32829887.43737793 -59650734.294933796 0 -59650734.294933796 -411125255.53753948 0 0 0 0 -74192.828834533691 -105185243.35867774 0 -105185243.35867774 115460176.54661703 0 0 0 0 41303408.253196716 -22594880.911586046 0 -22594880.911586046 -176961482.91343406 0 0 0 0 25114479.777471542 -114990362.04380652 0 -114990362.04380652 -89839943.946030617 0 0 0 0 823218609.64509583 275679531.15695047 0 275679531.15695047 119104901.84116793 0 0 0 0 239356455.75796509 -72274149.664501786 0 -72274149.664501786 -13634883.535419464 0 0 0 0 15503268.915908813 -134378959.9696734 0 -134378959.9696734 213426510.71795869 0 0 0 0 126664128.60073853 73834499.052763939 0 73834499.052763939 163075646.9362253 0 0 0 0 171541295.8298645 -116944941.99621582 0 -116944941.99621582 -179590793.26895666 0 0 0 0 216746904.01888275 -140545900.85418415 0 -140545900.85418415 -169568682.88542843 0 0 0 0 66788168.254272461 -239948923.60865831 0 -239948923.60865831 -296087561.81263924 0 0 0 0 72291189.46812439 -28645668.28644371 0 -28645668.28644371 -241664541.73062038 0 0 0 0 -13429077.566467285 -161137590.4075439 0 -161137590.4075439 -333499047.44280815 0 0 0 0 34363242.935882568 -201809805.12850571 0 -201809805.12850571 -336856587.75745773 0 0 0 0 -237761755.30623627 -314393428.87827921 0 -314393428.87827921 -376107552.61213875 0 0 0 0 -45275283.563766479 -337470178.52842808 0 -337470178.52842808 -425452923.44036484 0 0 0 0 -93223611.442672729 -316423362.47486019 0 -316423362.47486019 -305467843.13380241 0 0 0 0 -144719346.91213989 -415236727.30308533 0 -415236727.30308533 -254097754.38703156 0 0 0 0 -46112457.770721436 -369725224.71242237 0 -369725224.71242237 -246171285.93480682 0 0 0 0 -77255236.150085449 -263324197.85486031 0 -263324197.85486031 -168421472.87017298 0 0 0 0 -248553314.75036621 -357957044.41568184 0 -357957044.41568184 -134888061.7369957 0 0 0 0 -255563805.92112732 -519539086.53142166 0 -519539086.53142166 -232770663.47320175 0 0 0 0 42823316.09552002 -587937076.18271589 0 -587937076.18271589 -424297802.09172153 0 0 0 0 3201358.9767303467 -403051615.99120677 0 -403051615.99120677 -352054845.79722977 0 0 0 0 106878256.16674805 -357289502.90998268 0 -357289502.90998268 -333626876.22916651 0 0 0 0 197001157.13988304 -350211291.18499595 0 -350211291.18499595 -393199995.73329258 0 0 0 0 494760839.86514282 -172022463.48792887 0 -172022463.48792887 -302114098.50512338 0 0 0 0 343481366.33415222 -512414990.29733324 0 -512414990.29733324 -412995113.73935223 0 0 0 0 165887249.80892944 -437354387.37685347 0 -437354387.37685347 -379147366.77551329 0 0 0 0 -71284604.530059814 -818650051.32988167 0 -818650051.32988167 -726166910.63004875 0 0 0 0 226943278.87540436 -331002670.34724569 0 -331002670.34724569 -552898535.7823925 0 0 0 0 135946553.00154877 -278707315.89336246 0 -278707315.89336246 -62144577.555518627 0 0 0 0 593659606.06542969 -466743460.40448856 0 -466743460.40448856 13593509.081424475 0 0 0 0 -1154966998.5647583 -1885061262.5231006 0 -1885061262.5231006 -1080817286.0683668 0 0 0 0 419152594.79650879 94483320.077640057 0 94483320.077640057 -1734791480.4844661 0 0 0 0 651612271.86112213 -888730491.27378464 0 -888730491.27378464 -756447889.9899931 0 0 0 0 -1213776301.6459045 1273433854.1040988 0 1273433854.1040988 -635224789.4500891 0 0 0 0 -483308767.98928833 -1288846062.631011 0 -1288846062.631011 -1592236477.3587761 0 0 0 0 -1732745405.9761963 -782030469.07270718 0 -782030469.07270718 -118994917.01748657 0 0 0 0 -838585031.1678772 -695942429.19148731 0 -695942429.19148731 -186306978.63435459 0 0 0 0 -666834746.67581177 -484323200.01737118 0 -484323200.01737118 -84071399.761178017 0 0 0 0 -1595250627.9986305 37454367.774543405 0 37454367.774543405 18690019.090681076 0 0 0 0 -669178161.78141022 -526841689.60208297 0 -526841689.60208297 -6644316.6498737335 0 0 0 0 -1250032108.0251923 579220643.98246861 0 579220643.98246861 -602630496.39962864 0 0 0 0 4356210.8606436402 -2445495.5164135098 0 -2445495.5164135098 -6916475.511537822 0 0 0 0 29560948.637939453 234196071.22476959 0 234196071.22476959 -416984429.31645203 0 0 0 0 -934005953.77294922 123131914.79264259 0 123131914.79264259 48712096.343399048 0 0 0 0 80593858.512695312 -62025642.094596386 0 -62025642.094596386 -94771364.000547409 0 0 0 0 -1343447.5231120326 -12512207.23809687 0 -12512207.23809687 -11275289.607122216 0 0 0 0 658999.95082956553 -1274323.6068921536 0 -1274323.6068921536 -682346.90224774566 0 0 0 0 -252624609.06481934 268146516.97777367 0 268146516.97777367 49496847.822292328 0 0 0 0 -19470921.733947754 -102116375.39211178 0 -102116375.39211178 204231120.49158812 0 0 0 0 -272800836.26803589 -503019917.38123703 0 -503019917.38123703 -129165373.31736088 0 0 0 0 -599664022.50408936 -179365511.07699013 0 -179365511.07699013 43103988.348255157 0 0 0 0 -1081970066.026123 -228804786.54790211 0 -228804786.54790211 136755115.08047867 0 0 0 0 -492949924.97067261 -129012525.84947872 0 -129012525.84947872 64284592.148376465 0 0 0 0 -117192533.99987793 -108014620.76143456 0 -108014620.76143456 -34555583.995218277 0 0 0 0 -218571132.972229 -298939670.30081177 0 -298939670.30081177 -35874330.996827126 0 0 0 0 -524169673.3307972 -424216633.16554213 0 -424216633.16554213 -74003067.699094772 0 0 0 0 -131553836.51199341 -174538799.08786583 0 -174538799.08786583 -107238810.47467995 0 0 0 0 -315305185.12155151 -220752166.69932365 0 -220752166.69932365 -55458384.688554764 0 0 0 0 -93821177.801483154 -138234253.28335762 0 -138234253.28335762 -72311526.898972034 0 0 0 0 -73005987.761314392 -27445355.202108145 0 -27445355.202108145 23606474.183542252 0 0 0 0 -113845887.16249847 -120616530.0241133 0 -120616530.0241133 -16213810.713096619 0 0 0 0 73402656.159667969 -13233280.028655052 0 -13233280.028655052 -77344038.218552589 0 0 0 0 29402246.67364502 5800932.4172534943 0 5800932.4172534943 -52868304.557094574 0 0 0 0 -1748183.072052002 -54822173.827280045 0 -54822173.827280045 -89896656.139575958 0 0 0 0 16585142.677520752 -53287632.827697754 0 -53287632.827697754 -76669025.285457611 0 0 0 0 -31028703.815109253 -130367037.04053688 0 -130367037.04053688 -195245600.87905121 0 0 0 0 25085241.342360377 6753551.4768514726 0 6753551.4768514726 -29218411.252458133 0 0 0 0 8627213.1621704102 18751968.725450516 0 18751968.725450516 -22936198.291133881 0 0 0 0 39937435.542442322 -15657676.226149559 0 -15657676.226149559 -142012308.79443359 0 0 0 0 5271423.005645752 -54137844.848383904 0 -54137844.848383904 -105111271.22593307 0 0 0 0 -57915191.945678711 -114118313.22127628 0 -114118313.22127628 -145920618.69746399 0 0 0 0 -4252382.7595596313 -147651410.66262674 0 -147651410.66262674 -302978969.9556942 0 0 0 0 34959023.07484436 -82341306.463225365 0 -82341306.463225365 -215796183.18367577 0 0 0 0 43408849.280685425 -95912490.66080761 0 -95912490.66080761 -861993035.66154003 0 0 0 0 4690135.8958093375 -9416411.968264237 0 -9416411.968264237 -14031094.075584039 0 0 0 0 -6270630.0007629395 -75436345.245192528 0 -75436345.245192528 -212847628.05240822 0 0 0 0 -24149287.308959961 -50828593.24578476 0 -50828593.24578476 -10068653.740257263 0 0 0 0 11160479.747265816 -12134308.470595187 0 -12134308.470595187 -9440964.1709833518 0 0 0 0 8735350.7635116577 -25156875.488928795 0 -25156875.488928795 -15476517.322029114 0 0 0 0 1961083.5267944336 -29804022.64323616 0 -29804022.64323616 -33914200.538406372 0 0 0 0 4276606.9715610594 -22182784.738018617 0 -22182784.738018617 -15806391.109599184 0 0 0 0 57752759.425430298 -75994290.551548958 0 -75994290.551548958 -90814468.793083191 0 0 0 0 20044088.454833984 -9023289.3113956451 0 -9023289.3113956451 -88339130.223020554 0 0 0 0 -13410853.64359647 -7568775.6943898685 0 -7568775.6943898685 10450784.251939656 0 0 0 0 -8600262.7517242432 -23307498.818904877 0 -23307498.818904877 -17497905.628917694 0 0 0 0 -1327330.49157013 -31484712.192478623 0 -31484712.192478623 17672392.070439965 0 0 0 0 -7407129.8104400635 -113677387.10961151 0 -113677387.10961151 -547836771.08534241 0 0 0 0 -70320699.725219727 -366581097.95518494 0 -366581097.95518494 -423130047.68075562 0 0 0 0 -746425.11103054881 -32809656.552260902 0 -32809656.552260902 4857373.1701591769 0 0 0 0 112073714.15136719 -368603555.62853241 0 -368603555.62853241 -891476733.09463882 0 0 0 0 190402343.5456543 180075049.33576965 0 180075049.33576965 -168088197.05122375 0 0 0 0 6544935.6663208008 -20303608.847167969 0 -20303608.847167969 -9293086.4746685028 0 0 0 0 7095763.1140455604 -8415971.843551442 0 -8415971.843551442 -18165870.916936062 0 0 0 0 -32258645.384521484 25026360.30260849 0 25026360.30260849 -263238572.06305695 0 0 0 0 166819.7481443435 -37527640.452967435 0 -37527640.452967435 -4272391.5703258496 0 0 0 0 -3209892.0686950684 -25274038.176120758 0 -25274038.176120758 4150825.1094398499 0 0 0 0 28360993.794959798 12362642.851744212 0 12362642.851744212 -51272186.019440345 0 0 0 0 -2849004.8102034926 -29429367.949265741 0 -29429367.949265741 2715552.5100428117 0 0 0 0 22530741.059188843 138440722.18829346 0 138440722.18829346 -185262841.19837189 0 0 0 0 1728281.0102539062 -7019692.7693557739 0 -7019692.7693557739 -24492403.15530777 0 0 0 0 -81604008.846664429 92653064.262775421 0 92653064.262775421 197661741.91884613 0 0 0 0 2189804.1267068088 -34464277.877827272 0 -34464277.877827272 9568016.8711017221 0 0 0 0 2345270.5189741105 597841.95180086419 0 597841.95180086419 -6662394.5816334262 0 0 0 0 -192600362.75378418 195464562.46069336 0 195464562.46069336 -389511614.93664551 0 0 0 0 -135878586.98988342 -308661349.49374771 0 -308661349.49374771 -233903057.60443878 0 0 0 0 -411539.23383190483 -32828791.644520618 0 -32828791.644520618 -10004893.585801307 0 0 0 0 -1862415.5560150146 -18005506.958761215 0 -18005506.958761215 11187593.342399597 0 0 0 0 -126504020.9201355 -264833220.65773773 0 -264833220.65773773 -153684684.06719208 0 0 0 0 -1487080.9741696864 -34533464.097982161 0 -34533464.097982161 13805802.55584003 0 0 0 0 -278583904.38183594 -342837186.21728516 0 -342837186.21728516 -183524274.62887573 0 0 0 0 13589907.272857666 -177946052.66017532 0 -177946052.66017532 -262845281.45669174 0 0 0 0 208541650.48750305 -381783065.12258148 0 -381783065.12258148 -578976812.19444275 0 0 0 0 183786000.65875244 -187326555.08204651 0 -187326555.08204651 -1010070370.851162 0 0 0 0 -92798077.358669281 -44711409.496417999 0 -44711409.496417999 -757583607.61860657 0 0 0 0 117459582.61671448 -85754155.065177917 0 -85754155.065177917 -731161185.85666656 0 0 0 0 8750020.6206665039 -37532602.550064087 0 -37532602.550064087 -1057569785.8720703 0 0 0 0 16499820.514083862 -213582787.91914368 0 -213582787.91914368 -838546014.81181335 0 0 0 0 -45558643.975708008 -92212703.384399414 0 -92212703.384399414 -1332606068.423645 0 0 0 0 -18685624.622066498 69465329.130522728 0 69465329.130522728 -1037261855.4985046 0 0 0 0 -29287979.771560669 -77474622.839904785 0 -77474622.839904785 -763487288.30995178 0 0 0 0 98805059.806060791 61195991.363143921 0 61195991.363143921 -1243459639.4122314 0 0 0 0 -786688.42766737193 -28426482.518873848 0 -28426482.518873848 13873493.095223943 0 0 0 0 142482191.55490112 -37025245.338760376 0 -37025245.338760376 -1129562335.3383751 0 0 0 0 78074524.144836426 64037572.073974609 0 64037572.073974609 -1086222043.6683044 0 0 0 0 -34294833.500732422 -4973636.6146850586 0 -4973636.6146850586 -1128584291.1130524 0 0 0 0 16620537.164348602 90502671.913330078 0 90502671.913330078 -1114345436.4658813 0 0 0 0 937710.57006459683 -26282767.563932367 0 -26282767.563932367 4966986.8796374593 0 0 0 0 206790825.83135986 -7545438.5225143433 0 -7545438.5225143433 -18009816.47627449 0 0 0 0 -57026369.55809021 16478584.734359741 0 16478584.734359741 -1761665079.1582642 0 0 0 0 -197391462.21221924 -366169693.20991516 0 -366169693.20991516 -1342457046.603714 0 0 0 0 -27273406.542205811 170156188.45429993 0 170156188.45429993 -1546551004.1033897 0 0 0 0 -4780141.769344613 -30636497.791646708 0 -30636497.791646708 9990290.141855333 0 0 0 0 -28686568.323135376 -68201685.879371643 0 -68201685.879371643 -68195614.161298752 0 0 0 0 42474970.32774353 -119228959.49954605 0 -119228959.49954605 -31734208.279614687 0 0 0 0 133343394.35650635 -62896420.252861023 0 -62896420.252861023 -54567437.511444092 0 0 0 0 53560156.893676758 23512944.978229523 0 23512944.978229523 -1446914.6260528564 0 0 0 0 63431930.558044434 -163580031.4855423 0 -163580031.4855423 67932048.050682068 0 0 0 0 -81678330.786087036 -30569899.223594666 0 -30569899.223594666 -27370368.545829773 0 0 0 0 -26185346.417541504 -66633883.975250244 0 -66633883.975250244 -14793980.147850037 0 0 0 0 27040341.432098389 -94201275.329200745 0 -94201275.329200745 -183730505.53264618 0 0 0 0 -11407852.838500977 -7123554.8822479248 0 -7123554.8822479248 -17936578.766067505 0 0 0 0 4535159.6297067925 -6517417.4386447817 0 -6517417.4386447817 -25057002.148001574 0 0 0 0 -80687816.906158447 -27097640.917327881 0 -27097640.917327881 -15578039.085395813 0 0 0 0 -569955.00161768496 -1740328.8581234105 0 -1740328.8581234105 909480.57841916382 0 0 0 0 32786079.754069805 -57976632.896422505 0 -57976632.896422505 -166968667.41333389 0 0 0 0 5977992.5989532471 -138820174.26176453 0 -138820174.26176453 -190856482.0540266 0 0 0 0 84131159.171503067 -121966401.07794333 0 -121966401.07794333 -373140712.45021057 0 0 0 0 -46866470.99017334 -205414690.59129143 0 -205414690.59129143 -274654631.81096268 0 0 0 0 7425040.4550710842 -3290401.9180656839 0 -3290401.9180656839 -4570684.2325830236 0 0 0 0 32446557.168205261 -109316340.90607643 0 -109316340.90607643 -257902949.89439392 0 0 0 0 68757679.52784729 -75381126.177228928 0 -75381126.177228928 -239454868.49427223 0 0 0 0 -117926906.39783478 -95405663.169042587 0 -95405663.169042587 -93982359.54158783 0 0 0 0 6293858.6647807285 -5933064.8782076128 0 -5933064.8782076128 -8062536.981911527 0 0 0 0 12500178.57194519 -7630935.9015750885 0 -7630935.9015750885 -15658617.053458214 0 0 0 0 12941801.821643829 -162884711.85547733 0 -162884711.85547733 -305357683.76350403 0 0 0 0 -278622070.24995422 -208098859.1072464 0 -208098859.1072464 -157421949.66259766 0 0 0 0 12927965.8201828 -229579584.99215508 0 -229579584.99215508 -611392339.53135681 0 0 0 0 55082587.034393311 -85888895.454273224 0 -85888895.454273224 -252152106.77835846 0 0 0 0 -20017410.041534424 51589750.480064392 0 51589750.480064392 -55558721.816421509 0 0 0 0 26885519.301045328 -1060852.5307611376 0 -1060852.5307611376 -23279691.924283076 0 0 0 0 -29143718.6068573 -269864836.88506699 0 -269864836.88506699 -432408528.59201813 0 0 0 0 56723735.444137573 36894195.540149689 0 36894195.540149689 -391960615.72434235 0 0 0 0 8184328.5057474561 5823050.914516259 0 5823050.914516259 -7226578.7311947532 0 0 0 0 15917277.568702698 -12535882.440674782 0 -12535882.440674782 -13145703.839063644 0 0 0 0 44646613.483268738 -16769642.779791355 0 -16769642.779791355 -35484699.106145859 0 0 0 0 82700121.620605469 -34840805.836381912 0 -34840805.836381912 -60752885.730609894 0 0 0 0 9174488.5157827139 -10867434.322401129 0 -10867434.322401129 -25321540.473768875 0 0 0 0 11214917.072784424 -6346807.3776297569 0 -6346807.3776297569 -9982009.9034485817 0 0 0 0 2387641.0766143799 -7978038.3773622513 0 -7978038.3773622513 -11252208.819442749 0 0 0 0 11313189.223861694 -7602040.8107237816 0 -7602040.8107237816 -15254416.976993084 0 0 0 0 -1672687545.315361 -465949729.40578866 0 -465949729.40578866 696606215.20970917 0 0 0 0 4153867.726272583 -10721962.162252903 0 -10721962.162252903 -13270935.57583046 0 0 0 0 2651624737.8899536 1280488514.1693115 0 1280488514.1693115 -433439596.56518269 0 0 0 0 20499621.937683105 -9411414.7838646173 0 -9411414.7838646173 -12454900.601972103 0 0 0 0 15906667.883245543 -9766199.0184024628 0 -9766199.0184024628 -10631453.222403683 0 0 0 0 239319868.42364502 -906801022.38149643 0 -906801022.38149643 19873648.681626797 0 0 0 0 627805828.88339233 -469260828.69322157 0 -469260828.69322157 -973245530.5076952 0 0 0 0 629447300.66592407 -504693972.68086147 0 -504693972.68086147 -416032542.56387424 0 0 0 0 1346975272.9042263 584560966.19915724 0 584560966.19915724 -50782847.354104996 0 0 0 0 1495669338.688324 -521799283.27052927 0 -521799283.27052927 -676257295.00332546 0 0 0 0 3333187.6216793954 -6605590.2713519782 0 -6605590.2713519782 1624808.5123689107 0 0 0 0 110091393.89363098 723571350.75548124 0 723571350.75548124 847536669.30427551 0 0 0 0 -129346420.55975342 -37838698.39364624 0 -37838698.39364624 -86648117.114045888 0 0 0 0 -507121675.75061607 -783571030.44596219 0 -783571030.44596219 -1002725081.0466447 0 0 0 0 -455735712.30422211 -649638555.30428779 0 -649638555.30428779 -1137228689.1583209 0 0 0 0 -391147438.78747559 351905614.45150816 0 351905614.45150816 -423341187.20250583 0 0 0 0 301316416.54641724 300423512.50866973 0 300423512.50866973 -459260057.58633184 0 0 0 0 -665281377.72491455 -907893860.54265094 0 -907893860.54265094 -814857711.2907877 0 0 0 0 840247133.53224087 -1825908482.2219586 0 -1825908482.2219586 -751944606.22662973 0 0 0 0 543873485.02325439 -839227880.2062912 0 -839227880.2062912 -400749592.32010412 0 0 0 0 491572443.11385107 -706198017.07145131 0 -706198017.07145131 -617630339.86069489 0 0 0 0 479694716.49829102 -101358217.96492612 0 -101358217.96492612 -544922213.36397147 0 0 0 0 -38296669.667694092 -16252353.538835526 0 -16252353.538835526 18712291.62157774 0 0 0 0 560444087.30917358 -83332471.863418341 0 -83332471.863418341 -294773671.72286701 0 0 0 0 229279549.05152893 170685003.12293482 0 170685003.12293482 -263482664.90079176 0 0 0 0 48078751.081504822 162986495.7975142 0 162986495.7975142 448063875.91440296 0 0 0 0 12425128.78818059 -15909306.685805146 0 -15909306.685805146 1946345.3362323125 0 0 0 0 151252082.20027924 -308629202.85270113 0 -308629202.85270113 -402255862.57617396 0 0 0 0 238445205.23197174 66217948.098882675 0 66217948.098882675 17914570.262282848 0 0 0 0 -162482578.40490723 -533675399.31866646 0 -533675399.31866646 485261249.88841438 0 0 0 0 230489320.38023376 -123278746.94118118 0 -123278746.94118118 -244395006.06611443 0 0 0 0 226221914.69212341 -152175239.47028732 0 -152175239.47028732 -412091456.89917946 0 0 0 0 8976826.3859958053 -12896885.113943439 0 -12896885.113943439 -8263797.9907602519 0 0 0 0 1167034.0339927673 -15814442.662032366 0 -15814442.662032366 -21256605.207670212 0 0 0 0 4326026.8959655762 -7816524.1940574646 0 -7816524.1940574646 -15850944.567407608 0 0 0 0 -829392.94576106966 -15151313.706064802 0 -15151313.706064802 -6633438.2764464607 0 0 0 0 -1656579.7512741089 -15297676.818202496 0 -15297676.818202496 -18252033.536614418 0 0 0 0 8386961.4555907696 -1309546.5901002064 0 -1309546.5901002064 -2833594.7664640704 0 0 0 0 218628252.65107727 236270983.15366364 0 236270983.15366364 -61796022.878097534 0 0 0 0 192553232.99849701 336149541.77955055 0 336149541.77955055 -434010496.67684937 0 0 0 0 960669688.5461731 -576048388.96078491 0 -576048388.96078491 288724418.1926384 0 0 0 0 148651103.99319458 689745103.74809837 0 689745103.74809837 1987811406.2503357 0 0 0 0 2755953.8818170577 -3133610.9527696371 0 -3133610.9527696371 -2462390.3286574613 0 0 0 0 -791508.73716229945 -1694899.4973356295 0 -1694899.4973356295 141827.39791598544 0 0 0 0 144239979.56762695 -212851957.80757141 0 -212851957.80757141 1804856005.4270172 0 0 0 0 -2080407828.3789139 -1217643937.1026497 0 -1217643937.1026497 562444457.43902969 0 0 0 0 -1744194.0866224356 3349032.0666862689 0 3349032.0666862689 -4002637.3925856054 0 0 0 0 -1356670953.0366402 -1563237986.9274979 0 -1563237986.9274979 422713755.45100021 0 0 0 0 928861575.08982849 1556188807.7964516 0 1556188807.7964516 -696714923.94472504 0 0 0 0 860756012.39324951 438289845.37099242 0 438289845.37099242 -300738791.41753387 0 0 0 0 985085324.90888977 -398076902.23397398 0 -398076902.23397398 853875280.92709923 0 0 0 0 492165455.95861816 361542301.51289558 0 361542301.51289558 -308758068.15456891 0 0 0 0 60779812.292266846 -446868785.88981247 0 -446868785.88981247 305973363.60484314 0 0 0 0 58627660.830383301 -262342391.80335236 0 -262342391.80335236 2219257696.0964584 0 0 0 0 1139265860.7314072 -514537122.50656366 0 -514537122.50656366 31834442.50453949 0 0 0 0 -93641183.910217285 269115014.64082623 0 269115014.64082623 -415146205.63743305 0 0 0 0 -393783220.06404114 -910340138.80455685 0 -910340138.80455685 -4182212.9789409637 0 0 0 0 63241600.917388916 66400869.89045155 0 66400869.89045155 -1358847153.268856 0 0 0 0 1158258.3537860075 -306665.87298410758 0 -306665.87298410758 -830282.47803431563 0 0 0 0 209623802.53821564 -175556200.63055468 0 -175556200.63055468 -602475285.08719015 0 0 0 0 -7890935.2343956679 -12771291.145374643 0 -12771291.145374643 6482179.5114844888 0 0 0 0 449245760.84397888 -103457163.61865616 0 -103457163.61865616 -1315391559.9885387 0 0 0 0 -384210414.06070423 -765077583.77665007 0 -765077583.77665007 -1164885310.5738792 0 0 0 0 346035026.97691727 180424701.63551381 0 180424701.63551381 -564875140.5241245 0 0 0 0 164577294.55651855 -87652152.641281724 0 -87652152.641281724 -773574165.80726576 0 0 0 0 -115036638.50967407 224310068.50572935 0 224310068.50572935 -216225208.27662486 0 0 0 0 -2760958.7718415707 -4707338.5842921874 0 -4707338.5842921874 2300361.4371977211 0 0 0 0 -61013932.708274841 -18593388.985536575 0 -18593388.985536575 146751913.57517433 0 0 0 0 -59897930.396095276 -5702901.191971302 0 -5702901.191971302 65391167.863567352 0 0 0 0 -39900325.385665894 4557913.5968494415 0 4557913.5968494415 7290042.1837630272 0 0 0 0 -139558.74546603672 -15577791.631287053 0 -15577791.631287053 4399777.5199681502 0 0 0 0 -13795205.583099365 -25992926.002981424 0 -25992926.002981424 34944578.953653336 0 0 0 0 28333359.58228302 -101650334.56960154 0 -101650334.56960154 127766418.31833649 0 0 0 0 -495237304.06240082 -194461244.87984467 0 -194461244.87984467 201474450.98285294 0 0 0 0 582190.1739012897 -2174765.7570939437 0 -2174765.7570939437 -2058839.037444111 0 0 0 0 -766022725.80645752 -553703099.52299118 0 -553703099.52299118 114831167.23098755 0 0 0 0 -956352861.84143066 -532587408.65500641 0 -532587408.65500641 951523147.79949951 0 0 0 0 -746488290.72174072 -623375652.41050339 0 -623375652.41050339 -279657984.30950928 0 0 0 0 -586172289.62948608 -326872986.284729 0 -326872986.284729 -735128988.72172546 0 0 0 0 -623374471.3320694 -338264986.18458748 0 -338264986.18458748 -191269188.54782104 0 0 0 0 68632729.713348389 -379986530.26282477 0 -379986530.26282477 453033964.20723057 0 0 0 0 -65584307.988815308 -57025347.578322887 0 -57025347.578322887 87062962.588491917 0 0 0 0 -686426242.05914307 122009023.15049195 0 122009023.15049195 1202925777.8509274 0 0 0 0 -969880996.00128174 -326790814.83592606 0 -326790814.83592606 41701618.489898682 0 0 0 0 -851334795.33508301 -423428036.53079224 0 -423428036.53079224 -56672992.637901306 0 0 0 0 -1209545929.9649124 -724147049.01917458 0 -724147049.01917458 -63802436.827865601 0 0 0 0 -945660257.65139771 -379407345.21612549 0 -379407345.21612549 61689382.917480469 0 0 0 0 113660472.77713013 556213612.77688122 0 556213612.77688122 -530208886.85927391 0 0 0 0 -1580022.9881292805 7778345.3233616203 0 7778345.3233616203 -16795423.212746382 0 0 0 0 -849408716.69384766 -618217515.3664093 0 -618217515.3664093 -710834330.8041687 0 0 0 0 -927627981.18432617 -572061629.39716339 0 -572061629.39716339 119969257.25782013 0 0 0 0 68755513.513736725 -40670336.110593796 0 -40670336.110593796 -32958796.039951324 0 0 0 0 -47793557.602050781 -425193.49491119385 0 -425193.49491119385 -43115762.756240845 0 0 0 0 -531644556.42655182 -599458455.14958954 0 -599458455.14958954 -38273181.718559265 0 0 0 0 -13102433.887878418 2630039.5932922363 0 2630039.5932922363 -43454116.460600376 0 0 0 0 -24563656.481067657 -5940854.7348718643 0 -5940854.7348718643 -49134763.196043015 0 0 0 0 3728558.1584956124 -7447293.3111248277 0 -7447293.3111248277 -3309237.3630279154 0 0 0 0 -414750909.78334045 -39910081.915195465 0 -39910081.915195465 -731388977.42107391 0 0 0 0 1187303.6497569606 -7327070.2007042486 0 -7327070.2007042486 -6046792.7327849269 0 0 0 0 -608349844.55407715 -177846366.93006897 0 -177846366.93006897 -1121513623.4440689 0 0 0 0 -688707909.78930664 -136244834.3586731 0 -136244834.3586731 -318872177.2947998 0 0 0 0 -381056275.70602417 -749893737.15315247 0 -749893737.15315247 -171805923.61557007 0 0 0 0 -1181228276.5709076 98684900.14806366 0 98684900.14806366 -918651712.2401104 0 0 0 0 -63726973.457984924 -135442478.00636578 0 -135442478.00636578 -105627899.84064376 0 0 0 0 105860423.17178345 19204594.17345047 0 19204594.17345047 37855977.26625824 0 0 0 0 -205646444.30029297 -49294202.664649963 0 -49294202.664649963 900273078.21546936 0 0 0 0 -103156.95871035755 65440.761071518064 0 65440.761071518064 871231.84103544988 0 0 0 0 -8758376.7845485359 -22550444.221242223 0 -22550444.221242223 40814569.810614787 0 0 0 0 -131102966.42710876 -58364068.642835617 0 -58364068.642835617 -113391736.9979744 0 0 0 0 -686191600.08215332 -452779521.41441345 0 -452779521.41441345 -112081285.6350708 0 0 0 0 -366059519.56482697 -599122756.30841064 0 -599122756.30841064 -516124491.54490662 0 0 0 0 82125226.547883034 -2319253.5051383972 0 -2319253.5051383972 -852948771.87701416 0 0 0 0 -89488598.423797607 -277003052.48556519 0 -277003052.48556519 -887023131.92373657 0 0 0 0 -148118316.21963501 -453870243.50959778 0 -453870243.50959778 -491299058.70565033 0 0 0 0 -322297331.50330353 -942353663.08153915 0 -942353663.08153915 -1699156753.7618408 0 0 0 0 58132584.499328613 224910099.1162796 0 224910099.1162796 -369684786.96105194 0 0 0 0 -44796539.750198364 295558457.82411194 0 295558457.82411194 -174909809.41949272 0 0 0 0 5202554.4887364563 7386818.6086685844 0 7386818.6086685844 -6434720.1484589204 0 0 0 0 -641897787.67327118 -633328258.99846649 0 -633328258.99846649 -404572210.78027344 0 0 0 0 -338854061.62715518 -1394045744.8081543 0 -1394045744.8081543 -772587857.29507446 0 0 0 0 337522881.58242798 -1440059119.7006378 0 -1440059119.7006378 43164079.760025024 0 0 0 0 892740144.2915802 293973644.914711 0 293973644.914711 48008366.147689819 0 0 0 0 -339821320.86178589 -787046604.79199219 0 -787046604.79199219 -1455338646.67276 0 0 0 0 -62550892.345325351 -73567216.193819165 0 -73567216.193819165 -75512187.231876373 0 0 0 0 512565.88253913634 -32711503.101832431 0 -32711503.101832431 -12598678.826506184 0 0 0 0 -20530489.671183921 -6623872.7656577369 0 -6623872.7656577369 47828016.848296508 0 0 0 0 -2559991.7910677046 671482.48239309154 0 671482.48239309154 11603330.215532321 0 0 0 0 -1549347541.4133301 -719782611.80886841 0 -719782611.80886841 -1346862950.1091919 0 0 0 0 -2868079.1603693701 -17435597.057569005 0 -17435597.057569005 23532393.162167523 0 0 0 0 -29595105.461975098 -42514154.383285522 0 -42514154.383285522 -33844452.641296387 0 0 0 0 -936933987.47211456 -1229927243.142148 0 -1229927243.142148 -777611311.1582222 0 0 0 0 459370400.983284 18836778.714633942 0 18836778.714633942 -1700749392.1341782 0 0 0 0 -55091713.964286804 -196809912.70523453 0 -196809912.70523453 -53863210.665201187 0 0 0 0 1132219267.5916443 567581276.50244904 0 567581276.50244904 -1634466539.1340218 0 0 0 0 -22740484.310668945 -56785071.388183594 0 -56785071.388183594 -59602133.254600525 0 0 0 0 -10334778.095747225 -26393977.718728513 0 -26393977.718728513 29426320.766746297 0 0 0 0 4933890.3730316162 -22810636.850505829 0 -22810636.850505829 -76959468.256902695 0 0 0 0 -4771588.8552577496 -1750089.8669231692 0 -1750089.8669231692 4154006.6133494601 0 0 0 0 -591466510.65591431 -545676805.75079346 0 -545676805.75079346 -805799317.7857933 0 0 0 0 6362043.7085759751 -24614835.06577618 0 -24614835.06577618 -31658682.99668587 0 0 0 0 -1701942592.5634842 -1135235679.0804214 0 -1135235679.0804214 91331884.67376709 0 0 0 0 -6501178.2438019998 -25660891.949579246 0 -25660891.949579246 19913319.408972554 0 0 0 0 -901205006.53161526 -610228111.96295595 0 -610228111.96295595 -276072983.90328979 0 0 0 0 -1584242130.0910339 -756151720.58120728 0 -756151720.58120728 -222728884.06822205 0 0 0 0 -50100781.800186157 4239341.0020065308 0 4239341.0020065308 16801480.412078857 0 0 0 0 -62632796.065856934 -10618394.086051941 0 -10618394.086051941 21015992.581893921 0 0 0 0 55609817.607406616 -44115607.325317383 0 -44115607.325317383 -44976630.33663559 0 0 0 0 -1442210976.9201508 -413160666.88339996 0 -413160666.88339996 -273997415.66265869 0 0 0 0 -12949456.74723646 -19715728.670649759 0 -19715728.670649759 32082845.008094609 0 0 0 0 -26360007.59967041 67609681.432556152 0 67609681.432556152 66502801.134399414 0 0 0 0 -110217794.08879089 -59383054.956645966 0 -59383054.956645966 48196225.271659851 0 0 0 0 -1770757.8874659836 -553454.76495276298 0 -553454.76495276298 1568999.4070418961 0 0 0 0 -107438580.20500183 30225206.384559631 0 30225206.384559631 104509512.13005066 0 0 0 0 -56789614.533081055 -545107736.2154541 0 -545107736.2154541 -4842882992.817215 0 0 0 0 -2605704951.3407593 -581782901.61065674 0 -581782901.61065674 302463485.84216309 0 0 0 0 -1398304976.9276886 -1047646707.8809814 0 -1047646707.8809814 -1671769111.6893616 0 0 0 0 -909928.1203385219 -917753.27274468541 0 -917753.27274468541 2949028.5260352679 0 0 0 0 -1480627758.1020432 312587999.9287796 0 312587999.9287796 -1638093895.9186707 0 0 0 0 -1807639003.4934692 -188692020.81680298 0 -188692020.81680298 -1248124289.1681519 0 0 0 0 -2823137221.7271423 -1031098777.6358948 0 -1031098777.6358948 -1686959587.6320801 0 0 0 0 -1512409596.7566223 -1719323719.4626007 0 -1719323719.4626007 -3770465098.3063965 0 0 0 0 -773458811.60693359 -624201191.79492188 0 -624201191.79492188 -2301335253.2120972 0 0 0 0 248113262.59091187 125739574.82051086 0 125739574.82051086 -3368277430.6329956 0 0 0 0 -640573567.08755493 -711890248.91867065 0 -711890248.91867065 -2523990952.4526367 0 0 0 0 -769453635.84136963 -487154558.8553772 0 -487154558.8553772 -1491049617.8146362 0 0 0 0 -1253284463.1005402 -1043636997.4001617 0 -1043636997.4001617 -2125680658.4094238 0 0 0 0 -516287594.14395142 -549892374.41183472 0 -549892374.41183472 -1665003204.6910706 0 0 0 0 -599486364.72393799 -648591007.38009644 0 -648591007.38009644 -1749012705.1792669 0 0 0 0 -22877600.052246094 236714173.07659912 0 236714173.07659912 -2181930855.753418 0 0 0 0 -340653612.80725098 -231339817.70343018 0 -231339817.70343018 -1757494193.1494284 0 0 0 0 -241046564.84777069 -354675570.37753296 0 -354675570.37753296 -1089283327.9734344 0 0 0 0 -922998078.19204712 -238974645.90641785 0 -238974645.90641785 -361159859.81230927 0 0 0 0 -677338733.01332092 -181775744.82484436 0 -181775744.82484436 -1421225555.7297974 0 0 0 0 -552765306.36660767 147556601.48822021 0 147556601.48822021 -652841818.47135925 0 0 0 0 -131559448.03007507 -64821677.487731934 0 -64821677.487731934 -321991830.03070068 0 0 0 0 690594688.8337326 -25264701.558357239 0 -25264701.558357239 -711030171.98946381 0 0 0 0 806673362.42233276 -638934762.55599213 0 -638934762.55599213 -155581438.23663616 0 0 0 0 514087665.20352173 -161012350.55867004 0 -161012350.55867004 -91297481.691599846 0 0 0 0 6182186.5505212247 -14417911.368499123 0 -14417911.368499123 -55638812.186396778 0 0 0 0 354806936.2304306 -441906210.94252205 0 -441906210.94252205 449148635.11833191 0 0 0 0 4065360.651758112 -2767139.94787395 0 -2767139.94787395 -7202349.3669971377 0 0 0 0 -944078462.29493999 -357153619.48558998 0 -357153619.48558998 824693899.45188904 0 0 0 0 911942389.79934692 90187423.684013367 0 90187423.684013367 -396532365.24740601 0 0 0 0 20787904.168075562 173623669.78755188 0 173623669.78755188 -222946466.33642578 0 0 0 0 -23156715.989944458 302575773.29823303 0 302575773.29823303 -141480919.98557281 0 0 0 0 176202397.28042603 197352338.78374481 0 197352338.78374481 -89538845.47706604 0 0 0 0 298638506.17056274 144517098.95503998 0 144517098.95503998 -133462748.60967445 0 0 0 0 807670708.86656952 -127083301.89842415 0 -127083301.89842415 -341405538.57943726 0 0 0 0 417121467.59622955 -45924571.649353027 0 -45924571.649353027 -77986419.130823135 0 0 0 0 356082444.72545624 257837601.62383652 0 257837601.62383652 -507518046.09176636 0 0 0 0 58868701.750595093 172154725.07278442 0 172154725.07278442 -384732662.7594223 0 0 0 0 -446896186.03163147 287771678.55935669 0 287771678.55935669 -490461211.07876587 0 0 0 0 70692572.949268341 181601067.36036301 0 181601067.36036301 -865278765.96377563 0 0 0 0 -1015578919.7874756 406790638.95478821 0 406790638.95478821 -871549939.51075745 0 0 0 0 -438832860.6022644 193678817.21499634 0 193678817.21499634 -804696603.6856842 0 0 0 0 -501004566.85333252 250055449.29647827 0 250055449.29647827 -425948983.76208115 0 0 0 0 -898097090.05929565 206857194.41740417 0 206857194.41740417 -413920678.86508179 0 0 0 0 -14687957.208892822 303164829.09101486 0 303164829.09101486 -501014535.47283936 0 0 0 0 -574298358.61868286 -374564122.85546875 0 -374564122.85546875 -1494136319.5610371 0 0 0 0 -1334949870.8375854 -364676825.71296692 0 -364676825.71296692 -816479569.56085205 0 0 0 0 -792107229.96459961 -292944900.16067505 0 -292944900.16067505 -815300617.47385502 0 0 0 0 -1050709852.7481689 -265071679.77737427 0 -265071679.77737427 -1280884803.0719452 0 0 0 0 -1379832496.5187378 -89867405.628509521 0 -89867405.628509521 -720117862.27294922 0 0 0 0 -778522126.2088623 100898911.63122559 0 100898911.63122559 -709398430.02059555 0 0 0 0 -783482544.0824585 21467820.325134277 0 21467820.325134277 -171892574.17312622 0 0 0 0 -655746490.31829834 38447573.525787354 0 38447573.525787354 -404378558.22105408 0 0 0 0 -1090452150.4789734 -100565799.12330627 0 -100565799.12330627 -445098720.76885986 0 0 0 0 -651656677.27187347 -96922954.207313538 0 -96922954.207313538 -211118562.32095337 0 0 0 0 -733490512.49398804 -136074861.05883789 0 -136074861.05883789 -560668622.13580322 0 0 0 0 -740309725.06811523 -272274109.05015564 0 -272274109.05015564 -457835496.71165466 0 0 0 0 -486451892.04213715 -318813922.77657318 0 -318813922.77657318 -596083493.40560913 0 0 0 0 -723110761.32579422 -386961259.11238289 0 -386961259.11238289 -609119974.85089111 0 0 0 0 -456043076.51708412 -78953974.388222694 0 -78953974.388222694 -209793159.52127075 0 0 0 0 -530524923.71188354 -174666491.17681885 0 -174666491.17681885 18805724.95690918 0 0 0 0 -563459146.64906311 67135007.097747803 0 67135007.097747803 44021132.285247803 0 0 0 0 -453894957.1116333 35136178.26121521 0 35136178.26121521 -172121303.57809448 0 0 0 0 -453262573.58200073 -29246492.984062195 0 -29246492.984062195 286473558.56561279 0 0 0 0 -337476890.83007812 -28837544.204330444 0 -28837544.204330444 80803766.879081726 0 0 0 0 -333644707.53392029 -51689647.801986694 0 -51689647.801986694 88979211.323944092 0 0 0 0 -404006191.6714325 -212822326.77893829 0 -212822326.77893829 220688779.16799927 0 0 0 0 -44493167.270299911 175920632.1882782 0 175920632.1882782 -135610434.02755737 0 0 0 0 -371338032.54391479 334223800.81718445 0 334223800.81718445 -209765683.19290161 0 0 0 0 -530596788.95733643 208845224.98733521 0 208845224.98733521 -23961147.897972107 0 0 0 0 -417009707.52367783 125543566.02018166 0 125543566.02018166 -243732232.76013184 0 0 0 0 -428449316.81716919 46753615.67603302 0 46753615.67603302 221384433.8800354 0 0 0 0 -229701564.25100708 114176094.83724976 0 114176094.83724976 3983032.5437469482 0 0 0 0 -281560536.56773376 221190598.1390686 0 221190598.1390686 48824356.854690552 0 0 0 0 -32283934.138214111 99871991.232528687 0 99871991.232528687 101841782.06504059 0 0 0 0 -158307987.99818802 121160124.78408241 0 121160124.78408241 199505224.64086914 0 0 0 0 -210071449.27141571 -47689840.593107224 0 -47689840.593107224 360504314.55877686 0 0 0 0 -46654660.704467773 -98061837.421401978 0 -98061837.421401978 333574215.76662064 0 0 0 0 21098390.568283081 -6530236.9356231689 0 -6530236.9356231689 274513723.23776245 0 0 0 0 -249987107.74954224 39754536.285888672 0 39754536.285888672 218019044.0028801 0 0 0 0 -271658454.50912476 -167518324.23246765 0 -167518324.23246765 333798276.45049667 0 0 0 0 -170523134.69424057 -295903996.93036652 0 -295903996.93036652 605432831.23564148 0 0 0 0 -295449105.95097351 -89819419.630851746 0 -89819419.630851746 494417198.74884033 0 0 0 0 -205595757.84732819 -351531967.48874664 0 -351531967.48874664 556076066.25132751 0 0 0 0 -211866892.16065598 -175608061.24718666 0 -175608061.24718666 481175649.54846191 0 0 0 0 33347077.179641724 -500239996.02539062 0 -500239996.02539062 590411252.66540527 0 0 0 0 778899.19042873383 -702160.80012536049 0 -702160.80012536049 -630483.35533120856 0 0 0 0 147871029.7071228 -226004569.25906372 0 -226004569.25906372 444407931.69738388 0 0 0 0 33695389.39289856 -141088890.26319885 0 -141088890.26319885 415995825.74170685 0 0 0 0 -86612915.626174927 -21540001.6354599 0 -21540001.6354599 338339366.85339355 0 0 0 0 14180097.869018555 -141395698.28268433 0 -141395698.28268433 522150135.39706421 0 0 0 0 56165200.488510132 -129903328.82138062 0 -129903328.82138062 421447170.28826904 0 0 0 0 175181987.92783356 -127543218.40104675 0 -127543218.40104675 327717976.84147644 0 0 0 0 188005311.15246582 -39533066.592811584 0 -39533066.592811584 42225276.031814575 0 0 0 0 83247569.713554382 -36060220.13593483 0 -36060220.13593483 236696668.07763672 0 0 0 0 152271673.23704529 76055727.192199707 0 76055727.192199707 126104341.43930054 0 0 0 0 -2452560.8106994629 45337532.861068726 0 45337532.861068726 240973366.63667727 0 0 0 0 146791090.75178528 144680174.09052277 0 144680174.09052277 13697361.322814941 0 0 0 0 -50283531.804481506 195239980.9826479 0 195239980.9826479 60255476.350036621 0 0 0 0 201328497.18461037 120897294.60344315 0 120897294.60344315 5350778.2422790527 0 0 0 0 271420283.03637695 123034776.01599884 0 123034776.01599884 10864264.47885704 0 0 0 0 287092226.37284088 35405768.453384399 0 35405768.453384399 98572355.202102661 0 0 0 0 297229522.2545166 -10852120.426765442 0 -10852120.426765442 149422033.54069519 0 0 0 0 304405194.35601807 -300128269.98445129 0 -300128269.98445129 254628877.36014557 0 0 0 0 315417817.93523979 -345932779.78210258 0 -345932779.78210258 706291855.98077393 0 0 0 0 181331391.93742371 -283112077.87265396 0 -283112077.87265396 338774255.48800659 0 0 0 0 96962494.959197998 -155753116.68702698 0 -155753116.68702698 320873854.12838745 0 0 0 0 169719272.68754196 -291381161.35106468 0 -291381161.35106468 468202224.05804443 0 0 0 0 617124103.13949585 -709880743.36456299 0 -709880743.36456299 620790663.31303787 0 0 0 0 -9999293.7807922363 -15411794.244400024 0 -15411794.244400024 8114783.3721008301 0 0 0 0 -969476.01181501895 -538742.52649680525 0 -538742.52649680525 455050.35730067268 0 0 0 0 548595971.08737183 -435759972.77875519 0 -435759972.77875519 668467516.30404282 0 0 0 0 13400155.693511963 -95857346.961349487 0 -95857346.961349487 535793192.78151321 0 0 0 0 39960184.428161621 5645348.8358001709 0 5645348.8358001709 375975.05999755859 0 0 0 0 663290.99050303549 -2582462.6742101945 0 -2582462.6742101945 -1428980.3860467561 0 0 0 0 746130102.1194458 -905734712.51908875 0 -905734712.51908875 662862850.09651852 0 0 0 0 -188348.81699194759 20699.463944330812 0 20699.463944330812 747306.45413512737 0 0 0 0 661903956.28657532 -634585217.69510651 0 -634585217.69510651 1019720235.9478836 0 0 0 0 234803042.45852661 -566767995.35783386 0 -566767995.35783386 1055599682.7704315 0 0 0 0 252751662.83771515 -783724437.34942245 0 -783724437.34942245 841281122.69915771 0 0 0 0 121310847.48019409 -620461419.39177704 0 -620461419.39177704 1044746701.72229 0 0 0 0 568609884.14935303 -781834873.12493896 0 -781834873.12493896 1009791016.3913879 0 0 0 0 618693736.41110229 -646020450.20921326 0 -646020450.20921326 892852545.448349 0 0 0 0 718931582.12184906 -833446824.89430428 0 -833446824.89430428 1004135762.3886261 0 0 0 0 664231358.16175842 -561590728.96668243 0 -561590728.96668243 842095089.18714905 0 0 0 0 823772056.71190798 -963567598.33492851 0 -963567598.33492851 1235364690.6573792 0 0 0 0 826421410.78593445 -708692743.36336517 0 -708692743.36336517 1027861591.6989212 0 0 0 0 973024648.81081009 -762504082.94832039 0 -762504082.94832039 1235598077.4648895 0 0 0 0 508946633.62512207 -781840158.2913208 0 -781840158.2913208 1271557855.3327866 0 0 0 0 691388484.12625122 -957252841.10946655 0 -957252841.10946655 1561495050.567215 0 0 0 0 486002750.86010742 -874146480.84894562 0 -874146480.84894562 1221791249.8371782 0 0 0 0 391285298.31249237 -566752566.75814438 0 -566752566.75814438 1175605193.6682739 0 0 0 0 921473596.03469849 -1475935101.15448 0 -1475935101.15448 1696562740.2537003 0 0 0 0 939629053.08929443 -1639604990.3462753 0 -1639604990.3462753 1556319983.3721542 0 0 0 0 1448340919.2422371 -1270561647.0323925 0 -1270561647.0323925 1193377504.9748383 0 0 0 0 871763946.5510006 -1015693508.6468821 0 -1015693508.6468821 1632807550.3260803 0 0 0 0 1119718244.1798401 -817867767.53898621 0 -817867767.53898621 1307014514.9352264 0 0 0 0 923118619.7809906 -777560174.85315704 0 -777560174.85315704 1011218111.0321198 0 0 0 0 791078044.23645782 -1190733825.3788834 0 -1190733825.3788834 1244578664.4542236 0 0 0 0 603421198.2150116 -1534577389.2384491 0 -1534577389.2384491 1447931404.1200867 0 0 0 0 737871664.57865906 -1108164895.7882538 0 -1108164895.7882538 1157512887.3483887 0 0 0 0 939865753.29078674 -1585150559.2278214 0 -1585150559.2278214 1446042565.7110291 0 0 0 0 751779091.06388855 -1465544631.6461487 0 -1465544631.6461487 1438061204.9534149 0 0 0 0 308026100.13327026 -1202498917.6904984 0 -1202498917.6904984 1359605589.6065712 0 0 0 0 537725138.74178314 -963330138.63180923 0 -963330138.63180923 1110333537.2703552 0 0 0 0 484679134.72711182 -953165734.4283905 0 -953165734.4283905 1128633188.6741028 0 0 0 0 540058262.14445496 -655071683.33308411 0 -655071683.33308411 906410756.71045685 0 0 0 0 701105730.78056335 -935214199.5109024 0 -935214199.5109024 1003511710.7918091 0 0 0 0 534270709.1930542 -1034487838.7100372 0 -1034487838.7100372 1208184289.5559158 0 0 0 0 442322505.60038376 -759498889.51688004 0 -759498889.51688004 961656934.14056396 0 0 0 0 393919495.96325684 -823176826.54439545 0 -823176826.54439545 884703339.69059753 0 0 0 0 280581764.19824219 -633255438.15655518 0 -633255438.15655518 995480165.70069122 0 0 0 0 13869878.549530029 -2562757.8856964111 0 -2562757.8856964111 12134792.184242249 0 0 0 0 19917371.748825073 -193755972.07350159 0 -193755972.07350159 550524122.21296692 0 0 0 0 286938599.29989624 -524342551.1240387 0 -524342551.1240387 878580056.53852463 0 0 0 0 519837236.39048767 -743750509.42443848 0 -743750509.42443848 797600114.30971527 0 0 0 0 3293242.1949455962 -1109123.9516367912 0 -1109123.9516367912 -1218592.1796868034 0 0 0 0 73334514.202033997 -303028920.05143356 0 -303028920.05143356 526913432.08132935 0 0 0 0 -2284860.8744485602 -1184266.2325698137 0 -1184266.2325698137 19366.00190891698 0 0 0 0 102896168.39193726 -214423990.73695374 0 -214423990.73695374 465115436.61243439 0 0 0 0 164009478.02702332 -1062619347.766983 0 -1062619347.766983 1399472549.3109131 0 0 0 0 321093070.91474915 -739380858.8272171 0 -739380858.8272171 1006724568.1701965 0 0 0 0 279212404.10742188 -728700565.80209351 0 -728700565.80209351 1061038025.4387817 0 0 0 0 259274498.04347229 -386056826.40182495 0 -386056826.40182495 654000620.81329346 0 0 0 0 -117189156.8016386 -813630096.58420992 0 -813630096.58420992 1303891660.9258118 0 0 0 0 -146106473.38795471 -571224996.94962311 0 -571224996.94962311 1220059046.5049744 0 0 0 0 337828996.86576843 -1250348143.3105392 0 -1250348143.3105392 1536832421.2211494 0 0 0 0 8300886.1406707764 -791913412.41036224 0 -791913412.41036224 1742853677.6053886 0 0 0 0 563124345.68846893 -1227556909.4882545 0 -1227556909.4882545 1892495022.2207642 0 0 0 0 214803118.72984314 -1177428598.4085121 0 -1177428598.4085121 2368298546.9204102 0 0 0 0 752677775.87928772 -2086965278.292778 0 -2086965278.292778 2077346782.8119049 0 0 0 0 159195830.23493195 -1008879039.0827484 0 -1008879039.0827484 1486075043.9996643 0 0 0 0 449212080.81534576 -1428926992.1057014 0 -1428926992.1057014 1697182624.5589294 0 0 0 0 508424027.05588913 -1722276979.0894318 0 -1722276979.0894318 1554399225.5765686 0 0 0 0 588769407.47625732 -1556907856.7816696 0 -1556907856.7816696 1513904267.8576584 0 0 0 0 570535734.88209534 -1703567659.6055222 0 -1703567659.6055222 1555720350.8694458 0 0 0 0 855743843.5019989 -1508393201.2038651 0 -1508393201.2038651 1061559591.9525681 0 0 0 0 587817534.2229538 -1716825998.2128716 0 -1716825998.2128716 1545089243.9982376 0 0 0 0 934437897.62919617 -1717595966.4410858 0 -1717595966.4410858 1492383044.9476318 0 0 0 0 1565821327.3295746 -796522382.63195801 0 -796522382.63195801 221132961.33629036 0 0 0 0 898216822.87539673 -1598161760.0297852 0 -1598161760.0297852 1231288389.5777054 0 0 0 0 1069576440.133667 -1815957468.0152664 0 -1815957468.0152664 1202393732.4538612 0 0 0 0 3587316063.8642998 -1130027237.9189587 0 -1130027237.9189587 184863214.74848175 0 0 0 0 609779661.48254395 126586754.54886627 0 126586754.54886627 -63556385.741989136 0 0 0 0 -141244.26015419513 -3958413.6495248564 0 -3958413.6495248564 7556103.4069601521 0 0 0 0 2005095402.0886765 -3023836170.101326 0 -3023836170.101326 2733271285.9375763 0 0 0 0 399201810.21650314 -1077248871.7890301 0 -1077248871.7890301 4122075871.0100555 0 0 0 0 1822069626.1549911 -778545744.95947647 0 -778545744.95947647 1772882593.946846 0 0 0 0 637454042.20925903 -1256372016.2730255 0 -1256372016.2730255 1589354490.830574 0 0 0 0 313517555.15991211 -825660490.82535553 0 -825660490.82535553 893279361.31459808 0 0 0 0 230373285.55882645 -627399368.23983192 0 -627399368.23983192 1182445133.4285431 0 0 0 0 307419219.62600708 -691877561.9431076 0 -691877561.9431076 1000987506.9578857 0 0 0 0 548226353.87257385 -512761237.58005905 0 -512761237.58005905 256066074.89437866 0 0 0 0 323210951.60336304 -316877681.93443298 0 -316877681.93443298 629799389.0790863 0 0 0 0 963902861.36199188 -354964991.52152824 0 -354964991.52152824 1172668859.1246338 0 0 0 0 311925854.90019226 -675472170.76005363 0 -675472170.76005363 1125524210.4526672 0 0 0 0 178964030.50186157 -719445146.70558167 0 -719445146.70558167 2232809080.8044052 0 0 0 0 -32691700.953781128 -467868939.76929474 0 -467868939.76929474 1289263624.3006668 0 0 0 0 53683056.740318298 -318482603.5352478 0 -318482603.5352478 651919869.18914795 0 0 0 0 105113988.66967773 -750610385.71041107 0 -750610385.71041107 852835564.57087708 0 0 0 0 -230308487.90190125 -309825516.64765167 0 -309825516.64765167 967678677.71160889 0 0 0 0 -258176013.29367065 -278180976.49061584 0 -278180976.49061584 725440759.99099731 0 0 0 0 -64824815.483283997 -108994505.22654724 0 -108994505.22654724 465835236.99160767 0 0 0 0 79653115.956939697 -299049850.23232651 0 -299049850.23232651 224990384.93881226 0 0 0 0 -180771540.41660309 -276716609.83391571 0 -276716609.83391571 425456056.46405029 0 0 0 0 -259172778.60623169 -85899939.870285034 0 -85899939.870285034 325802432.1124649 0 0 0 0 -222113417.63726807 -291633726.85772705 0 -291633726.85772705 271956232.39929199 0 0 0 0 428174160.51118469 -308467161.71966553 0 -308467161.71966553 605783423.5191803 0 0 0 0 -40755556.574935913 -364873938.9440155 0 -364873938.9440155 608546503.49386597 0 0 0 0 195524956.16588879 -503762180.05053043 0 -503762180.05053043 394202926.58389282 0 0 0 0 213084316.37530518 -209818375.55205536 0 -209818375.55205536 118037827.9209137 0 0 0 0 36325334.822596073 -188490073.61577606 0 -188490073.61577606 -82640310.057922363 0 0 0 0 26501437.265552521 -413685912.47193265 0 -413685912.47193265 -90787972.422454834 0 0 0 0 80926491.870391846 -159285980.18769836 0 -159285980.18769836 -233230037.32595825 0 0 0 0 -289520653.33276367 -121346335.62911987 0 -121346335.62911987 -8462242.0352783203 0 0 0 0 -285909425.86334229 -307944610.99057007 0 -307944610.99057007 -5199568.9552001953 0 0 0 0 -165489758.9324646 -346467933.10821533 0 -346467933.10821533 222364769.76332092 0 0 0 0 -135719555.26583862 -165190000.33407593 0 -165190000.33407593 120808535.50212097 0 0 0 0 -139616232.35681152 -394344633.1678009 0 -394344633.1678009 -290692693.7106781 0 0 0 0 -200423193.54440308 -156991015.79568481 0 -156991015.79568481 -183532889.42788696 0 0 0 0 -475862547.1560154 -278396305.93860817 0 -278396305.93860817 -130107896.81427002 0 0 0 0 -404565298.83932495 -161968724.73194885 0 -161968724.73194885 -313976699.57725525 0 0 0 0 -355065918.63765717 -347127310.74134254 0 -347127310.74134254 -387157403.60998535 0 0 0 0 -154234861.55319214 -201541372.21742249 0 -201541372.21742249 -686165815.06182861 0 0 0 0 -143841405.08544064 -373823926.45118952 0 -373823926.45118952 -753379341.05697632 0 0 0 0 -86663650.900192261 -97021163.100357056 0 -97021163.100357056 -754601104.16265869 0 0 0 0 -78021282.606369019 -199909406.95902252 0 -199909406.95902252 -1214440059.4967651 0 0 0 0 -351354560.55731201 -312426959.65620422 0 -312426959.65620422 -736938562.48574829 0 0 0 0 -355133334.69050598 -245240813.47186279 0 -245240813.47186279 -1102144044.5447693 0 0 0 0 -343357651.97309875 -348096843.8787384 0 -348096843.8787384 -1124277160.4940186 0 0 0 0 190434683.9970665 -367878798.56354904 0 -367878798.56354904 -406940737.51675415 0 0 0 0 44757824.833679199 -209206420.43245411 0 -209206420.43245411 -416083692.49963379 0 0 0 0 -14462916.745559692 -343804872.49935913 0 -343804872.49935913 -473633497.33071899 0 0 0 0 -41380482.248657227 -152147570.30978394 0 -152147570.30978394 -439716806.57724762 0 0 0 0 52761068.431190491 -228367381.95706177 0 -228367381.95706177 -980439192.58959961 0 0 0 0 77650545.474304199 -56424085.500030518 0 -56424085.500030518 -732334973.66290283 0 0 0 0 71217947.444961548 -330865191.91426277 0 -330865191.91426277 -343921669.01081848 0 0 0 0 178517749.08598328 -115540308.90276337 0 -115540308.90276337 -791644137.89240265 0 0 0 0 263046045.10115051 -284873906.76810455 0 -284873906.76810455 -333012724.84152222 0 0 0 0 258251344.32687378 -542051675.66053391 0 -542051675.66053391 -55264916.200637817 0 0 0 0 103759878.03302765 -503927522.45933151 0 -503927522.45933151 289910571.70213318 0 0 0 0 288893310.34314728 -528829282.74768829 0 -528829282.74768829 271890754.0010376 0 0 0 0 207588182.4115448 -247647162.61776733 0 -247647162.61776733 -185034311.14527893 0 0 0 0 188382022.30142212 -512112504.61442566 0 -512112504.61442566 304143983.07302856 0 0 0 0 -252367996.55325317 -119117803.00801086 0 -119117803.00801086 900611848.06065369 0 0 0 0 -37718431.296279907 -316709986.04219818 0 -316709986.04219818 151448570.14862061 0 0 0 0 -87905608.030136108 -598729609.36624146 0 -598729609.36624146 918619258.76752472 0 0 0 0 -51962434.549026489 -349567212.99680328 0 -349567212.99680328 408794598.71134949 0 0 0 0 86811180.717712402 -749719526.66078568 0 -749719526.66078568 979919108.56590271 0 0 0 0 -20888818.870010376 -180152336.31343842 0 -180152336.31343842 -238544645.39434052 0 0 0 0 152432505.06513977 -439733324.05805969 0 -439733324.05805969 -387514808.57415771 0 0 0 0 -161609479.4342804 -346486527.41559219 0 -346486527.41559219 157624751.41850281 0 0 0 0 -51059713.061508179 -233555076.70487213 0 -233555076.70487213 -299954289.361763 0 0 0 0 -365076496.65608978 -448675981.97937012 0 -448675981.97937012 54836668.586349487 0 0 0 0 -4687403.4220063463 -24145161.047651857 0 -24145161.047651857 33864875.593150906 0 0 0 0 -67379554.386688232 -16480636.019327164 0 -16480636.019327164 29035546.49048233 0 0 0 0 -91709530.280303955 -11488980.245609283 0 -11488980.245609283 61861936.139343262 0 0 0 0 -246425699.19142675 -296085143.31376791 0 -296085143.31376791 1025280496.0382538 0 0 0 0 -87833668.70765686 119945615.69467926 0 119945615.69467926 -115782140.54969597 0 0 0 0 -954136082.32243347 94395645.824432373 0 94395645.824432373 3457400351.053009 0 0 0 0 -126106384.24256897 1086757975.71035 0 1086757975.71035 1549364764.8349495 0 0 0 0 144415509.12054062 442898997.12351608 0 442898997.12351608 -371583543.46136475 0 0 0 0 -5072980.0993394032 -9822489.433843106 0 -9822489.433843106 29239595.35133414 0 0 0 0 -620364090.16274261 -117854561.39059639 0 -117854561.39059639 654206673.78104401 0 0 0 0 265657280.70709229 1390686748.9864578 0 1390686748.9864578 5629999404.3596725 0 0 0 0 1601541.0217231661 -386940.01240007207 0 -386940.01240007207 3732945.8046604507 0 0 0 0 -521876870.16398621 461799034.12691498 0 461799034.12691498 4138511366.2504044 0 0 0 0 -701632828.40930176 264617570.71126556 0 264617570.71126556 7327116840.8084106 0 0 0 0 -1360378313.8499756 -366214879.03238678 0 -366214879.03238678 3368987950.0879726 0 0 0 0 -1285578577.8343658 -787001175.93103409 0 -787001175.93103409 3096642525.6328735 0 0 0 0 -1301128855.2592468 -496585639.42920303 0 -496585639.42920303 3649211346.8150864 0 0 0 0 -538375542.05587769 -516273604.90634918 0 -516273604.90634918 1026422341.4272614 0 0 0 0 -523352335.19046021 -418262789.4630127 0 -418262789.4630127 1653692060.3935547 0 0 0 0 -959762888.42686892 -70755584.586496711 0 -70755584.586496711 2252768486.7540741 0 0 0 0 389637718.39570618 -836405563.41677856 0 -836405563.41677856 917015588.7510376 0 0 0 0 -159109011.33770752 -1168940452.7479591 0 -1168940452.7479591 2130517218.2848358 0 0 0 0 -1244107050.9003143 -1242180771.3649597 0 -1242180771.3649597 2221447180.5062561 0 0 0 0 -2249675585.4935608 -2291593117.1416245 0 -2291593117.1416245 3599300873.5829506 0 0 0 0 428983742.88425064 -2346463208.8154964 0 -2346463208.8154964 2948356767.5134506 0 0 0 0 -1700309669.7890358 -882572039.07077694 0 -882572039.07077694 2619263143.0727234 0 0 0 0 -1911937618.3562012 -1149695312.8225441 0 -1149695312.8225441 3726671137.2682571 0 0 0 0 -2288142106.2545624 -1860763690.1241074 0 -1860763690.1241074 2053740940.0055084 0 0 0 0 -2843134032.5737305 -860696088.72468185 0 -860696088.72468185 2721922834.8317051 0 0 0 0 -1628895379.3783188 -938497079.29463387 0 -938497079.29463387 -584434467.87717438 0 0 0 0 -1717728699.447094 -2633309723.0901842 0 -2633309723.0901842 -3196484097.4019737 0 0 0 0 -1480532302.7897949 -1844807819.4188671 0 -1844807819.4188671 -807329295.23503923 0 0 0 0 1796703.273991961 -12998958.511342622 0 -12998958.511342622 14193526.964408286 0 0 0 0 -117926278.33615112 -169692946.01960754 0 -169692946.01960754 279048147.26591492 0 0 0 0 -1354114249.3673553 211327523.10633087 0 211327523.10633087 -1863267832.3049469 0 0 0 0 -3640890211.8213501 -1161772668.7061653 0 -1161772668.7061653 728217692.6607132 0 0 0 0 -1178107035.3644257 -1636952157.3832054 0 -1636952157.3832054 812602761.58262444 0 0 0 0 -871473607.48451042 6911031.9023580551 0 6911031.9023580551 1039071807.7784271 0 0 0 0 -230355473.13447571 -1135871567.130085 0 -1135871567.130085 -270527537.77587128 0 0 0 0 -2109337466.8079224 -820995753.50422287 0 -820995753.50422287 2665988428.3366165 0 0 0 0 -1275666982.6158142 -682708082.4948349 0 -682708082.4948349 2608526338.9941998 0 0 0 0 -663831625.67355728 -299362841.87296009 0 -299362841.87296009 4608489417.8913574 0 0 0 0 -1055536099.0827789 -1459335507.3957863 0 -1459335507.3957863 4322902206.0363159 0 0 0 0 554154808.71128845 -368408539.7192421 0 -368408539.7192421 4538748569.1600494 0 0 0 0 3002849812.7063293 -148083105.30165863 0 -148083105.30165863 4198437337.4483867 0 0 0 0 316179790.88916016 20027185.209220886 0 20027185.209220886 4203960673.7516623 0 0 0 0 1169735221.2976913 528247561.96468544 0 528247561.96468544 2768764743.9459229 0 0 0 0 -103928397.10058594 -386008520.45585632 0 -386008520.45585632 4420970804.194931 0 0 0 0 727641534.84701538 823396837.04331207 0 823396837.04331207 5642582365.2643967 0 0 0 0 237281107.00343323 -36354172.916717529 0 -36354172.916717529 2593865629.919548 0 0 0 0 1327905376.4409027 -746434799.87936783 0 -746434799.87936783 2490894014.1317139 0 0 0 0 -469261413.52349854 -843480649.83153915 0 -843480649.83153915 2492698447.8015757 0 0 0 0 -171648942.7515564 -303689592.57824707 0 -303689592.57824707 474293321.94203377 0 0 0 0 939946626.88541412 -470337565.92824936 0 -470337565.92824936 473175092.97302246 0 0 0 0 650347386.40472412 -473507382.6329155 0 -473507382.6329155 -686114329.86773682 0 0 0 0 522370026.95098495 -903181513.30675316 0 -903181513.30675316 -1106405889.2651367 0 0 0 0 498182759.43703461 -409438714.34607315 0 -409438714.34607315 80675421.345062256 0 0 0 0 263979711.39227295 -662309253.82163239 0 -662309253.82163239 894568523.70815325 0 0 0 0 620490936.43435669 -192193092.5194931 0 -192193092.5194931 965952293.10851765 0 0 0 0 355565.17733764648 -828796511.93076706 0 -828796511.93076706 1319615186.1283302 0 0 0 0 -287294680.39645386 98570214.442558289 0 98570214.442558289 4241476667.4936333 0 0 0 0 -191859.88677978516 -723376717.75046539 0 -723376717.75046539 3264407593.7344112 0 0 0 0 226328954.67312622 265380566.35122681 0 265380566.35122681 2231033482.1161957 0 0 0 0 -236194700.83886719 -841950763.99035645 0 -841950763.99035645 4410443818.3682594 0 0 0 0 -343583.05218565243 -900354176.38900614 0 -900354176.38900614 4349842870.95541 0 0 0 0 30930.479811400175 -652993.70945803821 0 -652993.70945803821 8414999.005365774 0 0 0 0 78562874.360977173 20140450.908477783 0 20140450.908477783 -344564652.94051075 0 0 0 0 -265883513.02952766 -830043222.35564852 0 -830043222.35564852 6228719913.1150742 0 0 0 0 1615702253.6878967 -2280903975.0715828 0 -2280903975.0715828 3210604998.5331421 0 0 0 0 1003499321.2732239 -1893286856.7908211 0 -1893286856.7908211 8902107832.1641846 0 0 0 0 838404.32217752188 -2482019.6364331096 0 -2482019.6364331096 3591089.6707969457 0 0 0 0 772612086.33660889 2633114090.4387741 0 2633114090.4387741 8567944797.6074715 0 0 0 0 472499.93802705407 -3500013.1603305824 0 -3500013.1603305824 10623121.676821504 0 0 0 0 17923591.153549194 -33156511.285552979 0 -33156511.285552979 -115261886.32839489 0 0 0 0 5699972.4420623779 -124859417.05227757 0 -124859417.05227757 27520940.747772217 0 0 0 0 82118433.533538818 -67761092.551952362 0 -67761092.551952362 34730173.165324688 0 0 0 0 21143489.186889648 8426298.8712043762 0 8426298.8712043762 -19045713.984100342 0 0 0 0 -49805529.237548828 -81789662.22917366 0 -81789662.22917366 50377132.571098328 0 0 0 0 -37882620.526321411 -98621329.458944321 0 -98621329.458944321 167084557.51773071 0 0 0 0 -360424.24879179895 1532617.2672248036 0 1532617.2672248036 651023.13536956161 0 0 0 0 -4285167.0449142456 21808879.707259178 0 21808879.707259178 -12129091.050071716 0 0 0 0 -8464412.9390563965 7261244.7521858215 0 7261244.7521858215 18376955.153179169 0 0 0 0 -454927.00821396708 3259844.8716920316 0 3259844.8716920316 1630404.0091786012 0 0 0 0 1228881.4848937988 4021626.1269016266 0 4021626.1269016266 5236515.3273620605 0 0 0 0 -98749608.333557129 -75036039.378993988 0 -75036039.378993988 325823455.33035183 0 0 0 0 726651.83750280738 -177627.45359601732 0 -177627.45359601732 -3577282.5702594779 0 0 0 0 639577.07871252298 1635965.3131978149 0 1635965.3131978149 -2009962.904409348 0 0 0 0 -10157250.106750488 -1907247.4761657715 0 -1907247.4761657715 12316387.22410202 0 0 0 0 -807377.30334982276 2614850.2994930074 0 2614850.2994930074 953254.26758912066 0 0 0 0 -3500.918701171875 -5332553.0091934204 0 -5332553.0091934204 -310162.44972229004 0 0 0 0 1667519.1845703125 -184936142.40792847 0 -184936142.40792847 -97738642.8800354 0 0 0 0 23974494.662139893 20844280.047534943 0 20844280.047534943 659315509.3612442 0 0 0 0 2094227.9967668802 1531242.6757849436 0 1531242.6757849436 -3042147.2735663485 0 0 0 0 -352238.7498052892 -248450157.25436836 0 -248450157.25436836 188800337.84163666 0 0 0 0 92846991.820602417 -279151234.3493576 0 -279151234.3493576 3794548.6738586426 0 0 0 0 35649899.115760803 -64787387.121467829 0 -64787387.121467829 118172436.03769684 0 0 0 0 -46484631.616950989 -60489192.019964218 0 -60489192.019964218 96385717.918655396 0 0 0 0 45307232.345039368 5641555.3661870956 0 5641555.3661870956 119080284.18082428 0 0 0 0 572006890.90696716 -1688296953.995018 0 -1688296953.995018 554399637.04217529 0 0 0 0 462485969.6627655 -1523943267.6933594 0 -1523943267.6933594 316887483.84095454 0 0 0 0 181480702.73205566 -1774242841.0087929 0 -1774242841.0087929 326334560.06802368 0 0 0 0 -263952.89129638672 -1697484701.5449715 0 -1697484701.5449715 360177853.46541595 0 0 0 0 295562508.66033936 -1525109957.5446701 0 -1525109957.5446701 370117154.5392561 0 0 0 0 502776705.71575928 -1745528890.2501488 0 -1745528890.2501488 80077322.272644043 0 0 0 0 1073707166.703949 -1210688348.0213242 0 -1210688348.0213242 456982057.4367485 0 0 0 0 1320411647.5183411 -1454767322.9057159 0 -1454767322.9057159 437113787.02894592 0 0 0 0 2228393718.7836456 -908850208.2272644 0 -908850208.2272644 490152798.62947083 0 0 0 0 2224063938.3934479 -853850112.97933578 0 -853850112.97933578 -37194470.55770874 0 0 0 0 -1795624.1760708913 -909883.00495953858 0 -909883.00495953858 2047880.2964576259 0 0 0 0 2433983358.9673615 -356164680.45393181 0 -356164680.45393181 23644373.89755249 0 0 0 0 1036419239.1737061 -1302488707.3132019 0 -1302488707.3132019 1019566236.5149231 0 0 0 0 1809797862.9304504 -1624470459.3171616 0 -1624470459.3171616 543701238.2861557 0 0 0 0 1120518013.9564056 -1318242229.6467056 0 -1318242229.6467056 513387097.45323181 0 0 0 0 699996278.53762817 -1774519210.7142105 0 -1774519210.7142105 478171892.68918324 0 0 0 0 788435122.86578369 -1630874568.2702332 0 -1630874568.2702332 -432050046.69765472 0 0 0 0 388216063.1645813 -1450252449.9140739 0 -1450252449.9140739 142362210.53494263 0 0 0 0 909224265.14998627 -493484455.69259644 0 -493484455.69259644 209684236.24482727 0 0 0 0 2187920.9787139595 -1785197.3669019938 0 -1785197.3669019938 190429.03712745756 0 0 0 0 258140598.02978516 -90277805.435272217 0 -90277805.435272217 -7223535.738067627 0 0 0 0 1129060997.3301086 -1129579806.6945686 0 -1129579806.6945686 278825558.15649414 0 0 0 0 360331328.31271362 -1536920093.5956497 0 -1536920093.5956497 184068424.80698776 0 0 0 0 -1087635250.7820206 -689408697.43764114 0 -689408697.43764114 -407056559.51042938 0 0 0 0 104751055.80193329 -1452467122.4829922 0 -1452467122.4829922 -1118466575.2187653 0 0 0 0 30740742.349136353 -1469223710.4176559 0 -1469223710.4176559 -447377380.84825945 0 0 0 0 374610137.15376472 -1622821054.150228 0 -1622821054.150228 -607009842.87561035 0 0 0 0 289441041.17494202 -1871784045.4522438 0 -1871784045.4522438 308217011.51473939 0 0 0 0 285207665.24905396 -1734008252.5004768 0 -1734008252.5004768 -89020046.263198853 0 0 0 0 75424627.390136719 -1631982981.5288467 0 -1631982981.5288467 -125815504.41437531 0 0 0 0 460071.85620908684 -1461712114.9318259 0 -1461712114.9318259 -440073769.04853821 0 0 0 0 200104976.690979 -1513964188.1887512 0 -1513964188.1887512 -522722475.88841248 0 0 0 0 240028685.66958618 -1380099553.9300613 0 -1380099553.9300613 -917043254.25680542 0 0 0 0 193208711.89660645 -1280378327.4707413 0 -1280378327.4707413 -779782778.4771843 0 0 0 0 155213.91925048828 -1325580651.2470322 0 -1325580651.2470322 -700170152.30571747 0 0 0 0 254234757.8755188 -1044332199.2465439 0 -1044332199.2465439 -737337455.79372573 0 0 0 0 147582958.28160095 -1264277904.6372414 0 -1264277904.6372414 -744565083.31422424 0 0 0 0 316472053.7614212 -868692016.51298714 0 -868692016.51298714 -427090360.14616394 0 0 0 0 24714214.532592773 -991648919.70906067 0 -991648919.70906067 -82689383.521556854 0 0 0 0 568855.2830657959 -1114221273.9146538 0 -1114221273.9146538 -334772637.53875732 0 0 0 0 -139933820.71105957 -1447604758.2523003 0 -1447604758.2523003 -885888112.31390572 0 0 0 0 -275278908.5819931 -1238360960.3924999 0 -1238360960.3924999 -1184069556.9673843 0 0 0 0 33820758.8775177 -1019021114.027317 0 -1019021114.027317 -496120971.66455173 0 0 0 0 383551589.9557209 -1197997016.4607506 0 -1197997016.4607506 -992421455.40248871 0 0 0 0 -344717875.52348328 -1344465762.6492882 0 -1344465762.6492882 -810760280.6871376 0 0 0 0 -345518121.30961418 -1344477792.2395499 0 -1344477792.2395499 -629176363.10206604 0 0 0 0 -1196484760.1742401 -1199948062.181469 0 -1199948062.181469 -653486921.7095108 0 0 0 0 192297704.51320076 -1297620162.1067457 0 -1297620162.1067457 -957415050.80038452 0 0 0 0 341958998.86963654 -1370981299.3373857 0 -1370981299.3373857 -950692497.88024902 0 0 0 0 -91847392.793060303 -1349312945.0338364 0 -1349312945.0338364 -798942466.49885559 0 0 0 0 -216753394.00517654 -889594275.52754021 0 -889594275.52754021 -1311077559.6815338 0 0 0 0 -1167361611.6510315 -1242243697.0317268 0 -1242243697.0317268 -695729928.1091013 0 0 0 0 -91222509.996826172 -32325263.764343262 0 -32325263.764343262 48171070.199890137 0 0 0 0 -65440117.148406982 -42725298.479614258 0 -42725298.479614258 -83303024.894836426 0 0 0 0 -65807978.329666138 -110720830.28891754 0 -110720830.28891754 63199247.103485107 0 0 0 0 -16966520.45715332 59540592.489135742 0 59540592.489135742 -49405108.841156006 0 0 0 0 7959285.3094348386 -18315802.105341841 0 -18315802.105341841 9938513.1932227463 0 0 0 0 81538118.357421875 50238127.054428101 0 50238127.054428101 -121129757.84030151 0 0 0 0 -733013806.38033295 -714319040.14752769 0 -714319040.14752769 -166640968.27827454 0 0 0 0 -2956938669.0889206 -1970914296.2328072 0 -1970914296.2328072 -474011165.57718658 0 0 0 0 -1293253463.1007538 -2030268406.4645844 0 -2030268406.4645844 -1050675698.1839142 0 0 0 0 -1653452475.9911728 -1176716926.4472728 0 -1176716926.4472728 -590071.49017333984 0 0 0 0 -979505217.87271118 -2312465080.6186829 0 -2312465080.6186829 -2685597965.946085 0 0 0 0 -1652026247.0378113 416555219.23331833 0 416555219.23331833 -91834909.776473999 0 0 0 0 1242720.1446620896 -14064985.568974994 0 -14064985.568974994 4545893.5233378001 0 0 0 0 -12346164.775585175 -24211987.727190018 0 -24211987.727190018 87570008.437667847 0 0 0 0 101365709.61448669 167098432.01204681 0 167098432.01204681 -92914698.591831207 0 0 0 0 -3256161.7404215485 -9485681.732449308 0 -9485681.732449308 2319002.7903843671 0 0 0 0 -45160591.688903809 -24721087.256988525 0 -24721087.256988525 83806435.857666016 0 0 0 0 5990472.2293844298 -20232710.943940409 0 -20232710.943940409 15623770.957763635 0 0 0 0 41323153.778972626 29865452.607685089 0 29865452.607685089 31201118.072013855 0 0 0 0 -39492961.770584106 -30790222.214134216 0 -30790222.214134216 15839094.61819458 0 0 0 0 9481138.0138473511 -37727811.99848175 0 -37727811.99848175 -63076040.340576172 0 0 0 0 12532756.19519043 -101102584.78482819 0 -101102584.78482819 -144343168.50014496 0 0 0 0 -78314789.864040375 -37690441.71178627 0 -37690441.71178627 -58637240.083557129 0 0 0 0 9675455.3711853027 -136313897.25384521 0 -136313897.25384521 -15449772.171890259 0 0 0 0 -41701494.57434082 -76913103.299743652 0 -76913103.299743652 -69246520.435440063 0 0 0 0 85376597.569274902 -73203269.899917603 0 -73203269.899917603 -107344654.40557861 0 0 0 0 -35699726.048461914 -5666630.7279968262 0 -5666630.7279968262 -145003013.25662231 0 0 0 0 -60317945.048057556 -106747300.30350113 0 -106747300.30350113 -301537082.2366333 0 0 0 0 -30854758.637676239 -75350908.989027023 0 -75350908.989027023 -344387153.76306152 0 0 0 0 10405.416827425361 -158179.62656876072 0 -158179.62656876072 15314.370425224304 0 0 0 0 -384334.57855948061 -499266.24774086475 0 -499266.24774086475 350350.73323872685 0 0 0 0 -46246891.35534668 33638961.916717529 0 33638961.916717529 42477305.046264648 0 0 0 0 -52067495.210449219 -132115780.82678223 0 -132115780.82678223 -279939681.23168945 0 0 0 0 -2742823.8321528435 -1753458.2980459407 0 -1753458.2980459407 1005392.5448872088 0 0 0 0 -1371886.2627487183 -20055873.321716309 0 -20055873.321716309 123523.01254272461 0 0 0 0 -5014304.9200286865 -10206017.643264771 0 -10206017.643264771 -2314541.9418144226 0 0 0 0 -3198401.3134587109 -1517729.2550569698 0 -1517729.2550569698 2348529.8658971377 0 0 0 0 -3812653.98394344 -1136482.6343419198 0 -1136482.6343419198 2789388.7993777171 0 0 0 0 -35431753.533950806 -16757739.855564117 0 -16757739.855564117 919299.99633789062 0 0 0 0 -44012037.898132324 -422792.37802124023 0 -422792.37802124023 30950847.845031738 0 0 0 0 -103752730.3694458 -11306997.744873047 0 -11306997.744873047 13552365.969848633 0 0 0 0 -55661399.692687988 19941461.370483398 0 19941461.370483398 -25091076.369506836 0 0 0 0 1751058.6197985113 -1899532.6480938457 0 -1899532.6480938457 305546.67864432558 0 0 0 0 -518910.21624755859 -2072470.1770935059 0 -2072470.1770935059 -2447434.4086303711 0 0 0 0 -6161313.2315883636 -15080361.499365401 0 -15080361.499365401 6814205.559409624 0 0 0 0 -23967522.692864656 -54279400.903743505 0 -54279400.903743505 2969209.7910766602 0 0 0 0 -48307.187515258789 -14315770.171447754 0 -14315770.171447754 -14464321.704803467 0 0 0 0 5017284.266950272 -1339361.9854504764 0 -1339361.9854504764 -1024770.7564452738 0 0 0 0 -2555468.4700927734 -4924415.9567871094 0 -4924415.9567871094 -6438669.4215087891 0 0 0 0 68808.475555285811 -744083.29663913697 0 -744083.29663913697 -489361.86913427711 0 0 0 0 -3476336.1400627643 -6475009.8386205733 0 -6475009.8386205733 3503973.5672392417 0 0 0 0 -26184878.299006939 42012300.87335217 0 42012300.87335217 -51547266.87701416 0 0 0 0 13566959.263444193 -15918751.667172838 0 -15918751.667172838 1029164.896733813 0 0 0 0 30747157.037467957 -10781832.512893677 0 -10781832.512893677 15966418.066131592 0 0 0 0 -9189657.5854119584 -10740395.512100253 0 -10740395.512100253 7290447.9052431509 0 0 0 0 61112066.008136749 -27683193.197292328 0 -27683193.197292328 -5261862.0376434326 0 0 0 0 -42851696.966136932 9612335.1568660736 0 9612335.1568660736 21337802.227386475 0 0 0 0 -14360572.967071533 -17976456.598518372 0 -17976456.598518372 14618736.584920883 0 0 0 0 -5993874.244720459 -47214625.632034302 0 -47214625.632034302 35287062.513061523 0 0 0 0 32813419.787887573 -67483815.208259583 0 -67483815.208259583 38987747.963790894 0 0 0 0 -107075818.85474777 -59696169.411115646 0 -59696169.411115646 159732198.98324585 0 0 0 0 -63312251.409210205 39026383.776477814 0 39026383.776477814 -10735651.279296875 0 0 0 0 -4036933.0500703007 -2034956.4412176628 0 -2034956.4412176628 3640025.3587676883 0 0 0 0 108847674.80142212 -200783858.55540466 0 -200783858.55540466 30844052.036964417 0 0 0 0 -1099732.0204568058 -330051.44298236631 0 -330051.44298236631 750565.69720794261 0 0 0 0 17562644.894821167 -39689707.554542542 0 -39689707.554542542 -37723853.903709412 0 0 0 0 -205391742.40791321 222963450.17320251 0 222963450.17320251 -111922329.50888062 0 0 0 0 -48869512.704925537 -23953947.265930176 0 -23953947.265930176 111366652.0592041 0 0 0 0 -39314089.03338623 -147025467.30644226 0 -147025467.30644226 -54265958.396839142 0 0 0 0 16254975.076797485 -57922615.207279205 0 -57922615.207279205 -4742712.8455200195 0 0 0 0 -893789.41798105091 -432453.8745345436 0 -432453.8745345436 626497.12037260458 0 0 0 0 -46053537.895507812 -165191061.08488464 0 -165191061.08488464 22833106.394416809 0 0 0 0 -3318087.3903045654 -46158809.580123901 0 -46158809.580123901 42967384.5912323 0 0 0 0 -39377323.100708008 -40062439.116821289 0 -40062439.116821289 -3247824.1661376953 0 0 0 0 5734758.5690835491 -18305206.563610721 0 -18305206.563610721 6395871.1617475972 0 0 0 0 29592115.827072144 8570583.450214386 0 8570583.450214386 -379333184.53814983 0 0 0 0 14898787.285598755 -47753416.623184204 0 -47753416.623184204 10624227.746276855 0 0 0 0 2291089.8481576368 -5206938.1434157267 0 -5206938.1434157267 -1182557.8696921691 0 0 0 0 2838901.5543212891 -4726451.2168884277 0 -4726451.2168884277 -651861.26904296875 0 0 0 0 10538432.59277679 -7480680.694633998 0 -7480680.694633998 -1035989.8076158315 0 0 0 0 27821063.516921997 8932913.4001235962 0 8932913.4001235962 -3024094.6101226807 0 0 0 0 -6496450.0862292796 -10776143.33630465 0 -10776143.33630465 10943369.914260678 0 0 0 0 188767.55423208326 -8876158.9435385317 0 -8876158.9435385317 3155153.287375778 0 0 0 0 8522369.0117492676 -21361165.817939758 0 -21361165.817939758 9011034.6854562759 0 0 0 0 14504312.29927063 -43743823.109481812 0 -43743823.109481812 6534301.2998962402 0 0 0 0 -9297621.2076718807 -19878050.772232376 0 -19878050.772232376 -967359.77704574913 0 0 0 0 25098053.128799438 -30705344.126594543 0 -30705344.126594543 21139209.590065002 0 0 0 0 -42874920.483581543 -51167510.269760132 0 -51167510.269760132 -3499342.8660583496 0 0 0 0 14842396.352607727 1853526.8251228333 0 1853526.8251228333 42812018.280410767 0 0 0 0 70239769.350402832 -29313386.245758057 0 -29313386.245758057 -3867049.2583346367 0 0 0 0 660237778.46983337 -842553676.36937332 0 -842553676.36937332 1031872765.6515503 0 0 0 0 -104354216.62068176 -65140208.677841187 0 -65140208.677841187 28739903.289978027 0 0 0 0 -2945900.1696606837 -5321142.1976552308 0 -5321142.1976552308 14270224.124622911 0 0 0 0 -59474856.449752808 -121438785.94148636 0 -121438785.94148636 -11725330.089935303 0 0 0 0 135983882.00810242 -40697137.79296875 0 -40697137.79296875 -71831688.370994568 0 0 0 0 194861026.91047668 146114853.16788483 0 146114853.16788483 78630073.638511658 0 0 0 0 -133090017.94810486 34268003.438194275 0 34268003.438194275 512762658.45892334 0 0 0 0 -10724425.615524292 -32857625.319381714 0 -32857625.319381714 -4214068.8224639893 0 0 0 0 -96630180.569534302 -64735076.144496918 0 -64735076.144496918 559456096.10044861 0 0 0 0 -796161.97024536133 -106790572.24835968 0 -106790572.24835968 192082660.78424835 0 0 0 0 -122849659.05479431 13121665.788497925 0 13121665.788497925 339511646.25923133 0 0 0 0 -12350708.667102523 -17563697.172117129 0 -17563697.172117129 2194337.4261750076 0 0 0 0 28657.641008809209 -3915655.3686576746 0 -3915655.3686576746 -1474773.6542271657 0 0 0 0 -23832983.841941833 -16874862.244522095 0 -16874862.244522095 21434061.130180359 0 0 0 0 -4311021.7150230408 -11179627.345804214 0 -11179627.345804214 18920819.87336731 0 0 0 0 -32795504.500205994 -26096129.360836029 0 -26096129.360836029 28159500.133972168 0 0 0 0 -8946250.9055908471 -14842647.890238479 0 -14842647.890238479 -2400309.6991405636 0 0 0 0 -17044026.212158203 -35234967.646598816 0 -35234967.646598816 29101048.392799377 0 0 0 0 -12824330.838600159 -83093990.109237671 0 -83093990.109237671 138006819.54631042 0 0 0 0 -18547416.632751465 -131229097.04566193 0 -131229097.04566193 -14259754.091171265 0 0 0 0 33185893.788299561 -75129593.457084656 0 -75129593.457084656 -4387133.5938415527 0 0 0 0 -18363155.293706652 -10947276.807264257 0 -10947276.807264257 12542065.298966058 0 0 0 0 -29292710.188324198 -10935034.551369168 0 -10935034.551369168 7396663.2260940066 0 0 0 0 -297634001.68507385 -173438869.71993256 0 -173438869.71993256 -80171403.055224419 0 0 0 0 -19354109.862538733 -6072190.1222862191 0 -6072190.1222862191 3200142.9922220604 0 0 0 0 -86996645.084625244 -40656464.875335693 0 -40656464.875335693 335042647.56508255 0 0 0 0 -393232331.0062561 -880631332.09365845 0 -880631332.09365845 -829986192.96938372 0 0 0 0 -890429664.59155273 -2220939358.6583023 0 -2220939358.6583023 -4206178260.0895033 0 0 0 0 -6987030.3067499846 -2354711.3120034784 0 -2354711.3120034784 680382.911743348 0 0 0 0 -91868227.426364899 265088880.08509636 0 265088880.08509636 -322556727.07699585 0 0 0 0 -138594808.64481354 -221732011.49980927 0 -221732011.49980927 18692650.273803711 0 0 0 0 -5096881.4896402359 11446045.596081734 0 11446045.596081734 -166032442.53663635 0 0 0 0 -441538013.5112381 -48675420.911468506 0 -48675420.911468506 -54251152.749526978 0 0 0 0 -1469535056.3842773 125247985.79672241 0 125247985.79672241 101517849.13802338 0 0 0 0 -444486364.40770149 -48131614.645872116 0 -48131614.645872116 85485070.333877563 0 0 0 0 -49620100.335945129 48815061.46622467 0 48815061.46622467 -37392555.520088196 0 0 0 0 -34196460.758934021 -62307427.696739197 0 -62307427.696739197 -128258807.36573029 0 0 0 0 -61438037.420005798 -14230075.295063019 0 -14230075.295063019 -3659941.3541870117 0 0 0 0 -2646339.5541229248 28351276.565616608 0 28351276.565616608 -39663847.025177002 0 0 0 0 33910638.875671387 -1114867.0959472656 0 -1114867.0959472656 -16092667.369567871 0 0 0 0 -20645513.946540833 -65724392.004074097 0 -65724392.004074097 -3976682.8062410355 0 0 0 0 32497312.362903595 -58476792.877441406 0 -58476792.877441406 -104975064.82327271 0 0 0 0 33214185.827140808 -42712145.252388 0 -42712145.252388 24824942.352714539 0 0 0 0 56778223.90688324 -15181915.171760559 0 -15181915.171760559 -37068379.471252441 0 0 0 0 34737253.582015991 5992459.7821960449 0 5992459.7821960449 2142245.7631378174 0 0 0 0 -3138245.9361334145 -9874108.5430119485 0 -9874108.5430119485 1726235.8188039237 0 0 0 0 30987286.787200928 -2063855.4457702637 0 -2063855.4457702637 12580310.71182251 0 0 0 0 15321098.936210632 9534773.4366073608 0 9534773.4366073608 50212320.9581604 0 0 0 0 -36540966.339569092 -84027252.761550903 0 -84027252.761550903 23745864.187752724 0 0 0 0 25302504.123779297 -8384116.2095565796 0 -8384116.2095565796 -6511673.6583003998 0 0 0 0 21641716.608047485 30698647.597396851 0 30698647.597396851 12620350.576560974 0 0 0 0 -537842.48056793213 -20664480.718326569 0 -20664480.718326569 -39493431.832557678 0 0 0 0 4222315.7706843317 -6972978.9705323279 0 -6972978.9705323279 1093119.3274462223 0 0 0 0 67881501.733825684 -28738901.655792236 0 -28738901.655792236 -61615603.71862793 0 0 0 0 16488586.356958635 -1837865.4547966197 0 -1837865.4547966197 -4001000.5761831664 0 0 0 0 28546869.511425018 34128033.817487717 0 34128033.817487717 -39232132.053833008 0 0 0 0 -42919983.636734009 39785165.396606445 0 39785165.396606445 11696237.964706421 0 0 0 0 26808145.838989258 -12893950.915374756 0 -12893950.915374756 -30523058.24621582 0 0 0 0 4929148.5800141543 -5570750.2283872925 0 -5570750.2283872925 614606.3405338563 0 0 0 0 13556916.038878098 -7978496.2529128026 0 -7978496.2529128026 1226752.0620988458 0 0 0 0 1507565.6867752075 -16925028.535823822 0 -16925028.535823822 -21839778.090888977 0 0 0 0 -2459319.5435791016 -15031652.799987793 0 -15031652.799987793 -21735306.356781006 0 0 0 0 1093609.1044293195 679941.59002877027 0 679941.59002877027 -861783.38211814314 0 0 0 0 -33531064.067138672 -37908651.734863281 0 -37908651.734863281 -129023634.1103363 0 0 0 0 1437955.3330438584 421849.17008592188 0 421849.17008592188 -656532.86283993721 0 0 0 0 -36520771.768699646 -100829229.27643204 0 -100829229.27643204 -97514593.877197266 0 0 0 0 36271585.614746094 18291855.516448975 0 18291855.516448975 -27528367.74887085 0 0 0 0 -25151006.254852295 -55005914.719451904 0 -55005914.719451904 -102689312.1211853 0 0 0 0 -100044590.28900146 -43554601.610855103 0 -43554601.610855103 -12293487.088699341 0 0 0 0 -17362927.705871582 29236753.750518799 0 29236753.750518799 12557446.950610161 0 0 0 0 -81441748.431152344 -18636566.990386963 0 -18636566.990386963 -99579110.452819824 0 0 0 0 -49440153.983917236 -61864860.108978271 0 -61864860.108978271 -46570425.189788818 0 0 0 0 74885086.898010254 -55144165.346923828 0 -55144165.346923828 -16211346.55015564 0 0 0 0 -13368430.172058105 -136709845.07087708 0 -136709845.07087708 -4842551.3450698853 0 0 0 0 -51551930.72567749 -135150801.07080841 0 -135150801.07080841 -3662044.061340332 0 0 0 0 -109057746.97969055 -25591590.282577515 0 -25591590.282577515 -38577984.923950195 0 0 0 0 -22871071.606338501 -27108537.073955536 0 -27108537.073955536 28937786.438568115 0 0 0 0 94007.92753328383 97764.538688426837 0 97764.538688426837 157361.29131014645 0 0 0 0 33673.970130383968 68497.784212425351 0 68497.784212425351 41373.55084291473 0 0 0 0 -32518553.785644531 -47244476.258972168 0 -47244476.258972168 82663198.113891602 0 0 0 0 77917961.959777832 27270955.317871094 0 27270955.317871094 -30116363.80796814 0 0 0 0 60344867.190292358 -43332488.748451233 0 -43332488.748451233 -35645694.842895508 0 0 0 0 47862525.319091797 2777130.3457336426 0 2777130.3457336426 -23806229.76373291 0 0 0 0 23523401.150375366 -39525814.673732758 0 -39525814.673732758 81672499.302429199 0 0 0 0 -1064336.7953340039 -9430400.9817406014 0 -9430400.9817406014 2841331.0574158225 0 0 0 0 503677984.91378021 -276138323.56746674 0 -276138323.56746674 8313916.2972640991 0 0 0 0 141728836.08631897 -290312445.40896225 0 -290312445.40896225 381933186.75844765 0 0 0 0 145312154.60703278 -1284047478.5321026 0 -1284047478.5321026 1883518276.7191925 0 0 0 0 590534697.2804718 -1567540506.9356308 0 -1567540506.9356308 2057347189.3419342 0 0 0 0 352894056.39390564 -1108670320.029068 0 -1108670320.029068 1323873613.4452362 0 0 0 0 70096074.408081055 -774668933.25364685 0 -774668933.25364685 1039777202.3647717 0 0 0 0 234288240.71955872 -71390327.481193542 0 -71390327.481193542 469670604.61953735 0 0 0 0 -1447049.0695216805 -10886758.122657131 0 -10886758.122657131 1996995.8414777778 0 0 0 0 -7110668.8908996582 -29117803.145439148 0 -29117803.145439148 11505099.583572388 0 0 0 0 40783799.774242401 -32825584.212680817 0 -32825584.212680817 -23807587.793014526 0 0 0 0 -79626122.446411133 -34970402.739074707 0 -34970402.739074707 -22387267.708526611 0 0 0 0 1226122.3684931397 776844.3543194253 0 776844.3543194253 -884578.56592118368 0 0 0 0 24401074.114929199 -3607824.9319763184 0 -3607824.9319763184 -1410193.9223937988 0 0 0 0 17885513.322368115 -3547745.7904007956 0 -3547745.7904007956 -5226299.9085823819 0 0 0 0 -210852084.33138275 -192252576.01992416 0 -192252576.01992416 2749250773.9795685 0 0 0 0 -791824618.75105286 -628331060.89408875 0 -628331060.89408875 -423309427.75400543 0 0 0 0 441071.50128825009 -1022002.7440593615 0 -1022002.7440593615 -344468.82065436244 0 0 0 0 -160529323.6524353 -174090299.12885284 0 -174090299.12885284 -225263350.68065643 0 0 0 0 -316674269.41388702 -66930854.51550293 0 -66930854.51550293 73503296.960494995 0 0 0 0 -377184753.53004456 -2437007.298614502 0 -2437007.298614502 28673705.352966309 0 0 0 0 -92791684.637405396 117069691.15924835 0 117069691.15924835 65895699.515350342 0 0 0 0 27652926.172714233 -128796053.11222839 0 -128796053.11222839 -102280905.78549194 0 0 0 0 -43655876.179969788 -24861353.934028625 0 -24861353.934028625 -61163724.646591187 0 0 0 0 59039112.311332703 -118794702.12330627 0 -118794702.12330627 -10499754.343307495 0 0 0 0 -59037810.097953796 -69509017.261062622 0 -69509017.261062622 194902067.85421753 0 0 0 0 -68746579.777526855 -5235074.1486663818 0 -5235074.1486663818 102329898.96078491 0 0 0 0 -3028650.0362718254 -1084223.3915050104 0 -1084223.3915050104 1207573.137667872 0 0 0 0 -378474461.68774414 145876063.1276474 0 145876063.1276474 167123622.70852661 0 0 0 0 -389377578.83182144 -410075144.61649513 0 -410075144.61649513 -240342986.02200317 0 0 0 0 -1327856.4916623011 518082.42355377227 0 518082.42355377227 438393.26860551955 0 0 0 0 -97858026.946739197 -288338836.8624649 0 -288338836.8624649 -446846090.36862946 0 0 0 0 -222945816.81085205 -783194568.47329712 0 -783194568.47329712 10980617.949409485 0 0 0 0 -132467217.31787872 -913117811.40307617 0 -913117811.40307617 -4946210.6937360764 0 0 0 0 1332233231.4318123 -1564065165.5700817 0 -1564065165.5700817 57774888.70249939 0 0 0 0 630124503.88123703 -470836530.52319336 0 -470836530.52319336 -94204030.330200195 0 0 0 0 -655090104.93309021 -19514114.937545776 0 -19514114.937545776 211143607.36920166 0 0 0 0 -358863767.1292038 -62438814.35836792 0 -62438814.35836792 208204479.74325562 0 0 0 0 411572913.55075073 -527956957.24052429 0 -527956957.24052429 58591775.097106934 0 0 0 0 336922023.57978821 29398365.959342957 0 29398365.959342957 -21217229.253128052 0 0 0 0 -365231935.74427032 214868907.21053696 0 214868907.21053696 -53518635.30960083 0 0 0 0 980718408.87651062 -291983616.90913391 0 -291983616.90913391 -524573922.7545166 0 0 0 0 4298378.5896958411 -4590592.0007914193 0 -4590592.0007914193 926025.51262894459 0 0 0 0 57007805.999542236 -813670559.16465759 0 -813670559.16465759 4103244069.9017487 0 0 0 0 -50642793.920150757 -181248966.17121887 0 -181248966.17121887 -455780433.43518448 0 0 0 0 1371425769.6400414 -2701826207.7675552 0 -2701826207.7675552 3793032603.4961395 0 0 0 0 2365681724.4190979 -1286636199.4126968 0 -1286636199.4126968 -114033055.43197632 0 0 0 0 2191814086.2716398 -453364562.36127579 0 -453364562.36127579 1987740015.4729614 0 0 0 0 1312568653.0419159 -1146210582.9488297 0 -1146210582.9488297 1579932951.0823536 0 0 0 0 588348049.57696533 -1843531441.0993958 0 -1843531441.0993958 3703543031.572525 0 0 0 0 2143450186.0133374 -2213017522.8285713 0 -2213017522.8285713 2031950248.351532 0 0 0 0 521991503.34946442 -1320886612.4854584 0 -1320886612.4854584 1585376982.0106049 0 0 0 0 575934191.51794434 -714655230.6434021 0 -714655230.6434021 1477553052.0331573 0 0 0 0 536156529.26992035 -1209378809.574707 0 -1209378809.574707 2460127425.2003326 0 0 0 0 1059920213.7969589 -685453213.06513977 0 -685453213.06513977 1760190972.7114563 0 0 0 0 1207847636.503746 -1907572316.4967766 0 -1907572316.4967766 1307994506.2372284 0 0 0 0 518014311.92470551 -1199810910.0718613 0 -1199810910.0718613 1255430641.2615204 0 0 0 0 867457716.46979523 -1671367184.0653419 0 -1671367184.0653419 1135101232.4875488 0 0 0 0 968360079.85549927 -1645742840.6270256 0 -1645742840.6270256 430631918.51853943 0 0 0 0 780453738.49687195 -1651007441.0253754 0 -1651007441.0253754 1168108630.0051651 0 0 0 0 566064894.64273834 -1420921140.7222481 0 -1420921140.7222481 409707179.39382458 0 0 0 0 1040312087.8142281 -1757314004.2927151 0 -1757314004.2927151 14276687.166641235 0 0 0 0 1381519695.9098053 -717278732.38040161 0 -717278732.38040161 424013146.53846741 0 0 0 0 2871168999.625288 -1384155943.6183476 0 -1384155943.6183476 63746604.535652161 0 0 0 0 -1318227329.9435043 -1306224856.884655 0 -1306224856.884655 -159461197.47389984 0 0 0 0 171788.07040052116 -1826183.8066657148 0 -1826183.8066657148 -206657.72273591161 0 0 0 0 649052843.05698967 -1408106511.0128937 0 -1408106511.0128937 -120250550.5867157 0 0 0 0 -691511336.1170311 -367711268.39753342 0 -367711268.39753342 80592393.145698547 0 0 0 0 -1007640552.4571152 -387272636.29443359 0 -387272636.29443359 83543667.059129715 0 0 0 0 -934462217.80677032 -473965788.79389954 0 -473965788.79389954 185694531.67549133 0 0 0 0 -1188462398.1412582 -1405211414.9950142 0 -1405211414.9950142 -98848619.997887611 0 0 0 0 -3426849966.2815704 -679519688.59208679 0 -679519688.59208679 465323970.9236908 0 0 0 0 -1341339354.9538498 -553864987.18693542 0 -553864987.18693542 206774461.71752167 0 0 0 0 -1558373823.1230621 819472862.24649811 0 819472862.24649811 136632409.32093811 0 0 0 0 -2624883246.9781647 833001361.07446289 0 833001361.07446289 -785997005.26229095 0 0 0 0 -1073507548.1196594 -1710949999.7937202 0 -1710949999.7937202 -2793505485.4909058 0 0 0 0 851734200.22169495 -1030600118.2984085 0 -1030600118.2984085 -769369489.5200367 0 0 0 0 473585.94472412206 -3156302.1122893319 0 -3156302.1122893319 569751.72382701933 0 0 0 0 1785856349.5630713 -715371652.28009224 0 -715371652.28009224 421302320.46620178 0 0 0 0 -548105258.3662014 -344823632.06735611 0 -344823632.06735611 48622934.842025757 0 0 0 0 198590358.21681213 306075099.27240753 0 306075099.27240753 136330469.12170029 0 0 0 0 153402915.41178513 487065779.87043762 0 487065779.87043762 -217374097.6519928 0 0 0 0 141852.64010855835 -2751834.0737407096 0 -2751834.0737407096 5132840.6746039689 0 0 0 0 1250854653.7558632 365686267.88663387 0 365686267.88663387 -465078186.73312378 0 0 0 0 1901978083.554882 -67452823.964550018 0 -67452823.964550018 -262670620.21974182 0 0 0 0 166851745.40753174 903049316.63085938 0 903049316.63085938 -409563784.92528152 0 0 0 0 -597153868.21237183 295890274.73887253 0 295890274.73887253 -10291463.055923462 0 0 0 0 -459534988.35214233 175177810.57280731 0 175177810.57280731 -838912800.9143219 0 0 0 0 -858983231.42576599 -690350693.37164688 0 -690350693.37164688 -570482081.39810181 0 0 0 0 -3575451650.595068 -1625486775.4371376 0 -1625486775.4371376 -652432914.0035553 0 0 0 0 -1785487049.8902359 224710649.56911469 0 224710649.56911469 344511830.7441864 0 0 0 0 -434711785.42282104 -173067542.78918457 0 -173067542.78918457 393594134.49887848 0 0 0 0 -708100255.85402679 519265724.69746399 0 519265724.69746399 469793183.91725159 0 0 0 0 -387599824.86091232 355009009.00932693 0 355009009.00932693 1359485990.8601608 0 0 0 0 -52993.996375918388 -2755315.8872825019 0 -2755315.8872825019 457176.90264064725 0 0 0 0 -247974923.87367249 -374086162.85472107 0 -374086162.85472107 824285422.06968689 0 0 0 0 -747358323.1577301 -421823432.64499664 0 -421823432.64499664 769631380.790802 0 0 0 0 261732085.64790344 66138377.413330078 0 66138377.413330078 536160986.48274994 0 0 0 0 -336215541.82055664 82022690.956741333 0 82022690.956741333 587833731.44723511 0 0 0 0 -122669190.52194214 -432473492.18671417 0 -432473492.18671417 723775554.03787231 0 0 0 0 1292578.0953861624 -6311457.3994471245 0 -6311457.3994471245 351855.05539131537 0 0 0 0 2088538.3547019958 -75989723.277227402 0 -75989723.277227402 -112267062.12741089 0 0 0 0 1982330.4067966044 -2479499.6834267573 0 -2479499.6834267573 -4223829.5848239288 0 0 0 0 -28789880.775299072 -81500822.46383667 0 -81500822.46383667 -110183548.42462158 0 0 0 0 45547270.993530273 -68851784.122612 0 -68851784.122612 -236587674.2637558 0 0 0 0 -1659385.1343460083 -65495409.90032959 0 -65495409.90032959 -99229923.793627739 0 0 0 0 -35095946.405334473 28288126.474302292 0 28288126.474302292 -119291896.78184509 0 0 0 0 4717611.1499214172 -87554367.069049835 0 -87554367.069049835 21580160.581268311 0 0 0 0 19191407.785247803 -15377263.104812622 0 -15377263.104812622 -50082398.556175232 0 0 0 0 1785389.5873565674 -112559646.21568298 0 -112559646.21568298 -130613715.89942169 0 0 0 0 -18805536.164955139 -38104624.613647461 0 -38104624.613647461 799254939.77392578 0 0 0 0 117242882.83362579 249514099.07801819 0 249514099.07801819 145529885.58557129 0 0 0 0 -1623299.1710731965 -3039526.079291679 0 -3039526.079291679 13880162.467621669 0 0 0 0 37349775.723930359 218482590.95134354 0 218482590.95134354 318205900.96419525 0 0 0 0 1677096657.1391506 -668455569.39718056 0 -668455569.39718056 -767874275.98910522 0 0 0 0 -5501226.2295088209 -5798326.8569184951 0 -5798326.8569184951 24444364.166104279 0 0 0 0 -45775183.000053406 -517326747.68330383 0 -517326747.68330383 2311243840.1066284 0 0 0 0 -46050225.527664185 -53218399.88760376 0 -53218399.88760376 -803204.95181274414 0 0 0 0 -702718.27260956168 -18289925.514858864 0 -18289925.514858864 -746028.475293817 0 0 0 0 -26420895.524360657 -25884908.541633606 0 -25884908.541633606 35052613.476242065 0 0 0 0 -41185880.929321289 -96557918.845878601 0 -96557918.845878601 -32127941.788970947 0 0 0 0 -63638589.65537262 4138825.2166442871 0 4138825.2166442871 196543299.81846619 0 0 0 0 224601571.07346344 -122054016.05072784 0 -122054016.05072784 -270953410.20384216 0 0 0 0 697154.18684085272 -5179795.3487281166 0 -5179795.3487281166 -803041.50565376878 0 0 0 0 -20486369.65836525 -377555407.25603676 0 -377555407.25603676 -536836582.40139771 0 0 0 0 -129655665.48158455 16787784.870868683 0 16787784.870868683 -115946464.34286499 0 0 0 0 -92411845.526809692 -175303855.89393616 0 -175303855.89393616 -342377883.83636475 0 0 0 0 -291395480.72000885 -164428630.88215637 0 -164428630.88215637 -584034.17995452881 0 0 0 0 -849134829.58727264 -903481093.51577377 0 -903481093.51577377 -490015017.81356812 0 0 0 0 -561061414.50636292 -321253148.57245636 0 -321253148.57245636 -90775370.66078186 0 0 0 0 -25877940.91696167 -65799165.187988281 0 -65799165.187988281 397.86088562011719 0 0 0 0 861891.10551834106 -68759578.248012543 0 -68759578.248012543 -44456702.508544922 0 0 0 0 3434265.5368766785 -51954739.068809509 0 -51954739.068809509 42149846.401885986 0 0 0 0 -117166637.20689392 -173302262.24629974 0 -173302262.24629974 -132897350.75881958 0 0 0 0 -52483430.188919067 -67159948.734420776 0 -67159948.734420776 342694.9161567688 0 0 0 0 -91484869.187299401 -52936199.33754012 0 -52936199.33754012 -93677645.688705444 0 0 0 0 -4075095.870300293 -58531009.730361938 0 -58531009.730361938 -116197949.67303467 0 0 0 0 -23053349.301567078 -10035370.855194092 0 -10035370.855194092 -13983441.104309082 0 0 0 0 11305038.222518921 -684118.91897583008 0 -684118.91897583008 -38110820.000596046 0 0 0 0 12438947.022636414 -8966660.2887420654 0 -8966660.2887420654 5849620.9940185547 0 0 0 0 9276904.3254432678 18117819.049362183 0 18117819.049362183 26100400.319915771 0 0 0 0 17588237.764640808 7138809.108165741 0 7138809.108165741 29158819.256698608 0 0 0 0 18967197.666473389 7440706.1619110107 0 7440706.1619110107 -27008468.553436279 0 0 0 0 -18134823.461791992 41974040.804016113 0 41974040.804016113 61843216.50038147 0 0 0 0 11879400.967636108 33864746.162044525 0 33864746.162044525 -34369861.432189941 0 0 0 0 -1032050.8542502001 -19803257.30524563 0 -19803257.30524563 -929041.88196585514 0 0 0 0 9822529.0960769653 -18493471.625045776 0 -18493471.625045776 -22933368.687057495 0 0 0 0 -16931166.762794495 -5745736.4733963013 0 -5745736.4733963013 111131153.9812088 0 0 0 0 -3115043.1563712582 -11945520.195885926 0 -11945520.195885926 6912661.4525497183 0 0 0 0 -6934749.4005203247 -11816717.903930664 0 -11816717.903930664 689709.7641544342 0 0 0 0 -2690016.4307302311 -9074480.3031233698 0 -9074480.3031233698 2962499.8170712367 0 0 0 0 -5141984.2052764893 -41490934.987472534 0 -41490934.987472534 -127899942.12714005 0 0 0 0 -5973077.0998382568 -6288833.4965515137 0 -6288833.4965515137 7929275.2149810791 0 0 0 0 -4189123.8664932251 -6681856.3850479126 0 -6681856.3850479126 2628844.1047058105 0 0 0 0 -6442326.479133606 -7055576.2594432831 0 -7055576.2594432831 5105457.5689086914 0 0 0 0 -5394015.2155723572 -9942670.2907180786 0 -9942670.2907180786 -1657157.2288208008 0 0 0 0 21566494.817138672 -9216159.8781585693 0 -9216159.8781585693 17079554.702407837 0 0 0 0 23620172.762203217 2117438.0784645081 0 2117438.0784645081 10933621.874557495 0 0 0 0 23172137.840057373 -298834.31198120117 0 -298834.31198120117 -695973.36183166504 0 0 0 0 20339961.636367798 -4503310.0413970947 0 -4503310.0413970947 7701616.150390625 0 0 0 0 -6891518.7041542828 -6693976.5301482063 0 -6693976.5301482063 9104231.5792106986 0 0 0 0 -8194709.2656230927 -9071086.4111881256 0 -9071086.4111881256 676409.23043823242 0 0 0 0 -9042226.6279602051 -12474793.98840332 0 -12474793.98840332 -430937.77360153198 0 0 0 0 -1562370.0200945064 -8701758.0964286774 0 -8701758.0964286774 7601765.9715773985 0 0 0 0 1282394.1879867613 -1944239.1287083402 0 -1944239.1287083402 2834483.5585353076 0 0 0 0 -2414808.7392248511 -5516495.7833504025 0 -5516495.7833504025 482949.29362047464 0 0 0 0 4379849.9263687134 -6774110.8814353943 0 -6774110.8814353943 -40382.743286132812 0 0 0 0 -3028800.0904541016 -7015006.7744140625 0 -7015006.7744140625 -45887.732444763184 0 0 0 0 -1188973.3770294189 -8545764.2272338867 0 -8545764.2272338867 1910249.9714584351 0 0 0 0 975933.89375382662 -1009435.1805679947 0 -1009435.1805679947 288607.57431946695 0 0 0 0 2365949.6338500977 -14312095.158432007 0 -14312095.158432007 -28253435.438301086 0 0 0 0 21064114.17074585 -31533913.23425293 0 -31533913.23425293 -7473.8785858154297 0 0 0 0 7735452.4139938354 -23442971.576194763 0 -23442971.576194763 -1814527.4780731201 0 0 0 0 -1281435.4822311401 -5913167.8847885132 0 -5913167.8847885132 653041.12774658203 0 0 0 0 34665007.356269836 -26306735.366378784 0 -26306735.366378784 -9498200.0800018311 0 0 0 0 63706287.917602539 -14854245.322875977 0 -14854245.322875977 -14689889.000488281 0 0 0 0 102505.697765872 -5668494.0958886854 0 -5668494.0958886854 -5008313.7972750366 0 0 0 0 -4574855.38802002 -7970482.6357365847 0 -7970482.6357365847 269712.24313177168 0 0 0 0 17555202.810081482 -19152618.456619263 0 -19152618.456619263 -5313758.5694274902 0 0 0 0 744829.97600013018 -18339826.261820212 0 -18339826.261820212 -3806828.9911996089 0 0 0 0 2616395.7931137085 -27078771.460296631 0 -27078771.460296631 1661708.734085083 0 0 0 0 13521761.92483902 -29487691.684614182 0 -29487691.684614182 -5626421.1318511963 0 0 0 0 1795590.8238107711 -22159108.456374086 0 -22159108.456374086 -5502247.1976611912 0 0 0 0 6215112.3095264435 -30010870.613010406 0 -30010870.613010406 -19499136.538650513 0 0 0 0 -6987562.5891571045 -9642021.7140884399 0 -9642021.7140884399 680414.53462219238 0 0 0 0 -6661570.0023533506 -8413270.3049082421 0 -8413270.3049082421 12229287.147721358 0 0 0 0 -36391477.40574646 -41072787.439437866 0 -41072787.439437866 19465385.402862549 0 0 0 0 9841678.9267597198 -45460866.539720535 0 -45460866.539720535 -330681.31439208984 0 0 0 0 -4481441.2937011719 -6574457.8469467163 0 -6574457.8469467163 4745565.7692337036 0 0 0 0 -161481618.13806152 -34301158.133224487 0 -34301158.133224487 89413677.754943848 0 0 0 0 -5736507.3614487071 -2871807.5914235078 0 -2871807.5914235078 11249878.11763823 0 0 0 0 -100093374.71113586 -13443898.550704956 0 -13443898.550704956 1808344.2656974792 0 0 0 0 -145217397.45358276 -65453424.17628479 0 -65453424.17628479 86556201.201648712 0 0 0 0 -221121490.98913574 47419054.296264648 0 47419054.296264648 -22052266.043945312 0 0 0 0 58186722.675930023 -35343976.381822586 0 -35343976.381822586 -19697185.181991577 0 0 0 0 10849658.118608281 -12406469.437211864 0 -12406469.437211864 -8202681.0677678883 0 0 0 0 14708725.812820435 -116788581.48883057 0 -116788581.48883057 64365970.56439209 0 0 0 0 -797858408.8125 -1555941934.3266068 0 -1555941934.3266068 -2357460530.4621887 0 0 0 0 -1142974681.9425669 -2127816683.8372836 0 -2127816683.8372836 -1805645816.9959564 0 0 0 0 -1395580690.6507854 -127926687.05523968 0 -127926687.05523968 3982172.9639282227 0 0 0 0 -2362924208.5014954 -1094862358.5283051 0 -1094862358.5283051 -1271803942.0265503 0 0 0 0 -708989319.89550781 -1302853790.1218338 0 -1302853790.1218338 -1338310067.5571518 0 0 0 0 -505859244.30133057 -525766552.91348267 0 -525766552.91348267 -557345019.14396667 0 0 0 0 -1127141032.6898499 -1972020121.8409939 0 -1972020121.8409939 -1716676671.6176605 0 0 0 0 -1314724531.9448395 -1989241811.6137772 0 -1989241811.6137772 -283615646.5610199 0 0 0 0 -1009349609.7673035 -1626670312.8825912 0 -1626670312.8825912 -1655916629.6685181 0 0 0 0 -1430997149.6919861 -1696284862.0783005 0 -1696284862.0783005 -1644315348.6438179 0 0 0 0 509417.02096131444 -2372141.9263506066 0 -2372141.9263506066 694105.69033892453 0 0 0 0 -1392809778.6142731 -2021941321.9850163 0 -2021941321.9850163 -1684142367.6562195 0 0 0 0 -1150505077.2655792 -2427884825.4591751 0 -2427884825.4591751 -3729365074.0854187 0 0 0 0 -3258520.0168985128 -4140305.3554580659 0 -4140305.3554580659 1234443.2683652006 0 0 0 0 236800236.32583618 261387481.34318542 0 261387481.34318542 -409342260.02072144 0 0 0 0 7354271.2257552892 -10458565.202464327 0 -10458565.202464327 -2968313.7995050922 0 0 0 0 142696.94168084173 -1129398.2975720167 0 -1129398.2975720167 -270510.24131457508 0 0 0 0 312790540.66177368 -488908920.24383545 0 -488908920.24383545 -2244404425.7357178 0 0 0 0 -554749773.88321304 -321653815.47663212 0 -321653815.47663212 -164694666.93151855 0 0 0 0 22002.8356673792 -135530.41937154531 0 -135530.41937154531 277340.16481691599 0 0 0 0 3607370.4852115959 -9649599.2513215095 0 -9649599.2513215095 -842620.85863736644 0 0 0 0 405056.48078745604 -7237647.1490472183 0 -7237647.1490472183 739180.24287836812 0 0 0 0 -18062662.23651123 49019304.169555664 0 49019304.169555664 -151982145.2015686 0 0 0 0 -297266603.2083168 -552050185.10505486 0 -552050185.10505486 207578127.38452911 0 0 0 0 19199001.806518555 42019683.002471924 0 42019683.002471924 -163620025.2700119 0 0 0 0 73004884.825042725 -56929742.766273499 0 -56929742.766273499 -130551485.64241791 0 0 0 0 -6149710.5405273438 -69223637.386474609 0 -69223637.386474609 -117792545.47676086 0 0 0 0 -381197561.36456299 -763019386.86399078 0 -763019386.86399078 363181156.87812805 0 0 0 0 319567095.11309814 -382528153.58724976 0 -382528153.58724976 511114709.18890381 0 0 0 0 8961248.173614502 -7803795.7281341553 0 -7803795.7281341553 -25371566.593322754 0 0 0 0 213558203.59383202 84461952.365572929 0 84461952.365572929 -16349283.234710693 0 0 0 0 728544040.7795105 -133958563.82971191 0 -133958563.82971191 34333103.077133179 0 0 0 0 -1131681.4484233409 -929222.85809253529 0 -929222.85809253529 1765630.1144533306 0 0 0 0 -1618641237.1061859 -1349264094.5744934 0 -1349264094.5744934 -963237160.33319092 0 0 0 0 -1832114979.9975014 -1990595628.9756851 0 -1990595628.9756851 -701597916.9995575 0 0 0 0 543332809.73379517 -875086983.49066162 0 -875086983.49066162 191734645.85398865 0 0 0 0 -1282236788.6105957 -1126574918.148201 0 -1126574918.148201 157219643.28567123 0 0 0 0 -311059044.22956085 -923852525.65338135 0 -923852525.65338135 -1450242850.853653 0 0 0 0 -167974198.14759064 -1432253817.0693283 0 -1432253817.0693283 -1532014050.7151337 0 0 0 0 -247283135.91326904 -1574272287.9503937 0 -1574272287.9503937 -691696812.36292267 0 0 0 0 -738563466.42123795 -1156611717.7206516 0 -1156611717.7206516 -1041338010.7470398 0 0 0 0 -459087959.58903313 -83537367.655339241 0 -83537367.655339241 326951.6944732666 0 0 0 0 -9483749.1233397648 -1498627.4736216217 0 -1498627.4736216217 5575366.3269621879 0 0 0 0 -217482378.58322144 -304932651.66078949 0 -304932651.66078949 654176362.2815094 0 0 0 0 224397833.70875549 -367788718.34187317 0 -367788718.34187317 479899534.15826416 0 0 0 0 -648063420.42099571 -876560649.68029785 0 -876560649.68029785 27004034.778717041 0 0 0 0 399044870.76556396 -187599796.97345734 0 -187599796.97345734 430241594.22653961 0 0 0 0 -2441478158.0388565 -936352322.39772415 0 -936352322.39772415 -337923525.6403656 0 0 0 0 -1617085.6701849326 855048.51091271639 0 855048.51091271639 110961.71625338495 0 0 0 0 1278676675.5367661 -1619345430.6210289 0 -1619345430.6210289 -353981259.27175903 0 0 0 0 171644440.03579712 -287671218.19207001 0 -287671218.19207001 428301350.3223877 0 0 0 0 -545885285.49298763 -90940722.780528545 0 -90940722.780528545 503889389.90940857 0 0 0 0 -376277164.17578125 -185510545.02367401 0 -185510545.02367401 554888980.81115723 0 0 0 0 -197358692.75276089 -102309600.71392679 0 -102309600.71392679 577318600.77635193 0 0 0 0 -355972752.88398743 64987109.899520874 0 64987109.899520874 875541460.17018127 0 0 0 0 26121070.579055786 116944730.39039612 0 116944730.39039612 531461266.32053375 0 0 0 0 -142379992.1399765 152421486.82491684 0 152421486.82491684 1356459525.6671295 0 0 0 0 3477486607.8033123 -1534915360.8547306 0 -1534915360.8547306 274792869.03926086 0 0 0 0 111560893.98028564 329750073.8353157 0 329750073.8353157 471193491.91548157 0 0 0 0 -117907.70220527798 -468668.0127921924 0 -468668.0127921924 4762457.1752943471 0 0 0 0 2472947305.0531874 59374204.44603014 0 59374204.44603014 600266452.37228394 0 0 0 0 2045734302.5578003 -1091777380.9085808 0 -1091777380.9085808 1748278098.2680397 0 0 0 0 2512202610.8445282 -491170203.66457367 0 -491170203.66457367 68318587.339401245 0 0 0 0 309138116.68452454 -832685614.47998047 0 -832685614.47998047 1493812516.923233 0 0 0 0 1650082821.0850067 -771099813.41403198 0 -771099813.41403198 68872281.148678571 0 0 0 0 2164823168.4920959 72992021.759254456 0 72992021.759254456 -167989666.95860291 0 0 0 0 2642475865.0150909 -307371532.93950272 0 -307371532.93950272 85203220.58770752 0 0 0 0 1921230723.6599121 -818400734.39909363 0 -818400734.39909363 588021742.75166321 0 0 0 0 2996093018.0072746 -335442812.99425888 0 -335442812.99425888 -522206153.33448792 0 0 0 0 2927333759.0366249 -526299056.91005135 0 -526299056.91005135 342454004.35229492 0 0 0 0 173118515.18221283 196308477.87225342 0 196308477.87225342 -62429352.941268921 0 0 0 0 1923010619.3157043 -640794940.03759766 0 -640794940.03759766 -1388990470.5615845 0 0 0 0 -499171390.08473206 -848514441.34457397 0 -848514441.34457397 -607260079.4427948 0 0 0 0 -139486854.64597321 -1084375372.2859602 0 -1084375372.2859602 -469693417.95324707 0 0 0 0 -452528808.72766113 -161943101.65940094 0 -161943101.65940094 506009458.87567139 0 0 0 0 -546876657.63827515 -715043008.56386566 0 -715043008.56386566 -246869293.2893219 0 0 0 0 -1004643300.3074036 -305818513.50884247 0 -305818513.50884247 -603833652.74784851 0 0 0 0 -1020433657.6412048 -1525555131.3284836 0 -1525555131.3284836 -1035081253.7877159 0 0 0 0 -327035713.81552124 -1015547039.7253342 0 -1015547039.7253342 -1005765386.7007637 0 0 0 0 -371793356.54722595 -1421375345.8983421 0 -1421375345.8983421 -3431242704.3108063 0 0 0 0 -2520518993.406723 -2162804507.8342209 0 -2162804507.8342209 -745089050.33787537 0 0 0 0 577249924.45168304 -106114536.66452789 0 -106114536.66452789 -3210855918.1487808 0 0 0 0 -975405477.21704769 -2353140240.0262551 0 -2353140240.0262551 -704243153.07537842 0 0 0 0 -1242090676.1574478 -113410755.70967102 0 -113410755.70967102 -1341627.3340454102 0 0 0 0 8494743.8234129474 -18027006.072115943 0 -18027006.072115943 3519591.2791904137 0 0 0 0 665176.14400826395 -6644678.4212854579 0 -6644678.4212854579 -2182751.7965333275 0 0 0 0 2110819.8906769753 -32322224.312383652 0 -32322224.312383652 -7046036.9052581787 0 0 0 0 -14806509.376928329 -28335749.16839695 0 -28335749.16839695 -37024.482666015625 0 0 0 0 -11930494.721954346 -20682803.711540222 0 -20682803.711540222 -3818110.8285942078 0 0 0 0 2672153.3176193237 -30427122.006187439 0 -30427122.006187439 6113.0068511962891 0 0 0 0 3008459649.7302856 -4780013870.7299042 0 -4780013870.7299042 -1369534689.5218353 0 0 0 0 -42264910.706726074 -4957580871.0170593 0 -4957580871.0170593 474692.62696838379 0 0 0 0 5301761264.3144598 -2721930368.0342817 0 -2721930368.0342817 -1760766043.3648682 0 0 0 0 5324432476.3892059 -127816825.75283813 0 -127816825.75283813 -939844224.12065125 0 0 0 0 4557568.9792785868 -7609555.8162392881 0 -7609555.8162392881 -2102712.0715031475 0 0 0 0 1809528650.8405457 -791420477.51605225 0 -791420477.51605225 -1057765938.538723 0 0 0 0 2520189650.7467957 -3097151374.1996765 0 -3097151374.1996765 -1333337297.8586884 0 0 0 0 254785862.81549072 -881049075.47881317 0 -881049075.47881317 -555992603.48736572 0 0 0 0 2626714839.0180731 -1512955208.7137656 0 -1512955208.7137656 -659997641.70706177 0 0 0 0 3306557871.9979935 -2962197548.6379013 0 -2962197548.6379013 -1402355568.7700806 0 0 0 0 4862416516.84935 -1886485672.576622 0 -1886485672.576622 -1587648442.3898773 0 0 0 0 2299560240.9521942 -2819466532.7796783 0 -2819466532.7796783 -912818081.2240448 0 0 0 0 1556318098.2547379 -1843398606.9087791 0 -1843398606.9087791 -290739762.73355103 0 0 0 0 2293751925.5823517 -1435218853.6107178 0 -1435218853.6107178 -1262130209.2624083 0 0 0 0 3035441194.4370728 -2635700357.5400696 0 -2635700357.5400696 450374730.24472046 0 0 0 0 2850698976.223114 -883186562.26738739 0 -883186562.26738739 -100268076.94863892 0 0 0 0 9493005532.2496948 -1353627165.1705627 0 -1353627165.1705627 83713648.562652588 0 0 0 0 2740071656.4223785 -1207894849.824543 0 -1207894849.824543 2931605355.8103638 0 0 0 0 172132039.2986908 -1644853415.6138916 0 -1644853415.6138916 2767232541.2785034 0 0 0 0 -412026019.71679688 -3502553974.5429993 0 -3502553974.5429993 3696037037.2983627 0 0 0 0 573473611.37341309 -2368813660.6188354 0 -2368813660.6188354 2019018687.0506592 0 0 0 0 1995457.313800551 -1516319.8344496898 0 -1516319.8344496898 -818253.19689211994 0 0 0 0 -1107543963.1820679 -378332194.57894135 0 -378332194.57894135 -290403034.27380371 0 0 0 0 -392567422.77612305 -3215549710.4122314 0 -3215549710.4122314 3668522162.1901512 0 0 0 0 2939462644.5883617 -547446563.23253012 0 -547446563.23253012 221264297.35031128 0 0 0 0 28291957.188598633 -468838641.15679932 0 -468838641.15679932 -74023138.805780411 0 0 0 0 1752785.326984331 -13469368.971654376 0 -13469368.971654376 15837059.339189231 0 0 0 0 541611059.95115662 -513135751.86309052 0 -513135751.86309052 -100076674.40625191 0 0 0 0 265782124.66955566 63871415.488433838 0 63871415.488433838 -1065936042.6473389 0 0 0 0 50224997.255462646 -34975154.981796265 0 -34975154.981796265 -40911693.085083008 0 0 0 0 5701919.4159372821 -4016460.4781438783 0 -4016460.4781438783 -18928345.29018715 0 0 0 0 677386.69997449871 -3744439.7900530212 0 -3744439.7900530212 -805832.66810385883 0 0 0 0 1650147332.9151993 -1949823084.7476234 0 -1949823084.7476234 -1291249518.2594757 0 0 0 0 -3437156322.0409241 -718244997.40387726 0 -718244997.40387726 1288696669.5969315 0 0 0 0 -897358423.79664612 -958200607.1526947 0 -958200607.1526947 -44162145.106994629 0 0 0 0 163487665.52088928 -25557641.172721863 0 -25557641.172721863 -39170916.546348572 0 0 0 0 -11556221.6849823 -34046245.496887207 0 -34046245.496887207 10894773.019256592 0 0 0 0 21173250.349183083 -96825161.746481419 0 -96825161.746481419 166225.34031677246 0 0 0 0 518361.45094569866 -6472947.807058081 0 -6472947.807058081 -1404912.3628369719 0 0 0 0 1820379871.1418762 -5115739276.4660797 0 -5115739276.4660797 -23086127.720336914 0 0 0 0 2331354.614286893 -2717158.9930731207 0 -2717158.9930731207 -6220991.2558177114 0 0 0 0 -4071897345.2424622 -3366799123.1466904 0 -3366799123.1466904 1053869573.6115112 0 0 0 0 2892260016.2844543 -2240392483.3522835 0 -2240392483.3522835 1058945196.8761292 0 0 0 0 -666909.2133026123 -2738979173.4145279 0 -2738979173.4145279 1765721847.8027039 0 0 0 0 1710200.956590496 -5072813.2282119989 0 -5072813.2282119989 3212216.1839752942 0 0 0 0 1761302732.8998871 -3498283834.9094849 0 -3498283834.9094849 -1121974.3024597168 0 0 0 0 -119831110.373703 -62883092.004379272 0 -62883092.004379272 41855285.337936401 0 0 0 0 15504992.743749619 -46359344.154812813 0 -46359344.154812813 -7093887.7420043945 0 0 0 0 -49594529.93258667 -94542256.544830322 0 -94542256.544830322 -135652.27567587298 0 0 0 0 -9562028.5751361847 -52211806.482207775 0 -52211806.482207775 -35528333.923141479 0 0 0 0 -81482383.882583618 -25132678.320701599 0 -25132678.320701599 21796365.759780884 0 0 0 0 120061.10224914551 -739289.8010559082 0 -739289.8010559082 1670166.17918396 0 0 0 0 1855925667.6819916 -1502236721.609642 0 -1502236721.609642 2576843938.4894714 0 0 0 0 -1464594.520583868 -3640431.857925592 0 -3640431.857925592 -3350159.7021503896 0 0 0 0 -7580634.8160705566 -29003448.359603882 0 -29003448.359603882 -33925288.172454834 0 0 0 0 2459385.2600905746 -14529355.328479657 0 -14529355.328479657 14639092.811182722 0 0 0 0 3587148.2223297283 -6686112.0174184591 0 -6686112.0174184591 -14649221.95012778 0 0 0 0 -19412222.302200317 35925524.469062805 0 35925524.469062805 -135048581.76164246 0 0 0 0 579187198.31013489 -8131538.1083145142 0 -8131538.1083145142 -178486148.58154297 0 0 0 0 88425089.075862885 63866262.291889191 0 63866262.291889191 -171200800.73490906 0 0 0 0 -460498.69136047363 -7431928.7111968994 0 -7431928.7111968994 -83533976.429122925 0 0 0 0 -809749753.20993805 -652963883.31005478 0 -652963883.31005478 -254469961.41925049 0 0 0 0 40081422.129974365 -285874289.15893555 0 -285874289.15893555 -497044631.49116516 0 0 0 0 -499103553.31582642 -269472185.45420837 0 -269472185.45420837 -205072768.08985138 0 0 0 0 406051.3848645665 -259753457.23252565 0 -259753457.23252565 -443178612.57495117 0 0 0 0 224595010.46563721 696380179.90596771 0 696380179.90596771 533860398.98596191 0 0 0 0 -265685229.18595886 -1002150622.0216866 0 -1002150622.0216866 -854461966.96316528 0 0 0 0 2223524399.1500244 614138805.22003174 0 614138805.22003174 -2765522299.0820618 0 0 0 0 782182597.1554718 -538750023.87565613 0 -538750023.87565613 519913295.84634614 0 0 0 0 -50585.739833645523 -2342997.9446959272 0 -2342997.9446959272 -3115846.1645716354 0 0 0 0 170837178.0942688 -1746303485.4130859 0 -1746303485.4130859 -2003752934.8953247 0 0 0 0 605068225.20452881 -589166580.86524963 0 -589166580.86524963 522311030.11325741 0 0 0 0 821254.50596326683 -1004174.043939881 0 -1004174.043939881 -4612680.1709499359 0 0 0 0 87408636.750912666 -258205019.12323046 0 -258205019.12323046 808006846.11410522 0 0 0 0 947022.94154520333 -779781.45229420811 0 -779781.45229420811 -1929123.8294984847 0 0 0 0 666138888.13817596 -348767274.6447258 0 -348767274.6447258 921561121.75422668 0 0 0 0 1448835806.0578918 -1258182230.2385635 0 -1258182230.2385635 402334606.75326157 0 0 0 0 5716587619.2449112 -3194301617.4024124 0 -3194301617.4024124 1300277244.2994995 0 0 0 0 4993428148.908783 156097617.60658264 0 156097617.60658264 531405923.97732544 0 0 0 0 2317970857.4977417 -1109863383.8707275 0 -1109863383.8707275 380142754.68280488 0 0 0 0 2372493283.1391296 -1428048834.9877167 0 -1428048834.9877167 379323306.76880503 0 0 0 0 3302941564.8085327 -580984143.04870987 0 -580984143.04870987 -193508718.67684937 0 0 0 0 2197736587.7336731 -428313187.74131393 0 -428313187.74131393 489606367.19490051 0 0 0 0 2519366993.6884766 -572184243.71582794 0 -572184243.71582794 -83470532.30909729 0 0 0 0 705524494.33442688 -776773783.47526741 0 -776773783.47526741 606786802.65032959 0 0 0 0 1966731724.2195129 -754827489.3873024 0 -754827489.3873024 275819323.28756714 0 0 0 0 1581829618.8068848 -965716281.60359955 0 -965716281.60359955 293287137.53911591 0 0 0 0 1477625944.5348511 -635192450.61429596 0 -635192450.61429596 304098071.39009094 0 0 0 0 1059353810.4620819 -659368124.62486267 0 -659368124.62486267 426049241.36523438 0 0 0 0 1635579700.7900734 -819571837.79018974 0 -819571837.79018974 47998816.958633423 0 0 0 0 1664301978.3507996 -957794693.94035339 0 -957794693.94035339 618999959.77426338 0 0 0 0 2135674387.1923752 -1032501619.2655602 0 -1032501619.2655602 243262793.41226196 0 0 0 0 1653858918.0915833 -856330588.74623108 0 -856330588.74623108 417754279.78370667 0 0 0 0 1115807706.5624237 -1175568270.7560883 0 -1175568270.7560883 305760750.15489197 0 0 0 0 1070429164.3101196 -1027859155.2586823 0 -1027859155.2586823 -170093199.71772194 0 0 0 0 817350808.13421631 -1199857302.1353607 0 -1199857302.1353607 -228009244.85777283 0 0 0 0 561268.10499572754 -1963915937.26548 0 -1963915937.26548 -263828902.13002777 0 0 0 0 820137094.50326538 -1193130132.3898468 0 -1193130132.3898468 -1526522040.9909439 0 0 0 0 -1056065.6443312764 -1822156.2965635285 0 -1822156.2965635285 -687094.00922395289 0 0 0 0 461739069.37335205 -141849804.94594574 0 -141849804.94594574 -868182371.79219055 0 0 0 0 -88860.730041503906 -167178486.83525848 0 -167178486.83525848 1044705668.8417549 0 0 0 0 459699282.66940308 -379184658.99391937 0 -379184658.99391937 234766491.35627747 0 0 0 0 1065149120.9528198 -677233126.79902649 0 -677233126.79902649 49127889.230239868 0 0 0 0 895588680.45167542 -398721196.8881073 0 -398721196.8881073 -408053992.59579468 0 0 0 0 10251871.230611503 -23925605.294926062 0 -23925605.294926062 10861763.392767236 0 0 0 0 -45298308.323039055 -424682955.63197994 0 -424682955.63197994 276936845.11727905 0 0 0 0 -309981804.72346497 -97098001.879669189 0 -97098001.879669189 60351047.830200195 0 0 0 0 -47104525.753087997 -72467681.757019043 0 -72467681.757019043 8605228.1284332275 0 0 0 0 -54130492.536527425 -4014468.5957005024 0 -4014468.5957005024 68871723.124267578 0 0 0 0 65871300.409288406 -49519852.503295898 0 -49519852.503295898 -40191574.840184212 0 0 0 0 -199836253.42409134 -52217294.114883423 0 -52217294.114883423 80593811.546524048 0 0 0 0 -87396699.57977581 -115912142.85170364 0 -115912142.85170364 -33811946.133041382 0 0 0 0 -235584466.11044312 -113301848.33155823 0 -113301848.33155823 11264448.932769775 0 0 0 0 85620747.249176025 -71234644.498268127 0 -71234644.498268127 -102605830.17294312 0 0 0 0 -19738747.589645386 179512787.76934052 0 179512787.76934052 86772881.865242004 0 0 0 0 -4456807.2101480253 -3723464.1750509962 0 -3723464.1750509962 -1432685.4388188049 0 0 0 0 -209379008.35564613 -152817148.01381874 0 -152817148.01381874 -6655308.4466247559 0 0 0 0 -162089936.02706337 25311893.387745857 0 25311893.387745857 175732711.30093384 0 0 0 0 266254098.5994873 -244575205.37551498 0 -244575205.37551498 -174688755.67602539 0 0 0 0 -50992.300258472562 -1218724.9270850774 0 -1218724.9270850774 -1449811.9340035021 0 0 0 0 94110266.872161865 -81144713.605964661 0 -81144713.605964661 -36915466.515701294 0 0 0 0 -248089201.50305176 32794909.478935242 0 32794909.478935242 -55939757.664733887 0 0 0 0 -78492242.528945923 22724125.174346924 0 22724125.174346924 29371044.54498291 0 0 0 0 -227917245.0168457 -31357242.054595947 0 -31357242.054595947 107870029.99630737 0 0 0 0 -161520534.98364258 76861980.882049561 0 76861980.882049561 207334379.76608276 0 0 0 0 -131034939.79548645 -117689881.61065674 0 -117689881.61065674 162244616.18792725 0 0 0 0 -124456801.67160034 -103018756.44252014 0 -103018756.44252014 -107179445.70251465 0 0 0 0 -118658638.85626221 -81211770.261871338 0 -81211770.261871338 -166675923.38623047 0 0 0 0 -481565598.4313736 6171755.4633712769 0 6171755.4633712769 285240186.11155701 0 0 0 0 -519384856.96304321 -325032921.58001709 0 -325032921.58001709 98643340.393371582 0 0 0 0 61403820.432799339 288352376.910285 0 288352376.910285 -240043042.19009399 0 0 0 0 9863217.2915902957 -2559847.3175658379 0 -2559847.3175658379 -3331884.7526645362 0 0 0 0 9172561.8874958791 -21593575.763451066 0 -21593575.763451066 7151359.9691360742 0 0 0 0 89829703.462334454 263492010.21059334 0 263492010.21059334 280457503.15605164 0 0 0 0 -17541706.701156616 -168354044.88774109 0 -168354044.88774109 362914003.56314087 0 0 0 0 -111879248.92666245 48552999.99830246 0 48552999.99830246 -119061277.86981201 0 0 0 0 187325564.30502319 -258763544.2926178 0 -258763544.2926178 56626176.594455719 0 0 0 0 -597233015.26623535 -364232685.42453766 0 -364232685.42453766 2731059.2981452942 0 0 0 0 27254843.425878707 -26095131.24013881 0 -26095131.24013881 -4366764.2659249604 0 0 0 0 -58860486.859371185 -57371537.592506409 0 -57371537.592506409 -31925373.536209106 0 0 0 0 -62311351.230095387 -44852250.665397644 0 -44852250.665397644 1302674.8572387695 0 0 0 0 -60244685.0063591 -48417996.358612061 0 -48417996.358612061 -12949591.225601196 0 0 0 0 -10939092.63549513 -8639595.6469064206 0 -8639595.6469064206 17321315.352565095 0 0 0 0 -67322721.842535496 -53091117.346784592 0 -53091117.346784592 2624183.1063690186 0 0 0 0 -68884546.659740448 -56817096.354064941 0 -56817096.354064941 -2471939.7144775391 0 0 0 0 -52850867.532874107 -52125559.153030396 0 -52125559.153030396 -3413917.0884361267 0 0 0 0 -29759773.039985657 -103354263.99697113 0 -103354263.99697113 -77189902.358306885 0 0 0 0 -33562761.789627075 -32972767.060585022 0 -32972767.060585022 12623712.732162476 0 0 0 0 117813432.88765907 21577118.983055115 0 21577118.983055115 -45419888.867584229 0 0 0 0 -942301975.82190704 -10718755.195007324 0 -10718755.195007324 -101994377.55192566 0 0 0 0 -232600818.32906342 -486772381.15164185 0 -486772381.15164185 -2620302.2263183594 0 0 0 0 890436639.45836639 -216141427.47140503 0 -216141427.47140503 -32081241.798355103 0 0 0 0 86327046.948001862 -468560450.61117554 0 -468560450.61117554 1072788672.277832 0 0 0 0 185413.02917534718 -190210.13874606416 0 -190210.13874606416 441882.23354142904 0 0 0 0 -433697540.05251312 -318121452.95530701 0 -318121452.95530701 78625520.948059082 0 0 0 0 -387163108.03837204 -426849143.91218567 0 -426849143.91218567 281265702.51226807 0 0 0 0 -140911392.7178278 -258587401.89979553 0 -258587401.89979553 -378034547.37730408 0 0 0 0 184245372.05301762 -436617441.51113129 0 -436617441.51113129 -99305893.9608078 0 0 0 0 -235148232.72285128 -106112807.07804108 0 -106112807.07804108 -162848717.72113037 0 0 0 0 22036946.78666687 39326817.27734375 0 39326817.27734375 -187392202.57373047 0 0 0 0 88412088.068101406 -311068.56749534607 0 -311068.56749534607 -197069284.87463379 0 0 0 0 436088.49295959214 2002003.3761012256 0 2002003.3761012256 88936.865828275681 0 0 0 0 -7643259.1115425266 -8317785.6023600847 0 -8317785.6023600847 16343497.514366329 0 0 0 0 -18411977.253513336 -50600145.951263428 0 -50600145.951263428 -23610378.577484131 0 0 0 0 1984937.8062648266 -6764716.0696295239 0 -6764716.0696295239 -12234744.225065306 0 0 0 0 -818519266.38552952 -225051108.81560516 0 -225051108.81560516 125293086.55203247 0 0 0 0 -503556409.91572475 -539461784.40263367 0 -539461784.40263367 169266823.58901978 0 0 0 0 87432378.013635635 -2099336.8765029907 0 -2099336.8765029907 68241239.794616699 0 0 0 0 -220277065.44274682 -40087088.573141098 0 -40087088.573141098 3877820.0295715332 0 0 0 0 1149249.8741657408 -1909812.5681477115 0 -1909812.5681477115 1104562.0384508222 0 0 0 0 835397907.20811272 198942413.24879456 0 198942413.24879456 16713185.439529419 0 0 0 0 -111033715.22331905 -432847862.08087349 0 -432847862.08087349 139650256.46182251 0 0 0 0 204922938.60085678 131352321.55322266 0 131352321.55322266 105389670.62276459 0 0 0 0 419336835.8638711 -6970321.9677734375 0 -6970321.9677734375 -124305053.0718689 0 0 0 0 144932884.76126051 27185901.601896286 0 27185901.601896286 -2852800.7338256836 0 0 0 0 2840527.0180835375 -5734424.9530563317 0 -5734424.9530563317 2870664.3813146651 0 0 0 0 128965409.3881073 -36664435.694927216 0 -36664435.694927216 31436121.716049194 0 0 0 0 45827850.497581005 -189946014.57232666 0 -189946014.57232666 -139245743.28857422 0 0 0 0 73129182.645309448 -225677111.9145813 0 -225677111.9145813 -93848996.926147461 0 0 0 0 -15092806.755041122 -250603922.06272888 0 -250603922.06272888 -5129308.012878418 0 0 0 0 21277965.90670681 -177984950.61862946 0 -177984950.61862946 12891941.928619385 0 0 0 0 64852636.147769928 -274719539.76031494 0 -274719539.76031494 -73114054.280700684 0 0 0 0 -93935717.719867706 -115760339.97296524 0 -115760339.97296524 3685695.1047363281 0 0 0 0 -111423372.75243378 -51742520.472885132 0 -51742520.472885132 54152858.403244019 0 0 0 0 -125941496.11353874 -16601696.122131348 0 -16601696.122131348 -805791.04223632812 0 0 0 0 -426149246.11748123 -248352880.29730225 0 -248352880.29730225 -396331193.96069336 0 0 0 0 -561985.78262566961 -163465.57229718938 0 -163465.57229718938 277987.36110352725 0 0 0 0 -168489004.60090446 -259123126.97886658 0 -259123126.97886658 -66292360.685882568 0 0 0 0 -303302285.58962536 -62781744.945098877 0 -62781744.945098877 -159564176.94934082 0 0 0 0 36310619.183994293 -289213926.71617126 0 -289213926.71617126 -152877637.14199829 0 0 0 0 -71280593.978469849 -195640554.18011475 0 -195640554.18011475 -151944145.28505707 0 0 0 0 -70571825.994005203 -219511280.04147339 0 -219511280.04147339 -109106519.25109863 0 0 0 0 -83509881.02257061 -211420534.66667175 0 -211420534.66667175 -86585382.524414062 0 0 0 0 -111230586.07254696 -195027313.44187164 0 -195027313.44187164 -14226489.229949951 0 0 0 0 -74653608.368336916 -243162422.80950546 0 -243162422.80950546 -63011952.421020508 0 0 0 0 62979679.464757919 -185766955.87088013 0 -185766955.87088013 -48797278.095779419 0 0 0 0 -58208368.317777634 -140660338.42474365 0 -140660338.42474365 12094520.190795898 0 0 0 0 -3683832.6712831385 -5565395.9035602631 0 -5565395.9035602631 5822761.2514818311 0 0 0 0 140865239.17812872 49517121.351974487 0 49517121.351974487 -80892793.001281738 0 0 0 0 -106853993.55052948 219873655.43418884 0 219873655.43418884 -116892304.86257935 0 0 0 0 -299134565.74233627 -221176114.38751221 0 -221176114.38751221 96060786.835075378 0 0 0 0 -545338852.30928421 226985240.22020721 0 226985240.22020721 7394664.5536499023 0 0 0 0 193859641.73802853 28915566.202453613 0 28915566.202453613 -10673489.729660034 0 0 0 0 -168239381.9369576 33757131.503629684 0 33757131.503629684 67656087.665405273 0 0 0 0 623654153.77994633 -202720921.8835144 0 -202720921.8835144 -63901214.961349487 0 0 0 0 -1063431.0276176718 -1357087.3677337719 0 -1357087.3677337719 1879715.52322267 0 0 0 0 -8343082.9857778549 -72276266.381626129 0 -72276266.381626129 144878802.28051758 0 0 0 0 284247410.59925842 -41793105.454299927 0 -41793105.454299927 18487724.888716698 0 0 0 0 206542077.59851789 -338238133.91637611 0 -338238133.91637611 -28603248.45324707 0 0 0 0 143220598.01368523 478427835.88819885 0 478427835.88819885 -562724286.95230865 0 0 0 0 148427770.97069263 -391862916.17765808 0 -391862916.17765808 563481789.91744995 0 0 0 0 -348335933.09454918 408452418.00561523 0 408452418.00561523 25070793.882965088 0 0 0 0 364719986.44282532 492219294.73336792 0 492219294.73336792 17721336.895675659 0 0 0 0 288124151.6088829 -447070116.4274292 0 -447070116.4274292 -335952976.35825348 0 0 0 0 887906768.31826115 -412763004.99776077 0 -412763004.99776077 -346497886.88671875 0 0 0 0 -92590109.53168869 -389897338.45285034 0 -389897338.45285034 551597567.08251953 0 0 0 0 -161303302.54393005 -196981880.55882263 0 -196981880.55882263 16802518.417404175 0 0 0 0 -198526476.14388275 -148240361.04660034 0 -148240361.04660034 -26085567.142456055 0 0 0 0 -268853988.46260452 -159984128.5148468 0 -159984128.5148468 297548349.72360229 0 0 0 0 -168646975.1692028 39961820.688949585 0 39961820.688949585 390372959.79394531 0 0 0 0 -193462968.44099903 -222871940.71411896 0 -222871940.71411896 -309051281.06185913 0 0 0 0 -239285691.01576996 -139737395.31460571 0 -139737395.31460571 44884433.561332703 0 0 0 0 -220966135.58701706 -82249008.383758545 0 -82249008.383758545 -175095427.28898621 0 0 0 0 24375199.526687622 -104419090.44987488 0 -104419090.44987488 -269947642.90994263 0 0 0 0 -67738662.463855743 39595673.391586304 0 39595673.391586304 -576516385.78997803 0 0 0 0 -156697276.33836555 27579133.774871826 0 27579133.774871826 123613454.81237793 0 0 0 0 -890386.17730193306 -121862.21628888696 0 -121862.21628888696 1977959.250161998 0 0 0 0 -255258816.25826645 -63999385.651996613 0 -63999385.651996613 106062672.96838379 0 0 0 0 -91885220.102793097 -49474797.490498416 0 -49474797.490498416 17931568.833526611 0 0 0 0 -91889322.76086235 -5153219.9578857422 0 -5153219.9578857422 35517746.858398438 0 0 0 0 -1465760.4303911431 -2403461.6554662287 0 -2403461.6554662287 5425190.8531423695 0 0 0 0 30905181.647060394 36131774.99937439 0 36131774.99937439 40531228.336196899 0 0 0 0 45766272.724969447 -70002639.852948189 0 -70002639.852948189 41822647.57925415 0 0 0 0 -38321432.814235687 -32005028.666534424 0 -32005028.666534424 26856848.788314819 0 0 0 0 -33410312.984340668 -34812530.151367188 0 -34812530.151367188 24712246.680023193 0 0 0 0 -34802637.402562141 -30713804.899047852 0 -30713804.899047852 21897332.912658691 0 0 0 0 -36163046.786618948 -17403716.654087067 0 -17403716.654087067 3540437.7559814453 0 0 0 0 -33135471.32305038 -31446934.640460968 0 -31446934.640460968 8430129.9570922852 0 0 0 0 -12519943.552127838 -28212225.405731201 0 -28212225.405731201 8475964.7038116455 0 0 0 0 -26124906.509309769 -1891843.2437400818 0 -1891843.2437400818 17955384.275512695 0 0 0 0 -62727400.029771805 -30783637.081115723 0 -30783637.081115723 5575439.8241577148 0 0 0 0 -62252044.76374054 -35863556.676887512 0 -35863556.676887512 23277005.073181152 0 0 0 0 194142199.33249664 -63394934.08165741 0 -63394934.08165741 -597985578.84893799 0 0 0 0 -12025729.475096226 -23276455.256767273 0 -23276455.256767273 57284528.665222168 0 0 0 0 -533445.41874384286 -8814136.8723961711 0 -8814136.8723961711 8870374.4276973978 0 0 0 0 -3838221.3126220703 -6577784.7649841309 0 -6577784.7649841309 1949917.4206237793 0 0 0 0 -6329090.2995775603 -12855282.793501899 0 -12855282.793501899 17721244.843297832 0 0 0 0 -12715364.237736093 -8123674.1391439643 0 -8123674.1391439643 3031597.7620964497 0 0 0 0 -2674179.0330848694 -3813487.7705841064 0 -3813487.7705841064 954753.20495605469 0 0 0 0 1850219.5613785535 -13142089.548864096 0 -13142089.548864096 14010256.226522341 0 0 0 0 -6291763.6327415537 -14305074.523982495 0 -14305074.523982495 8287027.5258447975 0 0 0 0 -149651968.29993808 -166992315.30273914 0 -166992315.30273914 -113909692.23529053 0 0 0 0 -148634230.68445015 -191689631.82891846 0 -191689631.82891846 -69536887.980529785 0 0 0 0 -158620843.67577362 -72113235.939147949 0 -72113235.939147949 171660540.56047058 0 0 0 0 100870447.5121212 -23385846.201141357 0 -23385846.201141357 20723642.994659424 0 0 0 0 -34324856.874882698 -17935834.19921875 0 -17935834.19921875 31385179.980705261 0 0 0 0 1664974.8542497172 -4483591.2469969317 0 -4483591.2469969317 2495469.8175564669 0 0 0 0 -42414758.150381088 -28614529.499816895 0 -28614529.499816895 25370527.230651855 0 0 0 0 -41868138.371675491 -24635526.491348267 0 -24635526.491348267 25482246.056091309 0 0 0 0 -36322955.918327332 -24133603.330154419 0 -24133603.330154419 13756299.836090088 0 0 0 0 -35504091.141290665 -20861650.570770264 0 -20861650.570770264 26103951.671676636 0 0 0 0 -23861315.09528923 -24688582.979644775 0 -24688582.979644775 -12656384.917015076 0 0 0 0 -22562120.24835825 -15408337.078994751 0 -15408337.078994751 9983344.3920288086 0 0 0 0 -24883715.453299522 -9950997.5572052002 0 -9950997.5572052002 24756704.603057861 0 0 0 0 -5924369.2119394429 -3099798.5340739265 0 -3099798.5340739265 7272112.5886152312 0 0 0 0 -56252511.564443588 17210321.562850952 0 17210321.562850952 48899172.476867676 0 0 0 0 -19337645.549516678 -20132758.573822021 0 -20132758.573822021 3448321.8148193359 0 0 0 0 -6841878.4297783757 -11089344.864158683 0 -11089344.864158683 10927502.820686206 0 0 0 0 -36194640.990375042 -24331662.919219971 0 -24331662.919219971 5612285.8510742188 0 0 0 0 -22372485.028471947 -21277532.563735962 0 -21277532.563735962 9083257.2023468018 0 0 0 0 -5999427.7918165345 -15023392.988419719 0 -15023392.988419719 13354111.578526311 0 0 0 0 4004307.6381835938 -12756069.083068848 0 -12756069.083068848 18966106.927215576 0 0 0 0 -13376456.652412415 -21679372.332214355 0 -21679372.332214355 22879.77014541626 0 0 0 0 -7633999.5851257611 -15196668.407572974 0 -15196668.407572974 3886010.2562062219 0 0 0 0 -4275487.810131073 -11286400.993377686 0 -11286400.993377686 6591524.3426513672 0 0 0 0 -4123085.8094863892 -11664721.687362671 0 -11664721.687362671 6808918.2365112305 0 0 0 0 -20526454.514009945 -16839255.703106042 0 -16839255.703106042 -3452370.5831611976 0 0 0 0 -11554176.446099322 -8366609.1141518168 0 -8366609.1141518168 12980891.083765335 0 0 0 0 3039216.1028572991 -14903158.945502438 0 -14903158.945502438 7832549.3070511017 0 0 0 0 6866116.3728269748 -14595015.83051917 0 -14595015.83051917 8792091.1879911013 0 0 0 0 6875403.7158203125 -18274552.093933105 0 -18274552.093933105 17966898.087669373 0 0 0 0 6722225.2759208679 -18504841.283752441 0 -18504841.283752441 17961757.796539307 0 0 0 0 -9950088.8151999917 -7075886.6613199227 0 -7075886.6613199227 13390383.936766513 0 0 0 0 -4287689.9217752283 -6619058.7596707121 0 -6619058.7596707121 5800632.6261972934 0 0 0 0 6521203.4295082092 -9861718.0452489853 0 -9861718.0452489853 8082741.3718566895 0 0 0 0 -53196889.635314941 -8812671.436920166 0 -8812671.436920166 19539231.736938477 0 0 0 0 -16329420.074971249 -14818350.115240742 0 -14818350.115240742 8177438.2174140513 0 0 0 0 7326523.6216506958 -16298978.919311523 0 -16298978.919311523 7990101.3128967285 0 0 0 0 -59857670.684417725 -11379222.707550049 0 -11379222.707550049 19521155.280731201 0 0 0 0 1155926.9561012648 -11583063.94412151 0 -11583063.94412151 14003072.50676313 0 0 0 0 3798949.3452758789 -12511556.504180908 0 -12511556.504180908 19026305.485183716 0 0 0 0 -7795333.5650939941 -9598690.8082427979 0 -9598690.8082427979 8708646.19972229 0 0 0 0 -5688497.8209877014 -9471817.0243301392 0 -9471817.0243301392 7742587.194732666 0 0 0 0 -10401101.171600342 -4678441.8296966553 0 -4678441.8296966553 990641.94752502441 0 0 0 0 -10788752.533296345 -8819914.6611656472 0 -8819914.6611656472 2277425.2688006163 0 0 0 0 -9042662.3439906444 -15041126.754714061 0 -15041126.754714061 9182888.6938953549 0 0 0 0 -17415430.403932497 -7625477.9857526515 0 -7625477.9857526515 4950152.0677016228 0 0 0 0 -10908275.006492633 -11457296.336525314 0 -11457296.336525314 13400308.435124472 0 0 0 0 -209297830.64475918 -120340647.32476807 0 -120340647.32476807 -69011949.225891113 0 0 0 0 -253278249.17324495 -158840316.68150711 0 -158840316.68150711 61096021.378204346 0 0 0 0 -292345203.99715996 -69580090.21546936 0 -69580090.21546936 -36353633.0206604 0 0 0 0 -11901389.614207257 1939435.5250239829 0 1939435.5250239829 2507935.6036070585 0 0 0 0 -9437462.3393936157 1151156.2421112061 0 1151156.2421112061 3221971.1302490234 0 0 0 0 7258170.9586075228 -7944228.77801333 0 -7944228.77801333 5321300.1887002736 0 0 0 0 -11142335.793304443 752978.49078369141 0 752978.49078369141 3540977.0828857422 0 0 0 0 5763192.8709037527 -23931951.595707111 0 -23931951.595707111 10648924.175998777 0 0 0 0 -21000203.810417175 -6364234.6857757568 0 -6364234.6857757568 2816786.8895263672 0 0 0 0 -28944365.419872746 -10396032.510021664 0 -10396032.510021664 8167188.6330377012 0 0 0 0 -6792902.9643792324 -14490415.795306712 0 -14490415.795306712 8116934.8977104127 0 0 0 0 6740284.1105041504 -10329217.255157471 0 -10329217.255157471 6679449.2254638672 0 0 0 0 -38786351.69291687 -42808945.153739929 0 -42808945.153739929 179451.96109008789 0 0 0 0 -48001781.08089447 -16725257.872684479 0 -16725257.872684479 18576889.571746826 0 0 0 0 -68776533.65133667 -26764134.725769043 0 -26764134.725769043 13729205.19190979 0 0 0 0 -89482491.054412842 -31495574.066894531 0 -31495574.066894531 20669679.244140625 0 0 0 0 -64262663.230987549 -54856695.343505859 0 -54856695.343505859 -2573986.0128440857 0 0 0 0 -59686696.744094849 1611620.062335968 0 1611620.062335968 -895616.3487701416 0 0 0 0 -22603955.704567038 -6796700.9187018014 0 -6796700.9187018014 7810364.8157477453 0 0 0 0 -101972078.82437134 -57168509.290512085 0 -57168509.290512085 9539826.4580078125 0 0 0 0 -178486668.33731079 -10241961.2917099 0 -10241961.2917099 80913727.425445557 0 0 0 0 8657928.7939848807 -27493635.611391418 0 -27493635.611391418 13420470.58684092 0 0 0 0 3841249.8040084839 -49235778.239196777 0 -49235778.239196777 10966106.20010376 0 0 0 0 3173652.2330647632 -2644085.56792254 0 -2644085.56792254 1385543.7058952153 0 0 0 0 -417878787.48855782 65705433.525527954 0 65705433.525527954 135012235.90039062 0 0 0 0 -323206548.12051773 -39539700.463668823 0 -39539700.463668823 63443998.819564819 0 0 0 0 -3054816.9635390211 -7849943.1314488724 0 -7849943.1314488724 12739016.804971516 0 0 0 0 12335383.629640184 -1893629.9858778156 0 -1893629.9858778156 -6904091.394650124 0 0 0 0 -5746613.8775177002 354233.91228485107 0 354233.91228485107 1377904.0627746582 0 0 0 0 -55167057.149436951 -15848060.022193909 0 -15848060.022193909 6321297.4691925049 0 0 0 0 56752898.003799438 32677469.552066803 0 32677469.552066803 7400272.6681213379 0 0 0 0 -50247788.041151047 10838867.252064705 0 10838867.252064705 75901147.616714478 0 0 0 0 -62091222.647094727 -3704574.9325714111 0 -3704574.9325714111 -12368405.997266769 0 0 0 0 -101398551.12949371 -3037666.1305084229 0 -3037666.1305084229 5983925.7031555176 0 0 0 0 -80961134.224853516 -31992055.581192017 0 -31992055.581192017 14848010.344100952 0 0 0 0 -121869505.82411957 -25794825.138969421 0 -25794825.138969421 19553434.080657959 0 0 0 0 -62105650.480987549 -9572188.1209411621 0 -9572188.1209411621 7024882.1894264221 0 0 0 0 -65112379.434936523 -5974114.5026855469 0 -5974114.5026855469 28796011.834085464 0 0 0 0 -89998251.345367432 -16982163.494415283 0 -16982163.494415283 29138040.038543701 0 0 0 0 -78501417.93850708 -13656578.957885742 0 -13656578.957885742 30540251.782501221 0 0 0 0 -62455148.353271484 -9993171.9778442383 0 -9993171.9778442383 27435386.775192261 0 0 0 0 -58060870.67805481 7583965.572259903 0 7583965.572259903 44037906.585998535 0 0 0 0 -60294812.628417969 -8528912.6319122314 0 -8528912.6319122314 28808051.830810547 0 0 0 0 -63023516.365203857 -2990628.1756134033 0 -2990628.1756134033 36221789.18548584 0 0 0 0 -22467749.120880127 10489196.198394775 0 10489196.198394775 28485657.026702881 0 0 0 0 -4578425.1067894697 -3433048.7607460693 0 -3433048.7607460693 -1966084.1853145137 0 0 0 0 4467384.1197052002 19802624.347618103 0 19802624.347618103 22432358.445220947 0 0 0 0 -84258655.977142334 -209876444.71205902 0 -209876444.71205902 -113936845.9640913 0 0 0 0 -6372332.2119426727 51494648.572742462 0 51494648.572742462 37688776.313781738 0 0 0 0 -14386228.351745605 -3144581.0139312744 0 -3144581.0139312744 19512210.332702637 0 0 0 0 -64453960.733978271 -5881761.6720199585 0 -5881761.6720199585 39808307.32359314 0 0 0 0 -33906676.854263306 20327570.204818726 0 20327570.204818726 45255476.69833374 0 0 0 0 -98219747.641113281 -44472894.591262817 0 -44472894.591262817 1124346.2017822266 0 0 0 0 35163437.168327332 278070331.23842239 0 278070331.23842239 -199220816.09597778 0 0 0 0 -80081122.624694824 -84199520.707901001 0 -84199520.707901001 84580146.537818909 0 0 0 0 -28123955.204772949 -6091394.1613006592 0 -6091394.1613006592 22143837.293701172 0 0 0 0 -332173250.06371307 -105007959.83486938 0 -105007959.83486938 543922228.83407593 0 0 0 0 -3393732.8793792725 -64205081.424110413 0 -64205081.424110413 34299044.898651123 0 0 0 0 -53264126.583572388 -86358407.805130005 0 -86358407.805130005 83353951.496154785 0 0 0 0 -42274284.64074707 -40033139.573036194 0 -40033139.573036194 20717590.681091309 0 0 0 0 -104489131.6368103 -63855178.561630249 0 -63855178.561630249 73471789.292266846 0 0 0 0 -31434234.332870483 -63850940.885921478 0 -63850940.885921478 46575396.337585449 0 0 0 0 -206539389.24137878 -151999050.80701447 0 -151999050.80701447 37741194.170532227 0 0 0 0 -18009285.161514558 -5390402.1642550305 0 -5390402.1642550305 2012308.8413341641 0 0 0 0 -43862446.673416138 605709.32229614258 0 605709.32229614258 17263429.811187744 0 0 0 0 -59635029.893915176 -7447649.7012310028 0 -7447649.7012310028 29569254.017242432 0 0 0 0 -54962725.751831055 -5137316.7206420898 0 -5137316.7206420898 22358239.24432373 0 0 0 0 -40603075.860229492 -4336660.3313293457 0 -4336660.3313293457 21913740.293178558 0 0 0 0 -46833758.396209717 1368736.6592712402 0 1368736.6592712402 23569844.073379517 0 0 0 0 -46821953.547912598 1980403.2677307129 0 1980403.2677307129 29592424.898849487 0 0 0 0 -54628667.144075394 -2291874.9273471832 0 -2291874.9273471832 27261888.658691406 0 0 0 0 -46078404.36428833 4768398.6088562012 0 4768398.6088562012 29239260.755645752 0 0 0 0 -53695286.45281601 -6482347.7858123779 0 -6482347.7858123779 13134959.589904785 0 0 0 0 -44316372.364334106 2615604.891494751 0 2615604.891494751 9601560.9191741943 0 0 0 0 -52768408.420501709 -4131179.1649932861 0 -4131179.1649932861 18547128.383728027 0 0 0 0 -53663654.76675415 -3621531.3505859375 0 -3621531.3505859375 22940462.732902527 0 0 0 0 -44701140.126983643 -158530.72183227539 0 -158530.72183227539 -10399618.311981201 0 0 0 0 6744280.5943603516 -16264863.919143677 0 -16264863.919143677 23266851.120300293 0 0 0 0 -14718464.617580276 -14550413.673623934 0 -14550413.673623934 12610941.143161237 0 0 0 0 1823754.850074321 -11449228.431627981 0 -11449228.431627981 9893997.34823291 0 0 0 0 -3514378.1656646729 -8886585.3392333984 0 -8886585.3392333984 6053125.907043457 0 0 0 0 -103380520.28448486 -68020759.697998047 0 -68020759.697998047 -133701238.23321533 0 0 0 0 -87904553.848144531 -90484913.524230957 0 -90484913.524230957 -102165338.67370605 0 0 0 0 -149122637.51617432 -13587839.146057129 0 -13587839.146057129 -157747192.3394928 0 0 0 0 993806.19301131368 -3966081.1587338746 0 -3966081.1587338746 -779667.77147188131 0 0 0 0 -102411906.16348267 -86010046.202697754 0 -86010046.202697754 -47901716.820007324 0 0 0 0 -18884225.14649627 -10093887.784614298 0 -10093887.784614298 15107433.934723161 0 0 0 0 -7527707.4942932129 -4909812.7637634277 0 -4909812.7637634277 4103945.4561920166 0 0 0 0 -9881685.3124427795 -5983247.5631408691 0 -5983247.5631408691 4475456.1643981934 0 0 0 0 -124419810.18066406 -19064428.14465332 0 -19064428.14465332 1057969.8971862793 0 0 0 0 -22835518.539289463 -16253507.895302244 0 -16253507.895302244 -2647155.2854982987 0 0 0 0 -5109698.2853261605 -9196008.4242161363 0 -9196008.4242161363 7974596.6357919425 0 0 0 0 -12349326.985931396 -33093625.076004028 0 -33093625.076004028 4411500.0322265625 0 0 0 0 -6133613.5739093088 -1054866.6558837108 0 -1054866.6558837108 808145.71214943379 0 0 0 0 -41956241.571960449 -11636186.414260864 0 -11636186.414260864 -4860586.4862670898 0 0 0 0 -25868616.068237305 -22629363.044342041 0 -22629363.044342041 -6571499.8974609375 0 0 0 0 -25046870.725280762 -24573097.723937988 0 -24573097.723937988 -5715172.2313232422 0 0 0 0 -113035411.33236694 -6452720.7508850098 0 -6452720.7508850098 25246628.715255737 0 0 0 0 -56942200.843711853 -39989280.339809418 0 -39989280.339809418 43462474.052612305 0 0 0 0 -44789552.654022217 -19045399.823883057 0 -19045399.823883057 6465607.8360595703 0 0 0 0 -16289443.138676643 -25567635.161455631 0 -25567635.161455631 -9877429.4011230469 0 0 0 0 -18431075.931152344 -22005710.181762695 0 -22005710.181762695 -15108072.899658203 0 0 0 0 -32963106.392089844 -31351189.076477051 0 -31351189.076477051 19268143.483573914 0 0 0 0 -16103138.375961304 -32792593.198317528 0 -32792593.198317528 128793.97131347656 0 0 0 0 -24899185.552124023 -25212046.906311035 0 -25212046.906311035 -5919222.1129760742 0 0 0 0 -17332182.174926758 -25237490.742858887 0 -25237490.742858887 -9888630.5477294922 0 0 0 0 -17926999.330688477 -22374473.465026855 0 -22374473.465026855 -14911722.373291016 0 0 0 0 -19271250.656188965 -19240302.24597168 0 -19240302.24597168 -17660155.20513916 0 0 0 0 -19354569.453063965 -19831970.0625 0 -19831970.0625 -12005693.718444824 0 0 0 0 -23422999.349304199 -20966241.464874268 0 -20966241.464874268 -11731314.967163086 0 0 0 0 -18675567.034175873 -8895078.126247406 0 -8895078.126247406 -531623.03164672852 0 0 0 0 -20198972.120422363 -16865593.433776855 0 -16865593.433776855 -12989723.248565674 0 0 0 0 -19938428.910766602 -16601168.128479004 0 -16601168.128479004 -15040004.160339355 0 0 0 0 -18377393.842202112 -15275411.583603468 0 -15275411.583603468 8229342.8276171777 0 0 0 0 -18003931.846008301 -18217285.986801147 0 -18217285.986801147 -21577501.775024414 0 0 0 0 2548682.3273973763 -5620549.6694301292 0 -5620549.6694301292 -2712737.8046576083 0 0 0 0 -102472800.70046997 -74651024.048019409 0 -74651024.048019409 -39678790.073455811 0 0 0 0 -82679222.615905762 15451748.767303467 0 15451748.767303467 -16737135.135520935 0 0 0 0 -30505878.719085693 -12208198.717353821 0 -12208198.717353821 -4878542.940032959 0 0 0 0 -159005493.43421936 -45028184.336795807 0 -45028184.336795807 67788756.316375732 0 0 0 0 -2996423.7199716456 -2701026.923250312 0 -2701026.923250312 -1420052.5126345456 0 0 0 0 99757305.266181946 41924788.866611481 0 41924788.866611481 10458632.853983879 0 0 0 0 -93908771.944049835 -45235523.184658051 0 -45235523.184658051 -39871142.979598999 0 0 0 0 -115798937.90402746 -72295148.681981087 0 -72295148.681981087 84928107.394592285 0 0 0 0 -75068891.230041504 -93521290.414840698 0 -93521290.414840698 87737500.459396362 0 0 0 0 -85633448.467769623 -91326989.369293213 0 -91326989.369293213 90506653.125305176 0 0 0 0 147980269.49251556 -29726610.087772369 0 -29726610.087772369 -19205598.936065674 0 0 0 0 211916532.0914917 -118815385.73192596 0 -118815385.73192596 80330109.262365341 0 0 0 0 17361394.495262146 -151342582.39823151 0 -151342582.39823151 75757440.04510498 0 0 0 0 118497469.27924061 -213933251.04266262 0 -213933251.04266262 -187855091.28656006 0 0 0 0 69767695.485641479 -39880328.721893311 0 -39880328.721893311 -187559679.71840668 0 0 0 0 31641363.925888062 -238185745.40688705 0 -238185745.40688705 66804622.990272522 0 0 0 0 232823992.98963165 -294854980.65781307 0 -294854980.65781307 19458958.140197754 0 0 0 0 315086835.92232513 -394306102.78804016 0 -394306102.78804016 114793128.25196075 0 0 0 0 223727858.58726501 -135249980.16104126 0 -135249980.16104126 24852713.402648926 0 0 0 0 359255832.08567047 -364916925.03284454 0 -364916925.03284454 129677491.26618958 0 0 0 0 576103233.36529541 -572551250.22649384 0 -572551250.22649384 227331887.15287781 0 0 0 0 672517437.94726753 -540501535.54447556 0 -540501535.54447556 202822498.24693298 0 0 0 0 597517126.27871704 -269880434.52492523 0 -269880434.52492523 34050385.740608215 0 0 0 0 374285853.25615692 -266407115.06167603 0 -266407115.06167603 186214755.18466187 0 0 0 0 422533817.04864502 -265928341.8715744 0 -265928341.8715744 -46710694.993707657 0 0 0 0 -483838.65266780555 -1221131.8532497156 0 -1221131.8532497156 -1251798.6591171622 0 0 0 0 55245945.608979464 -71114673.705473483 0 -71114673.705473483 270397435.95581055 0 0 0 0 -87710519.761742592 -55957849.300834894 0 -55957849.300834894 12262111.256713867 0 0 0 0 266650338.87310791 -33789547.144073486 0 -33789547.144073486 -112482493.88980675 0 0 0 0 367910207.11601257 -283814863.50441742 0 -283814863.50441742 97619633.326126099 0 0 0 0 550119976.36988068 -1024354269.7220078 0 -1024354269.7220078 894745464.50384521 0 0 0 0 587977490.76342392 -1131606667.1711273 0 -1131606667.1711273 1196768516.3946686 0 0 0 0 401111755.19366455 -835545500.91751099 0 -835545500.91751099 1216544005.8819885 0 0 0 0 450144865.64300537 -793628994.2195282 0 -793628994.2195282 939458049.86310577 0 0 0 0 549516800.42753601 -911465673.37042236 0 -911465673.37042236 1066096377.1248474 0 0 0 0 667600691.1708107 -795756208.37164307 0 -795756208.37164307 792320068.02877808 0 0 0 0 797885376.07590485 -1066569044.5892181 0 -1066569044.5892181 874620714.73606873 0 0 0 0 782590025.9646225 -1134327281.6154451 0 -1134327281.6154451 582854939.70570374 0 0 0 0 1024016573.3415794 -970091451.26978683 0 -970091451.26978683 668997518.88770294 0 0 0 0 -258656033.2085495 -22228700.895111084 0 -22228700.895111084 369557319.99083233 0 0 0 0 -1207909.3782836348 -802778.01342101395 0 -802778.01342101395 894162.82589617372 0 0 0 0 63764217.871524811 -194690547.66127014 0 -194690547.66127014 341339895.96025085 0 0 0 0 -346483792.10152435 -430701274.82133484 0 -430701274.82133484 234259532.76709366 0 0 0 0 141497593.81904411 -579055605.6782074 0 -579055605.6782074 162174507.39912415 0 0 0 0 377986565.79608154 -674471535.31559753 0 -674471535.31559753 297688287.39523315 0 0 0 0 513235962.25766754 -614387585.86100388 0 -614387585.86100388 129169515.42828369 0 0 0 0 907258225.5514679 -979301894.56989288 0 -979301894.56989288 374746268.90383911 0 0 0 0 923406665.77685928 -984505068.00577927 0 -984505068.00577927 334690355.06097412 0 0 0 0 667273916.70402527 -1160224040.4224548 0 -1160224040.4224548 617063038.41934586 0 0 0 0 872545916.24751282 -1140091527.8123436 0 -1140091527.8123436 359053750.24517822 0 0 0 0 978948392.32323456 -1327004071.3684387 0 -1327004071.3684387 676215653.32202911 0 0 0 0 1149951063.2221069 -1259104569.6701508 0 -1259104569.6701508 346735025.42128706 0 0 0 0 1262489768.1286774 -1411346993.2675095 0 -1411346993.2675095 384376557.80834579 0 0 0 0 881565847.30553436 -1497596525.8935738 0 -1497596525.8935738 386257359.09733582 0 0 0 0 1361365282.256546 -1173793673.061554 0 -1173793673.061554 617115526.51631927 0 0 0 0 1289946248.2039337 -1319444523.9009857 0 -1319444523.9009857 439086876.63375092 0 0 0 0 1123397085.2286987 -1252593645.9307938 0 -1252593645.9307938 419395927.23307037 0 0 0 0 1143854539.1091118 -1241358694.4901428 0 -1241358694.4901428 612944936.18713379 0 0 0 0 1369174956.3806992 -1166778989.1734161 0 -1166778989.1734161 360041146.46602345 0 0 0 0 1076409580.8498878 -789925669.89598656 0 -789925669.89598656 298365765.00045776 0 0 0 0 1571859037.0147934 -1086085080.3324585 0 -1086085080.3324585 426508064.05837631 0 0 0 0 1949351839.7241917 -879375186.03608561 0 -879375186.03608561 526411666.72120667 0 0 0 0 1006002936.4045029 -1699674971.3445511 0 -1699674971.3445511 1444496351.8582764 0 0 0 0 1857449108.4067888 -1741549760.7667651 0 -1741549760.7667651 782594048.11904907 0 0 0 0 1188348557.796936 -1346242731.4435425 0 -1346242731.4435425 586125411.31797218 0 0 0 0 1164279851.5070229 -1286763522.5715752 0 -1286763522.5715752 927006560.19770813 0 0 0 0 133597740.61756516 -1000049103.6720085 0 -1000049103.6720085 1033947192.1465454 0 0 0 0 1200873179.5188446 -342601550.5982666 0 -342601550.5982666 427907888.28600121 0 0 0 0 267434985.35572815 -302085233.87232208 0 -302085233.87232208 256187994.57813263 0 0 0 0 741203334.61053467 -377746040.90803719 0 -377746040.90803719 163685495.18769836 0 0 0 0 585603067.14437103 -126247922.80092621 0 -126247922.80092621 827688.87375640869 0 0 0 0 730691449.87405014 -366141455.80770874 0 -366141455.80770874 219976894.89926147 0 0 0 0 1108250748.6959763 -783681520.19527435 0 -783681520.19527435 278276924.36971664 0 0 0 0 1164888769.0170135 -612707349.04722595 0 -612707349.04722595 184438145.75692368 0 0 0 0 1614602400.2105484 -1067684612.9567337 0 -1067684612.9567337 555665396.4753952 0 0 0 0 1207334642.7404099 -534079906.53287506 0 -534079906.53287506 319292348.60073853 0 0 0 0 1485313828.10746 -1018399671.5406113 0 -1018399671.5406113 1215779132.2010117 0 0 0 0 1805751213.3282471 -1058405054.012825 0 -1058405054.012825 348304724.24880981 0 0 0 0 1328455771.0321312 -579354910.47781563 0 -579354910.47781563 29263970.774154663 0 0 0 0 1300580348.9124146 -408639267.33114624 0 -408639267.33114624 -88603743.520736694 0 0 0 0 914080524.82660103 -177559085.79784441 0 -177559085.79784441 12784003.873443604 0 0 0 0 867474895.6942749 -573517483.15830612 0 -573517483.15830612 435742106.60322571 0 0 0 0 564865414.42790222 -44171003.107246399 0 -44171003.107246399 -40352622.147537231 0 0 0 0 622796968.96733093 -235136398.50284576 0 -235136398.50284576 132124817.93453979 0 0 0 0 733548641.37994385 -320149696.16806793 0 -320149696.16806793 -61074690.075164795 0 0 0 0 712635711.60066986 27679499.087471008 0 27679499.087471008 -97671406.102615356 0 0 0 0 567870775.48705959 -386443380.88715172 0 -386443380.88715172 -161615442.79412842 0 0 0 0 511885197.49734497 45830887.114021301 0 45830887.114021301 164654069.56768799 0 0 0 0 1624289925.1443787 235003661.64980316 0 235003661.64980316 -140220962.64877319 0 0 0 0 1367863592.9682541 -375707095.70382309 0 -375707095.70382309 -267833926.58999634 0 0 0 0 2631175964.0579338 -771727418.92713928 0 -771727418.92713928 -191438345.55738831 0 0 0 0 2307394515.0877075 -1251847076.3098831 0 -1251847076.3098831 -242479167.19908142 0 0 0 0 2433317778.3097277 -1864159527.820425 0 -1864159527.820425 -167808524.09384155 0 0 0 0 3996504195.5304947 -1352681012.3655548 0 -1352681012.3655548 -488282651.86664772 0 0 0 0 2339953039.2251015 -1141660885.4350166 0 -1141660885.4350166 -449620960.20201111 0 0 0 0 5145434669.9210243 -2206049468.1947479 0 -2206049468.1947479 120024913.46183777 0 0 0 0 2120483537.5220642 -1887605008.7849846 0 -1887605008.7849846 1281094978.328064 0 0 0 0 2432897837.5917206 179356862.06747437 0 179356862.06747437 2549202860.0260563 0 0 0 0 3370136891.0944672 -2720237486.7647095 0 -2720237486.7647095 1829553086.5793228 0 0 0 0 2794221468.2809067 -2943658153.5988998 0 -2943658153.5988998 1930417115.4760904 0 0 0 0 -182730763.02133942 -199264273.03185272 0 -199264273.03185272 2092429022.7652082 0 0 0 0 440495194.84247589 -2701718.7510604858 0 -2701718.7510604858 -51152109.192260742 0 0 0 0 4558320536.7616529 1064579762.1274786 0 1064579762.1274786 -144141069.22399902 0 0 0 0 5041548.8322554976 -6191117.695983056 0 -6191117.695983056 4338996.7855290473 0 0 0 0 722087572.28495789 -624961287.70206451 0 -624961287.70206451 412812278.45516205 0 0 0 0 602617420.05084991 -236610397.50378418 0 -236610397.50378418 409231308.91609955 0 0 0 0 555453029.94332314 -19842745.490251541 0 -19842745.490251541 -381132121.97184753 0 0 0 0 4849342.8921310529 -6127170.1058879048 0 -6127170.1058879048 3256287.4932258278 0 0 0 0 -721222667.91156769 -1218430914.6068192 0 -1218430914.6068192 -385774974.39152396 0 0 0 0 662114570.55683136 -116269731.6368103 0 -116269731.6368103 -1004846698.4830856 0 0 0 0 2931310.6123170629 -3340946.8484153282 0 -3340946.8484153282 1499485.3836929053 0 0 0 0 2762090966.8034515 -1644308826.0466995 0 -1644308826.0466995 -555574461.40618896 0 0 0 0 -1324544246.5312271 -919340657.13383484 0 -919340657.13383484 1429655741.9539928 0 0 0 0 2300045736.4885635 -2446326611.1987839 0 -2446326611.1987839 839445690.61746597 0 0 0 0 1693911810.3285675 -1715211198.3235168 0 -1715211198.3235168 165591457.17581177 0 0 0 0 2009934525.9588652 -1454206073.7468567 0 -1454206073.7468567 -222384164.91844177 0 0 0 0 1618780238.1977844 -508364236.82092285 0 -508364236.82092285 297743555.33743286 0 0 0 0 69353902.506412506 -580162125.54667664 0 -580162125.54667664 1073776356.4019241 0 0 0 0 59044157.056915283 -997241905.30736542 0 -997241905.30736542 373314317.49580383 0 0 0 0 -1194028808.5324574 -1600002352.9613419 0 -1600002352.9613419 63169231.955123901 0 0 0 0 -1080488633.7421951 -145531601.61158752 0 -145531601.61158752 -180023356.18091869 0 0 0 0 682345934.48509216 -586649700.78543854 0 -586649700.78543854 -516804901.80737305 0 0 0 0 2529162.4546367824 -2986075.4121025689 0 -2986075.4121025689 1222060.6559272408 0 0 0 0 -1411282957.343914 -675033978.19451904 0 -675033978.19451904 1170231384.8130035 0 0 0 0 265205689.51349258 155986333.68195724 0 155986333.68195724 -416164640.46360779 0 0 0 0 1371310884.2022247 -376150639.00431824 0 -376150639.00431824 -812907060.87049866 0 0 0 0 -1854220191.1924438 -773962914.2213974 0 -773962914.2213974 -298305937.74909019 0 0 0 0 -513965.16698509455 -2738843.8116509765 0 -2738843.8116509765 1615103.0015425924 0 0 0 0 -2243686526.2188568 -985395515.86882019 0 -985395515.86882019 1295470872.6748047 0 0 0 0 1042786451.8601799 -1686698652.9914284 0 -1686698652.9914284 137813702.50302124 0 0 0 0 -1663048379.0745697 147426203.4599762 0 147426203.4599762 -997972015.73768616 0 0 0 0 -1234541464.9794168 -1723961562.8391371 0 -1723961562.8391371 -196299045.37466431 0 0 0 0 -1132162931.9292374 -989679131.91767883 0 -989679131.91767883 524239671.92657471 0 0 0 0 -1015049110.8737411 -153321421.23978424 0 -153321421.23978424 -380407376.33469009 0 0 0 0 197308584.60289001 -197828486.23918152 0 -197828486.23918152 228156502.28374863 0 0 0 0 454338361.56148529 -765707083.10884094 0 -765707083.10884094 -26576760.395759583 0 0 0 0 -718184761.71898651 -539989717.20197678 0 -539989717.20197678 532149215.15107727 0 0 0 0 1002484030.7171478 -183848823.59433746 0 -183848823.59433746 442674784.94049072 0 0 0 0 1266909234.3193979 -574755283.04987907 0 -574755283.04987907 -162651077.07878113 0 0 0 0 882809718.17060471 3609319.4887580872 0 3609319.4887580872 3218242.4996795654 0 0 0 0 224725126.26301003 -628315328.46892929 0 -628315328.46892929 -431852.88344573975 0 0 0 0 -795818084.60573578 -110434655.45899963 0 -110434655.45899963 157547170.61931038 0 0 0 0 -309183913.3396759 -869244273.06716537 0 -869244273.06716537 -180667691.67984009 0 0 0 0 -1467590990.8572235 -411702054.11260986 0 -411702054.11260986 495201.47420055512 0 0 0 0 -838514346.12148666 -446774129.9829464 0 -446774129.9829464 -541484438.1388092 0 0 0 0 -1793221288.821022 -904942600.00952148 0 -904942600.00952148 -22183952.715881348 0 0 0 0 3028912394.094265 -845632802.60066986 0 -845632802.60066986 31998529.949356079 0 0 0 0 2373380959.2378464 -1137878011.2289429 0 -1137878011.2289429 88582544.812893867 0 0 0 0 3368127747.6166763 -1077363467.3049469 0 -1077363467.3049469 91852984.213191986 0 0 0 0 1407885822.1531219 -1548143467.5191193 0 -1548143467.5191193 561481003.86398315 0 0 0 0 2580066057.2996845 -1978215307.2802582 0 -1978215307.2802582 682038221.69944763 0 0 0 0 502176423.05417252 -1498150439.5467834 0 -1498150439.5467834 1284012949.0095367 0 0 0 0 5304692208.5249901 -765720017.0881424 0 -765720017.0881424 13864114.063873291 0 0 0 0 1840666188.2726784 -928252319.18034363 0 -928252319.18034363 479144562.40875244 0 0 0 0 1290805202.3043213 -655678460.60440063 0 -655678460.60440063 715282815.43280029 0 0 0 0 2162778808.6876945 -153937005.20627594 0 -153937005.20627594 110091882.28106689 0 0 0 0 3289920235.6046638 -766676474.465065 0 -766676474.465065 -38706602.607437134 0 0 0 0 1241408.6121149049 860342.43961165287 0 860342.43961165287 -301662.05730672181 0 0 0 0 2887514220.1661491 -614676257.67618561 0 -614676257.67618561 34658026.336975098 0 0 0 0 1321682966.8427343 -398223501.15538025 0 -398223501.15538025 125913506.65382385 0 0 0 0 2801471558.2838173 -133301775.01248169 0 -133301775.01248169 -166739052.65776443 0 0 0 0 1515657233.3415108 -625987095.38200378 0 -625987095.38200378 458082.16588592529 0 0 0 0 2470280.1198067693 1719896.2832640633 0 1719896.2832640633 -338946.64385804534 0 0 0 0 1629125577.1759462 -697243319.47359121 0 -697243319.47359121 46562162.048675537 0 0 0 0 2161390374.9630661 -947707401.5145874 0 -947707401.5145874 -657561.04398580559 0 0 0 0 2440464562.4656525 -1166417582.4251785 0 -1166417582.4251785 -7185432.9793395996 0 0 0 0 1786237748.0874901 -954020697.75524521 0 -954020697.75524521 227399.17500305176 0 0 0 0 2093707590.1672335 -1143475128.087348 0 -1143475128.087348 -8650001.9035491943 0 0 0 0 1655060837.0982313 -1151709284.0048141 0 -1151709284.0048141 191195242.26965332 0 0 0 0 1171265976.9430809 -850194139.69125366 0 -850194139.69125366 245899924.71426392 0 0 0 0 1315057892.4070072 -854083644.56057358 0 -854083644.56057358 86438.302261352539 0 0 0 0 1076628829.03022 -747125073.69904327 0 -747125073.69904327 190127776.15381622 0 0 0 0 1077269563.4936142 -997747964.46740723 0 -997747964.46740723 371878089.23308563 0 0 0 0 -698386.34409015765 2286695.0654395893 0 2286695.0654395893 1361124.8632432073 0 0 0 0 1122418977.4697533 -724453206.36856842 0 -724453206.36856842 306314.01199287508 0 0 0 0 1411833382.7233658 -513261939.78542709 0 -513261939.78542709 102861587.5375061 0 0 0 0 -841354.48222126532 1720633.7961374433 0 1720633.7961374433 2052566.0429958999 0 0 0 0 313125632.37182999 -275669135.79976654 0 -275669135.79976654 181162679.72470093 0 0 0 0 650655886.55287552 -190466199.07289886 0 -190466199.07289886 -17798166.531429291 0 0 0 0 160493074.03277206 60239271.923461914 0 60239271.923461914 56998021.972232819 0 0 0 0 620501494.90500641 -943095611.16925049 0 -943095611.16925049 895147621.25036621 0 0 0 0 1338333859.0931497 -1141031825.6238089 0 -1141031825.6238089 444330949.84938049 0 0 0 0 674345958.16841888 -572541806.11050415 0 -572541806.11050415 285375347.08847046 0 0 0 0 676356944.29174733 -702004794.59199405 0 -702004794.59199405 495646307.99116516 0 0 0 0 144830674.26486588 -264162182.37697601 0 -264162182.37697601 411236223.05001831 0 0 0 0 537580976.48409224 -592131028.30168509 0 -592131028.30168509 489662225.03710938 0 0 0 0 471396427.73370361 -632407120.17843628 0 -632407120.17843628 477157383.37312317 0 0 0 0 -170963428.65126801 -341742523.04758453 0 -341742523.04758453 463688225.77531433 0 0 0 0 -455115177.6704998 -56967668.581562042 0 -56967668.581562042 189117304.67398071 0 0 0 0 -207050.00547336508 447849.12856452726 0 447849.12856452726 -886405.40154451132 0 0 0 0 -31519099.341423035 -284461827.8626709 0 -284461827.8626709 -150169455.7660675 0 0 0 0 -74954329.426391602 -369828944.94647217 0 -369828944.94647217 -19222827.440185547 0 0 0 0 192650232.37031937 -53963842.92502594 0 -53963842.92502594 -80685495.224899292 0 0 0 0 -17650105.082649231 -65255853.164642334 0 -65255853.164642334 -38980256.988372803 0 0 0 0 36566095.700656891 -128248117.9992218 0 -128248117.9992218 -113586291.8145752 0 0 0 0 338416826.07029343 -182180543.30028915 0 -182180543.30028915 144673494.93225098 0 0 0 0 79179845.403484344 19127259.15196228 0 19127259.15196228 94564354.193557739 0 0 0 0 8839512.489906311 -12704218.951728821 0 -12704218.951728821 90896024.917755127 0 0 0 0 -900712.38996292534 1271330.1181648434 0 1271330.1181648434 1465486.3098222911 0 0 0 0 87908615.824171066 62718145.609806061 0 62718145.609806061 1367682.1138305664 0 0 0 0 130593647.77195358 6638274.8068580627 0 6638274.8068580627 -47050726.236022949 0 0 0 0 33351682.56419754 -9375020.4433898926 0 -9375020.4433898926 -56765165.124664307 0 0 0 0 31329280.935115814 -14869435.733459473 0 -14869435.733459473 -38377849.990207672 0 0 0 0 69257393.614265442 37321780.390075684 0 37321780.390075684 -27066971.89944458 0 0 0 0 65005108.250935555 38812339.726078033 0 38812339.726078033 -25520746.792358398 0 0 0 0 10029142.673686028 -35335802.732128143 0 -35335802.732128143 -8919579.7727203369 0 0 0 0 -79226073.01543045 -84478267.792900085 0 -84478267.792900085 -67275827.581573486 0 0 0 0 5294712.2837028503 -17900146.121742249 0 -17900146.121742249 -63855193.651748657 0 0 0 0 -62448460.715759277 -124903838.05516052 0 -124903838.05516052 -100884212.82952881 0 0 0 0 -16873962.146507215 -10217498.084217101 0 -10217498.084217101 18479616.480968013 0 0 0 0 -67578895.129295349 -58915537.669128418 0 -58915537.669128418 -29848550.471725464 0 0 0 0 18485947.092666082 -13007649.778014943 0 -13007649.778014943 -15668061.656014636 0 0 0 0 -482544861.51501465 -361763257.77716064 0 -361763257.77716064 -33632430.929271698 0 0 0 0 36495662.699325562 -33012274.753143311 0 -33012274.753143311 -113366685.19377136 0 0 0 0 244645011.54284668 67468867.194297791 0 67468867.194297791 -159010467.77644348 0 0 0 0 15879953.852857132 -17471953.558672521 0 -17471953.558672521 873518.23438894749 0 0 0 0 -27732390.738433838 -22852000.509887695 0 -22852000.509887695 -12279948.610839844 0 0 0 0 -246912260.31137085 -280376884.39840698 0 -280376884.39840698 -61679980.093261719 0 0 0 0 153040461.14793396 43724626.717163086 0 43724626.717163086 -22245380.464599609 0 0 0 0 3660903.1520783007 -3845151.1080815354 0 -3845151.1080815354 -6912352.3933469206 0 0 0 0 -198239.37504577637 -112123001.78503418 0 -112123001.78503418 -150723233.92762756 0 0 0 0 10159134.549550038 -18108914.236911394 0 -18108914.236911394 12365214.022009395 0 0 0 0 259360389.38523865 -113973118.1098175 0 -113973118.1098175 -354521493.62750244 0 0 0 0 -11701599.269629024 -13348380.131030656 0 -13348380.131030656 14567167.50182756 0 0 0 0 4139838.4682914009 -4203894.9556343071 0 -4203894.9556343071 -4471906.4616006315 0 0 0 0 -82578128.715812683 -64306509.267250061 0 -64306509.267250061 -103923643.1741333 0 0 0 0 -227080223.4184618 -161740342.53041649 0 -161740342.53041649 -72270916.239379883 0 0 0 0 6329409.5437889099 -123338919.2805481 0 -123338919.2805481 -114709932.46209717 0 0 0 0 742027703.65195274 -489218565.67442322 0 -489218565.67442322 -54098485.379730225 0 0 0 0 190986255.48566628 -398073716.75700378 0 -398073716.75700378 341692048.90693665 0 0 0 0 1545150.2879163518 55392.663364641368 0 55392.663364641368 -819482.55228841305 0 0 0 0 570502413.16378784 -155451512.87202454 0 -155451512.87202454 -11291541.013397217 0 0 0 0 265951959.0759635 -88474514.268829346 0 -88474514.268829346 80271155.131393433 0 0 0 0 218750060.3514173 -215983298.27063751 0 -215983298.27063751 10170251.260314941 0 0 0 0 70240020.293605804 -187378669.15167236 0 -187378669.15167236 71830936.332061768 0 0 0 0 139713483.80779648 -212745085.09593201 0 -212745085.09593201 20102028.144577026 0 0 0 0 797899202.34920692 -401857867.62620544 0 -401857867.62620544 -428602613.03210449 0 0 0 0 571501498.78832567 -299660022.28537756 0 -299660022.28537756 -198971018.80026245 0 0 0 0 460572654.435112 -725811121.05224609 0 -725811121.05224609 223994010.14865112 0 0 0 0 328776410.41632557 -586530576.84519958 0 -586530576.84519958 106464375.57460022 0 0 0 0 686431592.98305416 155400245.09071159 0 155400245.09071159 20546250.075317383 0 0 0 0 2687397796.9663086 -1193054329.5152588 0 -1193054329.5152588 -537672628.45736694 0 0 0 0 -295563826.16378021 -281708865.08197021 0 -281708865.08197021 455391138.54040527 0 0 0 0 -133145049.58517838 -20259681.412780762 0 -20259681.412780762 644734711.03408051 0 0 0 0 96047337.650005341 259419352.35910034 0 259419352.35910034 607681902.18650436 0 0 0 0 39097532.330799103 59279748.058868408 0 59279748.058868408 304372664.70666504 0 0 0 0 -317915041.3348732 -206208787.43035889 0 -206208787.43035889 488950695.62084961 0 0 0 0 -309856795.96935177 -186558546.3536377 0 -186558546.3536377 232328950.2713623 0 0 0 0 -721690662.28398895 -56343130.965026855 0 -56343130.965026855 180961022.8369751 0 0 0 0 -557458837.19567108 -266819560.46694946 0 -266819560.46694946 316031349.57015991 0 0 0 0 -210948332.20440483 -49073363.570037842 0 -49073363.570037842 144506476.26457214 0 0 0 0 -647513789.56635666 -164789872.58380127 0 -164789872.58380127 222893759.44186401 0 0 0 0 468219476.80496025 -162520958.05062866 0 -162520958.05062866 -89058056.011322021 0 0 0 0 -204714777.92342854 -2005581.1401062012 0 -2005581.1401062012 373919278.41833496 0 0 0 0 1727726.8469704199 4443877.2699601138 0 4443877.2699601138 143745.17997404933 0 0 0 0 -1332767245.6966786 -258076303.78328705 0 -258076303.78328705 286690257.1723938 0 0 0 0 87512385.079345703 -12174762.034698486 0 -12174762.034698486 -48712832.563873291 0 0 0 0 -134116.27677858563 -3023020.526181133 0 -3023020.526181133 -5430070.3247101605 0 0 0 0 -1084977204.8112984 -396197299.1026001 0 -396197299.1026001 153935243.37696838 0 0 0 0 -657076980.90691566 -229660860.22442627 0 -229660860.22442627 -145624744.37185669 0 0 0 0 -1526202537.1474133 -35442762.067070007 0 -35442762.067070007 130381324.52882385 0 0 0 0 1570643.7811625849 1875775.3118163804 0 1875775.3118163804 -1090024.1082065105 0 0 0 0 -258294370.54004669 -77170089.520477295 0 -77170089.520477295 -18059031.561035156 0 0 0 0 -792556.87850492739 662600.69581021229 0 662600.69581021229 88693.752816408873 0 0 0 0 -906292845.9873848 119867154.38691711 0 119867154.38691711 -116363742.26055908 0 0 0 0 -909875730.45621109 -192516181.20116425 0 -192516181.20116425 -82612549.236968994 0 0 0 0 -60306520.251647949 -256601720.61087036 0 -256601720.61087036 87887077.844268799 0 0 0 0 -526828514.47237396 -209555572.31643677 0 -209555572.31643677 17951183.132408142 0 0 0 0 -179880624.23586941 39618091.112960815 0 39618091.112960815 13621283.875 0 0 0 0 -643599146.21401978 99290349.954971313 0 99290349.954971313 -62817324.97612381 0 0 0 0 74331951.884124756 -49016983.30519104 0 -49016983.30519104 -81699844.520385742 0 0 0 0 -281592741.43450832 -248413655.99383545 0 -248413655.99383545 47081448.130310059 0 0 0 0 -407861388.04860497 91340001.914596558 0 91340001.914596558 -354841.74326133728 0 0 0 0 -601847558.67830467 -184551927.89650726 0 -184551927.89650726 -80549287.46673584 0 0 0 0 -11156795.96814537 -209085359.68483734 0 -209085359.68483734 -1944585.9390258789 0 0 0 0 -1555674341.4148655 -125531466.30015564 0 -125531466.30015564 122190679.11846924 0 0 0 0 351125.75263370969 846492.75849376339 0 846492.75849376339 -221583.23354168236 0 0 0 0 -446920657.60399437 265450802.9175415 0 265450802.9175415 -29542909.438110352 0 0 0 0 -984379494.1028347 105161678.04429626 0 105161678.04429626 -91338224.701472759 0 0 0 0 -897358036.05102348 36748214.66204834 0 36748214.66204834 30713611.07736969 0 0 0 0 -929217054.32991791 -101327604.45223618 0 -101327604.45223618 40824973.046234131 0 0 0 0 -752024020.11664486 -408136011.4214859 0 -408136011.4214859 -57192445.283203125 0 0 0 0 -783238393.27033234 -51753121.418670654 0 -51753121.418670654 -146963343.08128738 0 0 0 0 -905217325.0072422 -284246596.11199951 0 -284246596.11199951 -176483847.76605225 0 0 0 0 -790973457.01159668 -63149037.430622101 0 -63149037.430622101 51363161.472259521 0 0 0 0 -181199141.08172417 95502577.534423828 0 95502577.534423828 -32672410.521759033 0 0 0 0 -453957973.08890104 -71887220.014369965 0 -71887220.014369965 69036952.033447266 0 0 0 0 -489256140.71463013 23714216.676864624 0 23714216.676864624 -127374526.56018066 0 0 0 0 -196144052.82382202 48682583.137695312 0 48682583.137695312 -68790407.733772278 0 0 0 0 -196413075.28179264 45759477.874191284 0 45759477.874191284 68280821.502365112 0 0 0 0 354485793.15029955 -214778343.13194275 0 -214778343.13194275 17986927.212554932 0 0 0 0 170389046.72159481 -71630721.022018433 0 -71630721.022018433 78073705.015899658 0 0 0 0 125851041.71618843 -146242919.24052429 0 -146242919.24052429 -2944824.1699028015 0 0 0 0 630517973.06092751 -186285117.11546683 0 -186285117.11546683 -65441496.749938965 0 0 0 0 220717735.19971943 59068722.279983521 0 59068722.279983521 148654545.06932068 0 0 0 0 403969592.62845898 -212461706.80036926 0 -212461706.80036926 81872911.039505005 0 0 0 0 2594494.1865432672 478702.3027148284 0 478702.3027148284 -1935296.1364075691 0 0 0 0 996092695.5763731 -281146842.76783752 0 -281146842.76783752 -164556373.19116211 0 0 0 0 621675995.66636693 -424043095.95138597 0 -424043095.95138597 73883149.712341309 0 0 0 0 845289115.00410748 -99305130.994720459 0 -99305130.994720459 743856016.23950195 0 0 0 0 306924513.53869629 -42981098.794830322 0 -42981098.794830322 136518136.02024841 0 0 0 0 314392325.81121731 -229957905.98117065 0 -229957905.98117065 295629113.7953186 0 0 0 0 318348919.46910858 10599675.433822632 0 10599675.433822632 19712730.935476184 0 0 0 0 507791039.47388124 -269266338.299263 0 -269266338.299263 14473528.738265991 0 0 0 0 155965149.81981134 -125265473.75807953 0 -125265473.75807953 -4882861.5758666992 0 0 0 0 -112488868.036623 69039919.26134491 0 69039919.26134491 36096147.248468399 0 0 0 0 203386073.45146346 -125778753.61146545 0 -125778753.61146545 -57091889.349563599 0 0 0 0 220620198.80558652 -71260025.011329651 0 -71260025.011329651 115361525.58221436 0 0 0 0 -548656489.26078033 -3983316.792388916 0 -3983316.792388916 -27675637.210678101 0 0 0 0 -751669297.36027145 -124038177.10702515 0 -124038177.10702515 -35443873.174301147 0 0 0 0 -557572341.97175407 59406737.409866333 0 59406737.409866333 -3259927.3505935669 0 0 0 0 -552544987.40842056 77338790.507568359 0 77338790.507568359 57518136.30910778 0 0 0 0 -500821120.68276262 -41538787.689102173 0 -41538787.689102173 67078624.75390625 0 0 0 0 -187152737.62216425 -72991405.811515808 0 -72991405.811515808 -41739363.325332642 0 0 0 0 -881448806.3388207 -101801022.33787251 0 -101801022.33787251 83742744.0390625 0 0 0 0 -493386043.9747591 -101983418.45800018 0 -101983418.45800018 -30472843.266921997 0 0 0 0 -449179603.29659104 9811972.7055282593 0 9811972.7055282593 44061510.738723755 0 0 0 0 -412741179.8102532 -100914470.66377401 0 -100914470.66377401 288657.16967773438 0 0 0 0 -749068655.20503151 -19988643.509833336 0 -19988643.509833336 47802472.312408447 0 0 0 0 -412760840.9560051 -100770684.43280792 0 -100770684.43280792 -298226.50689697266 0 0 0 0 -68726341.521918058 -21538299.597198486 0 -21538299.597198486 -83659114.853416443 0 0 0 0 -46386864.129731178 38822826.760719299 0 38822826.760719299 29721088.01856041 0 0 0 0 173766490.01227367 -132327082.65867233 0 -132327082.65867233 -245725.48614501953 0 0 0 0 231520002.99333334 -55759669.710575104 0 -55759669.710575104 34313686.831237793 0 0 0 0 3549916.0295724175 1589961.8306105807 0 1589961.8306105807 -3087439.5079888254 0 0 0 0 312377992.25931692 -115420208.80115891 0 -115420208.80115891 139482.43818664551 0 0 0 0 -50115645.896183968 -170664675.28955078 0 -170664675.28955078 116125578.63092041 0 0 0 0 97152951.011915207 -294170820.1394577 0 -294170820.1394577 142715.98771239599 0 0 0 0 305597121.65087032 -262264193.62163162 0 -262264193.62163162 56811.748474121094 0 0 0 0 208514475.04438496 -181101776.84873962 0 -181101776.84873962 58588026.244918823 0 0 0 0 131640341.21450901 -215954353.8159256 0 -215954353.8159256 57083863.977142334 0 0 0 0 226462672.75276375 -152576710.70266724 0 -152576710.70266724 49989813.787002563 0 0 0 0 123540906.3554163 -142349582.47155762 0 -142349582.47155762 114162501.8597641 0 0 0 0 84737844.024406433 -193847539.9693222 0 -193847539.9693222 106198481.35569763 0 0 0 0 71546846.259252548 -112034598.23323059 0 -112034598.23323059 84826781.328804016 0 0 0 0 91928710.225624084 -177794083.62321472 0 -177794083.62321472 121555186.80389404 0 0 0 0 16391875.871206284 -110797836.14871979 0 -110797836.14871979 68543181.913223267 0 0 0 0 94746167.524295866 -117491133.72713351 0 -117491133.72713351 49518751.917449951 0 0 0 0 85621223.768908501 -125009500.35379791 0 -125009500.35379791 31875213.733642578 0 0 0 0 -37295765.617206573 -51239528.734481812 0 -51239528.734481812 34963692.042401314 0 0 0 0 140363593.65361786 -195821027.81733322 0 -195821027.81733322 99790107.85635376 0 0 0 0 26307849.625415802 -81233189.379714966 0 -81233189.379714966 134171914.51734161 0 0 0 0 152520782.52236176 -168119010.76107788 0 -168119010.76107788 162542835.63830566 0 0 0 0 3374006.91178778 1097280.7852189355 0 1097280.7852189355 -2710012.910642162 0 0 0 0 405299936.58938313 -189828427.90084839 0 -189828427.90084839 102592549.16824341 0 0 0 0 463598127.27868485 -348315486.04790497 0 -348315486.04790497 178637541.62054443 0 0 0 0 395010935.94009626 -202184874.08013153 0 -202184874.08013153 10219996.826045036 0 0 0 0 3487907.848403906 1287831.2234272324 0 1287831.2234272324 -3272197.9560694396 0 0 0 0 272783075.41031671 -227433484.10829926 0 -227433484.10829926 101423256.36989594 0 0 0 0 -16690569.631622314 -48346543.559234619 0 -48346543.559234619 -28116076.847000122 0 0 0 0 50414935.41381073 19932357.749004364 0 19932357.749004364 -36049150.755096436 0 0 0 0 -8298421.7152296677 -918473.99617044255 0 -918473.99617044255 1683349.0806674361 0 0 0 0 -1762298.0834287773 3368878.9342140006 0 3368878.9342140006 -317773.83230628073 0 0 0 0 113276354.61803758 -15200826.052054405 0 -15200826.052054405 -39196314.563171387 0 0 0 0 -222704904.04726219 -185309193.29402924 0 -185309193.29402924 743742.76977947797 0 0 0 0 -15557355.87213707 24331959.214637756 0 24331959.214637756 -3432861.6693572998 0 0 0 0 -12422373.113162994 -62297076.239837646 0 -62297076.239837646 -11178278.87253952 0 0 0 0 -20017802.214931488 -53709786.22845459 0 -53709786.22845459 402.96844482421875 0 0 0 0 -3587152.1939918874 2168316.6274347156 0 2168316.6274347156 1893633.572278589 0 0 0 0 -132708758.13214111 -38561221.587089539 0 -38561221.587089539 37607058.186019897 0 0 0 0 536143858.30892754 -73777814.913265228 0 -73777814.913265228 -29566998.037155151 0 0 0 0 163951028.40091896 -16225432.719795227 0 -16225432.719795227 9246263.7388076782 0 0 0 0 126914151.11789322 -19167173.170288086 0 -19167173.170288086 45931502.179885864 0 0 0 0 61287491.939994812 1367035.802740097 0 1367035.802740097 46724694.121414185 0 0 0 0 -33700571.262470245 -92489858.602088928 0 -92489858.602088928 8247366.014629364 0 0 0 0 -343567.8338394165 -36568807.533325195 0 -36568807.533325195 -14107957.197868347 0 0 0 0 -6101876.0415632753 -1908210.7338960245 0 -1908210.7338960245 517735.37551066279 0 0 0 0 -4430312.5647009825 1169028.3050838672 0 1169028.3050838672 1837292.5953106284 0 0 0 0 -93834571.186578751 -49179680.523765564 0 -49179680.523765564 25314172.222076416 0 0 0 0 -31332897.969554901 31179893.87997818 0 31179893.87997818 5387095.842010498 0 0 0 0 -92129036.709391594 -24919862.426328659 0 -24919862.426328659 1234693.2989807129 0 0 0 0 -2747202.0523001789 2413030.4372626739 0 2413030.4372626739 -458797.83876408637 0 0 0 0 70110576.011219025 -22930060.405937195 0 -22930060.405937195 -35555460.258895874 0 0 0 0 -5311916.4404514143 -1396711.0668346602 0 -1396711.0668346602 -330048.32596771419 0 0 0 0 -26452199.791028976 -19175548.613502502 0 -19175548.613502502 10500842.435279846 0 0 0 0 -8609406.5666046143 -15830759.322753906 0 -15830759.322753906 -1281019.2798309326 0 0 0 0 -13763860.800982028 -11507817.827822626 0 -11507817.827822626 -8887285.4697265625 0 0 0 0 -13747494.599914551 -13268209.789573669 0 -13268209.789573669 -12543027.416015625 0 0 0 0 -10846051.107356071 -9287145.0335617065 0 -9287145.0335617065 -8193460.495010376 0 0 0 0 -11836962.810152054 -13166646.097671509 0 -13166646.097671509 -11040488.63470459 0 0 0 0 -10627616.767030917 -12793635.581683576 0 -12793635.581683576 -7152988.1014200002 0 0 0 0 -141570.77316918224 -7407824.789203085 0 -7407824.789203085 -7289447.5657230914 0 0 0 0 -174872.05201482773 -298500.44205188751 0 -298500.44205188751 -710431.91162109375 0 0 0 0 -18357973.223701477 -13123844.350730896 0 -13123844.350730896 -9985262.9783935547 0 0 0 0 -1861928.9121745455 -6462831.3034035545 0 -6462831.3034035545 -6478803.6287450492 0 0 0 0 -3362022.3630655077 -3668972.4646857381 0 -3668972.4646857381 -5603123.7937500179 0 0 0 0 118598371.06135559 -35752237.219039917 0 -35752237.219039917 -11134629.637298584 0 0 0 0 96375506.512306213 -22119885.601013184 0 -22119885.601013184 -11103669.319366455 0 0 0 0 -31631224.877214432 -44991647.247093201 0 -44991647.247093201 28117279.999237061 0 0 0 0 -9755361.4729690552 -51692404.873687744 0 -51692404.873687744 29060425.595222473 0 0 0 0 6415141.4803352356 -97336142.201385498 0 -97336142.201385498 38889047.348815918 0 0 0 0 32053520.321990967 -111229811.40344238 0 -111229811.40344238 43957592.418792725 0 0 0 0 139005176.85908508 -187428774.31259155 0 -187428774.31259155 55687593.991149902 0 0 0 0 258475391.99621582 -199306943.3576355 0 -199306943.3576355 77888948.700408936 0 0 0 0 122000219.70422935 158832693.23036575 0 158832693.23036575 -183153082.4095459 0 0 0 0 -34412034.53616333 -14791829.097717285 0 -14791829.097717285 4693531.109375 0 0 0 0 584457.60014390014 -414427.09195616841 0 -414427.09195616841 -639922.67047964036 0 0 0 0 326969540.27357483 134953805.58453369 0 134953805.58453369 -100064298.80859375 0 0 0 0 -156787781.59708118 -80491508.966464996 0 -80491508.966464996 124636603.03289795 0 0 0 0 -64438455.856132507 -147620807.07086182 0 -147620807.07086182 125912036.3164978 0 0 0 0 -110573678.69015503 41816695.616424561 0 41816695.616424561 16517527.114471436 0 0 0 0 -52882484.974565506 33491028.401672363 0 33491028.401672363 -25593825.771652222 0 0 0 0 64296566.469954491 -17394792.249580383 0 -17394792.249580383 -195755001.6088562 0 0 0 0 -261542.19194381684 -1751774.8889410049 0 -1751774.8889410049 -214797.23847203702 0 0 0 0 -169900348.18567514 -3194360.5956459045 0 -3194360.5956459045 80501987.55871582 0 0 0 0 -47693016.895507812 -3219191.4593505859 0 -3219191.4593505859 33181329.176979065 0 0 0 0 -61800671.158978462 -15691881.309211731 0 -15691881.309211731 28573190.919616699 0 0 0 0 -51275705.059387207 -52022858.60949707 0 -52022858.60949707 62653575.331672668 0 0 0 0 -35921297.933143616 -25281211.785919189 0 -25281211.785919189 31896026.429458618 0 0 0 0 -39994943.375085831 -9070908.2166671753 0 -9070908.2166671753 20256133.692657471 0 0 0 0 -37331538.413403511 -16813595.306722641 0 -16813595.306722641 3929824.7134399414 0 0 0 0 -28467534.21528244 -26774516.484111786 0 -26774516.484111786 6550953.9445800781 0 0 0 0 -27541981.813369691 -37941484.818722725 0 -37941484.818722725 21995951.319519043 0 0 0 0 -28158713.954963684 -28016275.023544312 0 -28016275.023544312 6412504.1431274414 0 0 0 0 -27609678.139762878 -29835524.376739502 0 -29835524.376739502 9176827.1967163086 0 0 0 0 -19179029.73179245 -17012785.94619751 0 -17012785.94619751 -16304160.429138184 0 0 0 0 -6540336.1300964355 -19115287.4140625 0 -19115287.4140625 -29663344.129455566 0 0 0 0 76020006.054255247 -15365042.456104279 0 -15365042.456104279 -19503228.824554443 0 0 0 0 38615541.450272053 -27415163.903083801 0 -27415163.903083801 -20041441.817596436 0 0 0 0 18206665.631580353 -3798850.4395141602 0 -3798850.4395141602 -9111559.2063903809 0 0 0 0 41117211.106347114 14241474.144269943 0 14241474.144269943 1625006.5017700195 0 0 0 0 -2616503.2974265451 -2138212.2866885662 0 -2138212.2866885662 -49961.341835618019 0 0 0 0 58305018.818557262 22483834.065284729 0 22483834.065284729 -346345.96673583984 0 0 0 0 -347895427.27403259 -29408970.805175781 0 -29408970.805175781 -101137789.59410095 0 0 0 0 -3970997.9625396729 -29699034.839797974 0 -29699034.839797974 -18908315.255981445 0 0 0 0 2960904.5385742188 -29795872.372528076 0 -29795872.372528076 -33904708.221588135 0 0 0 0 -869996.13827389106 -9079754.8963145539 0 -9079754.8963145539 -2532205.0972753838 0 0 0 0 -7002043.8845596313 -36162239.432800293 0 -36162239.432800293 -28010033.728744507 0 0 0 0 -46596711.620155334 -131051908.41943359 0 -131051908.41943359 -162501143.06237793 0 0 0 0 -8714877.4234544747 -6992046.4174679816 0 -6992046.4174679816 149982.76205540448 0 0 0 0 -21257188.476966858 -30277095.116027832 0 -30277095.116027832 -17525238.304077148 0 0 0 0 -12465322.375587463 -13579257.617347717 0 -13579257.617347717 -8418345.7235717773 0 0 0 0 -2251096.7642440796 -29492449.409103394 0 -29492449.409103394 -23360215.224884033 0 0 0 0 11786643.713562012 -17963729.976593018 0 -17963729.976593018 -18172786.769742966 0 0 0 0 4229778.6197090149 -30125378.143371582 0 -30125378.143371582 -18451432.172790527 0 0 0 0 2885426.9570541382 -34023003.208786011 0 -34023003.208786011 -3781120.0061645508 0 0 0 0 -11877991.971782684 -26456054.00177002 0 -26456054.00177002 -5059389.1583251953 0 0 0 0 20751977.179977417 -48839857.778778076 0 -48839857.778778076 4336456.9923095703 0 0 0 0 12130464.898067474 -21187004.110809326 0 -21187004.110809326 -11010568.624664307 0 0 0 0 24227453.710544586 -16378337.24848938 0 -16378337.24848938 -9140778.1087188721 0 0 0 0 -1625441.8660392761 -1194044.1701812744 0 -1194044.1701812744 -4191952.2697143555 0 0 0 0 -3424721.1008266397 -7242564.8360353038 0 -7242564.8360353038 -7365719.2887254655 0 0 0 0 25302051.682666779 -11794452.282516479 0 -11794452.282516479 -17205368.695465088 0 0 0 0 3269556.1089516543 -2233370.6192095103 0 -2233370.6192095103 -7709724.227821365 0 0 0 0 -22533416.309936523 -15609886.918804169 0 -15609886.918804169 -10793698.245910645 0 0 0 0 1926240.9904560312 -5867951.1247833725 0 -5867951.1247833725 -9535435.2477421463 0 0 0 0 -3720046.1516342163 -2519180.8407440186 0 -2519180.8407440186 -1562840.8213806152 0 0 0 0 -17082270.867763519 -20273886.713623047 0 -20273886.713623047 -18049939.263275146 0 0 0 0 -34516292.221496582 477630.8466796875 0 477630.8466796875 -13306420.310546875 0 0 0 0 -17084912.858287811 -15859994.44947052 0 -15859994.44947052 -9655887.193649292 0 0 0 0 -24800895.576042175 -14392134.665679932 0 -14392134.665679932 -14691324.95085907 0 0 0 0 -16469781.497215271 -15663575.371841431 0 -15663575.371841431 -15069949.405906677 0 0 0 0 -17314804.117805481 -16638289.912727356 0 -16638289.912727356 -12344271.755279541 0 0 0 0 -14453927.602062225 -11110160.785310745 0 -11110160.785310745 -10402263.342300415 0 0 0 0 27835118.970741868 -57139747.530181885 0 -57139747.530181885 -201151474.19343567 0 0 0 0 -30970544.753740907 -30556229.444091797 0 -30556229.444091797 -85854080.504989624 0 0 0 0 -22766771.958289862 -35746115.339523315 0 -35746115.339523315 -8783516.2177658081 0 0 0 0 -7595360.7197037935 -80876146.048675537 0 -80876146.048675537 -43472693.802337646 0 0 0 0 -14754057.444631785 -25958706.667081833 0 -25958706.667081833 -29431207.563293457 0 0 0 0 37935801.055147648 -70998693.515319824 0 -70998693.515319824 8497728.5585174561 0 0 0 0 312048805.84868479 102380482.27796936 0 102380482.27796936 -292584602.62113953 0 0 0 0 223422293.06115389 76569826.875595093 0 76569826.875595093 -29763069.470517159 0 0 0 0 -74182824.615149975 14021178.127990723 0 14021178.127990723 -33805020.337898254 0 0 0 0 -26133365.708920956 -116037483.08045959 0 -116037483.08045959 -101923281.71853638 0 0 0 0 317572270.6987772 -229161388.40080452 0 -229161388.40080452 149839851.06912231 0 0 0 0 1390303.3416011734 -1424595.6254871339 0 -1424595.6254871339 -355618.28454729542 0 0 0 0 276616972.33708519 -1368991562.3136959 0 -1368991562.3136959 1141558861.9195557 0 0 0 0 316157448.1263175 -223461425.58474731 0 -223461425.58474731 330381490.63617706 0 0 0 0 3913139.0463235243 -3797658.8126123473 0 -3797658.8126123473 -1080187.6436282191 0 0 0 0 50090472.671577454 -123177530.21026611 0 -123177530.21026611 282549711.51290894 0 0 0 0 80517345.426392555 -181118898.162323 0 -181118898.162323 213383223.42230225 0 0 0 0 -91338486.649389267 -110839210.95124817 0 -110839210.95124817 157296624.95196533 0 0 0 0 -72757.717656275257 -36184.047253884375 0 -36184.047253884375 -54285.932687491179 0 0 0 0 113501454.48485851 -102320347.24296188 0 -102320347.24296188 64158305.287231445 0 0 0 0 70766546.876050949 -25330366.082176208 0 -25330366.082176208 -55185908.767486572 0 0 0 0 -1222972.4070462408 -3991905.8786128685 0 -3991905.8786128685 -160490.29340070672 0 0 0 0 63945975.598339081 -115614546.658638 0 -115614546.658638 5662007.276184082 0 0 0 0 3556871.7874488831 4173942.0082702637 0 4173942.0082702637 -10402129.00177002 0 0 0 0 -38177049.612342834 -7154480.425491333 0 -7154480.425491333 -1667412.318939209 0 0 0 0 -2185012.99634552 -9917793.587852478 0 -9917793.587852478 2966307.5931091309 0 0 0 0 3050713.07090024 -4067278.1385780126 0 -4067278.1385780126 654482.3886654079 0 0 0 0 -18236002.750068545 -58365790.410224915 0 -58365790.410224915 -54521405.185379028 0 0 0 0 -14509967.223791838 -44613151.988571167 0 -44613151.988571167 -61167506.019744873 0 0 0 0 -44514935.919912338 -4917521.070098877 0 -4917521.070098877 -15998246.121246338 0 0 0 0 -33738016.858643055 -17662835.962600708 0 -17662835.962600708 -4439712.0280456543 0 0 0 0 -32517027.978252411 -21983240.470275879 0 -21983240.470275879 1747714.3861999512 0 0 0 0 161103776.73363447 -98321945.737716675 0 -98321945.737716675 -93192623.966583252 0 0 0 0 -52022023.090277195 -47434103.448013306 0 -47434103.448013306 -11935513.111801147 0 0 0 0 2106102.8778678984 -5738772.682350263 0 -5738772.682350263 -171871.07856279612 0 0 0 0 -34594352.553980827 -29775547.930465698 0 -29775547.930465698 -1113965.8630981445 0 0 0 0 16317516.314155579 -39159583.864959717 0 -39159583.864959717 -11538884.59961319 0 0 0 0 9472156.7375955582 -24878697.15322876 0 -24878697.15322876 -16049628.075820923 0 0 0 0 9025388.6511774063 -21076803.033477783 0 -21076803.033477783 -17103180.235656738 0 0 0 0 -29931656.76967001 -7495553.1648864746 0 -7495553.1648864746 2769952.4365310669 0 0 0 0 -21068337.753923774 429709.80495452881 0 429709.80495452881 -14458995.218276978 0 0 0 0 -23288227.606043935 -6486497.2601623535 0 -6486497.2601623535 -976772.05479431152 0 0 0 0 5507322.3022689223 136969.0291595459 0 136969.0291595459 -52474.666717529297 0 0 0 0 -32637533.620186567 -6476474.7038755417 0 -6476474.7038755417 34895690.807098389 0 0 0 0 5783821.730158627 -50288428.998291016 0 -50288428.998291016 -1886573.0860443115 0 0 0 0 5558620.6064707125 -8614670.9260955453 0 -8614670.9260955453 57082085.137329102 0 0 0 0 161818621.08501816 -27919291.638198853 0 -27919291.638198853 24027712.854003906 0 0 0 0 184972731.92128515 -129086966.79318237 0 -129086966.79318237 77930011.86227417 0 0 0 0 111649929.28894711 -71496812.537277222 0 -71496812.537277222 25690950.019081116 0 0 0 0 -25282744.158388615 -2832320.0056915283 0 -2832320.0056915283 6369763.9395751953 0 0 0 0 2372254.3728294373 1179037.731010437 0 1179037.731010437 54326123.597900391 0 0 0 0 133316587.05049145 -48738907.416137695 0 -48738907.416137695 49468815.725708008 0 0 0 0 1816955.1227345467 -6784594.7811050415 0 -6784594.7811050415 -173801217.65538025 0 0 0 0 -15322542.243471622 -45952580.178421021 0 -45952580.178421021 -57158092.690460205 0 0 0 0 -5096142.4162786007 -25500229.720932007 0 -25500229.720932007 -95714843.03125 0 0 0 0 -332566.23202180862 14236953.295089722 0 14236953.295089722 -44115301.194488525 0 0 0 0 -37324502.363743663 -58582786.250709534 0 -58582786.250709534 -75518892.131561279 0 0 0 0 -44233723.165849544 -51503593.147720337 0 -51503593.147720337 -76195036.642578125 0 0 0 0 -90701050.871935606 -146377606.81777954 0 -146377606.81777954 -178761829.3105185 0 0 0 0 -51056670.66682598 -84591979.184425354 0 -84591979.184425354 -88303658.476341248 0 0 0 0 -53182430.946990594 -69007449.690973282 0 -69007449.690973282 -52233246.405822754 0 0 0 0 -15491451.257796884 -43252482.0652771 0 -43252482.0652771 -77107020.402069092 0 0 0 0 56292525.285169601 24216972.290664673 0 24216972.290664673 -1313252.4234924316 0 0 0 0 40010169.535531998 103973748.10123444 0 103973748.10123444 66853975.529602051 0 0 0 0 3386133.7473395015 -10217476.940572895 0 -10217476.940572895 3603198.2310059518 0 0 0 0 -17604477.326333046 -46984370.053726196 0 -46984370.053726196 -36033546.254947424 0 0 0 0 -16687482.827775955 -49567372.66104126 0 -49567372.66104126 -39397746.616378784 0 0 0 0 -31939447.277828455 -48979217.533691406 0 -48979217.533691406 -39943251.205047607 0 0 0 0 -28899300.038997889 -55556786.77722168 0 -55556786.77722168 -41399323.914825439 0 0 0 0 -5563755.7737631798 -35450635.023925781 0 -35450635.023925781 -53379501.14654541 0 0 0 0 -9331599.9443044662 -50620062.053375244 0 -50620062.053375244 -59156815.27243042 0 0 0 0 -11812946.033735394 -42900145.039461136 0 -42900145.039461136 -41729501.166717529 0 0 0 0 2780485.6759738922 -33257873.366744995 0 -33257873.366744995 -45603350.257415771 0 0 0 0 -6521295.1784341335 -33408500.428461075 0 -33408500.428461075 -38607495.94052124 0 0 0 0 -1469006.5093069077 -19719399.709274292 0 -19719399.709274292 -32154483.194732666 0 0 0 0 -3922736.4910378456 -25199836.269378662 0 -25199836.269378662 -33704487.897399902 0 0 0 0 8472800.0672655106 -24405296.519104004 0 -24405296.519104004 -43052746.68699646 0 0 0 0 -2632084.2911672592 -18350062.976455688 0 -18350062.976455688 -59319440.156520844 0 0 0 0 -16394588.207124591 -44033329.565353394 0 -44033329.565353394 -55936682.258483887 0 0 0 0 -12513716.717780113 -15581727.750488281 0 -15581727.750488281 -28647322.063796997 0 0 0 0 -8637293.630160749 -9714951.8541660309 0 -9714951.8541660309 -36154881.928222656 0 0 0 0 -10910623.242113829 -13336221.248329163 0 -13336221.248329163 -29891751.574371338 0 0 0 0 10318076.083370209 -22016217.018585205 0 -22016217.018585205 -33118061.590805054 0 0 0 0 -5236749.4921936989 -22337694.517982483 0 -22337694.517982483 -16417790.720214844 0 0 0 0 30902195.983335495 -18970782.881958008 0 -18970782.881958008 -24377994.84274292 0 0 0 0 9303150.4610708952 -17407934.327058792 0 -17407934.327058792 -22680621.010131836 0 0 0 0 19063443.071805 -17164451.668243408 0 -17164451.668243408 -31089333.522827148 0 0 0 0 15197525.445688248 -10078793.222747803 0 -10078793.222747803 -18020347.847000122 0 0 0 0 21717048.373231888 -5950391.3921966553 0 -5950391.3921966553 -20287356.42477417 0 0 0 0 25426319.583465576 -1492867.9230880737 0 -1492867.9230880737 -15120245.127685547 0 0 0 0 16736044.410969734 -6321211.8190689087 0 -6321211.8190689087 -13389541.048492432 0 0 0 0 19888679.262138367 -13631923.575912476 0 -13631923.575912476 -19384088.996856689 0 0 0 0 15927757.331878185 -4207213.9775257111 0 -4207213.9775257111 -6968684.9718933105 0 0 0 0 11731913.873321533 -8018258.3554077148 0 -8018258.3554077148 -10411865.041748047 0 0 0 0 18192322.655356884 -10373973.536003113 0 -10373973.536003113 -25635234.453887939 0 0 0 0 13780148.381547451 -17656979.116165161 0 -17656979.116165161 -26513275.011047363 0 0 0 0 15135778.479383469 -18192788.950759888 0 -18192788.950759888 -33620333.603507996 0 0 0 0 6145370.4313335419 -22779820.873420715 0 -22779820.873420715 -30281441.194213867 0 0 0 0 -9484821.2144317627 -30384295.227523804 0 -30384295.227523804 -37377942.327697754 0 0 0 0 -14672787.224319458 -11173141.650901794 0 -11173141.650901794 -28163220.904586792 0 0 0 0 -26281556.585487366 -27940933.071392059 0 -27940933.071392059 -10499640.834320068 0 0 0 0 -6590992.7860927582 -5028631.6339149475 0 -5028631.6339149475 -1559377.7478637695 0 0 0 0 -71238.423576110043 -4216031.3907358795 0 -4216031.3907358795 -5854664.2305084467 0 0 0 0 -22452525.160239641 -9099061.0692152083 0 -9099061.0692152083 -1873472.2156300098 0 0 0 0 -17934470.135620855 -21402737.496213406 0 -21402737.496213406 -3374969.1136002243 0 0 0 0 -78071731.647026062 -60031523.280158997 0 -60031523.280158997 6926567.0993652344 0 0 0 0 -41358891.108686447 -4929787.0557003021 0 -4929787.0557003021 39571957.01940918 0 0 0 0 -2805365.5583456457 -16842446.296900213 0 -16842446.296900213 -16534157.277614206 0 0 0 0 -44131255.85244751 40207209.217887878 0 40207209.217887878 99173025.735900879 0 0 0 0 -54308562.83480835 -32962645.410888672 0 -32962645.410888672 -32522235.634460449 0 0 0 0 -37967615.640960693 -58844935.332809448 0 -58844935.332809448 -14832584.508453369 0 0 0 0 -3807222.6899291463 -2838932.5458575189 0 -2838932.5458575189 -1957228.5804484114 0 0 0 0 -28188169.989402771 -31362450.660251617 0 -31362450.660251617 -29168258.244567871 0 0 0 0 -2702244.6105402 -1734633.0342534184 0 -1734633.0342534184 -637536.79950799048 0 0 0 0 -12104038.60369873 32875502.776611328 0 32875502.776611328 20070537.995704651 0 0 0 0 -58460021.469581604 -53134465.851329803 0 -53134465.851329803 62679899.457489014 0 0 0 0 -60797564.694679737 -26283607.711753845 0 -26283607.711753845 -18405560.664001465 0 0 0 0 -50716992.906951904 -97700069.913543701 0 -97700069.913543701 -108935403.27024841 0 0 0 0 -22050756.535054207 -1668822.4179257154 0 -1668822.4179257154 -5006939.0613708496 0 0 0 0 -479654.01164104789 -971176.80434463918 0 -971176.80434463918 -1070697.555052774 0 0 0 0 -41112113.520980835 -69139942.35446167 0 -69139942.35446167 -42280752.572036743 0 0 0 0 -22867081.372819781 -50189085.92759347 0 -50189085.92759347 -55887212.860809326 0 0 0 0 -46261167.061523438 -56586202.365478516 0 -56586202.365478516 -32678795.056091309 0 0 0 0 -15865757.811401367 -51108835.755889893 0 -51108835.755889893 -44334540.244003296 0 0 0 0 -139004668.47975159 -67573631.70854187 0 -67573631.70854187 -9114537.6491088867 0 0 0 0 -123397009.23453522 55493640.476812363 0 55493640.476812363 38078033.842285156 0 0 0 0 2560608.5847320557 40617714.61289978 0 40617714.61289978 -35064185.733001709 0 0 0 0 -2014322.4025218892 -17675735.556198552 0 -17675735.556198552 -20830354.268860728 0 0 0 0 56499414.154647827 -29504297.548145294 0 -29504297.548145294 -59749496.913604736 0 0 0 0 11742092.004875183 -70871094.358428955 0 -70871094.358428955 -12133997.454101562 0 0 0 0 -5447596.3806381226 -46522411.559082031 0 -46522411.559082031 -39859888.431884766 0 0 0 0 -56179569.457855225 -69772434.050765991 0 -69772434.050765991 -33492865.993835449 0 0 0 0 -33671729.168716431 -71588080.673431396 0 -71588080.673431396 -44799690.255859375 0 0 0 0 -27215802.97416687 -21958903.002883911 0 -21958903.002883911 -34131106.454530716 0 0 0 0 1314786.7536792755 -35444955.120628357 0 -35444955.120628357 -40245644.881164551 0 0 0 0 2141846.2478151321 -28422228.178268433 0 -28422228.178268433 -28133190.113571167 0 0 0 0 4120187.2877445221 -25130628.821853638 0 -25130628.821853638 -21346502.795734406 0 0 0 0 10702944.180732727 -29193992.561248779 0 -29193992.561248779 -35446479.14364624 0 0 0 0 -1240330.8702559471 -34699700.596374512 0 -34699700.596374512 -36320768.159576416 0 0 0 0 -13020867.063821793 -31690458.168140411 0 -31690458.168140411 -29687036.620864868 0 0 0 0 -18567692.162827373 -47308530.325086594 0 -47308530.325086594 -35895950.271057129 0 0 0 0 -16881175.492147446 -40140799.889137268 0 -40140799.889137268 -41680210.354938507 0 0 0 0 -14741469.458478602 -24403833.69498425 0 -24403833.69498425 -1063487.0338696558 0 0 0 0 -123911878.06056213 27290792.06413269 0 27290792.06413269 37242579.135429382 0 0 0 0 2183350.3066711426 -43150070.499656677 0 -43150070.499656677 -60618623.736740112 0 0 0 0 -80480171.862449646 -25069442.316329956 0 -25069442.316329956 35319466.001579285 0 0 0 0 -882700.66661727428 -5525225.0467065573 0 -5525225.0467065573 -2016987.9057911411 0 0 0 0 -9045954.1085281372 19275560.68837738 0 19275560.68837738 -28668389.409896851 0 0 0 0 -2431721.2846153458 -24931162.890363432 0 -24931162.890363432 -24346576.031751618 0 0 0 0 -26557321.744129181 -28842493.504116058 0 -28842493.504116058 29200673.261627197 0 0 0 0 39744304.699505329 -24574609.104014874 0 -24574609.104014874 -24671255.89553833 0 0 0 0 -14621450.617515564 -17114110.280952454 0 -17114110.280952454 11082675.509513855 0 0 0 0 -19903954.638170242 -52659150.011957169 0 -52659150.011957169 -18584004.353927612 0 0 0 0 -1788069.9131393433 -19587613.190696716 0 -19587613.190696716 -15348407.591854095 0 0 0 0 -7874827.0655984879 -29938340.290078163 0 -29938340.290078163 -10213464.267105103 0 0 0 0 -12515594.422607422 -30590395.039205551 0 -30590395.039205551 -6199666.1800994873 0 0 0 0 -21681248.487136841 -29153665.345142365 0 -29153665.345142365 -16175967.332159042 0 0 0 0 -6679509.6084651276 -21818554.386932738 0 -21818554.386932738 -12612994.423161594 0 0 0 0 -6403864.4584732056 -26560066.472732544 0 -26560066.472732544 -12768116.761945724 0 0 0 0 -10955947.547346115 -21684725.923565865 0 -21684725.923565865 -11774787.044937134 0 0 0 0 62242162.515514374 -40388035.846500397 0 -40388035.846500397 -49869240.669311523 0 0 0 0 25669044.478530765 -214763.17803764343 0 -214763.17803764343 -61764749.059677124 0 0 0 0 1464327.519865036 -22247376.574367523 0 -22247376.574367523 -31673814.969619751 0 0 0 0 -86090131.524757385 3371589.5563354492 0 3371589.5563354492 5139857.7860412598 0 0 0 0 -162125282.06976318 10195793.397644043 0 10195793.397644043 14244422.1798172 0 0 0 0 316182.08829407999 -483623.89284266625 0 -483623.89284266625 36801.612738803029 0 0 0 0 40953255.131240845 7454987.6110229492 0 7454987.6110229492 -117798478.64816284 0 0 0 0 414002.35775404051 -461551.79870728776 0 -461551.79870728776 201761.27450690418 0 0 0 0 -12930865.092018127 29902533.341186523 0 29902533.341186523 -54415045.210571289 0 0 0 0 -4950368.8250061795 -20411282.40366371 0 -20411282.40366371 -8285900.1689122617 0 0 0 0 67995255.439561844 -50990660.041778564 0 -50990660.041778564 -46671971.162780762 0 0 0 0 -26607490.286567688 -94128293.079299927 0 -94128293.079299927 -17660501.598625183 0 0 0 0 -56762499.164146423 -58237659.063293457 0 -58237659.063293457 9010094.6071453094 0 0 0 0 -147763944.62588406 -39192423.188812256 0 -39192423.188812256 8115336.1939086914 0 0 0 0 -48404206.311244965 -33428013.859901428 0 -33428013.859901428 26899247.886512756 0 0 0 0 -12052238.37273407 -10179658.370677948 0 -10179658.370677948 6018269.2324829102 0 0 0 0 21199740.672456741 -13226008.503025055 0 -13226008.503025055 -3761738.5029754639 0 0 0 0 -47818725.007797241 -34243988.04460907 0 -34243988.04460907 -5132690.596534729 0 0 0 0 -16270122.349586044 -10867836.221809853 0 -10867836.221809853 -46571.730624102056 0 0 0 0 -60458794.727638245 -13456496.910949707 0 -13456496.910949707 14883296.004440308 0 0 0 0 2554768.5812454224 -2479348.0772705078 0 -2479348.0772705078 -1588093.3724975586 0 0 0 0 -4161998.487384689 -3551801.7994969497 0 -3551801.7994969497 2141476.4957452416 0 0 0 0 7290649.1604768047 -711833.4077854529 0 -711833.4077854529 -3018590.6314197704 0 0 0 0 -12213901.635068074 -16157034.967448443 0 -16157034.967448443 -9131094.4060253948 0 0 0 0 17363444.082130432 -40226569.409629822 0 -40226569.409629822 -22945945.636515617 0 0 0 0 2513683.0758552495 -17071630.964824218 0 -17071630.964824218 -12255784.255615011 0 0 0 0 26983820.188152313 -33956634.461357117 0 -33956634.461357117 -21956161.228942871 0 0 0 0 8911210.2492700685 -18022364.427707851 0 -18022364.427707851 -14650411.574350119 0 0 0 0 25030579.332062721 -40447854.656070709 0 -40447854.656070709 -43398768.320373535 0 0 0 0 69120102.245727539 -20815764.313156128 0 -20815764.313156128 -34878732.590705872 0 0 0 0 12408478.297504425 -50952274.473075867 0 -50952274.473075867 -24032846.135375977 0 0 0 0 15726615.882530212 -40243057.219146729 0 -40243057.219146729 -10994724.191635132 0 0 0 0 -32157716.737819672 -76834927.780181885 0 -76834927.780181885 3253785.0026855469 0 0 0 0 13868984.873235881 -79863560.566316605 0 -79863560.566316605 -27386072.901184082 0 0 0 0 -87078910.140055656 -61901251.96295166 0 -61901251.96295166 22615539.701324463 0 0 0 0 -51284280.292304993 -100757725.51424408 0 -100757725.51424408 -11032263.863185883 0 0 0 0 -22475540.60477066 -106670753.24684906 0 -106670753.24684906 -10063260.175933838 0 0 0 0 -165005840.14891291 -233041719.02301598 0 -233041719.02301598 -120549984.00315857 0 0 0 0 -21749931.288211823 -110082266.99508667 0 -110082266.99508667 -49381513.657440186 0 0 0 0 70287803.66248703 -99062391.936248779 0 -99062391.936248779 -123381093.46192932 0 0 0 0 168355701.37212372 -34697586.998458862 0 -34697586.998458862 -107696109.11056519 0 0 0 0 26963356.357477188 -66582192.855125427 0 -66582192.855125427 -8666592.701965332 0 0 0 0 22763509.578733444 -11442221.838508606 0 -11442221.838508606 -308441487.20835114 0 0 0 0 -327598659.73728085 -829988.02960777283 0 -829988.02960777283 -23662740.595443726 0 0 0 0 -14873092.58874321 -54873949.444366455 0 -54873949.444366455 -44327372.972473145 0 0 0 0 -61715569.756855011 27049821.752426147 0 27049821.752426147 72244455.891476631 0 0 0 0 128170782.85385036 67552350.392059326 0 67552350.392059326 -93260152.447418213 0 0 0 0 -27836603.320498943 -53564755.310455322 0 -53564755.310455322 -38519285.303699493 0 0 0 0 156595901.42825317 12031330.706878662 0 12031330.706878662 1596565.2019348145 0 0 0 0 3279315.0950696692 -17260712.350498792 0 -17260712.350498792 1033626.7712036967 0 0 0 0 -27819389.591661692 -52947856.053115845 0 -52947856.053115845 -34699662.591697693 0 0 0 0 -24084052.363487244 -42302265.885940552 0 -42302265.885940552 -804575.96194458008 0 0 0 0 -14941365.852107637 -20539812.112346932 0 -20539812.112346932 5198306.0498769283 0 0 0 0 14249677.809882693 -14604425.65012436 0 -14604425.65012436 -18316514.894203633 0 0 0 0 -21693638.954789639 -47101640.499275208 0 -47101640.499275208 -29217788.703948975 0 0 0 0 58615512.199714661 -4724775.4844665527 0 -4724775.4844665527 -44204042.443580627 0 0 0 0 117129946.19445705 61771613.204177856 0 61771613.204177856 29462659.372802734 0 0 0 0 -2122938.6282286942 -5073584.2796378881 0 -5073584.2796378881 680639.10176894441 0 0 0 0 7491987.7251586914 7509843.8106536865 0 7509843.8106536865 70723920.24924469 0 0 0 0 -35063371.457473755 -1303631.3783950806 0 -1303631.3783950806 90098688.42641449 0 0 0 0 -43288114.745574951 19037757.312644958 0 19037757.312644958 84046772.918914795 0 0 0 0 2039280.3298797607 82578.697143554688 0 82578.697143554688 83045443.42464447 0 0 0 0 2973317.3067092896 1494697.2117156982 0 1494697.2117156982 80631520.659439087 0 0 0 0 6939911.1329956055 -348046.01119232178 0 -348046.01119232178 80668286.250091553 0 0 0 0 -59033564.564353943 -12750136.299049377 0 -12750136.299049377 -61486856.138046265 0 0 0 0 -1639213.1224406511 -1613464.8062651381 0 -1613464.8062651381 -557544.53874739911 0 0 0 0 -23689275.817626953 -6486931.7653656006 0 -6486931.7653656006 -109372131.57222176 0 0 0 0 -596308.46566443145 -697345.46595726907 0 -697345.46595726907 -141190.19166790601 0 0 0 0 24414969.009811401 -36752558.066314697 0 -36752558.066314697 30656708.156692505 0 0 0 0 26070141.28553772 -164201031.64286804 0 -164201031.64286804 -298913392.99212646 0 0 0 0 -75165757.721313477 -99486769.595737457 0 -99486769.595737457 -226230095.440979 0 0 0 0 -133554095.10150146 -154789553.38511658 0 -154789553.38511658 -163374423.19114685 0 0 0 0 -86487.632193155587 -538045.22220081836 0 -538045.22220081836 -516661.88806624711 0 0 0 0 -85619851.376617432 73706650.359596252 0 73706650.359596252 -3342735.9878768921 0 0 0 0 -130115825.31419373 -204562014.1600647 0 -204562014.1600647 -137319347.54347229 0 0 0 0 -12140158.562862054 -11272226.106837213 0 -11272226.106837213 1035598.5959845819 0 0 0 0 16348309.825531006 -57056565.815004349 0 -57056565.815004349 -140777603.62321472 0 0 0 0 -153927214.53736877 -126492298.91590881 0 -126492298.91590881 -14744355.446075439 0 0 0 0 10890813.882522583 -35508067.973022461 0 -35508067.973022461 11448035.990619659 0 0 0 0 -114068588.099823 9138087.4571990967 0 9138087.4571990967 97399898.534255981 0 0 0 0 -90417676.791908264 22866949.059429169 0 22866949.059429169 108196794.31105804 0 0 0 0 -9148027.8651885986 5758081.4004325867 0 5758081.4004325867 45109843.950386047 0 0 0 0 -33951868.102210999 -55966709.526435852 0 -55966709.526435852 32180698.947784424 0 0 0 0 -21663625.088526301 -18752846.053694703 0 -18752846.053694703 3951320.7453139964 0 0 0 0 -12046451.613800049 13089469.850006104 0 13089469.850006104 30785902.481887817 0 0 0 0 -17138771.960952759 -17393504.570957184 0 -17393504.570957184 27029228.581268311 0 0 0 0 -20686984.474036351 -14599678.492700234 0 -14599678.492700234 3772976.3033077195 0 0 0 0 27183505.456314087 36609241.907592773 0 36609241.907592773 83468500.233093262 0 0 0 0 -47978857.130187988 -207081782.99956131 0 -207081782.99956131 -50694006.919006348 0 0 0 0 122785929.94934845 -64201544.430900574 0 -64201544.430900574 -36428935.863227844 0 0 0 0 -20528466.454383813 -14530989.73813137 0 -14530989.73813137 3375110.8065696042 0 0 0 0 -65162392.79977417 -105881860.76733398 0 -105881860.76733398 -15156745.092372894 0 0 0 0 -71905007.400085449 -100283871.27878571 0 -100283871.27878571 26161863.561851501 0 0 0 0 -255638546.44342041 -67731272.711174011 0 -67731272.711174011 60632000.429679871 0 0 0 0 -150195076.79898071 -137805153.90869904 0 -137805153.90869904 45897960.979202271 0 0 0 0 -164726573.12849045 -48011320.13258934 0 -48011320.13258934 51699310.742172241 0 0 0 0 -190639308.98377991 8530910.1093978882 0 8530910.1093978882 33763696.568935394 0 0 0 0 -250326309.88723755 -138726397.87303925 0 -138726397.87303925 48396621.130916595 0 0 0 0 -54715370.553344727 25475445.243171692 0 25475445.243171692 -63003184.832672119 0 0 0 0 -51251523.256469727 -18627906.75600338 0 -18627906.75600338 -30868638.81439209 0 0 0 0 1919830.3872000203 -1584407.2418762781 0 -1584407.2418762781 -1949891.061310634 0 0 0 0 105683926.78909302 -227905434.91014862 0 -227905434.91014862 60757667.373569489 0 0 0 0 100082657.13943481 165492048.42052269 0 165492048.42052269 -354247244.38864136 0 0 0 0 24650661.974517822 -23119971.992500305 0 -23119971.992500305 -118724524.23279572 0 0 0 0 373003289.25219727 -165980031.88639069 0 -165980031.88639069 -407304637.42878056 0 0 0 0 -529210419.60308838 284396295.68933868 0 284396295.68933868 216215505.7041893 0 0 0 0 3947830.0302581787 -26334456.349189758 0 -26334456.349189758 -12125269.493339539 0 0 0 0 -5863346.6836679578 -17440523.007648759 0 -17440523.007648759 -3176373.8723400235 0 0 0 0 -4755493.1539459229 -14028214.276580811 0 -14028214.276580811 -3500577.2137203217 0 0 0 0 109704075.67324829 -40334358.43296051 0 -40334358.43296051 -77254312.30355835 0 0 0 0 -10738429.782228868 -22532936.99570968 0 -22532936.99570968 -14396541.545380518 0 0 0 0 21914509.863861084 -67617273.251579285 0 -67617273.251579285 -41183524.041409492 0 0 0 0 101249762.83210754 -49401756.697525024 0 -49401756.697525024 -73537896.055053711 0 0 0 0 20192690.062438965 -52490039.321708679 0 -52490039.321708679 23636117.738708496 0 0 0 0 -2986884.8223304749 -17136858.815868378 0 -17136858.815868378 -2801326.546081543 0 0 0 0 15067100.659492871 -8807082.6287528761 0 -8807082.6287528761 -29744474.222271383 0 0 0 0 5590294.124786377 -3299263.7434997559 0 -3299263.7434997559 -35392471.237701416 0 0 0 0 54177014.026245117 -63475735.393836975 0 -63475735.393836975 -68679396.482837677 0 0 0 0 85343324.125518799 -24711796.81640625 0 -24711796.81640625 -43777838.344970703 0 0 0 0 26731967.752746582 -11746172.550590515 0 -11746172.550590515 -86207143.522720337 0 0 0 0 39144031.407775879 -53653757.885803223 0 -53653757.885803223 -58567483.71660614 0 0 0 0 49145560.613861084 -73220560.227861404 0 -73220560.227861404 -26678553.904785156 0 0 0 0 -5492381.751622431 -20764881.300621629 0 -20764881.300621629 -12307419.971395727 0 0 0 0 -6902758.6847535223 -27503685.327499293 0 -27503685.327499293 -18494498.709444404 0 0 0 0 -4386043.0712314453 -16298684.640490964 0 -16298684.640490964 -6963035.2635909766 0 0 0 0 -8374990.3044319153 -24211584.725540161 0 -24211584.725540161 -28033090.980255127 0 0 0 0 -45112179.844642639 -51217752.595214844 0 -51217752.595214844 51566635.572998047 0 0 0 0 5629307.6926879883 -4370239.3341026306 0 -4370239.3341026306 -23113962.872741699 0 0 0 0 -2472241.208216168 -4243695.0948929377 0 -4243695.0948929377 1402939.0063239262 0 0 0 0 92833571.51008606 -80982616.865646362 0 -80982616.865646362 26245124.921581268 0 0 0 0 -381357.1193869859 -1189287.9913282841 0 -1189287.9913282841 -833629.81345842779 0 0 0 0 56273451.388397217 26783346.419801712 0 26783346.419801712 64942722.807403564 0 0 0 0 -4342985.7698509842 -8184884.7714360878 0 -8184884.7714360878 -2161024.2057379531 0 0 0 0 159169797.76031494 -60823125.414245605 0 -60823125.414245605 26569643.084533691 0 0 0 0 -1292699.4605712891 -18135663.076705933 0 -18135663.076705933 -19020839.167837143 0 0 0 0 -100974178.01913452 71025269.857131958 0 71025269.857131958 66473373.214538574 0 0 0 0 -7296985.9025688171 -17547098.254706144 0 -17547098.254706144 -14070413.920013428 0 0 0 0 18881751.655220032 -124971902.36012268 0 -124971902.36012268 63646115.302886963 0 0 0 0 4688958.5152131319 -13769794.156574011 0 -13769794.156574011 -15856249.882568359 0 0 0 0 -3446794.1876687286 -10264924.330189485 0 -10264924.330189485 -8820829.8706824183 0 0 0 0 -2420081.2270507812 2624830.5496902466 0 2624830.5496902466 82430717.641822815 0 0 0 0 -8716405.8876113892 -8694320.32970047 0 -8694320.32970047 66927214.576293945 0 0 0 0 -8599752.5842208862 -73874417.98575592 0 -73874417.98575592 132720747.22333527 0 0 0 0 -19482801.506433807 -16250220.386454254 0 -16250220.386454254 1533922.5859071556 0 0 0 0 -46814164.043792725 15362214.631835938 0 15362214.631835938 72519750.623634338 0 0 0 0 -74190113.651611328 -7633273.6785583496 0 -7633273.6785583496 78945399.112197876 0 0 0 0 -22505354.43145752 1384829.2691192627 0 1384829.2691192627 80389785.217529297 0 0 0 0 -2656658.7338370383 -3037756.6829317436 0 -3037756.6829317436 -1251575.5148972729 0 0 0 0 22948469.611740112 -15336769.504226685 0 -15336769.504226685 -58095970.593040466 0 0 0 0 -26954834.343978882 -11827131.101089478 0 -11827131.101089478 67368574.003250122 0 0 0 0 -6909095.0364532471 -8788165.1108703613 0 -8788165.1108703613 -33197692.880691528 0 0 0 0 15575802.557132721 -12418749.480278015 0 -12418749.480278015 -55898872.285690308 0 0 0 0 25371969.305557251 -22848420.107437134 0 -22848420.107437134 -49749615.976730347 0 0 0 0 18983156.847900391 -8952857.6001281738 0 -8952857.6001281738 -98192383.821075439 0 0 0 0 -6603274.8256378174 -42495155.209369659 0 -42495155.209369659 55901469.660354614 0 0 0 0 37597558.353204727 -73859702.916874886 0 -73859702.916874886 -49168926.850982666 0 0 0 0 -3775039.3487701416 -18634654.729042053 0 -18634654.729042053 -12006321.490431786 0 0 0 0 6424063.9650039673 -26969102.155174255 0 -26969102.155174255 -12124037.550186157 0 0 0 0 12226486.099060059 -56633272.419128418 0 -56633272.419128418 -32858835.310272217 0 0 0 0 -7649614.3005828857 -29096493.781150818 0 -29096493.781150818 -50242156.604804993 0 0 0 0 -508307.20187981427 -2054062.0125326663 0 -2054062.0125326663 -1314981.8557929639 0 0 0 0 35675803.815757751 -33741192.87739563 0 -33741192.87739563 -39514079.228744507 0 0 0 0 -13255503.844284058 -16272873.511642456 0 -16272873.511642456 -7749637.1953010559 0 0 0 0 24099493.522666931 17733241.984153748 0 17733241.984153748 -31272621.439998627 0 0 0 0 4573058.1932772994 286809.58751146682 0 286809.58751146682 -3784381.459872067 0 0 0 0 -4221338.9897937775 -21690564.00527668 0 -21690564.00527668 -10472270.976989746 0 0 0 0 -4542788.3160858154 -16597738.269332886 0 -16597738.269332886 -8663552.2188796997 0 0 0 0 -4563033.1646728516 -18473970.941360474 0 -18473970.941360474 -14765544.222625732 0 0 0 0 10262030.96270752 -10553308.552154541 0 -10553308.552154541 -29098097.376220703 0 0 0 0 -9037374.7138519287 -19715094.067878723 0 -19715094.067878723 -5376505.9685440063 0 0 0 0 -2364587.2578597963 -8327856.4518117681 0 -8327856.4518117681 -4182958.8416240606 0 0 0 0 -2932894.3890481023 -10002592.059843406 0 -10002592.059843406 -10901219.727385655 0 0 0 0 30635674.634123802 -7312192.2071034908 0 -7312192.2071034908 -9597569.9821777344 0 0 0 0 -35684451.352508545 -7127591.9984741211 0 -7127591.9984741211 90709555.478111267 0 0 0 0 -2042628.5332515761 -4697026.6581670344 0 -4697026.6581670344 -2805106.2111210115 0 0 0 0 3424026.9285674095 -4154530.696303606 0 -4154530.696303606 -880766.0859375 0 0 0 0 1960055.4177586734 -7606887.6029849648 0 -7606887.6029849648 -7193313.2935218811 0 0 0 0 -7348504.7424569065 -5927433.33189689 0 -5927433.33189689 -6267297.022418201 0 0 0 0 4435164.191712603 -11511157.976513915 0 -11511157.976513915 -11101671.628610797 0 0 0 0 11446765.911514282 -27840352.376174927 0 -27840352.376174927 63110916.421325684 0 0 0 0 6307304.475227356 -25394391.822425842 0 -25394391.822425842 -18452472.921302795 0 0 0 0 -6250061.4148864746 -55998513.334777832 0 -55998513.334777832 -21529857.850616455 0 0 0 0 -1415068.6743349 -1918848.003925506 0 -1918848.003925506 194824.57161197066 0 0 0 0 -159096724.83914185 54627410.328704834 0 54627410.328704834 193258138.41748047 0 0 0 0 181684176.23046875 -286776862.03060913 0 -286776862.03060913 -256499913.09558105 0 0 0 0 12939213.767288208 -5241497.8680114746 0 -5241497.8680114746 41493595.621429443 0 0 0 0 28374701.303665161 -8341347.2280807495 0 -8341347.2280807495 -4923691.3015136719 0 0 0 0 19809715.376609802 -39755094.455657959 0 -39755094.455657959 2054122.8926849365 0 0 0 0 -8996912.5822798833 -13472568.395154946 0 -13472568.395154946 -9886226.8230321258 0 0 0 0 3223498.981620729 -38813165.413118362 0 -38813165.413118362 13611239.33404541 0 0 0 0 3662501.0558624268 -24333032.18510437 0 -24333032.18510437 1775636.0389688015 0 0 0 0 -11376356.851707458 -18921474.297546387 0 -18921474.297546387 -13077392.75944519 0 0 0 0 4149193.9597549438 -15826681.868377686 0 -15826681.868377686 -17800610.625564575 0 0 0 0 -13342549.133598328 -28561506.163772583 0 -28561506.163772583 -5804596.9526824951 0 0 0 0 3292618.8235836029 -14896757.927908897 0 -14896757.927908897 -34180682.639358521 0 0 0 0 -60453102.334506989 -60015576.42515564 0 -60015576.42515564 -28678703.827575684 0 0 0 0 -26725966.945884705 -20347977.802352905 0 -20347977.802352905 -4756601.9904251099 0 0 0 0 -17859323.439399719 -36026586.77759552 0 -36026586.77759552 -5397885.0049436092 0 0 0 0 -1961790.5469207764 -12300475.253448486 0 -12300475.253448486 -15017126.49357605 0 0 0 0 -63690382.790725708 -14324754.015655518 0 -14324754.015655518 19686858.280303955 0 0 0 0 -47554331.998016357 -37303218.231445312 0 -37303218.231445312 -31349941.858352661 0 0 0 0 -211694.71964997798 7897.9347477331758 0 7897.9347477331758 142286.28010226786 0 0 0 0 39320794.89655304 23858483.536815643 0 23858483.536815643 13506859.649414062 0 0 0 0 23877071.872589111 38862647.746986389 0 38862647.746986389 34744205.373963356 0 0 0 0 -32509140.34022522 13436328.787796021 0 13436328.787796021 26749211.042510986 0 0 0 0 -10229395.643234253 -5200567.5710754395 0 -5200567.5710754395 -36375779.879776001 0 0 0 0 1120020.5085906982 13030055.883544922 0 13030055.883544922 -15996743.386856079 0 0 0 0 -41582307.382034302 1563419.0647125244 0 1563419.0647125244 -2492375.2959060669 0 0 0 0 -7338467.0279690586 -3438012.4343412966 0 -3438012.4343412966 10420640.733569339 0 0 0 0 -43728657.789337158 -4826859.4195709229 0 -4826859.4195709229 4387382.8151397705 0 0 0 0 -125960221.41555786 -107508888.03773499 0 -107508888.03773499 12524406.268829346 0 0 0 0 -7169529.7858725563 -3784714.317864351 0 -3784714.317864351 8715928.8047160506 0 0 0 0 -41775046.065460205 -44904155.170936584 0 -44904155.170936584 27332303.406479359 0 0 0 0 -42030013.433063507 -51637586.377386093 0 -51637586.377386093 -39495957.546691895 0 0 0 0 -196253.12211728841 19647.576570376754 0 19647.576570376754 623827.13641148061 0 0 0 0 -122127899.68828201 -118204055.45640373 0 -118204055.45640373 -122510658.17767334 0 0 0 0 -157383409.86459351 -96283984.119163513 0 -96283984.119163513 -103045772.23903656 0 0 0 0 -135236784.93933105 -7547467.7360305786 0 -7547467.7360305786 8362923.9666137695 0 0 0 0 -96822031.600708008 -1660307.3064956665 0 -1660307.3064956665 -50138892.460243225 0 0 0 0 30952974.056020737 12561241.811791897 0 12561241.811791897 -75060197.703414917 0 0 0 0 -8215788.9167885184 -7638693.5688946173 0 -7638693.5688946173 -6411735.2880959883 0 0 0 0 -36449384.759414673 27570386.668426514 0 27570386.668426514 63155294.736724854 0 0 0 0 -42963342.462219238 -49409671.204055786 0 -49409671.204055786 -38486833.554100037 0 0 0 0 -8367753.4374237955 -7159261.4968581498 0 -7159261.4968581498 2747033.3965870775 0 0 0 0 -30695189.641464233 -14071948.851928711 0 -14071948.851928711 -23763809.489112854 0 0 0 0 -2434409.8509308621 -2170082.310780324 0 -2170082.310780324 -1688511.6207889915 0 0 0 0 18150230.172790527 54669135.035842896 0 54669135.035842896 57314103.151519775 0 0 0 0 -362844.82495222241 15755.150864183903 0 15755.150864183903 225695.11161199957 0 0 0 0 10631034.638290405 45344086.266368866 0 45344086.266368866 62058676.020370483 0 0 0 0 -242287434.07094574 -69662427.379554749 0 -69662427.379554749 41266028.737258911 0 0 0 0 -263964536.3755188 -51343816.483474731 0 -51343816.483474731 37407615.728790283 0 0 0 0 39705542.578842163 8918636.6072921753 0 8918636.6072921753 -65930837.365463257 0 0 0 0 -220887657.21713257 -62271811.352035522 0 -62271811.352035522 -953627.57259368896 0 0 0 0 -207280246.49138641 -49176435.855567932 0 -49176435.855567932 -213880251.48736572 0 0 0 0 -498168.98932284862 41429.070620380342 0 41429.070620380342 298353.78956140578 0 0 0 0 -3413140.340133667 76674033.170852661 0 76674033.170852661 25655188.264663696 0 0 0 0 -14477685.378831863 -27620750.691439629 0 -27620750.691439629 74922571.378540039 0 0 0 0 -15752129.133522034 17016142.361179352 0 17016142.361179352 16541931.076202393 0 0 0 0 8953060.6184692383 -12372961.923355103 0 -12372961.923355103 36060848.381792068 0 0 0 0 218482.42750247568 -321455.60213084519 0 -321455.60213084519 31824.653130985796 0 0 0 0 -403638495.70585632 -101207308.76824188 0 -101207308.76824188 -255901149.58181763 0 0 0 0 -243528825.1108551 -260272820.69904327 0 -260272820.69904327 -588070826.75689697 0 0 0 0 -1154440674.0046844 -472055297.38931274 0 -472055297.38931274 -232545487.34832764 0 0 0 0 -2585509953.1318359 -774326122.727005 0 -774326122.727005 507149395.55845642 0 0 0 0 -1524573508.9502831 -1948746428.854641 0 -1948746428.854641 -1167142367.4431458 0 0 0 0 -476339968.86980438 -239579325.0154953 0 -239579325.0154953 -307568170.55197144 0 0 0 0 -21336485.023620605 -23672512.711372375 0 -23672512.711372375 234523471.4748764 0 0 0 0 -259066925.4413681 -167379013.41908646 0 -167379013.41908646 185466383.67694092 0 0 0 0 -354530317.32244873 -400489748.01902771 0 -400489748.01902771 -147418410.02508545 0 0 0 0 -114008755.80607605 -122865800.36473083 0 -122865800.36473083 -394575832.2253418 0 0 0 0 258544.8160988912 -1241740.3995063454 0 -1241740.3995063454 521691.04550603777 0 0 0 0 18894217.593917847 10185165.758514404 0 10185165.758514404 12583245.009327888 0 0 0 0 533072506.65472412 -267466657.32106018 0 -267466657.32106018 -422420315.36981201 0 0 0 0 -113402116.4355607 -108750769.22109461 0 -108750769.22109461 -74690382.528869629 0 0 0 0 -336120313.28857422 355188969.74560547 0 355188969.74560547 90377055.056777954 0 0 0 0 -14082349.639892578 2272062.2849578857 0 2272062.2849578857 22641093.4510355 0 0 0 0 -1842573.4016216546 -2796482.0662089065 0 -2796482.0662089065 2147900.9552794397 0 0 0 0 -9285686.713684082 -5877535.9012145996 0 -5877535.9012145996 11618690.254516602 0 0 0 0 -33417633.819366455 -8012045.4351043701 0 -8012045.4351043701 22020581.82321167 0 0 0 0 -31802019.112998962 -17555955.857883453 0 -17555955.857883453 9329343.4458007812 0 0 0 0 -6677489.440322876 22170460.474533081 0 22170460.474533081 33466897.554104805 0 0 0 0 -34030158.870929718 -10291810.147674561 0 -10291810.147674561 19428493.104766846 0 0 0 0 -114838852.0017395 -203965986.82128906 0 -203965986.82128906 -209719261.6038208 0 0 0 0 -79244188.311096191 -59251364.416687012 0 -59251364.416687012 -61082091.872935176 0 0 0 0 -264371206.09268188 -204218734.00924683 0 -204218734.00924683 -60903388.939849854 0 0 0 0 -444393986.94523621 24476564.337463379 0 24476564.337463379 98189998.272460938 0 0 0 0 8076413.9893798828 -22254788.931640625 0 -22254788.931640625 -51999648.692932129 0 0 0 0 -91398702.071762085 -34467059.064315796 0 -34467059.064315796 44028087.376220703 0 0 0 0 -45300252.963424683 -72999842.018630981 0 -72999842.018630981 72535187.274475098 0 0 0 0 -75828744.773994446 -74592771.705528259 0 -74592771.705528259 -38015125.079467773 0 0 0 0 -97957929.077255249 -77706947.266998291 0 -77706947.266998291 -387602.84533691406 0 0 0 0 -104995655.76132202 -58208392.204666138 0 -58208392.204666138 -22739175.399841309 0 0 0 0 -1317397.0140122492 -938031.56213657185 0 -938031.56213657185 704508.70824386179 0 0 0 0 193546973.73149109 -115264863.38687897 0 -115264863.38687897 32060060.329803467 0 0 0 0 153913294.92480469 214618735.39149475 0 214618735.39149475 -90394010.803787231 0 0 0 0 13054689.907592773 -315811840.87016296 0 -315811840.87016296 -82292376.638000011 0 0 0 0 33535342.969291687 -66993922.508384705 0 -66993922.508384705 -10152518.89465332 0 0 0 0 -24178822.307678223 -14077463.864967346 0 -14077463.864967346 6945507.497756958 0 0 0 0 -4328766.9284098037 -3515496.9268101342 0 -3515496.9268101342 2015773.1657967567 0 0 0 0 -20816307.296783447 -15489058.184165955 0 -15489058.184165955 2194589.9379882812 0 0 0 0 -3497523.3772216439 -3425557.8917301148 0 -3425557.8917301148 1901758.3902288973 0 0 0 0 11701387.652130127 24131622.849769592 0 24131622.849769592 21707067.828521729 0 0 0 0 -55527901.448629379 -23512872.251724005 0 -23512872.251724005 20071788.955963135 0 0 0 0 -79767245.633407593 -15559614.975997925 0 -15559614.975997925 25539426.983268738 0 0 0 0 -54181561.454071045 22888063.194656372 0 22888063.194656372 85156689.110404968 0 0 0 0 -45508476.78225708 279583.97288513184 0 279583.97288513184 28946031.285583496 0 0 0 0 -11953164.748071816 -1161896.6527733207 0 -1161896.6527733207 5983785.1392734498 0 0 0 0 -35280550.007347107 -4059676.3761825562 0 -4059676.3761825562 11374309.267621994 0 0 0 0 -23397226.561508179 -6311717.0325622559 0 -6311717.0325622559 11104568.833358765 0 0 0 0 -53784996.386070251 3821982.1492919922 0 3821982.1492919922 52350039.119232178 0 0 0 0 -22991133.142959595 -83273987.511199951 0 -83273987.511199951 -10115342.150054932 0 0 0 0 -3176960491.8862152 -3040028570.7532272 0 -3040028570.7532272 -1899929029.5046859 0 0 0 0 -4437414.2779131532 950416.67091348767 0 950416.67091348767 -948311.25241454691 0 0 0 0 -3808043246.0662556 -1816510607.3095722 0 -1816510607.3095722 -770291796.65499878 0 0 0 0 -2298250190.9688339 -1224713475.6589165 0 -1224713475.6589165 -960947781.3943634 0 0 0 0 -87678271.071105957 151725327.85165405 0 151725327.85165405 49802222.777832031 0 0 0 0 26751769.025497437 4668411.4257164001 0 4668411.4257164001 -38301010.320068359 0 0 0 0 -270054048.87121582 89602962.945457458 0 89602962.945457458 57010363.294906616 0 0 0 0 -373789.36716783047 -1121135.5742142275 0 -1121135.5742142275 -33640.963781729341 0 0 0 0 -235056976.60404968 -92322900.792404175 0 -92322900.792404175 -61833648.191223145 0 0 0 0 -9011273.2088928223 -12796667.932373047 0 -12796667.932373047 -6202726.3164596558 0 0 0 0 -9017386.9893417358 -13268250.606872559 0 -13268250.606872559 -11165011.114593506 0 0 0 0 -1061285.0585021973 -19590426.110599518 0 -19590426.110599518 -8264900.7955169678 0 0 0 0 -6482162.484085083 -11951516.54523468 0 -11951516.54523468 -14561278.512176514 0 0 0 0 6033228.3783187866 -17734159.669715881 0 -17734159.669715881 -10026955.407821655 0 0 0 0 -1016751.1078643799 -14815704.095321655 0 -14815704.095321655 -11560323.631141663 0 0 0 0 2972710.8315048218 -20021395.232894897 0 -20021395.232894897 -9129038.9409179688 0 0 0 0 8797171.433807373 -20932889.302520752 0 -20932889.302520752 -9017722.8526000977 0 0 0 0 1864673.3129348755 -15193086.511543274 0 -15193086.511543274 -7438333.7641448975 0 0 0 0 -3099493.273363214 -8825189.3686393797 0 -8825189.3686393797 -2801345.8071828038 0 0 0 0 8591960.074508667 -17025509.594467163 0 -17025509.594467163 -12859631.289611816 0 0 0 0 -2606411.9965633228 -2175559.9006353319 0 -2175559.9006353319 1344386.4906567633 0 0 0 0 3535577.4177627563 -18162220.440044403 0 -18162220.440044403 -4547142.5605163574 0 0 0 0 -10178489.797331318 -16197309.174302399 0 -16197309.174302399 -8309171.4084895104 0 0 0 0 9202828.2412424088 -25348958.844049454 0 -25348958.844049454 -5069394.4071350098 0 0 0 0 -1188192.1756744385 -5590368.1460113525 0 -5590368.1460113525 602557.61993408203 0 0 0 0 -8167131.8522816636 -6013742.8246389553 0 -6013742.8246389553 9172780.5809844807 0 0 0 0 561806.0071105957 -4919881.3875427246 0 -4919881.3875427246 5012480.874671936 0 0 0 0 -124614.69787597656 -2295380.4228515625 0 -2295380.4228515625 6991433.5442199707 0 0 0 0 -2643033.126373291 -8342627.2291870117 0 -8342627.2291870117 4473682.4616699219 0 0 0 0 -9462115.1774139404 -5772492.803314209 0 -5772492.803314209 13563378.692230225 0 0 0 0 -5802313.6639404297 -4019306.0004806519 0 -4019306.0004806519 993368.57263183594 0 0 0 0 -50217347.035766602 -57783460.635986328 0 -57783460.635986328 -147318942.88163757 0 0 0 0 -50217347.035644531 -57783460.636474609 0 -57783460.636474609 -147318942.88179016 0 0 0 0 -50217347.035583496 -57783460.636444092 0 -57783460.636444092 -147318942.88192749 0 0 0 0 -2374168.7216001116 -4215997.4464819115 0 -4215997.4464819115 2904573.3305303752 0 0 0 0 -51713852.525787354 -48751129.33757019 0 -48751129.33757019 -31161475.547348022 0 0 0 0 -1087931.7254347652 -6219956.5892369822 0 -6219956.5892369822 -42807.397560603917 0 0 0 0 -89937926.753295898 -59659650.694061279 0 -59659650.694061279 -17917101.25163269 0 0 0 0 -53596965.576095581 -38584039.044952393 0 -38584039.044952393 -77489516.323364258 0 0 0 0 -89315976.727371216 -91001131.416992188 0 -91001131.416992188 -87953829.223815918 0 0 0 0 -54863258.78027916 -28116735.015642166 0 -28116735.015642166 1489641.1578216553 0 0 0 0 -59518469.06338501 -33994054.358970642 0 -33994054.358970642 8453008.3148040771 0 0 0 0 -70863705.828323364 -53626646.729476929 0 -53626646.729476929 -19808253.567146301 0 0 0 0 -39100847.306053162 -20834611.792737961 0 -20834611.792737961 -585639.75358581543 0 0 0 0 -32100460.717002869 -13285616.724563599 0 -13285616.724563599 6391499.2569618225 0 0 0 0 -34346031.996734619 -26984479.226066589 0 -26984479.226066589 -13694627.143825531 0 0 0 0 -12876483.058448792 -24752267.278663635 0 -24752267.278663635 -3374236.107925415 0 0 0 0 -1335449.577048704 -10541643.945014462 0 -10541643.945014462 -3713931.090542227 0 0 0 0 -36889848.132423401 -35138687.226085663 0 -35138687.226085663 -10047426.094543457 0 0 0 0 -41803105.77734375 -47432548.810562134 0 -47432548.810562134 -31055045.423885345 0 0 0 0 -11758833.189540863 -11048981.068172455 0 -11048981.068172455 -8579972.3026123047 0 0 0 0 -16034785.06791687 -15148351.201904297 0 -15148351.201904297 -3920818.3441925049 0 0 0 0 -9279973.6345214844 -20141593.27281189 0 -20141593.27281189 -755562.42346191406 0 0 0 0 -5922355.5587348938 -14885900.628002167 0 -14885900.628002167 -7516676.3048095703 0 0 0 0 -9801266.8197937012 -10608964.519142151 0 -10608964.519142151 -8337991.8239822388 0 0 0 0 -9811940.9806900024 -10310065.231193542 0 -10310065.231193542 -8495575.4543380737 0 0 0 0 -9791515.7022323608 -10698568.020690918 0 -10698568.020690918 -10100825.706253052 0 0 0 0 25005633.347766876 -13479553.513839722 0 -13479553.513839722 -20369135.88306427 0 0 0 0 -11181509.309863064 -3960876.1016117223 0 -3960876.1016117223 65537.383398860693 0 0 0 0 -22376145.590698004 -11655280.652484417 0 -11655280.652484417 9192512.9569396973 0 0 0 0 -10345021.150482178 -11127768.661643982 0 -11127768.661643982 -6430259.3264846802 0 0 0 0 -5508532.2307777405 -28594231.980784416 0 -28594231.980784416 -4608975.2741394043 0 0 0 0 -7845961.2009030618 -10604084.543477081 0 -10604084.543477081 -7298537.260225296 0 0 0 0 -32700413.39466095 -22683172.182739258 0 -22683172.182739258 -5247989.0306854248 0 0 0 0 -5400414.7456284836 -10571646.026156202 0 -10571646.026156202 -5109470.8545657247 0 0 0 0 -17657624.558704235 -14878837.722757641 0 -14878837.722757641 -3900798.3727425113 0 0 0 0 -23111433.253723145 -18251043.131080627 0 -18251043.131080627 -2421000.3778381348 0 0 0 0 -31482554.12677002 -20850825.141975403 0 -20850825.141975403 -6605892.3735046387 0 0 0 0 -29091845.280618668 -12275244.774503708 0 -12275244.774503708 1739077.0269317627 0 0 0 0 -15749709.789270099 -2715723.968218714 0 -2715723.968218714 4137007.1650675163 0 0 0 0 -29474175.524726868 -1710219.1173477173 0 -1710219.1173477173 9334638.9442749023 0 0 0 0 -13032398.778057098 -3450119.2261352539 0 -3450119.2261352539 1611114.8952331543 0 0 0 0 -11660164.34954834 -5446132.9354858398 0 -5446132.9354858398 943114.13580322266 0 0 0 0 -12949161.501370847 -2239242.6632402427 0 -2239242.6632402427 2662372.1832397431 0 0 0 0 -1073288.0912559293 934030.52517822385 0 934030.52517822385 1148471.5848622546 0 0 0 0 27700289.132492065 -74882097.619270325 0 -74882097.619270325 -272406093.82870483 0 0 0 0 -123555421.5479126 -78280844.799865723 0 -78280844.799865723 365957917.40431213 0 0 0 0 -433091006.9087677 -84538317.192337036 0 -84538317.192337036 -167136505.50782776 0 0 0 0 -868446131.30073547 -359470747.43122864 0 -359470747.43122864 -626706.9556427002 0 0 0 0 -113369400.32175064 -173846077.46776581 0 -173846077.46776581 -513830518.74281311 0 0 0 0 -117653770.29132843 -626059651.58427048 0 -626059651.58427048 -1059542306.4637451 0 0 0 0 -155969657.54621506 -254486171.69085693 0 -254486171.69085693 -87145532.073471069 0 0 0 0 -100979330.27074242 172270445.7853241 0 172270445.7853241 -60629922.409698486 0 0 0 0 -28110536.67375946 -23257491.235847473 0 -23257491.235847473 -6833140.1392669678 0 0 0 0 -53791299.672424316 -9488482.064239502 0 -9488482.064239502 46559131.885070801 0 0 0 0 -8895923.9944771864 -4319736.3879330903 0 -4319736.3879330903 2631705.0341470614 0 0 0 0 -4951046.3510136828 -1719607.5565582588 0 -1719607.5565582588 1500054.2197903916 0 0 0 0 -7769207.7702407837 -26756959.502166748 0 -26756959.502166748 1491232.4447479248 0 0 0 0 13072591.439266205 5241251.0187759399 0 5241251.0187759399 -48695796.873062134 0 0 0 0 -47106353.006454468 -32112367.731407166 0 -32112367.731407166 9523439.2012176514 0 0 0 0 -52271665.879890442 -61925398.739700317 0 -61925398.739700317 -39607807.192489624 0 0 0 0 11953335.973278046 -40673776.029821396 0 -40673776.029821396 -247098.26916503906 0 0 0 0 -6271427.1644001082 -2810365.4673716947 0 -2810365.4673716947 2251914.5357453451 0 0 0 0 -70895917.187568665 2928255.0325469971 0 2928255.0325469971 -88641.081967712715 0 0 0 0 -24085112.645240784 -3853344.0001144409 0 -3853344.0001144409 -9159985.8991546631 0 0 0 0 -56679169.319052696 -6432216.6970176697 0 -6432216.6970176697 9019325.0289306641 0 0 0 0 -2326474932.1146264 -1419517291.2292271 0 -1419517291.2292271 -401724166.95591736 0 0 0 0 -2338028966.1930389 -1304156209.1253052 0 -1304156209.1253052 -343522049.83892059 0 0 0 0 -2316601422.2443619 -1513899520.3376808 0 -1513899520.3376808 -620091233.77720642 0 0 0 0 -3064674032.6720543 -1556427761.4909058 0 -1556427761.4909058 -518395145.54853821 0 0 0 0 -2457592684.3173466 -1099585488.1231499 0 -1099585488.1231499 -222036238.47857666 0 0 0 0 -2081740479.9038315 -1856930605.9542542 0 -1856930605.9542542 -1952379576.3766379 0 0 0 0 -1806384048.7154522 -1250263555.1617756 0 -1250263555.1617756 -768521887.1791687 0 0 0 0 -14671578.651920892 3088268.2377920002 0 3088268.2377920002 -480890.29053426534 0 0 0 0 -12503800.821868896 -7813429.228767395 0 -7813429.228767395 -2261953.9352264404 0 0 0 0 -7047011.4712712169 -8580043.1326721311 0 -8580043.1326721311 1442121.2514151484 0 0 0 0 -14718740.898168102 -4465872.1777796894 0 -4465872.1777796894 4358177.414547883 0 0 0 0 -5553735.0547187263 -574357.53640098497 0 -574357.53640098497 -4456271.6613102555 0 0 0 0 -22343660.221138 -23664554.781188965 0 -23664554.781188965 59514477.516265869 0 0 0 0 -1539171015.3108463 -846564910.07943153 0 -846564910.07943153 -441546451.67297363 0 0 0 0 -2090940883.0889206 -1344087952.9628906 0 -1344087952.9628906 -767118274.79210782 0 0 0 0 -2346989738.748909 -1303886576.9152832 0 -1303886576.9152832 -376260330.01683807 0 0 0 0 -2353241014.1523666 -1359920290.6449814 0 -1359920290.6449814 -614779229.94189453 0 0 0 0 -2438756874.6046143 -1033757738.4579163 0 -1033757738.4579163 -489915910.15867615 0 0 0 0 -3418941349.7991104 -1545122636.3170624 0 -1545122636.3170624 -462988127.10102844 0 0 0 0 218435062.92235565 -67097811.563919067 0 -67097811.563919067 -396310929.49130249 0 0 0 0 -2060535.106190471 330270.45944774523 0 330270.45944774523 -1351255.667949006 0 0 0 0 -101874493.45241356 -157330871.03759193 0 -157330871.03759193 126927763.75393677 0 0 0 0 -2713333455.6674042 -1051964928.0458679 0 -1051964928.0458679 -336624850.68117523 0 0 0 0 -2517704357.3109741 -1421553180.9012299 0 -1421553180.9012299 -1021982661.3621368 0 0 0 0 -2144995339.0945129 -1123724349.5875397 0 -1123724349.5875397 -315295035.51423645 0 0 0 0 -2134360414.7574372 -728636747.47524762 0 -728636747.47524762 -688465758.83157349 0 0 0 0 -2571342903.4780655 -906871605.04177856 0 -906871605.04177856 -345319.96220397949 0 0 0 0 -2359665513.5033035 -1108842885.9699249 0 -1108842885.9699249 -421197065.99824524 0 0 0 0 -2204063789.6249886 -1288174327.3586655 0 -1288174327.3586655 407977.79989624023 0 0 0 0 -2353819652.9628334 -1080565237.4179783 0 -1080565237.4179783 -284460273.93229675 0 0 0 0 -2123006115.5830765 -1289351355.3488617 0 -1289351355.3488617 -377366821.42433167 0 0 0 0 -2303555123.4826889 -1366633226.8283157 0 -1366633226.8283157 -285623283.42327881 0 0 0 0 -2217709274.016861 -1209036398.1153603 0 -1209036398.1153603 -168532186.70877075 0 0 0 0 -1867270068.4469223 -1075505288.4996719 0 -1075505288.4996719 -251513943.25904846 0 0 0 0 -1574289654.8878021 -1425222872.0685501 0 -1425222872.0685501 -2347777.7255593678 0 0 0 0 -890590949.58095932 -964056253.56315231 0 -964056253.56315231 -538064559.50587463 0 0 0 0 -1183927132.0198364 -879030461.13175201 0 -879030461.13175201 -523164053.66945076 0 0 0 0 -1756210965.4243622 -1145598181.0679779 0 -1145598181.0679779 -363708464.65484619 0 0 0 0 -1777064435.9735031 -806972442.86552429 0 -806972442.86552429 -212216495.31576538 0 0 0 0 -1503155307.9112892 -944267418.06590271 0 -944267418.06590271 -390904085.84211731 0 0 0 0 -2137252582.0660934 -1436485892.3903427 0 -1436485892.3903427 -693483628.81278229 0 0 0 0 -2106227780.0492935 -1125443281.0383682 0 -1125443281.0383682 -22754395.738929749 0 0 0 0 -233517080.26341248 -907174661.54582214 0 -907174661.54582214 187903697.68622589 0 0 0 0 463972990.97627825 -254209820.41177291 0 -254209820.41177291 786721697.0725708 0 0 0 0 -1434786068.6141911 -628576022.66675186 0 -628576022.66675186 252221766.1390686 0 0 0 0 -1480643104.066391 -1170632413.5585709 0 -1170632413.5585709 -16362798.683021545 0 0 0 0 -1105720147.4900856 -587129216.53401279 0 -587129216.53401279 -328960175.59315491 0 0 0 0 -825547170.97085571 -559248670.82309723 0 -559248670.82309723 -340125281.12770081 0 0 0 0 -825934595.46072769 -473801274.50650024 0 -473801274.50650024 325304410.7077179 0 0 0 0 -240498319.28006744 -153432951.93066406 0 -153432951.93066406 -467469712.4826355 0 0 0 0 -1710208.9772952721 -3024529.762350291 0 -3024529.762350291 2642538.4958499819 0 0 0 0 -428755686.88717651 -371341704.1960144 0 -371341704.1960144 -532231.37996673584 0 0 0 0 -540375192.63523269 -584614355.72187662 0 -584614355.72187662 -729640143.41697693 0 0 0 0 -542125890.0734024 -557112446.50592804 0 -557112446.50592804 -639582086.2610321 0 0 0 0 -872389513.60002518 -944229330.42712975 0 -944229330.42712975 -1007877366.392746 0 0 0 0 -3113596.4639797732 -2570973.7201030254 0 -2570973.7201030254 2224680.2115693241 0 0 0 0 -426358780.788311 -645267483.17458344 0 -645267483.17458344 -641843475.33525085 0 0 0 0 270102778.38715363 -935098219.81856918 0 -935098219.81856918 -493212.85754394531 0 0 0 0 -696869799.0145874 -259734157.88583374 0 -259734157.88583374 -446651819.95368958 0 0 0 0 319444558.28352737 -768079043.17181778 0 -768079043.17181778 397614634.4074707 0 0 0 0 610408041.6744957 -1109617032.478508 0 -1109617032.478508 -190499669.38206482 0 0 0 0 349895732.3742218 -1132588804.0209885 0 -1132588804.0209885 444992412.71954346 0 0 0 0 920135022.10888672 -558139779.10024261 0 -558139779.10024261 -2722851843.1750793 0 0 0 0 783851974.52622986 -2342304406.8591537 0 -2342304406.8591537 1682229964.4647675 0 0 0 0 404814.22439276427 -3334686.6033702902 0 -3334686.6033702902 -1248769.5508199036 0 0 0 0 92205968.743789673 -1261084058.6752014 0 -1261084058.6752014 191078794.34778595 0 0 0 0 659662445.54751587 -1251728254.0251617 0 -1251728254.0251617 -1066789045.0489197 0 0 0 0 606168374.1194458 -2038304231.8999023 0 -2038304231.8999023 -852848073.26824951 0 0 0 0 26242940.381912231 -687437443.04174805 0 -687437443.04174805 -11704017.200790405 0 0 0 0 34121889.798980713 -1048630037.2340851 0 -1048630037.2340851 803258970.65454102 0 0 0 0 -223423053.40407562 -168973351.97548676 0 -168973351.97548676 -346786390.36560059 0 0 0 0 -316105738.39920807 -930979537.59898376 0 -930979537.59898376 746251627.41049194 0 0 0 0 32011641.756469727 -1242239582.1377106 0 -1242239582.1377106 859527387.49261475 0 0 0 0 -686135.87889587879 -1657529.3537256494 0 -1657529.3537256494 1536810.9947065786 0 0 0 0 505163996.49853516 -1518157976.034256 0 -1518157976.034256 577350345.50521851 0 0 0 0 514019422.80992126 -1514229184.1933746 0 -1514229184.1933746 654209547.24316406 0 0 0 0 532940427.14793396 -1638963571.1281357 0 -1638963571.1281357 -859666725.29545212 0 0 0 0 183896250.31939697 -1856426876.208725 0 -1856426876.208725 242865961.57647705 0 0 0 0 1235334954.9107666 -1357742299.0584717 0 -1357742299.0584717 289666661.3706665 0 0 0 0 668370290.38970947 -1843112297.6088867 0 -1843112297.6088867 876389721.57845306 0 0 0 0 812515346.43157959 -1763026240.9981079 0 -1763026240.9981079 362102969.72952652 0 0 0 0 1183219007.7455673 -2035229571.4341764 0 -2035229571.4341764 346250875.69750977 0 0 0 0 901776993.40282822 -1519847613.3770294 0 -1519847613.3770294 199887150.21450806 0 0 0 0 931045820.84700012 -1611290914.5688324 0 -1611290914.5688324 109419523.27026367 0 0 0 0 797354331.62194824 -1859222463.456665 0 -1859222463.456665 -119808400.29931641 0 0 0 0 822789422.38922119 -1486859892.210144 0 -1486859892.210144 -290829799.61579895 0 0 0 0 874819532.84484863 -1645140153.9905396 0 -1645140153.9905396 127729980.78179932 0 0 0 0 561285769.49458313 -1451617353.224472 0 -1451617353.224472 -17469852.866088867 0 0 0 0 788884658.61746216 -1403885581.9877777 0 -1403885581.9877777 -80484417.16973877 0 0 0 0 803547376.03039551 -1288464066.1267242 0 -1288464066.1267242 55703144.936153412 0 0 0 0 856885474.44929504 -1494310597.5358505 0 -1494310597.5358505 602844327.71008301 0 0 0 0 1050256391.9844818 -1423376036.8970947 0 -1423376036.8970947 198394013.13516235 0 0 0 0 708847946.10374832 -1024011093.6895485 0 -1024011093.6895485 943953459.0206604 0 0 0 0 519897817.5377202 -957237604.31510639 0 -957237604.31510639 194274236.90594482 0 0 0 0 475591999.77079773 -1356974572.3943939 0 -1356974572.3943939 478690209.14888763 0 0 0 0 906899699.5632782 -2022019746.9397392 0 -2022019746.9397392 2987610557.6268005 0 0 0 0 1860622133.7891617 -1613549763.5859756 0 -1613549763.5859756 749309218.78850746 0 0 0 0 696001540.5823822 -1136341750.9778595 0 -1136341750.9778595 668418242.98247337 0 0 0 0 526646500.03386307 -1481251191.818428 0 -1481251191.818428 964478736.44923401 0 0 0 0 123544699.05050659 28710729.1717453 0 28710729.1717453 -139658047.44477844 0 0 0 0 3826202.7580224499 -4171779.7565726042 0 -4171779.7565726042 -626743.34290490299 0 0 0 0 -108111480.25320435 -515878405.02100372 0 -515878405.02100372 4610190637.6450806 0 0 0 0 -31694273.015083313 -129975661.95370865 0 -129975661.95370865 1501559884.8369446 0 0 0 0 -44434261.109957695 -865107417.00121641 0 -865107417.00121641 838360178.05044556 0 0 0 0 600875539.46072388 -734296174.96741486 0 -734296174.96741486 598524595.02516937 0 0 0 0 -35167299.703994751 -747034189.57810974 0 -747034189.57810974 1884603130.157135 0 0 0 0 68909448.779144287 -397737531.09552002 0 -397737531.09552002 1152866649.82724 0 0 0 0 9363809.7807283998 -15920174.63792941 0 -15920174.63792941 -2104456.5521385074 0 0 0 0 90117672.873680115 -4617068.0904083252 0 -4617068.0904083252 -6459009.1981506348 0 0 0 0 -4031210.1532937512 -13623942.267701821 0 -13623942.267701821 -9324367.1175960898 0 0 0 0 186831998.72322083 -449690192.26869965 0 -449690192.26869965 1023400178.3391724 0 0 0 0 -18124095.642501831 -12928767.192071915 0 -12928767.192071915 31184718.923599243 0 0 0 0 -2235413.6643843502 -8777677.3588544279 0 -8777677.3588544279 -1109018.3108500801 0 0 0 0 -21428804.90586853 -28672839.754714966 0 -28672839.754714966 18920930.456100464 0 0 0 0 -32401391.355903625 -21657913.123847961 0 -21657913.123847961 50728386.101654053 0 0 0 0 -10686892.958000183 -24995974.745603561 0 -24995974.745603561 -1319646.8547973633 0 0 0 0 -17053166.251508385 -17322594.890495919 0 -17322594.890495919 -1476023.0985774398 0 0 0 0 18084441.906555176 -122860529.62917328 0 -122860529.62917328 -26630394.29032135 0 0 0 0 -3166206.3491378203 -15549086.137111247 0 -15549086.137111247 -1822434.3617463633 0 0 0 0 -999976410.37876892 -1815208019.6381912 0 -1815208019.6381912 -2462197760.808548 0 0 0 0 -14237941.932495117 -40939321.092140198 0 -40939321.092140198 -13041484.995811462 0 0 0 0 -568789887.54223633 -1271360054.6785126 0 -1271360054.6785126 -2307493584.1924133 0 0 0 0 -1165571.4240570813 -409612.9869017303 0 -409612.9869017303 1037114.8906180412 0 0 0 0 394887777.53112793 -1365074095.3512878 0 -1365074095.3512878 -4930288624.1202393 0 0 0 0 354536305.5870533 -160398435.44334793 0 -160398435.44334793 -9769172.1079711914 0 0 0 0 -20552792.614227295 -43403093.132385254 0 -43403093.132385254 83702121.529174805 0 0 0 0 -19024637.71572607 -6530641.2773162574 0 -6530641.2773162574 3609515.7026690282 0 0 0 0 -976686245.77546692 -1608119702.3876648 0 -1608119702.3876648 -3713881589.1002045 0 0 0 0 -814551721.63012695 -1983419828.8670654 0 -1983419828.8670654 -4851493216.0632629 0 0 0 0 -923169306.34870911 -2507973670.2541351 0 -2507973670.2541351 -4408022533.7979584 0 0 0 0 -1531405847.5467415 -2084164645.2341156 0 -2084164645.2341156 -3422028440.8199768 0 0 0 0 606642933.84582424 -1435116130.8089209 0 -1435116130.8089209 2143391192.381134 0 0 0 0 -1079989470.722847 -3562937742.9918365 0 -3562937742.9918365 -7350443650.4620361 0 0 0 0 -5339579.1767413318 -2185619.6870625094 0 -2185619.6870625094 390190.41526454687 0 0 0 0 -1729431103.9343071 -2063054959.0393639 0 -2063054959.0393639 -1555868679.4772797 0 0 0 0 -1056442679.5811462 -1196555935.2851257 0 -1196555935.2851257 -1441251014.770134 0 0 0 0 -2675148007.5366592 -3227664723.6027565 0 -3227664723.6027565 -2422134407.6635132 0 0 0 0 -932025299.1317749 -2128573373.7955551 0 -2128573373.7955551 -3335313603.1591797 0 0 0 0 -1089321629.1700439 -1981389878.5968399 0 -1981389878.5968399 -2078014949.6811981 0 0 0 0 -897468974.6571579 -1311304527.069252 0 -1311304527.069252 -886524372.9380188 0 0 0 0 -856335434.12316895 -1192873963.2848206 0 -1192873963.2848206 -1074071996.904892 0 0 0 0 -1638309375.9318237 -2038261978.482399 0 -2038261978.482399 -1136124673.7229805 0 0 0 0 -1335800302.7004547 -2310824037.8626938 0 -2310824037.8626938 -1668799784.6330757 0 0 0 0 -1326699440.6671181 -2219422525.2235889 0 -2219422525.2235889 -1058847335.5748596 0 0 0 0 -1906360311.8861771 -1510629240.3981628 0 -1510629240.3981628 -1416956397.6264801 0 0 0 0 -1929110266.9705963 -1896670682.4915695 0 -1896670682.4915695 -793468028.53480911 0 0 0 0 -1944220675.9265442 -2297185908.874321 0 -2297185908.874321 73519171.714553833 0 0 0 0 -1618169167.8316727 -1003544419.0445404 0 -1003544419.0445404 -197560371.38548279 0 0 0 0 -1340156048.5183983 -746012352.15125275 0 -746012352.15125275 930590507.49313354 0 0 0 0 1309866613.3436775 184624213.01311493 0 184624213.01311493 1795397361.5743713 0 0 0 0 -470866742.5135498 -746015120.77880859 0 -746015120.77880859 511519796.20788574 0 0 0 0 -461684421.11509705 -1188155918.721756 0 -1188155918.721756 909949584.03614426 0 0 0 0 -1697223587.5620422 -1736960893.9983292 0 -1736960893.9983292 2981790289.7193146 0 0 0 0 -1699623916.5942612 -2743026992.9321747 0 -2743026992.9321747 -1045655327.741272 0 0 0 0 -2133772973.8554573 -2628369777.9854355 0 -2628369777.9854355 1680627898.6159973 0 0 0 0 -156805720.34189606 -1901887936.6893616 0 -1901887936.6893616 554848.56123352051 0 0 0 0 -191470.47671508789 -2214662986.6652403 0 -2214662986.6652403 -1929198461.7667313 0 0 0 0 -166371576.63389587 -1255408976.0683823 0 -1255408976.0683823 -911594356.59352112 0 0 0 0 -329735719.50559878 -445854929.55899096 0 -445854929.55899096 2250044787.1560364 0 0 0 0 -1408318868.0844688 -4480346758.473856 0 -4480346758.473856 -2333994083.8448639 0 0 0 0 897542608.89274597 -180759315.97667694 0 -180759315.97667694 -2198416023.0205231 0 0 0 0 -2152443.9155769497 -2981646.3775151893 0 -2981646.3775151893 -1652511.9170745015 0 0 0 0 1702990132.2102737 -1283723556.625515 0 -1283723556.625515 -398560949.53225708 0 0 0 0 -5748989.8956288844 -6774800.0595300458 0 -6774800.0595300458 -3330587.0941656679 0 0 0 0 836534868.8081131 -1715466671.3608971 0 -1715466671.3608971 1179299152.4368439 0 0 0 0 -382758135.01902008 -2249077559.8105855 0 -2249077559.8105855 1817521524.8303528 0 0 0 0 888957350.94511414 -709480095.60168457 0 -709480095.60168457 -754272353.5819931 0 0 0 0 980788914.48066711 -2244600150.9956665 0 -2244600150.9956665 -2759000133.6794434 0 0 0 0 -3430937.4600390941 -3897134.8804983031 0 -3897134.8804983031 -1879584.6633309573 0 0 0 0 -109678603.7175293 -3266995298.0120544 0 -3266995298.0120544 -3341113076.7365417 0 0 0 0 -2819650579.8492279 -2981251723.0962067 0 -2981251723.0962067 2962009817.1431046 0 0 0 0 -2777268055.6347351 -3296220509.2574081 0 -3296220509.2574081 -202695249.55026245 0 0 0 0 -2528352827.7481384 -2554384928.0448608 0 -2554384928.0448608 -1320057176.9553223 0 0 0 0 -1922500781.5125122 -536173087.4692688 0 -536173087.4692688 -1097150346.2330933 0 0 0 0 -2865850310.9017639 -2357009413.8891449 0 -2357009413.8891449 962828090.80484009 0 0 0 0 -3167333946.5302963 -2085618633.0461197 0 -2085618633.0461197 873853454.65097046 0 0 0 0 -2525707156.2787018 -2441190765.6406708 0 -2441190765.6406708 -131215105.2809906 0 0 0 0 -1406819817.687149 -858541716.89849854 0 -858541716.89849854 2080895070.5950279 0 0 0 0 -2158645866.7715511 -2693737946.7715249 0 -2693737946.7715249 -1760238367.5401764 0 0 0 0 -1105985495.0884857 -1381293471.3224144 0 -1381293471.3224144 -279464234.447855 0 0 0 0 -2319953026.3593445 -215618770.64204407 0 -215618770.64204407 -614636504.09655762 0 0 0 0 -327077043.63277435 -823663458.54973221 0 -823663458.54973221 -1632106.3572788432 0 0 0 0 -1502513.1403744966 -3380402.1422082037 0 -3380402.1422082037 -938747.40034501627 0 0 0 0 1033251782.1261444 -1181550820.0025101 0 -1181550820.0025101 324177141.23232269 0 0 0 0 1574983485.5547638 -955337083.84593201 0 -955337083.84593201 73072991.052307129 0 0 0 0 -1196553.8731437474 -6487936.9234966449 0 -6487936.9234966449 -2183311.2225337066 0 0 0 0 -5536473345.5230713 -2079792416.5780945 0 -2079792416.5780945 3273397692.4717026 0 0 0 0 1554572275.5488129 374911890.90618134 0 374911890.90618134 663224315.47938538 0 0 0 0 -1150881.883692354 -2994656.2985243481 0 -2994656.2985243481 -2934659.3717912659 0 0 0 0 -1415633419.3531799 -860123290.63486481 0 -860123290.63486481 109907250.02534485 0 0 0 0 -3707569583.0864944 -1255812122.6671066 0 -1255812122.6671066 145913487.33494568 0 0 0 0 844151313.27516174 -1173679388.7569962 0 -1173679388.7569962 261118378.61497724 0 0 0 0 1030873538.7875824 -771454812.89598083 0 -771454812.89598083 257892623.60647583 0 0 0 0 279169553.50326538 -162857249.92199707 0 -162857249.92199707 -41440380.584442139 0 0 0 0 -2787064.9637945443 -8458759.5666263234 0 -8458759.5666263234 -7517044.1036419272 0 0 0 0 119464948.49368286 168553267.06224823 0 168553267.06224823 -295834448.86467361 0 0 0 0 -219028803.81830597 26583633.752464294 0 26583633.752464294 -4871205.6273040771 0 0 0 0 20839747.819656372 158833860.56308746 0 158833860.56308746 -91889905.106674194 0 0 0 0 37004709.940055847 -27170652.80358696 0 -27170652.80358696 -114191540.61225891 0 0 0 0 66553505.67036438 39308193.817276001 0 39308193.817276001 -46121305.3490448 0 0 0 0 49581597.347473145 35147845.14994812 0 35147845.14994812 -31291985.702689171 0 0 0 0 -127391674.41137695 -333503401.46350098 0 -333503401.46350098 -902585605.87365723 0 0 0 0 -10430633.013763428 -70495421.395904541 0 -70495421.395904541 -47341446.861030579 0 0 0 0 -6841945.8829974234 -8993637.6378445774 0 -8993637.6378445774 -574944.12873319909 0 0 0 0 13708486.270828247 -17925200.430747986 0 -17925200.430747986 -14809890.667724609 0 0 0 0 -2853631.4361756593 -3453245.6806152519 0 -3453245.6806152519 -125190.92190488428 0 0 0 0 187487517.29450989 -187363817.97716522 0 -187363817.97716522 -116155772.90814209 0 0 0 0 -1180040.4081726074 -3353141.4903917313 0 -3353141.4903917313 35289.655120849609 0 0 0 0 38547516.965667725 64374278.615745544 0 64374278.615745544 -185773250.38428116 0 0 0 0 -64700452.083732605 -15327125.813655853 0 -15327125.813655853 160808865.71424866 0 0 0 0 -2071448.3527069092 92626833.573997498 0 92626833.573997498 141125938.92030334 0 0 0 0 -132866.80339671671 -1648788.8698925897 0 -1648788.8698925897 -769475.06350940093 0 0 0 0 -3461415.492586378 -2832771.4326651916 0 -2832771.4326651916 2573957.0540615171 0 0 0 0 -125181676.1494751 -114202813.81243134 0 -114202813.81243134 363600199.07849121 0 0 0 0 105950733.84237671 -15822746.342006683 0 -15822746.342006683 -227472251.51597595 0 0 0 0 -3686426.188984178 -4746580.9566066563 0 -4746580.9566066563 -1650398.8463478833 0 0 0 0 -24398438.584289551 -12193218.472442627 0 -12193218.472442627 22081257.633995056 0 0 0 0 379681350.88380432 -75429840.091690063 0 -75429840.091690063 5384017.9621200562 0 0 0 0 286174141.54673767 -324678024.18135834 0 -324678024.18135834 -320384498.26605225 0 0 0 0 -5769529.6511759311 -5969144.9178947639 0 -5969144.9178947639 -1877672.5270092636 0 0 0 0 -164585120.37941742 -174001378.79629517 0 -174001378.79629517 128791716.77534485 0 0 0 0 -529231194.23318481 46692511.982681274 0 46692511.982681274 28996043.964080811 0 0 0 0 166436497.78746033 -321931294.05226898 0 -321931294.05226898 -1288771545.8148193 0 0 0 0 -655512670.56126499 -1741228792.8478799 0 -1741228792.8478799 -2151905678.4586792 0 0 0 0 -22793704.307861328 122431558.58354187 0 122431558.58354187 -375938339.72839355 0 0 0 0 -752921254.17416382 -608041512.23832703 0 -608041512.23832703 -52569684.984218597 0 0 0 0 -881588747.62524414 -875062604.85783386 0 -875062604.85783386 -1252577778.2670898 0 0 0 0 -1045639.3485769928 -817488.86948623508 0 -817488.86948623508 422786.33878371119 0 0 0 0 -1747134469.0185394 -1486360418.9499817 0 -1486360418.9499817 -651914999.30804443 0 0 0 0 -1260825036.8686752 -2898334513.6896095 0 -2898334513.6896095 -2367829361.8479919 0 0 0 0 -3736529312.8884964 -2739292617.5794258 0 -2739292617.5794258 -1451545200.0722656 0 0 0 0 -473927146.06893921 -1760765033.7414856 0 -1760765033.7414856 -1183173093.4997253 0 0 0 0 38571765.414276123 -2124718267.1230621 0 -2124718267.1230621 -1942905102.2856979 0 0 0 0 -678284328.14659119 -2797638302.9805298 0 -2797638302.9805298 -2581344735.7891388 0 0 0 0 -694224810.58465576 -2577310380.4394531 0 -2577310380.4394531 -1995667687.5467377 0 0 0 0 50699433.393890381 -1984737192.797821 0 -1984737192.797821 -2453488727.9292755 0 0 0 0 220981587.26153564 -1228985975.9894867 0 -1228985975.9894867 -4695501456.6469879 0 0 0 0 -229893025.03118896 -2682790689.5508728 0 -2682790689.5508728 -3845411003.056488 0 0 0 0 2711539824.9733734 152795246.63451385 0 152795246.63451385 -4325221413.3995819 0 0 0 0 330685933.33883667 -1945125284.5896606 0 -1945125284.5896606 -3160440185.5550537 0 0 0 0 209901546.80175018 -1424649749.3147068 0 -1424649749.3147068 -2658353854.6372986 0 0 0 0 186042826.93295288 -668472984.69866943 0 -668472984.69866943 -3214837285.6959305 0 0 0 0 73783891.775238037 -397243875.14076233 0 -397243875.14076233 524035429.63233185 0 0 0 0 -615761431.43334961 -141679199.49674988 0 -141679199.49674988 441739768.02378845 0 0 0 0 -2085028.5881585181 -2351621.8132595271 0 -2351621.8132595271 -1231079.3272191957 0 0 0 0 -903039209.36306763 -1324844377.1250992 0 -1324844377.1250992 -339274328.96611023 0 0 0 0 840073636.50289917 -766108166.41680908 0 -766108166.41680908 -744282208.59827423 0 0 0 0 801212971.59661865 -60847163.918899536 0 -60847163.918899536 -185437704.59890747 0 0 0 0 1527865592.404007 -760985222.25819397 0 -760985222.25819397 -1456693528.7187119 0 0 0 0 -1305291290.3563957 -495748600.67607117 0 -495748600.67607117 1300903974.704422 0 0 0 0 193194.78011805995 -6296575.7343124822 0 -6296575.7343124822 -7798705.7496708184 0 0 0 0 -237479226.35703278 488166534.25099945 0 488166534.25099945 1394466491.3225555 0 0 0 0 123484.69564971491 -2517157.6701254025 0 -2517157.6701254025 -4268021.133461386 0 0 0 0 -2205627300.4722643 -2208326123.8317676 0 -2208326123.8317676 -1179123794.3443756 0 0 0 0 -283902713.90885925 -943626131.92150497 0 -943626131.92150497 -790788894.97983551 0 0 0 0 20006012.857366562 -332566984.03154039 0 -332566984.03154039 -3652296147.5591965 0 0 0 0 -1304833.1017189026 -708001822.6046257 0 -708001822.6046257 139960558.66719055 0 0 0 0 360381963.46099854 -532687166.83401871 0 -532687166.83401871 -636316698.41610718 0 0 0 0 375757310.39866638 -1323210307.2797756 0 -1323210307.2797756 50239068.819282532 0 0 0 0 1825116049.3187561 -263636618.12803268 0 -263636618.12803268 -194225775.30359459 0 0 0 0 241211913.21609497 -466982441.07684326 0 -466982441.07684326 -358944567.61488342 0 0 0 0 282740080.41365051 -592899714.77523041 0 -592899714.77523041 -32770769.899614334 0 0 0 0 -1278442721.371233 -693116421.46384978 0 -693116421.46384978 248597729.06599426 0 0 0 0 -531966612.5730896 399012149.56984711 0 399012149.56984711 -398556553.65560913 0 0 0 0 -1942301890.934288 -870883990.5769043 0 -870883990.5769043 624633546.98474884 0 0 0 0 -61072.455270907725 -6967249.3428983018 0 -6967249.3428983018 -4724481.8571980819 0 0 0 0 1207520676.3907928 356908678.84401321 0 356908678.84401321 134963831.99809265 0 0 0 0 -387946.52080574445 -3861197.3249835372 0 -3861197.3249835372 -4154142.4615559801 0 0 0 0 947869546.90951538 -99797624.0835495 0 -99797624.0835495 -185904337.57955933 0 0 0 0 1712876132.8010406 -188919380.67264175 0 -188919380.67264175 -443789941.47571564 0 0 0 0 833962700.71270752 163135517.69437408 0 163135517.69437408 571526640.17005157 0 0 0 0 762980249.23245239 594263301.44656372 0 594263301.44656372 -108149040.8802681 0 0 0 0 1183036996.3840332 -1120838795.5023308 0 -1120838795.5023308 -906019723.14051819 0 0 0 0 2118731993.1841259 -284921306.03151608 0 -284921306.03151608 -606450032.03361511 0 0 0 0 -373811.76040447876 -6999188.7794348374 0 -6999188.7794348374 -10332761.089349009 0 0 0 0 -122255.84348057234 -3319081.5638112128 0 -3319081.5638112128 -1195701.6942062229 0 0 0 0 -3372234512.7447205 -657821323.23578262 0 -657821323.23578262 837485747.59631348 0 0 0 0 -1120841352.0040588 -1976308026.5179901 0 -1976308026.5179901 465571900.17658234 0 0 0 0 -26545849.440643311 -597781179.38912582 0 -597781179.38912582 -1205879840.1862488 0 0 0 0 318349332.34507751 242668793.33013916 0 242668793.33013916 697598252.18836212 0 0 0 0 -1628160379.888031 -1992545856.8745499 0 -1992545856.8745499 -345325522.02554321 0 0 0 0 -1394109686.6230774 -1093817920.1230469 0 -1093817920.1230469 601475666.39243317 0 0 0 0 -729729370.18551636 -2401091414.5585022 0 -2401091414.5585022 -2073215158.7454033 0 0 0 0 -460654579.58421326 -1840811388.5282555 0 -1840811388.5282555 -1198305143.6888123 0 0 0 0 -1337623031.2849121 -3203471635.3724442 0 -3203471635.3724442 -2571306462.2611694 0 0 0 0 -561675584.43683624 -2212921610.1465282 0 -2212921610.1465282 -2713484612.0454559 0 0 0 0 -589719052.79425049 -2387194784.2996674 0 -2387194784.2996674 -3629518603.2660751 0 0 0 0 -839162508.28826141 -2622283890.5549326 0 -2622283890.5549326 -3042071694.1327209 0 0 0 0 -1980696133.1495514 -929974782.98916626 0 -929974782.98916626 -2690533881.1046143 0 0 0 0 -483395088.57879639 -804597016.39199066 0 -804597016.39199066 -1169828345.7167282 0 0 0 0 -677728970.53369141 -1924808719.8898621 0 -1924808719.8898621 -2056254708.5603638 0 0 0 0 -1630265151.1082458 -661686575.81667328 0 -661686575.81667328 -522442320.12489319 0 0 0 0 48825172.693984985 -1037377382.7906723 0 -1037377382.7906723 -1130033038.3336334 0 0 0 0 259423621.57373047 170381327.53265381 0 170381327.53265381 -410349171.72032166 0 0 0 0 709771462.77184296 -183747903.27487183 0 -183747903.27487183 -178173205.38735962 0 0 0 0 574624095.01602936 234529359.58243561 0 234529359.58243561 85876808.581726074 0 0 0 0 131984435.29109192 -155157318.3547821 0 -155157318.3547821 113170687.05703735 0 0 0 0 -491345.86609922349 -1583273.4105723351 0 -1583273.4105723351 -238781.15201161802 0 0 0 0 -98217671.304298401 13965381.563251495 0 13965381.563251495 51620202.657394409 0 0 0 0 -80775515.070152283 -392821238.31486988 0 -392821238.31486988 -1449346394.5911255 0 0 0 0 -1509682.2038935311 -1964898.2587031201 0 -1964898.2587031201 580725.52013540268 0 0 0 0 -688005230.56298828 -906836594.608284 0 -906836594.608284 -684657963.31201172 0 0 0 0 -591391358.04476929 -566960891.66325378 0 -566960891.66325378 -1743500029.2721329 0 0 0 0 -1559921679.2590027 -1832838332.3927155 0 -1832838332.3927155 -2073748879.8265228 0 0 0 0 -796543280.01358414 -1355049728.5517578 0 -1355049728.5517578 -2214683470.1241455 0 0 0 0 -975507767.76748657 -299013678.66532135 0 -299013678.66532135 312300580.15032959 0 0 0 0 -5087235.8027412295 -4950710.601619415 0 -4950710.601619415 -401561.43729934096 0 0 0 0 -357250812.44284058 397220035.05259705 0 397220035.05259705 342411217.83772945 0 0 0 0 -54069779.358001709 -793526563.29992676 0 -793526563.29992676 -1453917742.1455078 0 0 0 0 -787917861.56735229 -718884642.01148224 0 -718884642.01148224 -546163773.40293884 0 0 0 0 -277672545.70001221 -1204086539.8092346 0 -1204086539.8092346 -1052813583.7223511 0 0 0 0 484037325.39501953 -338831619.80910492 0 -338831619.80910492 -816584420.82489014 0 0 0 0 440238049.76391602 -857911547.09686279 0 -857911547.09686279 828023853.27246094 0 0 0 0 -272907.7418076545 292373.8452211488 0 292373.8452211488 532067.06195597723 0 0 0 0 -613207093.89440918 -925710193.87982178 0 -925710193.87982178 -951808037.92982101 0 0 0 0 -391166404.07269287 -1321302791.7051086 0 -1321302791.7051086 -1461270283.9249573 0 0 0 0 -822761714.76593018 -1262597257.2680054 0 -1262597257.2680054 -974014632.15731812 0 0 0 0 -897725034.21185303 -1110403404.2800217 0 -1110403404.2800217 -1257774081.5536194 0 0 0 0 -608085629.4928894 -1058067165.1094971 0 -1058067165.1094971 -1665063419.3890228 0 0 0 0 -801442626.15174866 -1699944578.0327911 0 -1699944578.0327911 -2098247938.5585938 0 0 0 0 -1000618766.5374451 -821167884.25520325 0 -821167884.25520325 -1354106939.6339417 0 0 0 0 -836571378.32086182 -1368583272.2656555 0 -1368583272.2656555 -2503354827.8913116 0 0 0 0 -1899021261.8473206 -1858856022.7762833 0 -1858856022.7762833 -2657067651.2130127 0 0 0 0 -944474209.65614319 -1427919564.9150085 0 -1427919564.9150085 -3817029944.3595581 0 0 0 0 -1621906027.8215332 -3476157325.2527084 0 -3476157325.2527084 -4636532935.4627647 0 0 0 0 -3040509739.6669617 -2393213455.0077667 0 -2393213455.0077667 -1777681427.2459869 0 0 0 0 -1183725185.2406006 -1426969669.5376892 0 -1426969669.5376892 -2727539666.734314 0 0 0 0 -1536768838.3650208 -1088096816.3587341 0 -1088096816.3587341 -1658023993.0862541 0 0 0 0 -5300928733.844574 -2339702380.5836182 0 -2339702380.5836182 -2271358564.4400024 0 0 0 0 -897496688.79058838 -2956703788.8998566 0 -2956703788.8998566 -4239035050.9084473 0 0 0 0 -2963311.1044845283 -2043088.009120591 0 -2043088.009120591 -531082.91864258051 0 0 0 0 -1095566958.5143127 245666415.75276947 0 245666415.75276947 2885768481.8673782 0 0 0 0 471764381.29614258 -3150481267.9712372 0 -3150481267.9712372 -8746470342.884613 0 0 0 0 -7847711.4258547425 -1555287.3968764618 0 -1555287.3968764618 -168166.2805783581 0 0 0 0 -9561993.0288391113 -156491789.77230072 0 -156491789.77230072 -456609276.58300781 0 0 0 0 -2895834038.282074 -1798969127.8833694 0 -1798969127.8833694 1241703489.4109268 0 0 0 0 -2589579676.0444946 -3704656390.9426575 0 -3704656390.9426575 -2707498930.1038666 0 0 0 0 -1809639957.9529266 -2685392378.3796616 0 -2685392378.3796616 -1380794176.1528473 0 0 0 0 4062238.2937954217 308129.94279545546 0 308129.94279545546 -2473224.5576630086 0 0 0 0 -761220416.50999451 -1259359854.8590927 0 -1259359854.8590927 -1457490155.5039673 0 0 0 0 -1366534365.3974152 -1023979292.3912201 0 -1023979292.3912201 -922835220.23275757 0 0 0 0 -157885198.00068283 -379010374.75449276 0 -379010374.75449276 -464755405.36699677 0 0 0 0 -93271379.904060364 -13310273.953913212 0 -13310273.953913212 -520450585.47593689 0 0 0 0 234679908.13122559 32665039.489944458 0 32665039.489944458 -466074360.60242081 0 0 0 0 1056519532.1961212 -704762919.37378311 0 -704762919.37378311 -393881060.62525177 0 0 0 0 330392547.54284668 -606285222.81155777 0 -606285222.81155777 -1000142960.8495178 0 0 0 0 -193184952.82351685 -884432774.54440308 0 -884432774.54440308 659618674.264328 0 0 0 0 -408147336.30129242 -726281881.88625526 0 -726281881.88625526 596274948.44010925 0 0 0 0 75559371.300094604 -1276070426.7976151 0 -1276070426.7976151 602590577.56547546 0 0 0 0 -79572455.537689209 -1531930776.6769257 0 -1531930776.6769257 -2628862449.4732285 0 0 0 0 1944531.1516192853 209648.0658961907 0 209648.0658961907 -1342813.5976884291 0 0 0 0 -472248512.61858368 -878908066.67158318 0 -878908066.67158318 1413283354.9469757 0 0 0 0 265017605.77716064 -1913604923.6552124 0 -1913604923.6552124 -2245628674.649231 0 0 0 0 156054265.5295105 -1291262236.0165138 0 -1291262236.0165138 -2683715894.3932648 0 0 0 0 1174948148.1021118 -2216547182.8538132 0 -2216547182.8538132 -3411856228.9407482 0 0 0 0 79089907.495880127 -2003387366.1184464 0 -2003387366.1184464 -4667743592.9892578 0 0 0 0 -813058152.58618164 -2324495452.1632462 0 -2324495452.1632462 -3413777770.4919128 0 0 0 0 -181142119.95645142 -1917560555.6425629 0 -1917560555.6425629 -3154571567.6197968 0 0 0 0 -10497781.57472229 -1615015898.6418228 0 -1615015898.6418228 -3301039992.4685364 0 0 0 0 -408660517.35980225 -1477094578.8106842 0 -1477094578.8106842 -2601703771.905674 0 0 0 0 -708121905.39013672 -1709406788.9701729 0 -1709406788.9701729 -2742914607.8861389 0 0 0 0 -472136205.17127037 -2114842690.4072771 0 -2114842690.4072771 -2332918782.6661682 0 0 0 0 -809785309.64227295 -2683883702.2262573 0 -2683883702.2262573 -2737904798.3299942 0 0 0 0 -874742752.20838928 -2844857214.4556808 0 -2844857214.4556808 -3135585638.046463 0 0 0 0 -547904241.81945801 -2779435272.6210251 0 -2779435272.6210251 -2818365896.8655548 0 0 0 0 -521711332.25262451 -2785814550.0311203 0 -2785814550.0311203 -2896747675.3423462 0 0 0 0 -526262202.98123169 -2743482211.0314789 0 -2743482211.0314789 -3239158638.6417313 0 0 0 0 -695644654.1231885 -3012702358.6744299 0 -3012702358.6744299 -3639024911.3285217 0 0 0 0 -442538950.09257889 -2279591193.157546 0 -2279591193.157546 -3617133001.647583 0 0 0 0 2522815558.0666504 -218667309.71721268 0 -218667309.71721268 -2399747572.6275635 0 0 0 0 -305597.14025520161 -3957390.0079774261 0 -3957390.0079774261 -6001403.6533824578 0 0 0 0 -2350764311.4165344 -3090419499.8492088 0 -3090419499.8492088 -2002460431.322937 0 0 0 0 739620418.68754578 -1822877043.5413837 0 -1822877043.5413837 -3842192918.1668854 0 0 0 0 -701230830.39129877 -3217791514.8790293 0 -3217791514.8790293 -5325395872.4462891 0 0 0 0 282360800.02960968 -323170817.30009079 0 -323170817.30009079 -1276254287.9472275 0 0 0 0 1339680636.9581299 -559211866.8181076 0 -559211866.8181076 -3287440489.1131592 0 0 0 0 -1427624695.0250206 -2087864160.0274038 0 -2087864160.0274038 -2519841463.2553406 0 0 0 0 512823556.96896362 -1589898140.9153557 0 -1589898140.9153557 -3427142591.0413132 0 0 0 0 -5816138.6884155273 -1450067924.3341217 0 -1450067924.3341217 -3011201295.6034813 0 0 0 0 -1054681361.4750671 -3209123890.7653732 0 -3209123890.7653732 -3820204584.078207 0 0 0 0 -597647355.94870758 -3018119949.3520432 0 -3018119949.3520432 -4302180978.5467682 0 0 0 0 -3052492432.0534668 -2466021800.2178497 0 -2466021800.2178497 -3852923490.8424072 0 0 0 0 -2032751359.3526001 -1066194830.0910187 0 -1066194830.0910187 -4708709948.7699203 0 0 0 0 1038940.5736443214 -3692432.9010596052 0 -3692432.9010596052 -2318654.0170476586 0 0 0 0 390484685.69521523 -665364340.17552137 0 -665364340.17552137 689889349.16282654 0 0 0 0 -3703471505.5845871 -3117479006.2658844 0 -3117479006.2658844 -1876422006.1753693 0 0 0 0 1908346933.4665375 -897160714.93240547 0 -897160714.93240547 -2080095352.1000366 0 0 0 0 -103505473.18490601 -106432539.9623642 0 -106432539.9623642 246009881.76583862 0 0 0 0 124635439.48724365 -438440518.94735336 0 -438440518.94735336 -531158063.07553864 0 0 0 0 -2366002049.8551941 -1370762136.3432465 0 -1370762136.3432465 -734188972.18065453 0 0 0 0 -806432500.24872589 -2238729335.8512001 0 -2238729335.8512001 -2601227917.218338 0 0 0 0 -168990602.15416908 -1610804180.2356448 0 -1610804180.2356448 -1729676878.4934311 0 0 0 0 -245464294.67055511 -1333182630.8356953 0 -1333182630.8356953 -1247954047.3647385 0 0 0 0 1459744.1415728966 -1074909990.2953687 0 -1074909990.2953687 -1359419826.2245331 0 0 0 0 227947711.68888855 -1065999194.5129089 0 -1065999194.5129089 -2194470642.0429516 0 0 0 0 100970624.77009583 -1265821116.0582561 0 -1265821116.0582561 -2320640907.6210022 0 0 0 0 183684393.24746704 -313607764.45944214 0 -313607764.45944214 522444923.48956299 0 0 0 0 -2360902.9562883601 -6104886.0040454641 0 -6104886.0040454641 490561.98397343978 0 0 0 0 -55967786.193511695 -2541996.8820293695 0 -2541996.8820293695 7382753.6613569576 0 0 0 0 -1049468111.1425476 -670647150.69566345 0 -670647150.69566345 -677231342.23475647 0 0 0 0 -85470208.199432373 87476.006591796875 0 87476.006591796875 -5024976.3312835693 0 0 0 0 -117983946.32147217 14756860.916824341 0 14756860.916824341 17031674.717056274 0 0 0 0 -100287960.4957428 -13795366.85459137 0 -13795366.85459137 63091770.411773682 0 0 0 0 -92056492.398017883 -6349550.0839233398 0 -6349550.0839233398 4298520.0790557861 0 0 0 0 -79785652.1690979 -5930943.2223968506 0 -5930943.2223968506 1027180.5651092529 0 0 0 0 -16382712.08046145 -31866519.531226054 0 -31866519.531226054 -13150574.571807072 0 0 0 0 142195961.01248169 -67856240.82988739 0 -67856240.82988739 -20266143.269470215 0 0 0 0 -86490358.641571045 13840164.486785889 0 13840164.486785889 21521255.119781494 0 0 0 0 -115970247.53387451 -169139922.91291046 0 -169139922.91291046 -83213327.992736816 0 0 0 0 -188261720.25473022 -155718805.78514099 0 -155718805.78514099 39789908.679382324 0 0 0 0 -37039705.619537354 -110183775.77174377 0 -110183775.77174377 46782171.206115723 0 0 0 0 -146425049.94075012 -164450305.14762878 0 -164450305.14762878 73317679.267028809 0 0 0 0 -14699922.0154953 -140936855.29735565 0 -140936855.29735565 30665071.065856934 0 0 0 0 114386660.18899536 -20322557.817581177 0 -20322557.817581177 -20164492.79510498 0 0 0 0 -130150930.7686615 -71039252.546394348 0 -71039252.546394348 20675105.425323486 0 0 0 0 -90463572.79284668 -118515179.19715881 0 -118515179.19715881 15678405.084922791 0 0 0 0 -167574008.33093262 -121046741.39315796 0 -121046741.39315796 21498616.01259613 0 0 0 0 -254019822.56187439 -101294328.93334961 0 -101294328.93334961 104188729.56944275 0 0 0 0 -221630506.81393433 -102642078.97045898 0 -102642078.97045898 80681647.413970947 0 0 0 0 -376724279.81976318 -44100003.706375122 0 -44100003.706375122 81661239.683585644 0 0 0 0 237151041.76586914 -290561517.03504944 0 -290561517.03504944 63273511.920623779 0 0 0 0 298163421.08709717 9408522.5196685791 0 9408522.5196685791 -56067802.353240967 0 0 0 0 -10256050.172821045 -144344471.49163818 0 -144344471.49163818 27364287.830062866 0 0 0 0 -19958605.929168701 -193249524.16313171 0 -193249524.16313171 79324068.188461304 0 0 0 0 -251383741.89932251 -167475503.57141113 0 -167475503.57141113 194237077.46292114 0 0 0 0 -225422617.60671997 -175134546.24649048 0 -175134546.24649048 -30853905.333251953 0 0 0 0 -124419803.10533142 -73224312.501466751 0 -73224312.501466751 71951591.184631348 0 0 0 0 -109283230.95597839 -207842869.20048141 0 -207842869.20048141 448986379.26409912 0 0 0 0 292876847.06185913 16091246.791397095 0 16091246.791397095 -65329289.081451416 0 0 0 0 -306677357.47920227 -336333520.82341003 0 -336333520.82341003 -261964024.37034607 0 0 0 0 -239026203.10677528 21184504.886688232 0 21184504.886688232 -127310634.84887695 0 0 0 0 262063770.92567444 -572436388.69933319 0 -572436388.69933319 -882963281.75973511 0 0 0 0 -261653142.27371979 -21706955.858070374 0 -21706955.858070374 -69775699.946289062 0 0 0 0 -282529056.74371338 -279004220.97962189 0 -279004220.97962189 -645128509.80709839 0 0 0 0 -413148051.08850098 -75917838.852478027 0 -75917838.852478027 -26279171.051559448 0 0 0 0 -444411906.74357605 -539146837.41784668 0 -539146837.41784668 -890639115.05473328 0 0 0 0 -656013458.15586853 -432863237.01473999 0 -432863237.01473999 -157071787.29446411 0 0 0 0 -594063379.74013329 -507475011.63938713 0 -507475011.63938713 -500888709.89897156 0 0 0 0 -352105753.56027031 -1026915280.3259907 0 -1026915280.3259907 -1756197935.4188385 0 0 0 0 -605158147.65458107 -1553038405.6359653 0 -1553038405.6359653 -1893318499.8939209 0 0 0 0 -544682850.87364197 -520828845.57923889 0 -520828845.57923889 -860679499.74684143 0 0 0 0 -9658688.2173399366 -5701477.9977335446 0 -5701477.9977335446 2700849.8827770352 0 0 0 0 361171473.69689178 -225276720.0266571 0 -225276720.0266571 -388188081.28314209 0 0 0 0 -375407145.09414673 -724031075.19285583 0 -724031075.19285583 -808043888.25502777 0 0 0 0 -889193424.96425343 -1504136673.8677387 0 -1504136673.8677387 -2203311879.6400604 0 0 0 0 -749071467.97340393 -562253061.15850067 0 -562253061.15850067 -817380736.32243347 0 0 0 0 -1235088390.4345856 -1131445680.389267 0 -1131445680.389267 -2170712361.3442993 0 0 0 0 -1829919647.8654327 -2229656683.4176102 0 -2229656683.4176102 -2171659908.4744568 0 0 0 0 -1052919001.3184814 -1938987274.662468 0 -1938987274.662468 -3422465943.5985799 0 0 0 0 -1154188184.2676239 -2496560320.4511118 0 -2496560320.4511118 -2386818620.3683014 0 0 0 0 -3515031.9560013637 -3392668.7930621356 0 -3392668.7930621356 1491390.813875705 0 0 0 0 -567150318.02674866 -2373319944.1804047 0 -2373319944.1804047 -3922134974.2968292 0 0 0 0 -1351639448.2277527 -1789705434.5625076 0 -1789705434.5625076 -1690537151.699295 0 0 0 0 -252902576.39156342 -694609298.87274551 0 -694609298.87274551 -1397775686.6224213 0 0 0 0 -1193821710.4909058 -1985771540.2967072 0 -1985771540.2967072 -2693228649.2002716 0 0 0 0 -739479632.19827271 -1520486930.1894226 0 -1520486930.1894226 -2432779249.7296753 0 0 0 0 -939589192.61431885 -1854025586.221817 0 -1854025586.221817 -1998214348.26894 0 0 0 0 -240907532.53063965 -798589206.92612457 0 -798589206.92612457 -1659372949.2373657 0 0 0 0 -1250509536.2598877 -1802140559.7946396 0 -1802140559.7946396 -2179378166.9750423 0 0 0 0 -772916194.66567993 -1587915031.0902023 0 -1587915031.0902023 -2235057491.5614319 0 0 0 0 -875783008.57462311 -1479287234.8034401 0 -1479287234.8034401 -2589374158.0326538 0 0 0 0 -1032127834.9569092 -2368841673.961319 0 -2368841673.961319 -3240477510.5388756 0 0 0 0 -1565029452.4521484 -2237697168.7458649 0 -2237697168.7458649 -3821514233.5594654 0 0 0 0 -6122981.2965277508 -5049580.1349947006 0 -5049580.1349947006 1144912.5696676448 0 0 0 0 -1353306595.9963379 -2616245873.7677155 0 -2616245873.7677155 -3207031431.9237213 0 0 0 0 -1240225211.7000885 -2007551962.5715332 0 -2007551962.5715332 -3792793440.6376648 0 0 0 0 -1295886384.4177666 -1853873503.2600231 0 -1853873503.2600231 -3610063714.7323761 0 0 0 0 -1007939030.2836761 -2188989130.8369675 0 -2188989130.8369675 -4445550462.2783051 0 0 0 0 -24331936.744259953 -3860487.7074831128 0 -3860487.7074831128 1291930.1901783161 0 0 0 0 -77099567.117584229 -241317731.74394226 0 -241317731.74394226 1180866151.4411011 0 0 0 0 -40364593.20290944 -2675954.3749193698 0 -2675954.3749193698 3248374.70524773 0 0 0 0 -870395029.69491577 -870691381.72806549 0 -870691381.72806549 -1688987769.5582123 0 0 0 0 -201924357.79502869 -1647536208.3082581 0 -1647536208.3082581 -4145110394.8995819 0 0 0 0 -420040727.5164032 -264595939.81085968 0 -264595939.81085968 1512184218.4580994 0 0 0 0 462176715.90930176 -188959355.7298584 0 -188959355.7298584 11059791.309345245 0 0 0 0 -120833182.52973938 69845770.966815948 0 69845770.966815948 353862854.52697754 0 0 0 0 -59788546.79133606 -333001185.51338577 0 -333001185.51338577 324284667.14550781 0 0 0 0 190746780.5903511 -438619934.64397335 0 -438619934.64397335 -240044309.94630432 0 0 0 0 318590093.10066605 -682537360.43819523 0 -682537360.43819523 -1312427544.5114899 0 0 0 0 3161185.5117512196 1107627.0244280398 0 1107627.0244280398 -1770232.6436062492 0 0 0 0 731706779.83816528 -567692861.759758 0 -567692861.759758 -415093534.50278473 0 0 0 0 82971705.202606201 -88386494.860671997 0 -88386494.860671997 -428934232.7110405 0 0 0 0 442161902.1287384 150373739.59503937 0 150373739.59503937 -272035408.56663513 0 0 0 0 579320.69749069214 -285347575.97451973 0 -285347575.97451973 291947140.2538681 0 0 0 0 445837251.52816772 192304521.4568634 0 192304521.4568634 530406198.27612305 0 0 0 0 -103776962.94595337 -128425537.00327301 0 -128425537.00327301 1258391975.7164307 0 0 0 0 -205666492.66983032 5611785.0048675537 0 5611785.0048675537 1611863717.4887314 0 0 0 0 -420946574.81307983 -371160802.71032715 0 -371160802.71032715 -152091683.00765991 0 0 0 0 73556069.372924805 -28489140.514480591 0 -28489140.514480591 -826109490.08932114 0 0 0 0 -220202813.34867859 -508393711.84046555 0 -508393711.84046555 -1132697709.9912071 0 0 0 0 5064695.6589004993 970373.53976755589 0 970373.53976755589 -2738821.6143684201 0 0 0 0 -264703903.47357178 -55509390.439819336 0 -55509390.439819336 -425525017.06296921 0 0 0 0 -241738422.56013489 -232835660.91848564 0 -232835660.91848564 780870987.51315308 0 0 0 0 71188454.632720947 223593677.55307579 0 223593677.55307579 -997343332.5904541 0 0 0 0 12588585.064814001 -2799966.6337462738 0 -2799966.6337462738 -649701.89322323911 0 0 0 0 -218533248.35075378 -110244260.58007812 0 -110244260.58007812 -331621809.12505722 0 0 0 0 -244320861.15859985 78560163.432285309 0 78560163.432285309 -259464818.87412262 0 0 0 0 2408568.0596442968 -1271775.4118342847 0 -1271775.4118342847 -2686015.3396211788 0 0 0 0 -124229627.46624756 237997105.2858963 0 237997105.2858963 479667382.13912582 0 0 0 0 138163549.38079834 689914263.51822662 0 689914263.51822662 -26484967.441913605 0 0 0 0 702069767.9479599 -748422183.54852772 0 -748422183.54852772 -1003758063.5527496 0 0 0 0 99379077.348022461 -112797037.79402924 0 -112797037.79402924 79439590.717121124 0 0 0 0 18173276.470627934 -5739005.7957931273 0 -5739005.7957931273 -1499411.0197812412 0 0 0 0 100239514.28955078 -272449538.83293915 0 -272449538.83293915 -650964048.44139481 0 0 0 0 53242148.00177002 -53638775.181739807 0 -53638775.181739807 -71038105.357582092 0 0 0 0 20220442.01520887 -9282158.5582421534 0 -9282158.5582421534 -3256296.249264434 0 0 0 0 -10646924.504798889 -17723699.556455612 0 -17723699.556455612 1227410.3003692627 0 0 0 0 -41833256.107772827 -200922673.78406525 0 -200922673.78406525 -121812517.92478943 0 0 0 0 -111980738.29781342 -84758214.056411743 0 -84758214.056411743 -113658212.44953918 0 0 0 0 -91453929.516296387 -201353041.78243256 0 -201353041.78243256 22953713.243141174 0 0 0 0 -5411041.1245727539 -123020537.57954407 0 -123020537.57954407 -120573568.61637878 0 0 0 0 -39966867.397521973 -140802272.76105499 0 -140802272.76105499 5421828.901763916 0 0 0 0 -345048868.68928909 -431420109.86816883 0 -431420109.86816883 56729030.577163696 0 0 0 0 -97237256.746673584 114424434.36871338 0 114424434.36871338 375556742.60616302 0 0 0 0 4674947.3633716404 -7360830.6112430319 0 -7360830.6112430319 -6391346.9396490306 0 0 0 0 93307674.700707436 -208496812.56109881 0 -208496812.56109881 -230328608.73408508 0 0 0 0 -56193073.935852051 -119265418.35118484 0 -119265418.35118484 -88652560.557098389 0 0 0 0 -57931636.243347168 -58552970.222587585 0 -58552970.222587585 184610167.18419647 0 0 0 0 296715.45525836945 -22426562.605904788 0 -22426562.605904788 -6647363.3709329478 0 0 0 0 47670965.4012146 -78481598.899658203 0 -78481598.899658203 19222224.085693359 0 0 0 0 -61856947.399017334 -66108809.703704834 0 -66108809.703704834 -9016888.3167266846 0 0 0 0 -96120949.446929932 -53524690.021789551 0 -53524690.021789551 26809036.648780823 0 0 0 0 -104631754.62880707 -59716883.291294098 0 -59716883.291294098 90807333.406387329 0 0 0 0 -69408288.865974426 -126587725.76973724 0 -126587725.76973724 21850991.732620239 0 0 0 0 -65271326.960296631 -146091530.47641754 0 -146091530.47641754 -132055155.52259827 0 0 0 0 -74195841.890731812 -22484319.368530273 0 -22484319.368530273 49308735.562210083 0 0 0 0 -27626523.495413378 -16377707.859109014 0 -16377707.859109014 469268.58527315408 0 0 0 0 -142306572.31499481 -2874859.8529052734 0 -2874859.8529052734 38803876.206695557 0 0 0 0 -10083593.570842419 -7162389.8462597579 0 -7162389.8462597579 4195549.4672283977 0 0 0 0 -5978273.1015777588 -68599196.426834106 0 -68599196.426834106 -45000209.450710297 0 0 0 0 -15375961.830883015 -37926839.842020422 0 -37926839.842020422 -18058638.683427244 0 0 0 0 -46969526.193367004 -131542942.51556396 0 -131542942.51556396 -68150913.290245056 0 0 0 0 -9152609.2781975195 -23571879.058667511 0 -23571879.058667511 -13350395.370262191 0 0 0 0 -60332148.464621022 -23438181.171939187 0 -23438181.171939187 7181354.7202319801 0 0 0 0 70701992.957450867 -129850207.19235611 0 -129850207.19235611 -38833926.772033691 0 0 0 0 -174992789.47650146 -33259030.536315918 0 -33259030.536315918 -18467074.332542419 0 0 0 0 -60534763.510375977 -22135899.495956421 0 -22135899.495956421 -47033375.953071594 0 0 0 0 -9603283.3856817149 -9110948.4584501758 0 -9110948.4584501758 3101369.6217758879 0 0 0 0 -7391183.3164936453 -3219309.2932410687 0 -3219309.2932410687 707685.13725568354 0 0 0 0 -9457569.6277806833 -15462249.411293112 0 -15462249.411293112 -7976912.5508635789 0 0 0 0 -15295717.861999512 -16254192.005805969 0 -16254192.005805969 -5138912.224395752 0 0 0 0 25244755.357217789 -24742187.441669464 0 -24742187.441669464 -26841642.000839233 0 0 0 0 -12659034.834768988 -35278063.209353551 0 -35278063.209353551 -12475124.371224262 0 0 0 0 -13681870.497207642 -42342215.860984802 0 -42342215.860984802 -23950413.386631966 0 0 0 0 -97503673.593383789 -134024482.6869812 0 -134024482.6869812 -188335929.05332947 0 0 0 0 -46785282.477737427 -72145259.302934647 0 -72145259.302934647 53449665.484405518 0 0 0 0 18404385.727311358 -18447547.596075337 0 -18447547.596075337 -6104247.4777815258 0 0 0 0 -213879892.39093018 -64319357.023376465 0 -64319357.023376465 327567749.24145508 0 0 0 0 26329037.45904541 -191167325.53001404 0 -191167325.53001404 -121215238.46725464 0 0 0 0 -73090385.082641602 -402517249.56439209 0 -402517249.56439209 -343176232.63851929 0 0 0 0 22932596.505966187 -7016539.3787536621 0 -7016539.3787536621 -60265381.972194672 0 0 0 0 -4092938.968429409 -8655872.8770977631 0 -8655872.8770977631 3988154.0262029618 0 0 0 0 -19097447.989543915 2102269.2081108093 0 2102269.2081108093 -20399778.492996216 0 0 0 0 6090075.7867279053 -3091259.8530235291 0 -3091259.8530235291 27388056.202644348 0 0 0 0 31705720.062637329 -3639529.265750885 0 -3639529.265750885 -27698264.506286621 0 0 0 0 49312422.063049316 -59821182.062545776 0 -59821182.062545776 16290729.231666565 0 0 0 0 63319778.613693237 -52333073.078887939 0 -52333073.078887939 7004226.5763969421 0 0 0 0 -35743862.580093384 57021257.777915955 0 57021257.777915955 -77300408.616355896 0 0 0 0 204538867.71597672 -120550676.89614487 0 -120550676.89614487 -141798446.65426636 0 0 0 0 145209404.05880737 -221932727.90776062 0 -221932727.90776062 70420866.529960632 0 0 0 0 127537635.12779236 -190788596.83016586 0 -190788596.83016586 20926827.391777039 0 0 0 0 123144271.01017761 -253516893.91650772 0 -253516893.91650772 45015095.68932724 0 0 0 0 49670038.116729736 -50848481.731876373 0 -50848481.731876373 -110055836.22740173 0 0 0 0 319404544.48164368 -244706555.18198013 0 -244706555.18198013 -90403271.754066467 0 0 0 0 186236239.66789246 -225568262.10839462 0 -225568262.10839462 151206327.89030457 0 0 0 0 129099571.28901672 -279432323.2706337 0 -279432323.2706337 139118539.71799183 0 0 0 0 121726516.18057251 -261727795.16356659 0 -261727795.16356659 247629686.32833862 0 0 0 0 139382301.6357193 -247191867.73023415 0 -247191867.73023415 158554053.15091705 0 0 0 0 97710267.157562256 -180046237.60057831 0 -180046237.60057831 117177295.66044903 0 0 0 0 196455414.85547543 -334970777.02490711 0 -334970777.02490711 226646013.54147339 0 0 0 0 89766431.163848877 -141592020.2688942 0 -141592020.2688942 111899219.32785034 0 0 0 0 54615336.495048523 -202202345.29388809 0 -202202345.29388809 304410818.4927063 0 0 0 0 65422232.03314209 -136149111.20841217 0 -136149111.20841217 141712874.19527912 0 0 0 0 90622779.901397705 -97999265.950927734 0 -97999265.950927734 41804156.533195496 0 0 0 0 47869789.500244141 -36750155.040393829 0 -36750155.040393829 454563.01236724854 0 0 0 0 27911913.705544472 -52477528.957060337 0 -52477528.957060337 55111558.387573242 0 0 0 0 13628222.336761475 -76939826.257727623 0 -76939826.257727623 141680922.29659271 0 0 0 0 26196771.805755615 491688.49055862427 0 491688.49055862427 6877326.8546257019 0 0 0 0 -8244186.9189605713 -84581301.018377304 0 -84581301.018377304 199766991.6828537 0 0 0 0 -460682.89808654785 -57230998.171043396 0 -57230998.171043396 308604591.80426788 0 0 0 0 51138265.016448975 -274464858.79470873 0 -274464858.79470873 506928780.58342743 0 0 0 0 317650236.86932373 -419991960.54864502 0 -419991960.54864502 380190985.30818939 0 0 0 0 98081422.422134399 -151366695.16637421 0 -151366695.16637421 164589673.14329338 0 0 0 0 17826474.732757568 -307825144.62252426 0 -307825144.62252426 664612087.33244324 0 0 0 0 108735214.82945251 -274861396.3440361 0 -274861396.3440361 636346610.26979637 0 0 0 0 514698110.54026031 -482761993.0363636 0 -482761993.0363636 166285355.36365509 0 0 0 0 435743241.79769897 -634519661.21211624 0 -634519661.21211624 709053329.16700745 0 0 0 0 203207705.88252258 -462816970.16189957 0 -462816970.16189957 643260525.66860962 0 0 0 0 471389362.25556946 -889353919.98085785 0 -889353919.98085785 799238950.72519684 0 0 0 0 190910626.17741394 -180832171.88088226 0 -180832171.88088226 -670325219.62194443 0 0 0 0 553395.78276762366 -860169.92702849582 0 -860169.92702849582 -759506.18347062171 0 0 0 0 265240384.57120514 41289718.414993286 0 41289718.414993286 -703461557.07730103 0 0 0 0 156656307.78093815 -391633037.51049018 0 -391633037.51049018 423705340.9107666 0 0 0 0 165902558.41789246 -306877757.26478195 0 -306877757.26478195 203213931.52143478 0 0 0 0 340660459.11576843 -556676708.23455429 0 -556676708.23455429 164650593.37649918 0 0 0 0 335558448.61265564 -369421080.41096497 0 -369421080.41096497 -14331227.265922546 0 0 0 0 334563411.42970276 -295550673.21399307 0 -295550673.21399307 212112125.35076141 0 0 0 0 113497556.72303772 -325267974.620327 0 -325267974.620327 469808280.39096069 0 0 0 0 583285179.92349243 -127816829.20053101 0 -127816829.20053101 170343226.3690567 0 0 0 0 3655852.8037397563 1589666.8984613214 0 1589666.8984613214 281979.30195931159 0 0 0 0 679135644.66482544 188827940.31855202 0 188827940.31855202 -461095188.53884125 0 0 0 0 166111284.3091011 -411792727.30089188 0 -411792727.30089188 234984444.71179199 0 0 0 0 -87131622.971801758 134115252.57172394 0 134115252.57172394 -205042633.35836792 0 0 0 0 146327944.60372925 292201732.38777351 0 292201732.38777351 -348058474.90771484 0 0 0 0 4871904.6534980237 1409778.8281398807 0 1409778.8281398807 -1450640.7565768231 0 0 0 0 307826856.82495117 -114688361.04013443 0 -114688361.04013443 -1030829733.428154 0 0 0 0 -392157959.496521 523307.68464660645 0 523307.68464660645 296047993.11646271 0 0 0 0 1580173.9140826911 333237.71308057383 0 333237.71308057383 -439535.04484801181 0 0 0 0 317971683.18516922 -580758335.0702219 0 -580758335.0702219 -148448083.13014984 0 0 0 0 30238618.070465088 -237787811.68218231 0 -237787811.68218231 -181957777.65618515 0 0 0 0 2972788.5678393543 1489633.6494504232 0 1489633.6494504232 316434.43835660629 0 0 0 0 83723558.841567993 -56885829.259307861 0 -56885829.259307861 -317358083.77061462 0 0 0 0 -22160878.515518188 -157352255.03214455 0 -157352255.03214455 107654260.65110779 0 0 0 0 12119268.299705505 -275888957.4205246 0 -275888957.4205246 78902337.617088318 0 0 0 0 -48797428.365188599 -26485282.709457397 0 -26485282.709457397 258911589.99637794 0 0 0 0 825770.56163726747 -1746576.5325945765 0 -1746576.5325945765 -908933.11351594701 0 0 0 0 420643876.35787964 53565995.666830063 0 53565995.666830063 -29752602.722007751 0 0 0 0 7375777.5774645805 -33799095.900514722 0 -33799095.900514722 -294541.2786026001 0 0 0 0 -37006096.773834229 -54194924.416988373 0 -54194924.416988373 64966834.094081879 0 0 0 0 -12060405.122024536 -36285970.998598099 0 -36285970.998598099 3294410.8391189575 0 0 0 0 -173821637.35644817 326128004.74744129 0 326128004.74744129 25254138.101387024 0 0 0 0 1621478.434585169 715095.74789195694 0 715095.74789195694 191003.08376814425 0 0 0 0 -121489984.48466492 -13005576.164638519 0 -13005576.164638519 201236045.02722931 0 0 0 0 428947748.2989502 328429413.54221344 0 328429413.54221344 -522746740.78467941 0 0 0 0 138707923.6049881 92141422.894887924 0 92141422.894887924 -180147896.9226532 0 0 0 0 372301757.33972168 -179514505.24554062 0 -179514505.24554062 55846523.054794312 0 0 0 0 138952276.55245972 168442078.72112656 0 168442078.72112656 96444739.623443604 0 0 0 0 289982139.88044739 -538295020.47331619 0 -538295020.47331619 -304442074.91345215 0 0 0 0 326365155.37862444 172419545.46795166 0 172419545.46795166 -253631299.9824295 0 0 0 0 -201650863.7073822 152452854.25292587 0 152452854.25292587 365699958.49443054 0 0 0 0 -340311189.24563599 -450746719.85540771 0 -450746719.85540771 409016155.86191559 0 0 0 0 -317675421.38156128 -271573354.46844482 0 -271573354.46844482 -119763320.52434158 0 0 0 0 -851376725.58296204 -816208106.2089653 0 -816208106.2089653 -154219599.29296088 0 0 0 0 154198311.59711456 210113584.1762886 0 210113584.1762886 357145604.26830292 0 0 0 0 -747095650.19268799 -1046201413.6940575 0 -1046201413.6940575 -397410801.52534103 0 0 0 0 5255702.6005265713 -4716208.4551382139 0 -4716208.4551382139 1388584.3542248905 0 0 0 0 -405353.6415771246 345168.42402678542 0 345168.42402678542 1065302.8401816227 0 0 0 0 234399733.50927734 548820603.8057251 0 548820603.8057251 -286163970.22637177 0 0 0 0 1764419132.824173 242531404.64720917 0 242531404.64720917 -226280279.03842926 0 0 0 0 1165521703.5649261 616140166.49675751 0 616140166.49675751 219403159.58388901 0 0 0 0 2175021.5139717311 -1888665.5999007747 0 -1888665.5999007747 650128.71940419078 0 0 0 0 -1035740606.5116577 -355257873.46218872 0 -355257873.46218872 313881159.35557556 0 0 0 0 -277366618.97808838 -590647343.78543854 0 -590647343.78543854 -730456313.61640549 0 0 0 0 -438362547.76306152 -662282134.58452988 0 -662282134.58452988 467746250.05945206 0 0 0 0 340625745.89830017 -673778493.70174026 0 -673778493.70174026 442015582.29991913 0 0 0 0 949768463.65610504 -390265322.63965797 0 -390265322.63965797 38856861.633369446 0 0 0 0 250578209.20841217 -226717771.12507915 0 -226717771.12507915 11615832.118637085 0 0 0 0 344298973.40602112 -465330095.09615707 0 -465330095.09615707 181966004.30422211 0 0 0 0 -76406088.413604736 -430609285.52988052 0 -430609285.52988052 306122525.97016907 0 0 0 0 -37107548.927261353 -176654500.454422 0 -176654500.454422 262776627.17410278 0 0 0 0 253161726.71890259 -350068801.09951401 0 -350068801.09951401 278591507.98284149 0 0 0 0 260204235.55882263 -269762277.70581055 0 -269762277.70581055 236071785.47705841 0 0 0 0 488788500.47860909 -76167117.834692419 0 -76167117.834692419 278163388.31174469 0 0 0 0 480304780.54249573 -466036389.83724213 0 -466036389.83724213 184821786.89063644 0 0 0 0 -930756.9617697529 -1042387057.0054488 0 -1042387057.0054488 -1101897380.0877609 0 0 0 0 -1184689.4845683724 521355.66965545528 0 521355.66965545528 -2225354.5555162397 0 0 0 0 -193882098.78726196 -120083033.49291611 0 -120083033.49291611 728868737.65690422 0 0 0 0 304398117.55439866 -993310798.93909502 0 -993310798.93909502 -1675216109.4046402 0 0 0 0 292470112.64680481 -324049185.78416443 0 -324049185.78416443 -3354458773.4299912 0 0 0 0 -172038819.39172363 -1249993237.7364597 0 -1249993237.7364597 -1243399820.2832832 0 0 0 0 -273029617.22159767 -867880594.87038851 0 -867880594.87038851 -65331963.857521057 0 0 0 0 1691213509.6727753 159320372.57611465 0 159320372.57611465 -885694961.90001488 0 0 0 0 773566.79434398562 -2616162.4876234382 0 -2616162.4876234382 -1964512.2515800297 0 0 0 0 -413624796.35858917 -1413568297.2838745 0 -1413568297.2838745 -986331950.57431412 0 0 0 0 -1474728705.9389572 -677831397.96004105 0 -677831397.96004105 434750371.47373581 0 0 0 0 1692342.3958568946 -5663201.2066274807 0 -5663201.2066274807 -3991948.1755332351 0 0 0 0 -668983789.11260986 -922558510.84564209 0 -922558510.84564209 -91140907.105644226 0 0 0 0 -1578492335.2706451 -386516718.92274666 0 -386516718.92274666 -315907440.74147034 0 0 0 0 -657717420.87495422 -431775826.2783699 0 -431775826.2783699 -442331557.55744934 0 0 0 0 -502844660.53421021 -104507046.43223572 0 -104507046.43223572 -1154557963.5421143 0 0 0 0 -416660638.74047852 -281410908.73865509 0 -281410908.73865509 -1345389683.8194885 0 0 0 0 -810141225.72399902 -250479324.39849091 0 -250479324.39849091 -1152379121.9834747 0 0 0 0 -817664451.4249568 -677894780.4712255 0 -677894780.4712255 -1471677508.0910645 0 0 0 0 -274392775.90570068 -863703411.92805481 0 -863703411.92805481 -2302039160.1565323 0 0 0 0 -2467131799.8195953 -1564416561.0152664 0 -1564416561.0152664 -989427019.52240753 0 0 0 0 265460433.21936035 -80272405.198329926 0 -80272405.198329926 -2621885502.1358604 0 0 0 0 -3099008.6208233982 -1265290.8002641387 0 -1265290.8002641387 -2634202.534486678 0 0 0 0 94698857.677856445 -104404987.98570251 0 -104404987.98570251 447277617.49504852 0 0 0 0 97573792.058853149 -248515925.01945114 0 -248515925.01945114 -1917757956.4001465 0 0 0 0 -106704061.21099854 -135551404.42938232 0 -135551404.42938232 536011820.73852539 0 0 0 0 -108975744.47004461 -45741445.276278853 0 -45741445.276278853 178684529.57260132 0 0 0 0 -286701912.53378296 -84264144.254272461 0 -84264144.254272461 -1183697884.1187248 0 0 0 0 -4870537.0967579037 -4115761.578414645 0 -4115761.578414645 -3465880.4712245557 0 0 0 0 -140713.83319091797 -70125512.457103729 0 -70125512.457103729 86644688.880973816 0 0 0 0 27140643.542236328 -24037812.7059021 0 -24037812.7059021 -1199956952.9766846 0 0 0 0 241101990.59130859 171976149.46661377 0 171976149.46661377 -1064662346.6200562 0 0 0 0 -224583225.69058228 -114977274.7975235 0 -114977274.7975235 -1216656288.2816772 0 0 0 0 -430572206.86572266 -96045731.744537354 0 -96045731.744537354 -1182833317.3403015 0 0 0 0 -204305091.52520752 -3863111.9085083008 0 -3863111.9085083008 -1254673116.4275665 0 0 0 0 62898043.313781738 71910204.027145386 0 71910204.027145386 -1209076393.1630554 0 0 0 0 -428045488.00939941 -290835703.24662018 0 -290835703.24662018 -1602032897.9156036 0 0 0 0 -307742392.92073059 -24820430.109874725 0 -24820430.109874725 -1215788282.4262238 0 0 0 0 18090828.619812012 283188969.07250977 0 283188969.07250977 -1158233838.1985245 0 0 0 0 8267991.1100828946 475321.27173743397 0 475321.27173743397 -5856532.944386865 0 0 0 0 -1369241.2386779785 279439482.44087219 0 279439482.44087219 -1011601910.2211761 0 0 0 0 -29037245.869750977 176071622.2739563 0 176071622.2739563 -976453824.95852661 0 0 0 0 -27643504.459838867 178527543.14797974 0 178527543.14797974 -1088022019.4076729 0 0 0 0 -38408974.024627686 202159137.66692352 0 202159137.66692352 -1129956115.8335114 0 0 0 0 -125942461.32250977 -28349299.324188232 0 -28349299.324188232 -1255192780.2951965 0 0 0 0 -76195962.464172363 214241732.04304504 0 214241732.04304504 -1092327381.4706421 0 0 0 0 -49392812.583984375 230289629.09309387 0 230289629.09309387 -1115742363.7879333 0 0 0 0 -51714406.693115234 239370113.97386169 0 239370113.97386169 -1063860869.7175407 0 0 0 0 -80304065.970489502 172736353.47092438 0 172736353.47092438 -1086242221.280426 0 0 0 0 35447805.151000977 86830694.996429443 0 86830694.996429443 -1216077284.5094604 0 0 0 0 369948612.7265625 242623971.81286621 0 242623971.81286621 -1143906114.5541382 0 0 0 0 52580130.829101562 334316350.50958252 0 334316350.50958252 -1009683944.6254272 0 0 0 0 -221977266.10449219 157982023.58877563 0 157982023.58877563 -906929999.84552002 0 0 0 0 88537127.890319824 508122020.01914978 0 508122020.01914978 -840369733.16040039 0 0 0 0 -43919835.215087891 301945930.28155518 0 301945930.28155518 -1020110792.5804443 0 0 0 0 -121566.20758336037 -100442.37669280544 0 -100442.37669280544 243634.07091062143 0 0 0 0 -299587330.51525879 333857429.79443359 0 333857429.79443359 -718147193.14776611 0 0 0 0 -15034536.610534668 238819115.25756073 0 238819115.25756073 -1090680209.8713837 0 0 0 0 -48851721.282318115 346567161.42725372 0 346567161.42725372 -1078331609.8939285 0 0 0 0 48640845.617736816 250755461.94573975 0 250755461.94573975 -1060607997.279644 0 0 0 0 -213552596.26571655 10074842.126976013 0 10074842.126976013 -918158855.88944244 0 0 0 0 -144911548.70611572 326633021.4672699 0 326633021.4672699 -979831620.13080597 0 0 0 0 -54130315.605377197 75255713.55039978 0 75255713.55039978 -455264374.03172302 0 0 0 0 -23983845.958862305 244639984.25141144 0 244639984.25141144 -884757611.18260193 0 0 0 0 -86319589.790527344 249131608.55738831 0 249131608.55738831 -906677900.34561157 0 0 0 0 142880564.35119629 170113776.84965515 0 170113776.84965515 -942963699.48786163 0 0 0 0 208863647.33478737 4642041.1433591843 0 4642041.1433591843 -831795919.80688477 0 0 0 0 159954695.72486115 -275650891.53867102 0 -275650891.53867102 -447169538.81700134 0 0 0 0 -78098140.508636475 129710793.91551208 0 129710793.91551208 -739920424.81394958 0 0 0 0 -403866481.40560913 -431898743.79792023 0 -431898743.79792023 -451875318.11053848 0 0 0 0 -170221984.45172119 -90116246.659408569 0 -90116246.659408569 -1331798647.9462738 0 0 0 0 -214026701.87664795 -64746133.86025238 0 -64746133.86025238 -1003499480.5621147 0 0 0 0 -392672427.3036499 -530571745.38272858 0 -530571745.38272858 -1183173455.3330812 0 0 0 0 -591816417.80266953 -820356237.78414202 0 -820356237.78414202 347235116.60407257 0 0 0 0 -573464955.01687622 -693275136.95850372 0 -693275136.95850372 351150835.5739975 0 0 0 0 -163938072.54782867 -946347825.2419529 0 -946347825.2419529 142958068.97285461 0 0 0 0 59681871.462127686 -136594812.81131363 0 -136594812.81131363 -263986846.64302444 0 0 0 0 946699682.06011963 335891959.62757874 0 335891959.62757874 -430052431.22399139 0 0 0 0 387863099.87625504 -971469736.08411932 0 -971469736.08411932 508929398.76751709 0 0 0 0 146629.83640924096 -289701.78023425303 0 -289701.78023425303 -23078.714519038796 0 0 0 0 -49672611.784729004 -1272055513.4634323 0 -1272055513.4634323 1669405081.272728 0 0 0 0 4472050.0298046172 -578889.59996255487 0 -578889.59996255487 -143343.22557680029 0 0 0 0 38968903.280345917 -547191614.66801643 0 -547191614.66801643 2338085137.6135254 0 0 0 0 614644587.69424438 -1305833144.7602043 0 -1305833144.7602043 910357475.0835762 0 0 0 0 254166122.70730591 -589510509.420578 0 -589510509.420578 251709407.70478821 0 0 0 0 776603.11536040902 -1188419.5240375083 0 -1188419.5240375083 -889759.28503244743 0 0 0 0 -31197607.770629883 59265037.253593445 0 59265037.253593445 210283699.83927155 0 0 0 0 492209019.7366333 19225413.164047241 0 19225413.164047241 -454390637.4016571 0 0 0 0 51911338.813400269 -47882156.690317154 0 -47882156.690317154 -451799392.22231293 0 0 0 0 73114279.161712646 223056130.07509613 0 223056130.07509613 -789871627.86552429 0 0 0 0 197881294.82539368 59847335.593013763 0 59847335.593013763 -1038087871.9229736 0 0 0 0 23379456.422058105 -90365618.809593201 0 -90365618.809593201 -1117615093.2230759 0 0 0 0 67878173.198059082 62852250.767810822 0 62852250.767810822 -232627039.25042725 0 0 0 0 3817089.6113891602 -252017009.9271698 0 -252017009.9271698 -607737017.40125275 0 0 0 0 -30579553.59274292 364480580.43470383 0 364480580.43470383 -964940058.70292664 0 0 0 0 934792.02653539181 624727.11091795005 0 624727.11091795005 199764.83535077423 0 0 0 0 -224486015.08436584 -5075387.692199707 0 -5075387.692199707 -345548882.5162735 0 0 0 0 224957977.85983276 -239985386.34603882 0 -239985386.34603882 155502015.55070496 0 0 0 0 271236760.42669678 191768847.1541748 0 191768847.1541748 -1363458971.9041824 0 0 0 0 7501887.4236928672 2179896.2762470227 0 2179896.2762470227 -2886382.1126641333 0 0 0 0 877377630.20898438 136218154.74353027 0 136218154.74353027 -353186863.35345364 0 0 0 0 584794299.54457092 -81583579.388450623 0 -81583579.388450623 -77556971.095169067 0 0 0 0 291806690.52787781 567105253.56262589 0 567105253.56262589 49078845.85824585 0 0 0 0 137879088.08599854 12061053.825843811 0 12061053.825843811 -57615930.640552521 0 0 0 0 68966947.430374146 -24393417.889579773 0 -24393417.889579773 -41603464.640701294 0 0 0 0 209960400.82688141 -93860366.319665909 0 -93860366.319665909 -62027047.76272583 0 0 0 0 48512887.198974609 -114998334.46485138 0 -114998334.46485138 95791137.165721893 0 0 0 0 13083778.048782349 -37431553.637523651 0 -37431553.637523651 -65229228.722671509 0 0 0 0 2101303.0236816406 -161873323.80333328 0 -161873323.80333328 -53563133.3019104 0 0 0 0 64000313.556976318 -101127871.40997696 0 -101127871.40997696 -3369101.3552017212 0 0 0 0 8834799.1045227051 -55316042.852272034 0 -55316042.852272034 -8107111.9900503159 0 0 0 0 65351570.126220703 -87500104.730644226 0 -87500104.730644226 -61542299.064035892 0 0 0 0 40685151.888130188 -36256158.932659149 0 -36256158.932659149 -15048099.432693481 0 0 0 0 7572430.9486999512 -29909985.04447937 0 -29909985.04447937 -11006513.148834229 0 0 0 0 30529786.342727661 -9834485.930229187 0 -9834485.930229187 -49886507.190315962 0 0 0 0 16788802.272256851 -26703400.059761047 0 -26703400.059761047 -13697305.460479736 0 0 0 0 225418.22214271128 -8553988.0095936432 0 -8553988.0095936432 -18019616.822981391 0 0 0 0 103172602.45684052 -37598996.401779175 0 -37598996.401779175 -51518446.233413696 0 0 0 0 13765271.625137329 -8272937.9021778107 0 -8272937.9021778107 -34723376.736053467 0 0 0 0 -15636524.596313477 -39109181.446476936 0 -39109181.446476936 -48313597.491298676 0 0 0 0 -348346.00085449219 -13278505.58850193 0 -13278505.58850193 -10258575.857936859 0 0 0 0 6221877.5956420898 -30684013.250753403 0 -30684013.250753403 -18100529.598638535 0 0 0 0 2860060.4140560925 -10589099.506680943 0 -10589099.506680943 -2686493.4229821451 0 0 0 0 113337149.32130432 -20319663.288173676 0 -20319663.288173676 -24500053.727363586 0 0 0 0 72532375.420501709 -29092670.511341095 0 -29092670.511341095 -20317125.462898254 0 0 0 0 10409977.975440979 151993289.36772156 0 151993289.36772156 12395295.158889771 0 0 0 0 239842.08330404758 -9878532.9147123136 0 -9878532.9147123136 -18467490.466076102 0 0 0 0 -33727987.345581055 35085839.750114441 0 35085839.750114441 -34081554.268371582 0 0 0 0 189378.30539324135 -1756191.5846102685 0 -1756191.5846102685 -2960204.965484228 0 0 0 0 -256463441.55322266 -185257244.35839844 0 -185257244.35839844 -128530383.460289 0 0 0 0 -268378822.90005493 -92087709.344467163 0 -92087709.344467163 -3550729.4055290222 0 0 0 0 -262636922.38665771 30736767.171821594 0 30736767.171821594 59858059.442874908 0 0 0 0 81745606.020874023 222067241.37380981 0 222067241.37380981 104177385.9781189 0 0 0 0 -255888089.22888184 484392493.4657135 0 484392493.4657135 141739814.99878693 0 0 0 0 -606439812.12811279 173763902.20602417 0 173763902.20602417 199006455.93701172 0 0 0 0 -4947399.0041070655 -12476744.832744714 0 -12476744.832744714 -8566984.6003872268 0 0 0 0 -8589616.2174530029 -15348691.196762085 0 -15348691.196762085 -23398052.459526062 0 0 0 0 21636275.15914917 -17680119.710712433 0 -17680119.710712433 9591973.0125274658 0 0 0 0 27660962.055732727 -56066540.464134216 0 -56066540.464134216 48133516.424530029 0 0 0 0 53250246.066162109 -103616859.79525757 0 -103616859.79525757 8022738.2878036499 0 0 0 0 122899462.26629639 -141116044.30020142 0 -141116044.30020142 -20538883.533664703 0 0 0 0 119948698.57269287 -115318409.72546387 0 -115318409.72546387 -6953023.2507743835 0 0 0 0 93540210.37979126 -68499874.168079376 0 -68499874.168079376 -9803570.976984024 0 0 0 0 50394253.50769043 -63356080.376106262 0 -63356080.376106262 -10302976.536058426 0 0 0 0 25797327.815917969 -60015747.90461731 0 -60015747.90461731 64321508.904251099 0 0 0 0 27071750.030517578 -84022865.493911743 0 -84022865.493911743 90062544.405471802 0 0 0 0 59732689.668426514 -86873378.37669754 0 -86873378.37669754 41920100.215835571 0 0 0 0 -11653390.359191895 -112916084.68884277 0 -112916084.68884277 69969505.968978882 0 0 0 0 76780248.733184814 -145273198.73330688 0 -145273198.73330688 71109565.865905762 0 0 0 0 111429701.81219482 -318012547.70145035 0 -318012547.70145035 193913165.60758972 0 0 0 0 36767759.290771484 -200940484.10626221 0 -200940484.10626221 183864254.96111298 0 0 0 0 96913764.220796585 -247352388.05691719 0 -247352388.05691719 -59515686.339134216 0 0 0 0 59756387.111862183 -224472651.17421722 0 -224472651.17421722 40312276.31098938 0 0 0 0 81934830.108276367 -179934244.78404999 0 -179934244.78404999 518965.15086364746 0 0 0 0 78046953.932800293 -172290329.58589172 0 -172290329.58589172 -10734441.36946106 0 0 0 0 120241919.78512573 -207192452.1914978 0 -207192452.1914978 -38456297.149597168 0 0 0 0 129296658.28973389 -170506960.59033585 0 -170506960.59033585 -101896488.90211487 0 0 0 0 96296894.115386963 -125110836.56379128 0 -125110836.56379128 -59669864.836380005 0 0 0 0 162729192.21563721 -109647678.65752792 0 -109647678.65752792 -99461773.81678009 0 0 0 0 112867830.09249878 -28463515.944519043 0 -28463515.944519043 -75004729.426712036 0 0 0 0 163399332.76495028 -63475897.767305732 0 -63475897.767305732 -50757008.783424377 0 0 0 0 94406291.715393066 -75973936.169723511 0 -75973936.169723511 -47991224.727397919 0 0 0 0 358905798.37753296 97127775.590406418 0 97127775.590406418 -18016875.315410614 0 0 0 0 1547353.2127731442 -5460331.4071298838 0 -5460331.4071298838 -418069.68763589486 0 0 0 0 -77581172.274719238 -84814028.49341774 0 -84814028.49341774 -5264083.4989395142 0 0 0 0 25457215.583435059 -12339978.401279449 0 -12339978.401279449 -36847859.772283554 0 0 0 0 580372.95101908594 -1658265.798364237 0 -1658265.798364237 -75132.559946443886 0 0 0 0 748336859.58868408 580061254.9716301 0 580061254.9716301 -48187549.086166143 0 0 0 0 313854883.80514526 -6561520.559009552 0 -6561520.559009552 17921241.459652424 0 0 0 0 305876370.61178207 -115859112.1005702 0 -115859112.1005702 -151217403.72505951 0 0 0 0 -201369374.2011261 -282156881.19764328 0 -282156881.19764328 -107562971.68796921 0 0 0 0 282746891.85043907 -262378398.73388124 0 -262378398.73388124 -380833976.13951874 0 0 0 0 -527149144.8453064 93780388.39393425 0 93780388.39393425 -145308457.68927288 0 0 0 0 -591721661.70236206 697030332.6368618 0 697030332.6368618 -903766997.31270409 0 0 0 0 -2859578.7408682555 250411.36202992126 0 250411.36202992126 1253203.0168340728 0 0 0 0 -99440722.026599884 -66146337.260622501 0 -66146337.260622501 -697267351.61312866 0 0 0 0 -3363901.7283172607 -405135236.08230972 0 -405135236.08230972 -44242247.70539856 0 0 0 0 -170247553.55274963 -39464499.360877991 0 -39464499.360877991 -56548431.068865776 0 0 0 0 -232024.06736755371 -207345212.06306458 0 -207345212.06306458 -185675233.21955872 0 0 0 0 3157899.1467287391 41370.519990697503 0 41370.519990697503 -3014858.2567830905 0 0 0 0 -157905698.318573 -85666404.312358856 0 -85666404.312358856 -92723202.116516113 0 0 0 0 99996711.171519279 -199358496.37026054 0 -199358496.37026054 -88393580.378463745 0 0 0 0 1779915.2157138512 -54087.852174095809 0 -54087.852174095809 -1513998.0248245411 0 0 0 0 114705086.14632034 -186537814.10309696 0 -186537814.10309696 -114231813.63476562 0 0 0 0 -66970564.389450073 -251788536.55833817 0 -251788536.55833817 374876219.89295769 0 0 0 0 -126343414.664814 63385096.164484024 0 63385096.164484024 343814727.33129883 0 0 0 0 245184.42575073242 -182839933.14536858 0 -182839933.14536858 309850064.53264618 0 0 0 0 47285790.155776978 40497145.109893799 0 40497145.109893799 -87063586.988418579 0 0 0 0 18131957.565856934 223596501.82569122 0 223596501.82569122 -262182969.82211637 0 0 0 0 -3230666.6355564743 1825340.0557411872 0 1825340.0557411872 2709181.6465714248 0 0 0 0 -87039752.24005127 77565388.141588211 0 77565388.141588211 -218086775.46464157 0 0 0 0 32146.691070556641 18098295.121961594 0 18098295.121961594 -43749782.752671719 0 0 0 0 38126009.023254395 -2354848.8054656982 0 -2354848.8054656982 -51950512.714985847 0 0 0 0 -1649241.2147829533 -193058.93448994681 0 -193058.93448994681 1521083.175937999 0 0 0 0 27859597.981414795 -28755085.268930435 0 -28755085.268930435 -6288326.6108436584 0 0 0 0 36718820.33379364 -11489018.233739853 0 -11489018.233739853 27056496.18473053 0 0 0 0 -4641972.5526275635 66744847.003657341 0 66744847.003657341 -99364004.607009888 0 0 0 0 -3126548.5289077833 -333673.74405910447 0 -333673.74405910447 2983509.6075205877 0 0 0 0 -310101.1283416748 -115002072.35892487 0 -115002072.35892487 -95764751.51480484 0 0 0 0 47026849.251602173 -41011475.924544334 0 -41011475.924544334 86275488.246270657 0 0 0 0 -98249.294488706335 -123707736.08423516 0 -123707736.08423516 -31794049.935554504 0 0 0 0 128362.46266111219 -95406308.385837302 0 -95406308.385837302 113240511.84114456 0 0 0 0 51632551.352123737 -145240699.09612289 0 -145240699.09612289 98581689.861011505 0 0 0 0 -2655642.9418293461 -1418663.9546543658 0 -1418663.9546543658 -1470465.4010849483 0 0 0 0 -200597083.27174258 -296883881.79687822 0 -296883881.79687822 -71954737.896602631 0 0 0 0 -168192834.76020813 1323497072.7116337 0 1323497072.7116337 -586909031.35481262 0 0 0 0 458610786.72610474 -285971542.32394409 0 -285971542.32394409 -392846561.57054138 0 0 0 0 110129114.19985962 -136165633.58964157 0 -136165633.58964157 4987826.1632614136 0 0 0 0 76059072.285842896 426092254.8065052 0 426092254.8065052 -845469059.16438484 0 0 0 0 -3487868.3417727575 -4655129.254295066 0 -4655129.254295066 -5385954.4860917088 0 0 0 0 86935460.354324341 -34495715.17688942 0 -34495715.17688942 -1320613.1973495483 0 0 0 0 84626441.48727417 -118107115.98745632 0 -118107115.98745632 62590602.641618729 0 0 0 0 7068586.8654937744 -17039575.770053864 0 -17039575.770053864 9728415.9115409851 0 0 0 0 55137034.124862671 -10770280.259138107 0 -10770280.259138107 -52393254.040502548 0 0 0 0 8804618.4112854004 -42708486.804330826 0 -42708486.804330826 -71628105.79084301 0 0 0 0 6210457.4468994141 -31905133.634944916 0 -31905133.634944916 41268624.166462421 0 0 0 0 76264958.140075684 -68963849.314130306 0 -68963849.314130306 -14296366.496353149 0 0 0 0 4574999.2050018311 105446975.92278099 0 105446975.92278099 -329090479.06998444 0 0 0 0 -5576283.2125335336 -8814782.561061196 0 -8814782.561061196 -8993718.9497665577 0 0 0 0 25695903.718490601 49394289.337651253 0 49394289.337651253 -183126597.244133 0 0 0 0 25179407.878936768 8034242.7615432739 0 8034242.7615432739 -307138022.52063751 0 0 0 0 883731.21242450178 -861954.74717270862 0 -861954.74717270862 -1388914.8798138485 0 0 0 0 -32495400.346418381 -7825901.026825428 0 -7825901.026825428 -167327015.37563324 0 0 0 0 25605965.011901855 -5170851.9603118896 0 -5170851.9603118896 -78751588.24331665 0 0 0 0 -1487249.9398651123 -1234329.5469169617 0 -1234329.5469169617 -41152453.978313446 0 0 0 0 -2338634.9080514908 -8976835.311938405 0 -8976835.311938405 -26601191.328704834 0 0 0 0 2494660.6281273216 -1863101.6170911873 0 -1863101.6170911873 -4356266.820461846 0 0 0 0 10096892.781219482 -711059.01823425293 0 -711059.01823425293 -54959282.438804626 0 0 0 0 15896344.910774231 30092874.246181488 0 30092874.246181488 -149222204.79294586 0 0 0 0 15260430.522918701 -9156132.0169639587 0 -9156132.0169639587 -26194260.048809052 0 0 0 0 -62710830.638305664 29145592.072803497 0 29145592.072803497 -40171817.484136343 0 0 0 0 3750478.9680082202 -3471359.7471493073 0 -3471359.7471493073 -8606930.3757963851 0 0 0 0 97242.724395751953 -4093991.9492530823 0 -4093991.9492530823 -27203474.754570007 0 0 0 0 18567567.312133789 -2827343.3833312988 0 -2827343.3833312988 -30466903.974189758 0 0 0 0 3437573.2881164551 -23103923.332214355 0 -23103923.332214355 -7815676.8383731842 0 0 0 0 15057333.393943787 -11489619.353514671 0 -11489619.353514671 -29342890.887870789 0 0 0 0 1229669.27358073 -8106728.1537292264 0 -8106728.1537292264 -16891818.913277358 0 0 0 0 3892369.8885650635 -26583827.62688303 0 -26583827.62688303 -2454727.3056106567 0 0 0 0 -25774268.748390198 5965237.042098999 0 5965237.042098999 -12255270.215446472 0 0 0 0 14847951.424560547 -44862032.359375 0 -44862032.359375 365206054.24351501 0 0 0 0 9110279.1206502318 -3237585.5459321216 0 -3237585.5459321216 -18516467.308749843 0 0 0 0 22786410.229877472 1523134.1185288429 0 1523134.1185288429 -272171089.639328 0 0 0 0 1212955.4041388035 -1377876.769240804 0 -1377876.769240804 -3243268.6604152545 0 0 0 0 6611052.0198040009 45251648.992932796 0 45251648.992932796 -254613562.69828033 0 0 0 0 -89487329.215377808 28677797.103453159 0 28677797.103453159 -221006901.59370422 0 0 0 0 -19891678.6364851 -8706576.7634385228 0 -8706576.7634385228 -253198834.280159 0 0 0 0 -896091.31302070618 41229001.78993988 0 41229001.78993988 -513730147.24545288 0 0 0 0 -109461722.0947876 158493185.37702942 0 158493185.37702942 -313742046.95092487 0 0 0 0 -16016796.877550602 109464092.9808355 0 109464092.9808355 -322971780.45766449 0 0 0 0 30282609.474525452 73703524.528617859 0 73703524.528617859 -304420419.60012054 0 0 0 0 38596096.213928223 16056851.941093445 0 16056851.941093445 -307715852.55134463 0 0 0 0 -3193008.7674541473 40175567.882209778 0 40175567.882209778 -301881549.50063324 0 0 0 0 -41337473.795318604 -140247812.44651031 0 -140247812.44651031 -230850778.79102135 0 0 0 0 -1236369.0366368517 -1271362.3926478252 0 -1271362.3926478252 -1581572.0707617663 0 0 0 0 115239558.16547394 331594133.4559803 0 331594133.4559803 -181642862.25314331 0 0 0 0 -38579514.39352417 -138095237.85123062 0 -138095237.85123062 -421734199.90999603 0 0 0 0 -39797320.511016846 -180329579.16661835 0 -180329579.16661835 17536298.796852112 0 0 0 0 119250463.559021 -91538276.198963165 0 -91538276.198963165 -143684678.46025085 0 0 0 0 56634851.692871094 -131622690.91223526 0 -131622690.91223526 -169340300.53812408 0 0 0 0 -11865793.538101196 -5963304.126625061 0 -5963304.126625061 -50064343.091827393 0 0 0 0 169458483.71969604 -6134925.7010250092 0 -6134925.7010250092 -16701776.639587402 0 0 0 0 -1083025.7144186348 -5393536.4576594085 0 -5393536.4576594085 -7749038.288068939 0 0 0 0 2859011.6385729909 -11862569.541745786 0 -11862569.541745786 -15811012.67276668 0 0 0 0 1694378.9230651855 -16117936.90924263 0 -16117936.90924263 758749.95773506165 0 0 0 0 42639919.604763031 -83702220.969843388 0 -83702220.969843388 40372476.213897705 0 0 0 0 43250374.847290039 -87247466.486366272 0 -87247466.486366272 -25751867.690677166 0 0 0 0 5773659.4811134338 -17253083.909114361 0 -17253083.909114361 -1667406.3800201416 0 0 0 0 5877904.1535797119 -15672792.848455429 0 -15672792.848455429 -1880957.5075073242 0 0 0 0 -8011699.2117876709 -16684788.292292651 0 -16684788.292292651 -4184884.4099449147 0 0 0 0 -13069258.031890869 -34532620.346938372 0 -34532620.346938372 -7986701.5905163288 0 0 0 0 9502828.4683380127 -55662726.766732574 0 -55662726.766732574 41476211.22351408 0 0 0 0 -18715233.89364624 -42471919.243468285 0 -42471919.243468285 49961441.244124293 0 0 0 0 598787.39108276367 -10955219.476396561 0 -10955219.476396561 -3279298.5915374756 0 0 0 0 -1328048.1968536377 -13068491.349433899 0 -13068491.349433899 706023.87419509888 0 0 0 0 -9662474.861442402 -9456237.6021956671 0 -9456237.6021956671 216265.30322358245 0 0 0 0 -5621007.2793579102 -2422413.670580864 0 -2422413.670580864 25588911.915383577 0 0 0 0 -22206965.017974854 -29594389.480840325 0 -29594389.480840325 89245070.020190716 0 0 0 0 39074067.429458618 -69330160.779085636 0 -69330160.779085636 75271885.860079765 0 0 0 0 763847.39573328197 -1547265.7289472707 0 -1547265.7289472707 -3356018.1551859034 0 0 0 0 39705165.209960938 -38365707.608109474 0 -38365707.608109474 10060461.197448254 0 0 0 0 83212031.887588501 -61102905.790301323 0 -61102905.790301323 16842905.705746651 0 0 0 0 -375022.84267558903 -1713594.835723646 0 -1713594.835723646 -2051369.1800838625 0 0 0 0 17867560.80500412 4939976.1699764729 0 4939976.1699764729 -40172315.285024643 0 0 0 0 2668727.4102478027 -1665194.6818399429 0 -1665194.6818399429 -30188034.077403069 0 0 0 0 -1149094.8387693316 -12151272.06760785 0 -12151272.06760785 -12636992.829669477 0 0 0 0 2289726.297832489 -13648768.988641143 0 -13648768.988641143 -2243935.4526939392 0 0 0 0 10644502.537780762 -8861431.1590542793 0 -8861431.1590542793 -21823820.885480881 0 0 0 0 -21202759.641738892 -49503983.251459122 0 -49503983.251459122 -96365113.878580093 0 0 0 0 -6981637.6295950711 -13456299.286354503 0 -13456299.286354503 -12282980.050277509 0 0 0 0 36836687.192367554 -33910206.425048828 0 -33910206.425048828 -15176416.644651413 0 0 0 0 35354803.139962196 -4614353.4623359442 0 -4614353.4623359442 -39841631.070508957 0 0 0 0 3146699.770111084 -8536463.529756546 0 -8536463.529756546 -12973384.795749277 0 0 0 0 37721446.877456665 -20406662.402650833 0 -20406662.402650833 -68816800.417152405 0 0 0 0 -21329955.427780151 77779821.229495049 0 77779821.229495049 -165945304.02742767 0 0 0 0 39410074.300588608 -41875970.927551687 0 -41875970.927551687 29264974.450450897 0 0 0 0 -2559371.9592314959 703133.41162027791 0 703133.41162027791 897163.72784147039 0 0 0 0 3184779.5005187988 38383009.24346447 0 38383009.24346447 -88232979.847365141 0 0 0 0 31103981.082931519 -76424327.892418385 0 -76424327.892418385 70952765.223157883 0 0 0 0 42240995.79501915 -55982758.646295071 0 -55982758.646295071 36424769.420215607 0 0 0 0 16842323.976608276 -58209406.052805901 0 -58209406.052805901 74338295.831279278 0 0 0 0 5426974.345123291 -38350193.519396544 0 -38350193.519396544 44077294.92158699 0 0 0 0 -2118602.0001777112 2527008.8514807504 0 2527008.8514807504 1981380.6599128654 0 0 0 0 21866572.891384125 -19412251.483747631 0 -19412251.483747631 -27318279.617765427 0 0 0 0 4724280.2820892334 -42531706.735065937 0 -42531706.735065937 34072780.932948112 0 0 0 0 20006014.710220337 -3617906.2944641113 0 -3617906.2944641113 -95170779.722349167 0 0 0 0 -26485.579147338867 -34991300.990115523 0 -34991300.990115523 62830783.923903942 0 0 0 0 -21862700.712158203 -45124426.081417084 0 -45124426.081417084 112054699.11890531 0 0 0 0 -1188121.6643272042 1454442.3998440746 0 1454442.3998440746 1131247.0901536059 0 0 0 0 26722163.676391602 -54524447.785450935 0 -54524447.785450935 -3360364.310256958 0 0 0 0 -31201.902420043945 -10020440.749931812 0 -10020440.749931812 -60004107.293294907 0 0 0 0 -8142614.4664859772 -69057428.5108293 0 -69057428.5108293 32729198.474752426 0 0 0 0 18785898.417434692 -31871875.38961792 0 -31871875.38961792 61344405.572755814 0 0 0 0 12181414.707519531 -78608805.665151119 0 -78608805.665151119 111916666.20407867 0 0 0 0 -5659894.0615844727 54350101.301418304 0 54350101.301418304 -226392760.45675278 0 0 0 0 -3207634.0107983649 1441537.0810754113 0 1441537.0810754113 2198381.2089542737 0 0 0 0 26025.816382471672 -57991679.326938421 0 -57991679.326938421 118626232.50225449 0 0 0 0 -39355123.75668335 -24135535.473175049 0 -24135535.473175049 65500885.790952682 0 0 0 0 80986957.288040161 11359928.193658829 0 11359928.193658829 -5890886.4021759033 0 0 0 0 -40209073.546333313 -49701721.130644977 0 -49701721.130644977 -215870.10417175293 0 0 0 0 7699693.6693334728 -5848227.5501358956 0 -5848227.5501358956 -493750.14773339033 0 0 0 0 -7528248.0960845947 2828217.8762016296 0 2828217.8762016296 -6932057.3650612831 0 0 0 0 -15026462.371200562 8718892.8149261475 0 8718892.8149261475 3455089.3665847778 0 0 0 0 18126287.623245239 12559419.798156738 0 12559419.798156738 -23042743.683917999 0 0 0 0 9176332.0947570801 37383224.245437622 0 37383224.245437622 36894325.887313843 0 0 0 0 46206477.081680298 38726627.081684113 0 38726627.081684113 -4483951.583366394 0 0 0 0 1023587.7655240297 595185.22505908459 0 595185.22505908459 -534407.23741944879 0 0 0 0 26005419.710254669 -88264323.108228445 0 -88264323.108228445 163260914.17494965 0 0 0 0 452097782.8061142 -94269485.456678391 0 -94269485.456678391 -90595297.656913757 0 0 0 0 291505508.29147339 -188351467.30716324 0 -188351467.30716324 63503880.13110733 0 0 0 0 264258272.00979614 102079401.08444595 0 102079401.08444595 -26698516.930755615 0 0 0 0 493072163.0226593 -114572223.65430832 0 -114572223.65430832 -89232996.205230236 0 0 0 0 754314152.13278484 -435301494.11791778 0 -435301494.11791778 172353793.7271347 0 0 0 0 315897323.55288696 -173970368.96388054 0 -173970368.96388054 57831258.815032959 0 0 0 0 830952104.48332596 7965657.1232755184 0 7965657.1232755184 -67307714.843582153 0 0 0 0 -418208756.06903839 -124135546.31840324 0 -124135546.31840324 -334482000.80059052 0 0 0 0 -503265764.52650452 -621265404.04298782 0 -621265404.04298782 -525384743.52520752 0 0 0 0 6884398.230615139 -5853664.0774627477 0 -5853664.0774627477 887687.8857973218 0 0 0 0 89532243.820049286 -84140228.467326164 0 -84140228.467326164 -7292460.2759971619 0 0 0 0 -388441676.15482903 -70640706.226874828 0 -70640706.226874828 -126263690.55937195 0 0 0 0 74763479.645385742 -180541267.84116745 0 -180541267.84116745 -386297315.80183411 0 0 0 0 109500176.89404106 -6853645.0758399963 0 -6853645.0758399963 -92190919.090118408 0 0 0 0 502263010.78068542 -40929411.609649658 0 -40929411.609649658 -203885174.02080154 0 0 0 0 -175946078.99813843 -264993304.43581009 0 -264993304.43581009 342021419.27885437 0 0 0 0 -60791860.193786621 -265048845.27632523 0 -265048845.27632523 -382579165.30112076 0 0 0 0 3429232.7708154842 -6098340.5013933554 0 -6098340.5013933554 -5046065.2928827591 0 0 0 0 72091188.287414551 -17926541.233467102 0 -17926541.233467102 -13702139.389450073 0 0 0 0 76099813.634674072 -22128792.657691956 0 -22128792.657691956 -37986265.250392914 0 0 0 0 65849088.084091187 -38946379.297168732 0 -38946379.297168732 -27488817.694732666 0 0 0 0 296905534.79178238 -250382146.28860474 0 -250382146.28860474 135041791.45638275 0 0 0 0 1010900.389780283 771561.70797822252 0 771561.70797822252 -1198687.2770581385 0 0 0 0 3718467.0947400481 -1057796.4905032758 0 -1057796.4905032758 -5095667.3485404775 0 0 0 0 65219911.575195312 -30065762.44997406 0 -30065762.44997406 -6155973.0638504028 0 0 0 0 54516863.627593994 272339.30758666992 0 272339.30758666992 -21385144.099525452 0 0 0 0 -604879.66657964885 -6315704.5670303181 0 -6315704.5670303181 -9089673.9715187885 0 0 0 0 2612147.2841186523 49550173.622932434 0 49550173.622932434 57421676.064350128 0 0 0 0 -124538190.83578491 -2558977.5209274292 0 -2558977.5209274292 51500839.121212006 0 0 0 0 8373802.8412780762 35945192.147573471 0 35945192.147573471 18849842.890167236 0 0 0 0 -237792019.14193726 -202881647.23332214 0 -202881647.23332214 -113077336.6714592 0 0 0 0 196566802.72949219 -184235411.63356018 0 -184235411.63356018 -297505208.98876953 0 0 0 0 -127156710.88020325 -366075152.07535362 0 -366075152.07535362 -283930906.24143219 0 0 0 0 -216184216.5927124 -518310749.81594086 0 -518310749.81594086 -544064908.67181396 0 0 0 0 -576220.40386726707 -2163492.5412360281 0 -2163492.5412360281 -3008232.4392877072 0 0 0 0 -56345157.837844849 175557619.98176193 0 175557619.98176193 -270770221.38332939 0 0 0 0 -273099116.14439392 630962537.23291302 0 630962537.23291302 -845576618.95444489 0 0 0 0 -573323708.56521606 -547287804.19439316 0 -547287804.19439316 -107788413.71086121 0 0 0 0 799087772.46072388 -128791659.6241188 0 -128791659.6241188 -251808877.64328003 0 0 0 0 106609288.71313477 -227920563.36960602 0 -227920563.36960602 -231568729.25024509 0 0 0 0 140286122.32061768 -274479442.95959473 0 -274479442.95959473 -405724069.79323626 0 0 0 0 261476069.14373779 -234885026.57279968 0 -234885026.57279968 -775691260.52055359 0 0 0 0 8185482.6196374893 -5137707.4599702284 0 -5137707.4599702284 -2721257.9264095947 0 0 0 0 230162298.29641724 -212955847.93471909 0 -212955847.93471909 -411842480.58987427 0 0 0 0 818807.22828493267 -2093963.0165927485 0 -2093963.0165927485 -508379.70348649565 0 0 0 0 -8774682.459854126 -22884300.346843719 0 -22884300.346843719 -20102055.064735413 0 0 0 0 -22487170.133003235 -9215946.4567871094 0 -9215946.4567871094 1628800.9988021851 0 0 0 0 2974624.9131852686 -1584709.5227347687 0 -1584709.5227347687 -1428683.0803078432 0 0 0 0 195296867.57138062 -188539704.49243927 0 -188539704.49243927 -381580473.85182953 0 0 0 0 86583840.591278076 -31972823.687400818 0 -31972823.687400818 -64985023.784828186 0 0 0 0 493868.09625244141 -1678436.1593532562 0 -1678436.1593532562 -1874466.2833404541 0 0 0 0 3000533.0925827026 -6578272.5920848846 0 -6578272.5920848846 -5904925.3769454956 0 0 0 0 1160175.9546487406 -2994572.5483992388 0 -2994572.5483992388 -388528.9423006624 0 0 0 0 10805514.123840332 -2040048.6337852478 0 -2040048.6337852478 -16206218.980117798 0 0 0 0 3315709.3278577328 -4332875.2952426672 0 -4332875.2952426672 -2841134.5913434029 0 0 0 0 2080069.140838623 -18808378.384304047 0 -18808378.384304047 -1686928.3091430664 0 0 0 0 -13106764.51259613 1821294.659368515 0 1821294.659368515 10923666.659767151 0 0 0 0 438850324.66598511 -271327842.30077362 0 -271327842.30077362 -1308810612.4982376 0 0 0 0 7514114.9957275391 -268578689.9985733 0 -268578689.9985733 -205282136.69017982 0 0 0 0 -14057572.571350098 -17914363.283290863 0 -17914363.283290863 -281784761.05723572 0 0 0 0 -423277786.30639648 -71056068.096843719 0 -71056068.096843719 869153867.61961746 0 0 0 0 -398369121.83105469 890307178.75467682 0 890307178.75467682 117503949.84188461 0 0 0 0 -807483451.54449463 -1311442996.3202515 0 -1311442996.3202515 -202793874.09335876 0 0 0 0 1409734949.965332 -40613325.176208496 0 -40613325.176208496 -299464447.16281128 0 0 0 0 458635801.90664673 -645866418.68271637 0 -645866418.68271637 2398139451.3182602 0 0 0 0 224734.3627422601 48129.061773357913 0 48129.061773357913 65841.010442424566 0 0 0 0 -108101762.43792725 -1348902458.3504639 0 -1348902458.3504639 -202988812.58835453 0 0 0 0 -2740832305.0513 238404140.7093811 0 238404140.7093811 -310200256.73294067 0 0 0 0 261579173.57910156 -81618640.212478638 0 -81618640.212478638 -2532441778.3359375 0 0 0 0 234965005.23474121 73367603.967674255 0 73367603.967674255 -407860993.83425903 0 0 0 0 79390082.930480957 212600878.30708313 0 212600878.30708313 599777832.38161087 0 0 0 0 846655.37136296928 -1517286.6213953001 0 -1517286.6213953001 3375576.4612406641 0 0 0 0 218418.50280761719 -685937.52640533447 0 -685937.52640533447 4270075.1327056885 0 0 0 0 376015.57672119141 -1338796.0749206543 0 -1338796.0749206543 4373823.3307552338 0 0 0 0 -985786.74697875977 -11049455.104766846 0 -11049455.104766846 17201806.645507812 0 0 0 0 -424234.32600355148 -9946436.0882252157 0 -9946436.0882252157 -3530111.2387523465 0 0 0 0 600966.77458190918 -1790435.5803070068 0 -1790435.5803070068 5196301.718963623 0 0 0 0 142307.66903686523 -909435.78017997742 0 -909435.78017997742 4993788.9256896973 0 0 0 0 -68818740.246643066 -30298319.305358887 0 -30298319.305358887 53858626.40297699 0 0 0 0 -5871825.4582519531 4899140.5897941589 0 4899140.5897941589 1262135.8709564209 0 0 0 0 -353144.97096148133 -913084.46832112968 0 -913084.46832112968 847241.34451190941 0 0 0 0 -42214265.039672852 14326551.285598755 0 14326551.285598755 16169893.4112854 0 0 0 0 -13633549.893127441 -7915631.33751297 0 -7915631.33751297 33386180.951675415 0 0 0 0 -1715104.1570970118 -13724556.054442199 0 -13724556.054442199 -8642788.1095983256 0 0 0 0 -3069835.7561950684 -56933019.02897644 0 -56933019.02897644 51477725.855640411 0 0 0 0 -29391500.573455811 -45647995.945739746 0 -45647995.945739746 59473031.68050766 0 0 0 0 5697490.8314933777 -17222942.0058465 0 -17222942.0058465 -224543.72248840332 0 0 0 0 -26536048.293243408 -1619584.4301834106 0 -1619584.4301834106 34979167.292667389 0 0 0 0 10265962.201416016 -25864562.170719147 0 -25864562.170719147 27243650.215705872 0 0 0 0 2830206.3123822249 -8623744.555055324 0 -8623744.555055324 -5976602.461413756 0 0 0 0 15954533.028488159 -12944244.968994141 0 -12944244.968994141 -8745227.009147644 0 0 0 0 -5505320.0827559754 -17430924.782429308 0 -17430924.782429308 -9065.618751404807 0 0 0 0 -10009557.786865234 1912267.2565078735 0 1912267.2565078735 20640537.96585083 0 0 0 0 -1196358.9835589603 -1819741.9548834041 0 -1819741.9548834041 1660398.1791365892 0 0 0 0 5271383.5216349363 -6868869.8011335842 0 -6868869.8011335842 -6863582.4314550478 0 0 0 0 9262762.1688842773 -8552203.0997633934 0 -8552203.0997633934 -2974049.2299499512 0 0 0 0 8377278.2453536987 -11916350.961453438 0 -11916350.961453438 -3823358.2673797607 0 0 0 0 5731403.2200927734 -15254789.612345695 0 -15254789.612345695 354873.61490249634 0 0 0 0 6169767.9091339111 -19924477.107326508 0 -19924477.107326508 4475414.5531191826 0 0 0 0 -4939252.9529032856 -20593028.935502533 0 -20593028.935502533 -14513851.323809043 0 0 0 0 -849184.83279575408 -839981.85643207654 0 -839981.85643207654 974846.52497348934 0 0 0 0 8359384.888092041 7326150.389005661 0 7326150.389005661 -48782054.86151886 0 0 0 0 3217515.7203598022 4995749.2788200378 0 4995749.2788200378 -29250200.508605957 0 0 0 0 11457031.582733154 -7793787.4849815369 0 -7793787.4849815369 -13212708.275594711 0 0 0 0 13004705.902954102 -7673627.1788311005 0 -7673627.1788311005 -16844430.384765625 0 0 0 0 9616596.5057830811 -3472693.8214759827 0 -3472693.8214759827 -9918916.911315918 0 0 0 0 13427240.875061035 -20826934.967300415 0 -20826934.967300415 -4741045.4992713928 0 0 0 0 15649998.029373169 -22126253.323963165 0 -22126253.323963165 -6030326.212097168 0 0 0 0 12297927.941879272 -19014140.647975922 0 -19014140.647975922 -6267514.1129455566 0 0 0 0 6094873.6781234741 -1987936.2161903381 0 -1987936.2161903381 -37656389.145477295 0 0 0 0 19740731.177261353 -19112525.762449265 0 -19112525.762449265 -28307995.102638245 0 0 0 0 7045506.605758667 11152050.575868607 0 11152050.575868607 -150107376.2234993 0 0 0 0 -7257681.284576416 -5971751.6552085876 0 -5971751.6552085876 -35442212.76877594 0 0 0 0 -201276410.06930542 -76958074.164798737 0 -76958074.164798737 -7317548.2587928772 0 0 0 0 -634927.94358000159 -64950.060774874873 0 -64950.060774874873 620841.84671607614 0 0 0 0 -70374473.47555542 39779966.003395081 0 39779966.003395081 14463249.874279022 0 0 0 0 -31594952.391387939 -4616592.3637962341 0 -4616592.3637962341 16682946.877113342 0 0 0 0 -35222473.98374939 -11694436.131931305 0 -11694436.131931305 12960917.848960876 0 0 0 0 -25440751.455322266 -8030207.5708656311 0 -8030207.5708656311 4240096.8766822815 0 0 0 0 -49279398.032997131 -2557579.6526355743 0 -2557579.6526355743 52795287.288238525 0 0 0 0 -38026395.033546448 -36229103.828408241 0 -36229103.828408241 13323862.023338318 0 0 0 0 1815452.0038327277 436911.88881985843 0 436911.88881985843 -985976.16603674553 0 0 0 0 -774788.30360364169 -986974.82843849063 0 -986974.82843849063 1069761.4578424469 0 0 0 0 177294396.62350464 -102719690.33795166 0 -102719690.33795166 -50520061.560714722 0 0 0 0 -24349025.420837402 -38236565.204597473 0 -38236565.204597473 -67360721.565864563 0 0 0 0 -35210370.964401245 -12359810.972541809 0 -12359810.972541809 3774985.5485086441 0 0 0 0 465503184.31388855 -83040190.408051491 0 -83040190.408051491 -84228808.041851044 0 0 0 0 328191322.83154297 61374310.484855652 0 61374310.484855652 -107803765.21638489 0 0 0 0 199810026.44470215 -9199224.6823959351 0 -9199224.6823959351 3002009.0774803162 0 0 0 0 -275580641.19694519 -75528553.134880066 0 -75528553.134880066 81598246.783878326 0 0 0 0 256012688.61032104 -72153973.323368073 0 -72153973.323368073 730438.60571289062 0 0 0 0 274654138.19844818 -74046452.809617996 0 -74046452.809617996 -68366233.575134277 0 0 0 0 293829781.51168823 -105774807.55464935 0 -105774807.55464935 -22312515.529876709 0 0 0 0 254810357.71295547 -116576294.70234013 0 -116576294.70234013 -12490378.454032898 0 0 0 0 58621469.555557251 -114353210.57152081 0 -114353210.57152081 -87481644.429946899 0 0 0 0 249971695.91072083 -108463845.68659973 0 -108463845.68659973 2481615.8362574577 0 0 0 0 -1243025.5185279548 -1589365.2257353589 0 -1589365.2257353589 2253430.9159356132 0 0 0 0 -28956881.335746765 87046589.477140427 0 87046589.477140427 -14216190.672431946 0 0 0 0 245502107.29981995 -138691285.8678093 0 -138691285.8678093 32338604.941522822 0 0 0 0 130415819.20249939 -147586974.90096664 0 -147586974.90096664 32314990.670993805 0 0 0 0 303732056.17948914 -201500526.4976387 0 -201500526.4976387 -27446623.392644882 0 0 0 0 318624657.90994263 -210187615.95712852 0 -210187615.95712852 -30937378.507537842 0 0 0 0 449026501.99046326 -174660431.14312363 0 -174660431.14312363 -79123387.928146362 0 0 0 0 310126649.93078995 -133203622.65288806 0 -133203622.65288806 -73343230.098869324 0 0 0 0 273708474.78683472 -122573217.01913071 0 -122573217.01913071 -52779686.115066528 0 0 0 0 253147153.54006958 -107981091.1416111 0 -107981091.1416111 -63011433.017002106 0 0 0 0 239166170.39701843 -162541000.30621147 0 -162541000.30621147 -35187908.259590149 0 0 0 0 256466901.75042725 -139602807.68527794 0 -139602807.68527794 -25266101.033982277 0 0 0 0 406016485.17713928 16731909.274730682 0 16731909.274730682 -50811039.986976624 0 0 0 0 186547694.84683228 -25718113.719263077 0 -25718113.719263077 -40138177.515058517 0 0 0 0 289926991.92212296 -66443741.497995377 0 -66443741.497995377 -51627622.126121521 0 0 0 0 106929381.06480408 -24146664.684814453 0 -24146664.684814453 -30888975.316265106 0 0 0 0 187251487.46130371 -23009359.137235165 0 -23009359.137235165 -38495397.438499451 0 0 0 0 130354002.72314453 -43824359.94947052 0 -43824359.94947052 -56409908.535458803 0 0 0 0 167953685.20066452 -23177533.834545612 0 -23177533.834545612 -47237145.857147217 0 0 0 0 156428263.83256531 -56994280.900222778 0 -56994280.900222778 -43110100.869452477 0 0 0 0 224039819.03439331 -113116323.39585304 0 -113116323.39585304 -32729338.176994324 0 0 0 0 81405103.062408447 -98945894.022174835 0 -98945894.022174835 -24038393.991779327 0 0 0 0 196494294.21495056 -70818847.471046448 0 -70818847.471046448 -54045010.45746994 0 0 0 0 150349063.7492218 3796913.7648878098 0 3796913.7648878098 -154676724.49699402 0 0 0 0 333012500.22735596 -190980537.37932014 0 -190980537.37932014 3172320.2648506165 0 0 0 0 286742227.45866394 -151144553.2127707 0 -151144553.2127707 -35908582.949287415 0 0 0 0 207646723.69877625 -89845303.445178986 0 -89845303.445178986 -45915213.913761139 0 0 0 0 212018496.49490356 -133222960.90246582 0 -133222960.90246582 -19556525.873592377 0 0 0 0 182635309.08843994 -87588739.215988159 0 -87588739.215988159 85056848.990894318 0 0 0 0 391385669.1183548 -8829549.0115861893 0 -8829549.0115861893 -16239135.383728027 0 0 0 0 152131775.80990601 -97176224.239809036 0 -97176224.239809036 5961632.9091911316 0 0 0 0 68759521.056594849 58677111.977893829 0 58677111.977893829 -66020840.084469795 0 0 0 0 205979636.44710159 -53901230.139767647 0 -53901230.139767647 -78873885.363609314 0 0 0 0 51744297.946014404 -65810482.783893585 0 -65810482.783893585 -29423218.346767426 0 0 0 0 -720682.32864542305 164681.60797675513 0 164681.60797675513 1021968.3286022916 0 0 0 0 -40337442.913890839 147569743.96476698 0 147569743.96476698 -161190791.92210007 0 0 0 0 281961296.14421082 -354724797.48804474 0 -354724797.48804474 316950540.50505257 0 0 0 0 -807671.28065501153 367260.0532655865 0 367260.0532655865 1632248.0919608101 0 0 0 0 256899279.23361015 -284464791.86682677 0 -284464791.86682677 157397074.26282501 0 0 0 0 198925140.77632141 -187968621.99993134 0 -187968621.99993134 113049898.4501915 0 0 0 0 232260042.20793152 -150524698.55235291 0 -150524698.55235291 151876732.68117523 0 0 0 0 92252857.640777588 -78595930.297603607 0 -78595930.297603607 56491288.025335312 0 0 0 0 192588345.85202026 -256871127.60447121 0 -256871127.60447121 133108027.34690094 0 0 0 0 243306906.20739746 -223035027.04402924 0 -223035027.04402924 139043534.26418495 0 0 0 0 234013059.50935364 -170403817.46918488 0 -170403817.46918488 -146786192.39951706 0 0 0 0 -461423.40416315198 541489.9207492657 0 541489.9207492657 1649293.530463703 0 0 0 0 280288255.13725853 -70645736.743623734 0 -70645736.743623734 -14078491.748603821 0 0 0 0 -168232793.70007324 -80533125.47145462 0 -80533125.47145462 37359303.088592529 0 0 0 0 -234855973.37609863 64283815.147953033 0 64283815.147953033 16629734.309352994 0 0 0 0 11140818.740190603 -4027590.5680989996 0 -4027590.5680989996 -901791.35336977243 0 0 0 0 97675658.144927979 -40119593.329704285 0 -40119593.329704285 67369049.635650635 0 0 0 0 -8879299.1776580811 -19979861.289325714 0 -19979861.289325714 -4091061.489730835 0 0 0 0 33304076.575974979 -29375551.93031735 0 -29375551.93031735 3862084.8049184494 0 0 0 0 19298391.027954102 3566630.9508361816 0 3566630.9508361816 -15376672.91784668 0 0 0 0 -14008391.796777189 -25321970.228943855 0 -25321970.228943855 753462.4786605835 0 0 0 0 22680156.682312012 -116530301.27391052 0 -116530301.27391052 91190111.279418945 0 0 0 0 14096960.595793329 -37863458.639066234 0 -37863458.639066234 5210464.7815367505 0 0 0 0 -3936299.6583893672 741931.99646136165 0 741931.99646136165 2118236.2143916674 0 0 0 0 40666685.487930298 -91237148.790828705 0 -91237148.790828705 -26410357.562561035 0 0 0 0 3156146.0260772705 -16302976.204872131 0 -16302976.204872131 -9632966.1100769043 0 0 0 0 172034846.3631134 -31472965.859460831 0 -31472965.859460831 -856590.6226272583 0 0 0 0 -21880459.326965332 -34833809.071056366 0 -34833809.071056366 -5215503.4613552094 0 0 0 0 748850.66759737954 -14373325.338868223 0 -14373325.338868223 -648856.6800737977 0 0 0 0 12105079.558818275 -17322185.428441729 0 -17322185.428441729 1327303.9819310606 0 0 0 0 -56925932.769958496 430930.15437316895 0 430930.15437316895 -59739840.77243042 0 0 0 0 -63221775.445495605 1199907.9110603333 0 1199907.9110603333 57377002.358203888 0 0 0 0 41358729.061882019 -32862387.706474304 0 -32862387.706474304 106179413.82717133 0 0 0 0 11057814.564834595 -85994694.017024994 0 -85994694.017024994 19590342.702190399 0 0 0 0 -47506739.984085083 -9607454.0693206787 0 -9607454.0693206787 29330290.279441833 0 0 0 0 -109996661.1370697 -80952410.692569733 0 -80952410.692569733 128725146.43812561 0 0 0 0 47714258.297710419 -104748629.80252647 0 -104748629.80252647 35452374.817398071 0 0 0 0 307012851.13381958 -203820260.54050255 0 -203820260.54050255 79557843.77144146 0 0 0 0 57273078.224853516 -52089403.201999664 0 -52089403.201999664 81804072.520584106 0 0 0 0 -42825449.071456909 -76321566.845968246 0 -76321566.845968246 72932984.036556244 0 0 0 0 -41920062.027648926 -59123905.118083954 0 -59123905.118083954 -7780197.2318916321 0 0 0 0 -104976176.00701904 -31909235.457805634 0 -31909235.457805634 13274699.661189914 0 0 0 0 -148953052.33551025 -31344774.336860657 0 -31344774.336860657 77862125.157306671 0 0 0 0 5908393.0948867798 -15558497.322999001 0 -15558497.322999001 19209665.632164001 0 0 0 0 -1535213.0994667732 -21232363.624315426 0 -21232363.624315426 16293449.493953418 0 0 0 0 7688718.6655483246 -28086738.405727267 0 -28086738.405727267 22267155.342330933 0 0 0 0 15074974.052825928 -25162310.930023193 0 -25162310.930023193 20904596.305161476 0 0 0 0 33093.767747506499 54631.789932690561 0 54631.789932690561 -254841.40972378477 0 0 0 0 -4916314.3114318848 -11961597.974443436 0 -11961597.974443436 12045355.586334229 0 0 0 0 -15466200.688087821 -19138726.227476887 0 -19138726.227476887 11001382.156330109 0 0 0 0 -72700810.853027344 -75657646.617277145 0 -75657646.617277145 44036879.218173981 0 0 0 0 11138419.354560718 -27378199.748377137 0 -27378199.748377137 18318457.276721731 0 0 0 0 -16494014.624191284 -88525660.226041794 0 -88525660.226041794 22719472.440917969 0 0 0 0 -24563876.26374054 -70012210.407799721 0 -70012210.407799721 188712.84954833984 0 0 0 0 -18083994.670623779 -93717792.526254654 0 -93717792.526254654 1766598.5951592922 0 0 0 0 -1401696836.0139313 -35557955.084995344 0 -35557955.084995344 -1609302719.2085266 0 0 0 0 2008489.8939893632 -5040123.2346031964 0 -5040123.2346031964 -284706.96095963009 0 0 0 0 257394414.36016083 366022600.61758804 0 366022600.61758804 -1435586837.0482407 0 0 0 0 -150464958.34269994 -893132095.53444743 0 -893132095.53444743 -706892059.99681091 0 0 0 0 -4532652.3936674818 -22063958.385522809 0 -22063958.385522809 30952285.949211001 0 0 0 0 -106020149.85380554 8721376.3986644745 0 8721376.3986644745 -430761639.46850967 0 0 0 0 114296768.57641602 -144284423.1331749 0 -144284423.1331749 66098710.856940269 0 0 0 0 41172866.892471313 -80018246.492313385 0 -80018246.492313385 11832991.026771545 0 0 0 0 35998230.097549438 -100721929.11053467 0 -100721929.11053467 14607208.76279068 0 0 0 0 63512148.197860718 -98253619.558280945 0 -98253619.558280945 5923596.2234182358 0 0 0 0 41536681.964935303 -71120779.738819122 0 -71120779.738819122 -2565977.672504425 0 0 0 0 130875384.04042053 -49583132.424285889 0 -49583132.424285889 -31365663.856788635 0 0 0 0 85097891.128936768 -56753499.52130127 0 -56753499.52130127 -32147018.658761978 0 0 0 0 54276810.872314453 -44707020.232114792 0 -44707020.232114792 -21477460.325340271 0 0 0 0 -21329225.002761841 -65194930.120441437 0 -65194930.120441437 5155488.0493602753 0 0 0 0 17949485.706443787 -80527786.350195408 0 -80527786.350195408 -20179830.889385223 0 0 0 0 21975026.53446018 -29493990.166965812 0 -29493990.166965812 26935313.780588478 0 0 0 0 -1634012637.572937 -1602625507.7380791 0 -1602625507.7380791 177750242.35410309 0 0 0 0 58959462.865158081 5348714.7622528076 0 5348714.7622528076 5996130.8196411133 0 0 0 0 2649686827.2708817 265213127.99227905 0 265213127.99227905 -854899545.59177208 0 0 0 0 -214368144.71044159 -578817357.020504 0 -578817357.020504 -1047302601.4158592 0 0 0 0 -681424401.26519775 246346609.8927803 0 246346609.8927803 -1101345806.7366638 0 0 0 0 805171860.75925064 93736852.731807709 0 93736852.731807709 -1249511696.5159531 0 0 0 0 -973998906.66267014 -617483157.61775637 0 -617483157.61775637 -840657805.22445679 0 0 0 0 29362721.277868994 -38989779.160007171 0 -38989779.160007171 28677206.349955298 0 0 0 0 1872223931.8203049 -1704104969.742197 0 -1704104969.742197 -1864455741.1343098 0 0 0 0 399824119.47158813 -2015450313.8945045 0 -2015450313.8945045 -1624227381.0021667 0 0 0 0 -1505783406.658031 90831694.207047105 0 90831694.207047105 1743712586.1647053 0 0 0 0 -75662901.914756775 480480427.86941719 0 480480427.86941719 1717734456.1411877 0 0 0 0 95761195.599998474 96258990.228888512 0 96258990.228888512 18513172.711929321 0 0 0 0 -407098102.66893005 134141324.78849602 0 134141324.78849602 80241269.329078674 0 0 0 0 531536242.6301384 801375571.74701118 0 801375571.74701118 -835166491.22797394 0 0 0 0 47707295.96521759 209920387.6181221 0 209920387.6181221 -193371189.55075741 0 0 0 0 36291588.452033997 357344773.36786747 0 357344773.36786747 -794777187.0782814 0 0 0 0 46979861.703147888 159092364.92204857 0 159092364.92204857 -411939508.26940918 0 0 0 0 -95386273.761501312 106938738.8121767 0 106938738.8121767 -157406518.1121254 0 0 0 0 -265859864.91539383 225613274.88319397 0 225613274.88319397 407379398.5290699 0 0 0 0 -84080400.293052673 54003990.829378128 0 54003990.829378128 68540254.527535439 0 0 0 0 27233710.402580261 -80313070.91059494 0 -80313070.91059494 -523111781.14775467 0 0 0 0 13191055.58883667 -95440003.658630371 0 -95440003.658630371 -273494132.30278397 0 0 0 0 -285151849.26266861 -221686198.99013329 0 -221686198.99013329 208001653.08956528 0 0 0 0 522274279.12999344 111006095.19515705 0 111006095.19515705 -1058308912.1386261 0 0 0 0 -589202427.22542191 53007031.183675766 0 53007031.183675766 510090599.61193848 0 0 0 0 285286.11236410588 -2943672.0125119239 0 -2943672.0125119239 846162.18981507234 0 0 0 0 -66792679.045936584 253745499.77990341 0 253745499.77990341 -426681169.83275986 0 0 0 0 52037014.823806763 145673082.93993187 0 145673082.93993187 -567717350.11507797 0 0 0 0 15796583.561035156 172948735.92934227 0 172948735.92934227 -305478489.77153826 0 0 0 0 174832363.41822052 789430443.07537079 0 789430443.07537079 244542244.24067688 0 0 0 0 -42648435.15927124 131927544.53172493 0 131927544.53172493 -163763308.15566254 0 0 0 0 376233334.44374847 -630195264.46265984 0 -630195264.46265984 -656666983.27697563 0 0 0 0 -3235516.6512063192 -8752180.7098280676 0 -8752180.7098280676 -9483387.5536025409 0 0 0 0 42808424.151046753 -140014980.26990986 0 -140014980.26990986 238032171.78828621 0 0 0 0 1291135.6064959243 -3696574.2158763139 0 -3696574.2158763139 -4165063.7649969934 0 0 0 0 41601101.76197052 -22194174.521865845 0 -22194174.521865845 30104824.329461098 0 0 0 0 460540141.20367432 112085334.44827271 0 112085334.44827271 -155724341.56921387 0 0 0 0 -300329340.90283966 -232736069.52010202 0 -232736069.52010202 27542065.83275032 0 0 0 0 36608373.850960255 -66159919.943219602 0 -66159919.943219602 -373278.60145568848 0 0 0 0 46791813.790473938 6172583.8376579285 0 6172583.8376579285 -20710680.943405151 0 0 0 0 9081830.8472894244 -10665897.012049345 0 -10665897.012049345 -10613665.975846099 0 0 0 0 -232408652.84979725 18685085.686907291 0 18685085.686907291 13091740.347675323 0 0 0 0 125897074.76959991 -47092446.93914032 0 -47092446.93914032 -48677117.836631775 0 0 0 0 1129524.196983045 -10762761.125362627 0 -10762761.125362627 3373511.0795635618 0 0 0 0 6183364.905418396 -68062334.591112137 0 -68062334.591112137 -867030.6227645874 0 0 0 0 -24192053.789321899 243833.48480224609 0 243833.48480224609 -12201576.690292358 0 0 0 0 -3883829.5490784645 -26511312.690815389 0 -26511312.690815389 17045347.272037506 0 0 0 0 7080626.0368289426 -25953569.458980381 0 -25953569.458980381 20227554.036221031 0 0 0 0 41843657.204956055 -109514713.579319 0 -109514713.579319 -41078007.641645432 0 0 0 0 105426112.66186523 -96506623.368721008 0 -96506623.368721008 -44674464.659654617 0 0 0 0 3248131.2217407227 403780260.81061745 0 403780260.81061745 -489648130.39901733 0 0 0 0 2032424.4739402719 -2208619.3351241015 0 -2208619.3351241015 -2725870.414560074 0 0 0 0 -66928668.549070358 -145545880.51646805 0 -145545880.51646805 -24620048.229579926 0 0 0 0 215915699.8802948 323729828.63545609 0 323729828.63545609 -982833360.93385983 0 0 0 0 -40395937.13507843 -207496584.52545357 0 -207496584.52545357 -435428573.80104256 0 0 0 0 -14230163.84173584 -61125066.501098633 0 -61125066.501098633 -183983382.72222519 0 0 0 0 34013749.260536194 103264057.99265099 0 103264057.99265099 -451668092.83944702 0 0 0 0 -111842513.24613953 -45516802.700317383 0 -45516802.700317383 17916593.586708069 0 0 0 0 -20231789.358448982 -46604939.918000221 0 -46604939.918000221 -34916714.211143494 0 0 0 0 -248876303.67301178 -49965364.767526627 0 -49965364.767526627 -63679088.46847868 0 0 0 0 -417057146.48776245 -486390140.4472692 0 -486390140.4472692 -426190658.41854095 0 0 0 0 -907435586.98004913 -370205640.40942764 0 -370205640.40942764 -102883375.13908815 0 0 0 0 -555165899.26480865 -546157644.78052115 0 -546157644.78052115 -302459677.11643791 0 0 0 0 -583691214.85667419 -146105837.96670699 0 -146105837.96670699 23493882.947798967 0 0 0 0 -72951848.956733704 76425810.452289104 0 76425810.452289104 114600642.00155735 0 0 0 0 -67502888.446705818 -68602662.94338508 0 -68602662.94338508 37697656.831392288 0 0 0 0 -112397.08287143335 568494.51435872586 0 568494.51435872586 -1442043.1519790092 0 0 0 0 -473530038.32074356 -476843514.88359499 0 -476843514.88359499 -421388624.76979065 0 0 0 0 -691774932.99126625 -881465084.40773273 0 -881465084.40773273 -748120804.57465553 0 0 0 0 1429685.7652130127 -20094467.730273247 0 -20094467.730273247 71199206.502799988 0 0 0 0 51854876.12795639 -49276858.603919744 0 -49276858.603919744 2643765.6193447113 0 0 0 0 -1437855.5033297166 848859.56457784679 0 848859.56457784679 -3132461.5838823551 0 0 0 0 -2498050.869454029 -4927053.6867628805 0 -4927053.6867628805 -7255855.1771560349 0 0 0 0 9398043.358921051 -88139413.540660381 0 -88139413.540660381 -27888923.15892601 0 0 0 0 8905517.8132858276 28628835.631975055 0 28628835.631975055 -17357583.983283721 0 0 0 0 114837809.86814547 -4931741.7003224716 0 -4931741.7003224716 -82168059.680786371 0 0 0 0 5537667.5010414124 -14839446.170056343 0 -14839446.170056343 16271972.342476606 0 0 0 0 -104451740.13489723 -47325307.539251864 0 -47325307.539251864 -60043739.057351947 0 0 0 0 -40633528.415699005 52064495.063409746 0 52064495.063409746 -77976654.883239865 0 0 0 0 -58615766.421382904 -59321982.341693461 0 -59321982.341693461 -60137223.435438275 0 0 0 0 -90494797.469120026 155424.37094223499 0 155424.37094223499 -165572751.30685759 0 0 0 0 -284861470.11538696 -12482913.917240918 0 -12482913.917240918 -37426908.106500268 0 0 0 0 -231045396.99330139 -194895022.99755391 0 -194895022.99755391 -436186970.12187362 0 0 0 0 -361020724.09667969 -393039822.16315484 0 -393039822.16315484 -196750998.43424511 0 0 0 0 -106346529.75998688 23749453.32589674 0 23749453.32589674 -4491571.1132705212 0 0 0 0 -373280489.9630127 -119886278.31435323 0 -119886278.31435323 -5346822.8650503755 0 0 0 0 -3203382.6002883911 -155240792.79137421 0 -155240792.79137421 -36130727.106239676 0 0 0 0 -326443368.20467377 103578676.37057781 0 103578676.37057781 -748420996.84199977 0 0 0 0 -980944986.62926483 -452525489.36494565 0 -452525489.36494565 -152463859.83356389 0 0 0 0 -1327493223.1251678 -677810549.30684912 0 -677810549.30684912 -166811491.40622854 0 0 0 0 -444010453.74210358 -645453016.29793513 0 -645453016.29793513 -892269041.07071817 0 0 0 0 -43042274.75353241 -28152654.799090385 0 -28152654.799090385 2132539.0439319611 0 0 0 0 -133100.0272851754 -1532296.8258504793 0 -1532296.8258504793 -368522.00355161121 0 0 0 0 63112683.108322144 -43181312.699823141 0 -43181312.699823141 -35771618.657482147 0 0 0 0 -35977778.703727722 -41695548.275754452 0 -41695548.275754452 -9194791.2057425976 0 0 0 0 -35532802.80122602 -51905853.711921483 0 -51905853.711921483 29397223.797032356 0 0 0 0 -153383779.80258942 -77783824.202035427 0 -77783824.202035427 30191866.129825592 0 0 0 0 -39851538.274158478 -32977419.755037785 0 -32977419.755037785 5664629.3577651978 0 0 0 0 -44090528.53212738 -32426793.755212784 0 -32426793.755212784 9628527.8525009155 0 0 0 0 -33546343.71088171 -35252638.189709425 0 -35252638.189709425 -11685494.399532318 0 0 0 0 -28623581.189876556 14956079.973340988 0 14956079.973340988 39911268.252301216 0 0 0 0 -2333296.8478736356 -4866469.8108322099 0 -4866469.8108322099 1944331.3155582659 0 0 0 0 -40277167.116615295 -22510737.664475441 0 -22510737.664475441 22209165.496697903 0 0 0 0 -4081979.1582691055 -5271565.3981843088 0 -5271565.3981843088 -1467953.4174576607 0 0 0 0 33515716.589511871 69472602.501801491 0 69472602.501801491 4587410.5357918143 0 0 0 0 -19212036.970743179 -30070561.042945862 0 -30070561.042945862 -18336189.514060974 0 0 0 0 -16271718.755643845 -12963232.082324982 0 -12963232.082324982 -10656037.029010773 0 0 0 0 -34702753.494194031 -29435871.758823395 0 -29435871.758823395 -9394952.862197876 0 0 0 0 3891291.2494316101 -24558224.699756622 0 -24558224.699756622 -21800694.544036865 0 0 0 0 -9352778.286863327 -27308283.021149635 0 -27308283.021149635 -13916704.829475403 0 0 0 0 -8510824.6806316376 -30193910.640685081 0 -30193910.640685081 -12990842.92098999 0 0 0 0 -505849.75135850906 -3425216.8904848956 0 -3425216.8904848956 -162247.1702904047 0 0 0 0 -29976352.587713242 -42645113.399522781 0 -42645113.399522781 -20305211.015403748 0 0 0 0 -3431591.5664199591 -4260789.8696661815 0 -4260789.8696661815 -3933194.5552444011 0 0 0 0 -44573395.333772659 -25179781.457792282 0 -25179781.457792282 -15158171.140380859 0 0 0 0 -17195900.179382324 -40216457.671173096 0 -40216457.671173096 51064915.326957703 0 0 0 0 -31538602.089500427 -24841591.708450317 0 -24841591.708450317 -43465040.934448242 0 0 0 0 -37543620.514242172 -27077300.60830307 0 -27077300.60830307 -11657469.899688721 0 0 0 0 -29233996.441619873 -36839258.629306793 0 -36839258.629306793 -10530248.24238205 0 0 0 0 -2040295.6555577125 -6057456.8547209315 0 -6057456.8547209315 3850869.3527631871 0 0 0 0 -33241710.474758148 -20519948.208624363 0 -20519948.208624363 5493663.4208803177 0 0 0 0 -31001604.961574554 -23503743.7269907 0 -23503743.7269907 -16479212.174758911 0 0 0 0 -36526604.686969757 -31415310.096363068 0 -31415310.096363068 -11765136.969097137 0 0 0 0 -25506751.709106445 -33768651.652297974 0 -33768651.652297974 -16131857.744918823 0 0 0 0 -40049173.528739929 -30652883.956756115 0 -30652883.956756115 -7035546.6584335566 0 0 0 0 -32153141.923013687 -27301922.448578596 0 -27301922.448578596 -7440923.435256958 0 0 0 0 2451567.3337160349 -4281853.1621577069 0 -4281853.1621577069 -2667498.8058934845 0 0 0 0 -13527196.248155594 -17105508.291831493 0 -17105508.291831493 8928994.5958480835 0 0 0 0 -13480631.694480896 -16372638.261350632 0 -16372638.261350632 18063992.867954254 0 0 0 0 -8392084.15625 -12703534.015499115 0 -12703534.015499115 5541028.8844184875 0 0 0 0 8668166.3498725891 -28782959.50454998 0 -28782959.50454998 13603423.123462677 0 0 0 0 -8644428.1369171143 -13046021.777832031 0 -13046021.777832031 12505148.857632637 0 0 0 0 7783056.8258700557 -19503768.189958151 0 -19503768.189958151 15902912.386011273 0 0 0 0 6792939.6176822931 -22947133.456129655 0 -22947133.456129655 13762192.81605069 0 0 0 0 -1544629.4581985474 -25908155.183410645 0 -25908155.183410645 20104799.027283669 0 0 0 0 14158643.52419281 -33537629.530873775 0 -33537629.530873775 15211782.132804871 0 0 0 0 10168529.13659668 -18069417.579313278 0 -18069417.579313278 8758588.6111450195 0 0 0 0 13021137.227634326 -26777222.034398638 0 -26777222.034398638 6689122.7759516016 0 0 0 0 1742786.8838731721 -18190313.708186466 0 -18190313.708186466 3720725.9598254859 0 0 0 0 -3485387.0159219466 -9596162.0760450866 0 -9596162.0760450866 5666314.8367715199 0 0 0 0 -3108425.1170864105 -13408216.32460618 0 -13408216.32460618 5183776.7651824951 0 0 0 0 -7828668.9795227051 -11612907.864458561 0 -11612907.864458561 -989591.52830123901 0 0 0 0 -28770087.036354065 -20647618.254788399 0 -20647618.254788399 17098889.935475051 0 0 0 0 -56647217.659259796 -45619724.783167601 0 -45619724.783167601 1062559.669675827 0 0 0 0 997386.11090087891 -92825410.178156853 0 -92825410.178156853 -3752729.1037116647 0 0 0 0 742376.32595067704 -15986012.074455556 0 -15986012.074455556 -16008546.58950397 0 0 0 0 65448987.691436768 -47675176.160882831 0 -47675176.160882831 -10863726.268221378 0 0 0 0 6812867.3696136475 -49358244.456197262 0 -49358244.456197262 24917113.933971763 0 0 0 0 -23576856.948364258 -29453339.18404875 0 -29453339.18404875 -10784033.956559636 0 0 0 0 2092689.6358146667 -48364910.82624054 0 -48364910.82624054 -28919888.188105583 0 0 0 0 -24808919.896125793 -66301206.643428922 0 -66301206.643428922 3620743.2473886786 0 0 0 0 670229.45220481232 -17070602.575939663 0 -17070602.575939663 5353503.858105246 0 0 0 0 79032839.749465942 -40662506.657266617 0 -40662506.657266617 -38457504.524417877 0 0 0 0 -49065956.457609177 -18342320.706375122 0 -18342320.706375122 -28991250.345245361 0 0 0 0 -208469047.32745361 -186101636.6997261 0 -186101636.6997261 169855844.2026825 0 0 0 0 -19842657.393287659 -17279399.158657074 0 -17279399.158657074 10088954.252067566 0 0 0 0 -409072.79544022307 -14777997.16639027 0 -14777997.16639027 -3739055.3096731603 0 0 0 0 8068818.5950393677 -19051084.495756507 0 -19051084.495756507 -27147124.397796631 0 0 0 0 2023102.1667470555 -18864689.956141517 0 -18864689.956141517 -15937053.001691297 0 0 0 0 -11811691.282409623 -13514965.482947322 0 -13514965.482947322 16615455.925094021 0 0 0 0 -3380150.2619018555 -9698732.6453857422 0 -9698732.6453857422 13022587.295959473 0 0 0 0 -21081214.494845033 -18415780.071588181 0 -18415780.071588181 11872167.052578656 0 0 0 0 -5206949.67082588 -16451271.439159051 0 -16451271.439159051 4048699.7311736345 0 0 0 0 -16679522.853118896 -19043600.12122345 0 -19043600.12122345 10783521.156662941 0 0 0 0 -8427645.1058959961 -15157118.658748627 0 -15157118.658748627 2411841.7918701172 0 0 0 0 -25167789.71049881 -16230087.828109741 0 -16230087.828109741 11132648.373123169 0 0 0 0 -1611377.6417187715 -19699714.41327215 0 -19699714.41327215 6378027.4318949431 0 0 0 0 -18851362.935480118 -12519403.711009026 0 -12519403.711009026 4669329.0272140503 0 0 0 0 24631324.205070496 -16695053.181156158 0 -16695053.181156158 -1234149.3074264526 0 0 0 0 1846148.6006240845 -17226757.917564392 0 -17226757.917564392 11834998.55072403 0 0 0 0 7583217.0982109308 -17269971.855608702 0 -17269971.855608702 -382748.63622151129 0 0 0 0 -8806940.1380462646 -15459330.746421814 0 -15459330.746421814 -470725.27353668213 0 0 0 0 217625274.99645996 -81869051.438186646 0 -81869051.438186646 15708989.196624756 0 0 0 0 -12345764.300949097 -20049912.787658691 0 -20049912.787658691 3119954.814661026 0 0 0 0 1409063.768721357 -18130837.158382349 0 -18130837.158382349 1250794.4318658076 0 0 0 0 3810212.1195316315 -21754874.022388458 0 -21754874.022388458 -2690469.4125747681 0 0 0 0 -19880186.517883301 -19453572.400161743 0 -19453572.400161743 5076890.3741035461 0 0 0 0 -33061364.390724182 -40760437.148164749 0 -40760437.148164749 1296373.2287368774 0 0 0 0 4914327.2586019337 -12859133.785747293 0 -12859133.785747293 -2769954.3829156347 0 0 0 0 -2716360.5132141113 -28017158.182941437 0 -28017158.182941437 -14222335.130157471 0 0 0 0 -6973032.5516204834 -23512107.405666351 0 -23512107.405666351 -6664974.7660140991 0 0 0 0 -1943301.4022521973 -9918493.3141708374 0 -9918493.3141708374 -3889872.618850708 0 0 0 0 -23999185.620346069 -7094448.6952571869 0 -7094448.6952571869 40537905.808822632 0 0 0 0 3939583.2070770264 -27123247.952800751 0 -27123247.952800751 -31306740.211509705 0 0 0 0 -5297557.7490844727 -38048748.576641083 0 -38048748.576641083 -23456343.551235199 0 0 0 0 -5415923.3276329041 -18763716.034209728 0 -18763716.034209728 15440146.443267822 0 0 0 0 -28475588.973396301 -19227476.199092865 0 -19227476.199092865 7703617.776550293 0 0 0 0 -2353245.6198062319 -18935573.051890597 0 -18935573.051890597 3514602.8781982251 0 0 0 0 35572191.670768738 -22663751.714759827 0 -22663751.714759827 -6214728.1139221191 0 0 0 0 -20834122.538414001 -20141599.136470795 0 -20141599.136470795 214209.78184890747 0 0 0 0 -17438176.027990341 -12163990.431733131 0 -12163990.431733131 9970580.8942871094 0 0 0 0 -4258191.1688497653 -13955641.868463572 0 -13955641.868463572 5755964.7802234553 0 0 0 0 -22143756.300670624 -20589126.312232971 0 -20589126.312232971 3190705.2374343872 0 0 0 0 192633589.37622023 -583762613.31071711 0 -583762613.31071711 -752907693.08755493 0 0 0 0 -22950333.991279602 -19836549.244205475 0 -19836549.244205475 7178228.1707801819 0 0 0 0 -23469611.528040886 -17792226.447841644 0 -17792226.447841644 1721800.6760253906 0 0 0 0 -228723753.49847412 -242708897.50570679 0 -242708897.50570679 108931673.8679657 0 0 0 0 -142575539.79033661 -107292029.78930664 0 -107292029.78930664 -128920307.96151733 0 0 0 0 -3822548.0993135422 -19142824.869461413 0 -19142824.869461413 1032909.4513603523 0 0 0 0 -142617687.53580475 -129955076.85652161 0 -129955076.85652161 101350317.24984741 0 0 0 0 -15223117.104820251 -22959170.319656372 0 -22959170.319656372 2797090.4565124512 0 0 0 0 -20035214.047973633 -19264279.27872467 0 -19264279.27872467 1411223.1637477875 0 0 0 0 -20919480.20275116 -21087223.767431259 0 -21087223.767431259 2486194.5820617676 0 0 0 0 -26205903.490005493 -16436704.118682861 0 -16436704.118682861 3347609.2639551163 0 0 0 0 330171291.70911217 238461618.46253014 0 238461618.46253014 18176152.950428009 0 0 0 0 -6356890.0533324936 -18164299.079647347 0 -18164299.079647347 10217696.252140567 0 0 0 0 -32366690.643501282 -18156568.682342529 0 -18156568.682342529 9323947.5364151001 0 0 0 0 -29594838.98400116 -16553710.930343628 0 -16553710.930343628 -1644264.3335113525 0 0 0 0 -48910976.723205566 -295130512.24191284 0 -295130512.24191284 144007064.99395752 0 0 0 0 84893449.809967041 -364406047.3775177 0 -364406047.3775177 98720669.355164528 0 0 0 0 -23957615.547304153 -23900365.506944656 0 -23900365.506944656 14377026.865142822 0 0 0 0 -32727198.35912323 -22966591.52671051 0 -22966591.52671051 9054409.3891601562 0 0 0 0 -19734119.157180786 -13354496.611984253 0 -13354496.611984253 14527539.668124437 0 0 0 0 -61185902.036987305 -133682693.67752075 0 -133682693.67752075 -7749559.5144844055 0 0 0 0 -14603433.225349426 -38083352.823215485 0 -38083352.823215485 212904477.85848236 0 0 0 0 -18495840.627197266 -64149489.225696564 0 -64149489.225696564 78292529.800548553 0 0 0 0 122495798.12169647 -125964230.25264168 0 -125964230.25264168 -8915724.4404907227 0 0 0 0 -97284477.692565918 125520212.1322403 0 125520212.1322403 50132540.751693726 0 0 0 0 274676669.83938599 288168294.20703125 0 288168294.20703125 56419819.771606445 0 0 0 0 271813514.82450104 -93399616.355464935 0 -93399616.355464935 -12072643.218154907 0 0 0 0 -1184339.1152370907 -831806.14773406088 0 -831806.14773406088 96654.541410446167 0 0 0 0 -10186992.727554321 -47005377.254173279 0 -47005377.254173279 65782836.471031189 0 0 0 0 -7249320.4085571393 -12312111.942515999 0 -12312111.942515999 1841817.1521164998 0 0 0 0 371954.66368079185 -15073907.050506473 0 -15073907.050506473 -1985772.5578231812 0 0 0 0 -10878702.388847351 -20492229.802507401 0 -20492229.802507401 2815695.5699462891 0 0 0 0 577647.26252317429 -10135311.869791627 0 -10135311.869791627 4082378.5294342041 0 0 0 0 4743027.9780216627 -11579312.858888231 0 -11579312.858888231 -3865137.713115707 0 0 0 0 -75596940.858428955 5885764.6231689453 0 5885764.6231689453 6366186.2296295166 0 0 0 0 3998770.3804168701 -36916584.508911133 0 -36916584.508911133 -132318237.71334076 0 0 0 0 1988660.8372209817 -894456.7129769735 0 -894456.7129769735 -1242454.3304346167 0 0 0 0 72904740.913074493 -22348842.968961716 0 -22348842.968961716 11170430.221008301 0 0 0 0 -9137797.0867163148 -1749312.094742097 0 -1749312.094742097 8058935.2441921961 0 0 0 0 -3496187.328742981 -5925835.1056442261 0 -5925835.1056442261 -44919941.786735535 0 0 0 0 -5939459.2222526465 -2058421.9736756617 0 -2058421.9736756617 8734626.9819083475 0 0 0 0 -23381000.128498077 10962639.368080139 0 10962639.368080139 39117911.479460716 0 0 0 0 -6532674.6215667725 -12126208.254264832 0 -12126208.254264832 33792343.428348541 0 0 0 0 -4823733.2461546659 -8548439.9046519902 0 -8548439.9046519902 5707530.8918639943 0 0 0 0 -17364734.341617584 -16066412.095529556 0 -16066412.095529556 16404709.647567749 0 0 0 0 -46880528.365257263 -15621681.028591156 0 -15621681.028591156 18403354.516859055 0 0 0 0 -47232417.223724365 -23348496.293048859 0 -23348496.293048859 77454009.138153076 0 0 0 0 -48615318.649196625 -58250610.270225525 0 -58250610.270225525 25594451.814990997 0 0 0 0 -4554868.2871589661 -39822803.175922394 0 -39822803.175922394 53512051.339538574 0 0 0 0 64768812.878173828 43460788.898685455 0 43460788.898685455 -12174537.048843384 0 0 0 0 -6250367.9355044141 -112300.41493998282 0 -112300.41493998282 4536244.404491948 0 0 0 0 -43627747.360321045 -608689.05839729309 0 -608689.05839729309 3992795.182723999 0 0 0 0 -78240884.520359039 27436718.742164612 0 27436718.742164612 161150999.84135437 0 0 0 0 -44098807.56275177 95567086.941467285 0 95567086.941467285 143087969.56352997 0 0 0 0 -48646725.049530029 -71467825.755569458 0 -71467825.755569458 -36352181.538707733 0 0 0 0 714260.95811398514 -1186718.6861886606 0 -1186718.6861886606 -2774601.7647438347 0 0 0 0 -23660750.320655823 23270890.019878387 0 23270890.019878387 139342708.36912155 0 0 0 0 -79796584.350738525 47314518.812187195 0 47314518.812187195 134381956.35385895 0 0 0 0 -43806575.179634094 84886990.758872986 0 84886990.758872986 34707880.634376526 0 0 0 0 -12963415.386421204 80142340.8934021 0 80142340.8934021 -78573857.549316406 0 0 0 0 -97096047.486480713 -292708966.63510132 0 -292708966.63510132 -348505381.6311264 0 0 0 0 -169458343.16747665 -280177406.8960495 0 -280177406.8960495 -152272686.44862366 0 0 0 0 -2469325.3708931543 382559.34457569756 0 382559.34457569756 1691382.9756400939 0 0 0 0 -879203266.87985611 62046262.134597778 0 62046262.134597778 1103323420.0535355 0 0 0 0 -242608730.38059998 -373314644.62417603 0 -373314644.62417603 -270857089.5721283 0 0 0 0 -11912214.866632462 131217890.95863724 0 131217890.95863724 -133306899.61519623 0 0 0 0 46468494.075528145 13250938.730184555 0 13250938.730184555 104471182.34228516 0 0 0 0 -4541905.9131317139 -248983847.13335037 0 -248983847.13335037 -259254320.02372742 0 0 0 0 -333891378.20612335 68728809.915813446 0 68728809.915813446 162329532.81809235 0 0 0 0 -229165365.53379822 -236765646.11942482 0 -236765646.11942482 -41363326.734283447 0 0 0 0 -122947642.38516235 -94120800.405784607 0 -94120800.405784607 140498423.2809906 0 0 0 0 -80307839.628578424 37653801.959862947 0 37653801.959862947 24842567.683631897 0 0 0 0 -57015632.941043854 -243449048.9369545 0 -243449048.9369545 -288476953.11126709 0 0 0 0 -1388865.9450446721 -780031.93354896829 0 -780031.93354896829 1949399.6159478575 0 0 0 0 48682869.090881348 -19955139.41191864 0 -19955139.41191864 -356787964.983181 0 0 0 0 -10252207.200027466 107384771.47693634 0 107384771.47693634 -284024875.92909241 0 0 0 0 -4845820.9852581024 -51665645.436395645 0 -51665645.436395645 -77803379.187561035 0 0 0 0 -23490819.326713562 -87116940.896575928 0 -87116940.896575928 -86712679.231460571 0 0 0 0 11367961.752372742 -255609654.13609505 0 -255609654.13609505 23447700.690368652 0 0 0 0 -1947653.9258422852 -160044961.28601074 0 -160044961.28601074 1568300.2100982666 0 0 0 0 34181601.287597656 -30160727.666122437 0 -30160727.666122437 -66148916.365524292 0 0 0 0 19132071.048019409 -65531592.688049316 0 -65531592.688049316 -10657368.74446106 0 0 0 0 -30064553.295852661 -39129302.266590118 0 -39129302.266590118 149937175.12380981 0 0 0 0 36014463.205028534 -12959957.868431091 0 -12959957.868431091 27877013.016162872 0 0 0 0 30231404.718168259 -27492293.546257019 0 -27492293.546257019 -65927395.170135498 0 0 0 0 34318167.14175415 3814475.8147850037 0 3814475.8147850037 -115344657.89571381 0 0 0 0 -55762704.721948624 27825478.02804184 0 27825478.02804184 -51503281.328781128 0 0 0 0 10066379.261291504 -19683348.160377502 0 -19683348.160377502 -48818342.778175354 0 0 0 0 5763129.657623291 -15785383.126411438 0 -15785383.126411438 -51856726.132369995 0 0 0 0 -142452058.70863342 -103834402.03686523 0 -103834402.03686523 281401378.20563507 0 0 0 0 -182941036.33596563 18395319.143167496 0 18395319.143167496 91416033.791244507 0 0 0 0 -26688717.351222754 -71016037.303565979 0 -71016037.303565979 -5043431.6320953369 0 0 0 0 9919042.5143356323 -22078025.972473145 0 -22078025.972473145 -62609511.010650635 0 0 0 0 -22458457.141650319 -20320637.706676546 0 -20320637.706676546 2543709.8648298606 0 0 0 0 -6240147.1778740436 -6246171.4272293597 0 -6246171.4272293597 -8639278.2033291738 0 0 0 0 -68884361.758800507 -177013774.78948212 0 -177013774.78948212 212325552.66740799 0 0 0 0 76681449.108024597 -193485109.9832077 0 -193485109.9832077 45561650.545154572 0 0 0 0 -49668854.601585388 8006789.1957855225 0 8006789.1957855225 -26938635.204387665 0 0 0 0 -13379581.485510826 -19864465.282113787 0 -19864465.282113787 -3360859.8421983421 0 0 0 0 -24400103.40241909 -23051973.218219757 0 -23051973.218219757 5759337.2838745117 0 0 0 0 9403086.7114810944 -24811019.0197258 0 -24811019.0197258 -2039930.7003269196 0 0 0 0 -8438094.8431574777 -19728304.35358296 0 -19728304.35358296 -7938534.6884624232 0 0 0 0 -167714408.90077591 5851841.4001960754 0 5851841.4001960754 446338706.99880981 0 0 0 0 -2638707.922955513 -12646357.864746094 0 -12646357.864746094 7141802.4359436035 0 0 0 0 -13950337.886132382 -16708925.343731396 0 -16708925.343731396 -610294.28503351659 0 0 0 0 123033897.57393646 -108092.35246276855 0 -108092.35246276855 154332129.79488754 0 0 0 0 7271620.451839447 -62039793.570480347 0 -62039793.570480347 199886244.43087578 0 0 0 0 1335930.0155098466 -16595853.160607159 0 -16595853.160607159 -16567526.357588114 0 0 0 0 188683.80906677246 -10663455.317123413 0 -10663455.317123413 -6980712.8478164673 0 0 0 0 2941977.4703636169 -17667312.759410858 0 -17667312.759410858 -12455572.553131104 0 0 0 0 -2313686.9599995874 -11339068.363724712 0 -11339068.363724712 -6268183.1386116594 0 0 0 0 -3433771.2048242316 -19086961.445987612 0 -19086961.445987612 -9557420.895648066 0 0 0 0 -12291808.349537611 88912334.595977068 0 88912334.595977068 193447474.38964844 0 0 0 0 5405501.1978645325 -13566516.900970459 0 -13566516.900970459 -5645082.2689208984 0 0 0 0 21491580.083625793 -23270563.007450104 0 -23270563.007450104 -5964409.4031066895 0 0 0 0 -2394261.6173791885 -16096732.721050262 0 -16096732.721050262 1796108.4976348877 0 0 0 0 -7883190.1935423119 -18515225.676849116 0 -18515225.676849116 -7115275.2761556655 0 0 0 0 -12986642.386936188 -46895521.610351562 0 -46895521.610351562 -425335.08679962158 0 0 0 0 -12277966.711401939 -50368850.794633865 0 -50368850.794633865 16528609.982696533 0 0 0 0 -20488752.219636917 -28701319.342720032 0 -28701319.342720032 5442353.4604492188 0 0 0 0 -1866085.4815597534 -44226442.132205963 0 -44226442.132205963 5464.2867889404297 0 0 0 0 -58639411.449015498 -56821911.392817974 0 -56821911.392817974 51587099.737197876 0 0 0 0 -56860628.369316101 -41091074.250488281 0 -41091074.250488281 14722017.441604614 0 0 0 0 -34507533.417432785 -68691775.347335815 0 -68691775.347335815 6194172.810760498 0 0 0 0 -35739847.395277023 -68775117.297203064 0 -68775117.297203064 11075953.227432251 0 0 0 0 -43709653.282749176 -79149782.473838806 0 -79149782.473838806 31513910.468688965 0 0 0 0 -64602633.756259918 -74013288.577514648 0 -74013288.577514648 76879097.108406067 0 0 0 0 -76225970.523035049 -96641543.897064209 0 -96641543.897064209 56627744.237945557 0 0 0 0 -13861813.869108774 -16149666.979003958 0 -16149666.979003958 1822677.047901094 0 0 0 0 -10733249.20846571 -16404126.456620049 0 -16404126.456620049 -5013545.9713842124 0 0 0 0 -10980582.349960327 -17102153.588321686 0 -17102153.588321686 -3499743.9496173859 0 0 0 0 -5445729.5567626953 -18493450.916671753 0 -18493450.916671753 -11347406.671646118 0 0 0 0 23421251.136160851 -23093034.71790576 0 -23093034.71790576 -36814790.98588562 0 0 0 0 7844262.3266130537 -13440608.794464296 0 -13440608.794464296 -8335271.7687813826 0 0 0 0 13145558.748458862 -22979674.723754883 0 -22979674.723754883 -7473903.7123832703 0 0 0 0 1228192.5463038534 -2386790.8945644535 0 -2386790.8945644535 -2309843.6222318001 0 0 0 0 29053449.969470978 -92415086.78122133 0 -92415086.78122133 17465408.885253906 0 0 0 0 -665823.95244157687 -1093693.4314163923 0 -1093693.4314163923 -1385827.6917012483 0 0 0 0 30447711.751850605 -34074889.771112323 0 -34074889.771112323 -45029023.694717407 0 0 0 0 -16049937.47277832 -37484404.842308044 0 -37484404.842308044 -35451695.908508301 0 0 0 0 -98007518.218887329 3160502.6734924316 0 3160502.6734924316 58659921.290428162 0 0 0 0 25510181.054115295 -102017825.87073135 0 -102017825.87073135 -135844729.08798218 0 0 0 0 -3815126.0386219025 20841802.027490139 0 20841802.027490139 -138478815.90348816 0 0 0 0 -5930271.4564783797 281169.94996147044 0 281169.94996147044 5537903.7611495554 0 0 0 0 6105604.1294708252 -31507703.372009277 0 -31507703.372009277 -28091898.66342926 0 0 0 0 -115792471.31995392 65370018.734169006 0 65370018.734169006 -129989335.3210144 0 0 0 0 -6817406.9111592034 -20607784.361344449 0 -20607784.361344449 -1674745.4167034328 0 0 0 0 14144742.359851837 -18926702.316051483 0 -18926702.316051483 -19163117.210083008 0 0 0 0 -898435.12357940525 -15662806.555048779 0 -15662806.555048779 -5962282.2015149947 0 0 0 0 -13901626.223754883 -31148660.641956329 0 -31148660.641956329 4371149.6207885742 0 0 0 0 14568858.788040161 -21496675.59324646 0 -21496675.59324646 -29164705.837089539 0 0 0 0 -1522205.4240662791 -3543788.1086780429 0 -3543788.1086780429 225049.37004774436 0 0 0 0 1349114.7426008633 -16493393.371722981 0 -16493393.371722981 -5017536.1239506826 0 0 0 0 -3339382.6013293029 -12862695.078352746 0 -12862695.078352746 -4833304.7844185606 0 0 0 0 -4284597.0257225037 -17451603.806903839 0 -17451603.806903839 -3870902.0829315186 0 0 0 0 -3775015.3624420166 -18406819.658817291 0 -18406819.658817291 -2048033.708480835 0 0 0 0 -8126839.9840126038 -19561050.115501404 0 -19561050.115501404 -2765359.8112506866 0 0 0 0 -11879995.646753311 -17448167.782569885 0 -17448167.782569885 -1022417.190536499 0 0 0 0 -6400634.5995450681 -15284992.69946149 0 -15284992.69946149 -2383593.6584020182 0 0 0 0 -8910273.8902435303 -16141707.18429184 0 -16141707.18429184 -2500987.7625274658 0 0 0 0 7297414.3149967194 -19720471.55606842 0 -19720471.55606842 -95226.069221496582 0 0 0 0 -2960842.0572689148 -12563255.015473371 0 -12563255.015473371 -3219295.0991368666 0 0 0 0 -18042708.338340998 -17142012.816647053 0 -17142012.816647053 -5510083.9362945557 0 0 0 0 -2572002.0260366946 -18566876.522846103 0 -18566876.522846103 -10639750.874938563 0 0 0 0 -18604074.61151886 -16330420.567466736 0 -16330420.567466736 -2460575.0284252167 0 0 0 0 -11752732.564691305 -36110658.3103652 0 -36110658.3103652 -20529099.13482666 0 0 0 0 -16344666.430127399 -13463393.514406484 0 -13463393.514406484 795865.28265997767 0 0 0 0 -13741068.370333433 -25763394.904050708 0 -25763394.904050708 -9262751.9337692261 0 0 0 0 -5342191.7134857178 -19924337.334861755 0 -19924337.334861755 -9308317.5063018799 0 0 0 0 -5093291.961227417 -21658256.746032715 0 -21658256.746032715 -7511961.8173599243 0 0 0 0 -4416374.8714523315 -20669000.153610229 0 -20669000.153610229 -10687170.209096909 0 0 0 0 1495019.4875030518 -25753626.398052216 0 -25753626.398052216 -18136501.438735962 0 0 0 0 -6727262.9806137085 -27447641.410877228 0 -27447641.410877228 -8989056.2461433411 0 0 0 0 15202583.86781311 -16542370.441253662 0 -16542370.441253662 -4363011.3545885086 0 0 0 0 -3002156.5643844604 -29850183.888614655 0 -29850183.888614655 -13545908.272201538 0 0 0 0 -11507845.159639552 -19844816.326852284 0 -19844816.326852284 -10343607.296489976 0 0 0 0 14327911.407646179 -14293331.362804413 0 -14293331.362804413 -4035216.2660522461 0 0 0 0 -7077334.7169884257 -16307504.13878043 0 -16307504.13878043 -5518997.9756513685 0 0 0 0 10690097.96892941 -5677798.8594766557 0 -5677798.8594766557 -9490956.1829496585 0 0 0 0 31492544.993515015 -73036665.848274231 0 -73036665.848274231 22616170.74822998 0 0 0 0 50486973.246856689 5131210.7249946594 0 5131210.7249946594 -33803229.415165901 0 0 0 0 34039263.038513184 -39970370.541980743 0 -39970370.541980743 -29087014.445465088 0 0 0 0 19834930.463500977 -34011651.436698914 0 -34011651.436698914 25641631.255432129 0 0 0 0 49689595.414932251 -17129543.777179718 0 -17129543.777179718 2940127.4910812378 0 0 0 0 -6818948.8677583486 -3281337.003419295 0 -3281337.003419295 936150.32779400796 0 0 0 0 -11375467.398677187 -22180695.981960837 0 -22180695.981960837 -7234619.2060032934 0 0 0 0 -147778721.10313416 3263050.8048667908 0 3263050.8048667908 -21528855.239883423 0 0 0 0 59704315.841247559 -9165194.0511627197 0 -9165194.0511627197 -2906068.2351074219 0 0 0 0 83674919.129867554 -36009892.952739716 0 -36009892.952739716 -48820055.071800232 0 0 0 0 23026981.984431714 -21427001.354779817 0 -21427001.354779817 -22815052.430350058 0 0 0 0 16579409.129963569 -14798348.363977296 0 -14798348.363977296 -14764048.629971199 0 0 0 0 -130074704.05438232 91468357.699523926 0 91468357.699523926 411771274.28491211 0 0 0 0 67272555.832649231 -42844372.372142792 0 -42844372.372142792 -26165813.135900497 0 0 0 0 20835147.959918499 6377197.5164046288 0 6377197.5164046288 -7602019.1075744629 0 0 0 0 19401926.663803101 -191024006.73141098 0 -191024006.73141098 -650367485.5526123 0 0 0 0 -648234.55865478516 -41194220.262386322 0 -41194220.262386322 -29126223.93863678 0 0 0 0 64044460.654388428 -55366197.507480621 0 -55366197.507480621 -67740471.571815491 0 0 0 0 27334226.977005005 -58418425.571704865 0 -58418425.571704865 -67976898.948910236 0 0 0 0 -2401122.5974655151 -38048628.912433505 0 -38048628.912433505 4962885.4248428345 0 0 0 0 7767876.143340975 -2738159.4674484842 0 -2738159.4674484842 -4527749.8189060465 0 0 0 0 20895892.763851166 -14605735.923997879 0 -14605735.923997879 -11787677.439117432 0 0 0 0 -11641809.706014376 -20747266.262456201 0 -20747266.262456201 -4892523.7974918634 0 0 0 0 -8422950.0662078857 -63802353.881912231 0 -63802353.881912231 -110394947.06629562 0 0 0 0 -1534066.6667728424 -54683517.544392109 0 -54683517.544392109 -63745644.879020691 0 0 0 0 -2387290.7048187256 -33677871.2940979 0 -33677871.2940979 -30542541.672462463 0 0 0 0 4265045.213104248 -49228931.779243469 0 -49228931.779243469 -66206047.286819458 0 0 0 0 -35937934.378053665 -51368035.719744205 0 -51368035.719744205 -23071918.340164185 0 0 0 0 -35381730.23670578 -55623406.22872448 0 -55623406.22872448 -26113678.731941223 0 0 0 0 -81380195.18862915 -74939821.648853302 0 -74939821.648853302 -9147383.301322937 0 0 0 0 -7178232.994140625 -33276698.561599731 0 -33276698.561599731 -13238375.01739502 0 0 0 0 -45198208.015869141 -47806347.126014709 0 -47806347.126014709 5074660.1281204224 0 0 0 0 4760033.4649658203 -54994667.844924927 0 -54994667.844924927 -1427693.9060592651 0 0 0 0 45810339.989807129 -28275835.018456459 0 -28275835.018456459 -3639262.7244720459 0 0 0 0 -66664050.436767578 18880736.711868286 0 18880736.711868286 34267009.237174988 0 0 0 0 -47783839.609893799 -44646471.199317932 0 -44646471.199317932 18158432.251266479 0 0 0 0 -112246797.62843323 -56834638.798549652 0 -56834638.798549652 45530905.091773987 0 0 0 0 -107490075.55256653 -61439832.425518036 0 -61439832.425518036 36556515.655937195 0 0 0 0 -99047425.203231812 -87628271.173498154 0 -87628271.173498154 21074888.393981934 0 0 0 0 -76281688.248062134 -81943484.371433258 0 -81943484.371433258 14285295.78666687 0 0 0 0 -78760258.645904541 -69786552.496368408 0 -69786552.496368408 2640070.4417877197 0 0 0 0 -15210274.570846558 -78470773.940971375 0 -78470773.940971375 -4395296.425453186 0 0 0 0 -18029027.763676643 -9402679.6300981045 0 -9402679.6300981045 18915199.535293579 0 0 0 0 -124996364.98291016 -28249754.673431396 0 -28249754.673431396 -12652121.663337708 0 0 0 0 -82651519.940711975 -70666593.891210556 0 -70666593.891210556 2784469.4360809326 0 0 0 0 -61505646.271396637 -24285866.39662838 0 -24285866.39662838 -16735314.225769043 0 0 0 0 -78243105.198608398 -68019152.78754425 0 -68019152.78754425 -9615519.2132581472 0 0 0 0 -87667726.418258667 -67939505.283834457 0 -67939505.283834457 6875906.362487793 0 0 0 0 -38278959.639144897 14478936.026699066 0 14478936.026699066 8436504.3406887054 0 0 0 0 3587392.0690765381 3683323.9130134583 0 3683323.9130134583 11043773.471153259 0 0 0 0 -53138758.934677124 -37608810.560508728 0 -37608810.560508728 -1103340.4635810852 0 0 0 0 10136290.078826904 -25546949.316459656 0 -25546949.316459656 -45441600.624328613 0 0 0 0 -342555.5334452875 -968813.09608086199 0 -968813.09608086199 259649.88803025335 0 0 0 0 99376458.564468384 86643501.787086487 0 86643501.787086487 -289876561.24699402 0 0 0 0 -48012042.709976196 42687502.830116272 0 42687502.830116272 -114186262.33655548 0 0 0 0 -156845455.15704346 124498301.41175079 0 124498301.41175079 -98516389.009410858 0 0 0 0 -120602447.44396973 -146288663.22383881 0 -146288663.22383881 -214958399.59274292 0 0 0 0 -129615653.37042236 52545159.709331512 0 52545159.709331512 73169176.631309509 0 0 0 0 -67518772.563308716 -87587262.922592163 0 -87587262.922592163 -57842133.915222168 0 0 0 0 -122210017.14190674 -64657640.105621338 0 -64657640.105621338 -9541746.4998803139 0 0 0 0 -93655401.259780884 -39179004.489307404 0 -39179004.489307404 -17251867.292922974 0 0 0 0 -244110884.53686523 -69899305.49495697 0 -69899305.49495697 -23489279.766441345 0 0 0 0 -247175841.47547913 -223010460.32698822 0 -223010460.32698822 -144262140.50180817 0 0 0 0 -356647754.60018921 -86165468.265403748 0 -86165468.265403748 54223685.631690979 0 0 0 0 -83621296.684677124 -92102826.319789886 0 -92102826.319789886 -80725776.138214111 0 0 0 0 -75484670.463104248 -77535603.924583435 0 -77535603.924583435 -57309634.074827433 0 0 0 0 -81669883.438781738 292530873.23628235 0 292530873.23628235 -331317868.66243362 0 0 0 0 -30773593.385807037 -86617859.880326271 0 -86617859.880326271 -290422291.60696411 0 0 0 0 -1592967.0847830325 -349568.76165499724 0 -349568.76165499724 375746.4556779433 0 0 0 0 -273976774.17511559 599982274.69712496 0 599982274.69712496 688449578.61799622 0 0 0 0 -115197725.15431213 -56313930.356971741 0 -56313930.356971741 41363903.673442841 0 0 0 0 -1049219.8995396197 -1114572.3063768335 0 -1114572.3063768335 792259.45944903046 0 0 0 0 -328071639.71259308 -43066192.841056824 0 -43066192.841056824 288407865.8688736 0 0 0 0 -149815155.92947006 5835914.2039442062 0 5835914.2039442062 37540947.123031616 0 0 0 0 -93378755.846069336 24594010.488189697 0 24594010.488189697 34036294.815467834 0 0 0 0 198825021.91991425 119751422.4094696 0 119751422.4094696 -38323856.048294067 0 0 0 0 -55010405.266189575 -126885888.61669159 0 -126885888.61669159 147031143.7747879 0 0 0 0 -427514.88549837098 -419400.53210211545 0 -419400.53210211545 159132.1328336224 0 0 0 0 -451787762.43775177 199433244.94815445 0 199433244.94815445 64860211.246810913 0 0 0 0 -115892170.62515259 -299907340.60507202 0 -299907340.60507202 -1147812065.170929 0 0 0 0 41006931.036254883 170910680.84831238 0 170910680.84831238 -155452997.53944397 0 0 0 0 62668136.118209839 -79351154.679111481 0 -79351154.679111481 154362441.87696838 0 0 0 0 -199227047.65563965 -205541286.59749794 0 -205541286.59749794 140876767.22581482 0 0 0 0 423828290.95663452 181223468.69285965 0 181223468.69285965 345282517.19369507 0 0 0 0 66368678.581634521 -338516735.37582779 0 -338516735.37582779 817186760.99601746 0 0 0 0 892351975.52036285 -782541352.91819191 0 -782541352.91819191 428951924.39916992 0 0 0 0 199971158.67605591 -344001165.60228157 0 -344001165.60228157 164956526.55224609 0 0 0 0 202252002.3117218 -340286674.45850849 0 -340286674.45850849 163522569.9345932 0 0 0 0 -194023586.53100586 -2774911.522102356 0 -2774911.522102356 256166229.40626526 0 0 0 0 342681548.28778648 -430807505.68853855 0 -430807505.68853855 22763382.282905579 0 0 0 0 -218237829.67074966 51997678.236684799 0 51997678.236684799 24402488.561340332 0 0 0 0 -668727.23212483153 -744567.89417032525 0 -744567.89417032525 676386.71668048203 0 0 0 0 211838659.09720612 -331282740.99126053 0 -331282740.99126053 117522415.87593079 0 0 0 0 13478575.122894287 -92001627.429706573 0 -92001627.429706573 66112121.568950653 0 0 0 0 -131426852.78276062 -37154624.63968277 0 -37154624.63968277 45432924.328567505 0 0 0 0 -43983355.457710266 21771784.702119827 0 21771784.702119827 1691253.2575683594 0 0 0 0 -28314134.5313797 18503191.194025993 0 18503191.194025993 12492321.369758606 0 0 0 0 -46357799.329559326 16071654.972873688 0 16071654.972873688 12783781.706680298 0 0 0 0 -51423418.365026474 -16251932.453693628 0 -16251932.453693628 30971251.061080933 0 0 0 0 -89553472.513259888 -4902942.9374885559 0 -4902942.9374885559 27601368.505584717 0 0 0 0 -1165451.1877746582 -4770356.1495246887 0 -4770356.1495246887 10583183.102104187 0 0 0 0 4818330.7006415054 -14707663.882576298 0 -14707663.882576298 1390036.8233780414 0 0 0 0 15841282.369606018 -12183249.127487183 0 -12183249.127487183 -10578915.164321899 0 0 0 0 -16638598.388473511 -21098915.668922424 0 -21098915.668922424 12329613.147544861 0 0 0 0 -4018799.6291565597 -9016003.0810793713 0 -9016003.0810793713 545843.41236206889 0 0 0 0 -25948925.237243652 -16251863.324645996 0 -16251863.324645996 9939335.2097358704 0 0 0 0 5184364.986328125 -13499993.560043335 0 -13499993.560043335 3551685.195892334 0 0 0 0 9960440.9211578369 -19876528.914047241 0 -19876528.914047241 1075059.048034668 0 0 0 0 13476033.141281128 -10514334.272853851 0 -10514334.272853851 5602244.0377502441 0 0 0 0 810868.56939630955 -1527654.4182607401 0 -1527654.4182607401 -547407.98731933907 0 0 0 0 -10694743.684173267 -10393089.336219493 0 -10393089.336219493 2041703.8430231586 0 0 0 0 -2483339.0155544281 -14524999.118875649 0 -14524999.118875649 -1980211.0626271591 0 0 0 0 5638781.3187332153 -12584291.314702988 0 -12584291.314702988 1262989.0822143555 0 0 0 0 3719626.7987518311 -11497785.171451569 0 -11497785.171451569 5852171.6488723755 0 0 0 0 14354777.96635437 -9455970.530708313 0 -9455970.530708313 -6597871.3786144257 0 0 0 0 11367883.645797729 -14402075.089332581 0 -14402075.089332581 -40306021.895433426 0 0 0 0 -12110465.598129272 -21876011.735176086 0 -21876011.735176086 -20040637.65278244 0 0 0 0 -4224555.3554640114 -2089179.2564221378 0 -2089179.2564221378 1141229.6031751037 0 0 0 0 8534867.4671707153 10160346.058609009 0 10160346.058609009 -59938165.918128967 0 0 0 0 -91838762.225986481 24887896.023657322 0 24887896.023657322 3769759.2595291138 0 0 0 0 -15658782.688644409 2715980.0631103516 0 2715980.0631103516 -5372201.7529649734 0 0 0 0 
</DataArray>
<DataArray type="Float64" Name="cross_section_updated" format="ascii">
1 1 0.049079559672426151 1 1 1 1 0.04907905874306813 1 1 1 1 1 1 1 1 1 1 1 1 0.052355989028855292 1 1 1 1 0.052357836750717326 1 1 1 1 1 1 1 0.050093824640444221 1 1 1 1 1 1 1 1 0.05013620726165996 1 1 1 1 1 1 1 1 1 1 1 0.050244299663277259 0.05010867791499049 1 1 1 1 1 1 1 1 0.059496055911402342 1 1 1 1 1 1 1 1 1 1 1 1 1 1 1 1 1 1 1 1 1 1 0.057951946506551159 1 1 1 1 1 1 1 1 1 1 1 0.059514695299976661 1 1 1 0.053760850488025813 1 1 1 1 1 1 1 1 1 1 1 1 1 1 1 1 1 1 1 1 1 1 1 1 1 1 1 1 1 1 1 1 1 1 1 1 1 1 1 1 1 1 1 1 1 0.049961952336741375 1 0.052458377006588106 1 1 1 1 1 1 1 1 1 1 1 1 1 1 1 1 1 1 1 1 1 1 1 1 1 1 0.063142433818220989 1 1 0.051451091373258352 1 0.052627949368681218 1 1 1 1 1 1 1 1 1 1 1 1 1 1 0.042017789761281468 1 0.041999493455204893 1 1 1 1 1 1 1 0.07118344359948274 1 0.056049283864481658 1 1 1 1 1 1 0.049774106996308985 1 1 0.07585366818575294 1 1 1 1 1 1 0.080647245795120975 0.022497286448687967 1 1 0.049175757591080629 1 0.03428508101149487 1 0.049296414143545408 0.047385863871695959 1 1 1 0.028164091162451631 1 1 1 1 1 1 1 1 1 1 1 1 1 0.017528221830590232 1 1 1 1 1 1 1 0.012771088395850609 1 1 1 1 1 1 1 0.0083413986565168269 1 1 1 1 0.049317263759222095 1 1 1 1 1 1 0.049009390789294033 1 1 1 0.047484443555673231 1 1 1 1 1 1 1 0.044911589667286048 1 1 1 1 1 1 0.04575295522397748 1 1 1 1 1 1 0.054557652370095119 1 1 1 1 1 1 1 0.048903571572161436 1 1 1 1 1 1 1 1 1 1 1 1 1 1 1 1 1 1 1 1 1 0.046141084893959933 0.049705396885538891 1 1 1 1 1 0.067477787573961917 1 1 1 1 1 1 1 0.044394447558732356 1 0.06819552994810936 1 1 1 0.039852323867473324 1 1 1 0.053315437823961663 1 0.04994389430029527 1 1 1 1 1 1 1 0.08924249403838927 1 1 1 1 1 1 1 0.0046995782474948816 1 1 1 0.05001046516643505 1 1 1 1 1 1 1 1 1 1 1 1 1 1 1 1 1 1 1 1 1 1 1 1 1 1 1 1 1 1 1 1 0.087078188075184623 1 1 1 1 1 1 1 1 1 1 1 1 1 1 1 1 1 1 1 1 1 1 1 1 1 1 1 1 1 1 1 1 0.051194901129888642 1 1 1 1 1 1 1 1 1 1 1 1 1 1 1 1 1 1 1 1 0.050628456408409128 1 1 1 1 1 1 1 0.049478543804354728 1 1 1 1 1 0.048321530528406834 1 1 0.050005758559752297 1 0.059384437081230902 1 1 1 1 0.06242263956401356 1 1 0.065453414962604775 1 1 1 1 1 1 0.05288460926458248 1 1 1 1 1 1 1 1 1 1 1 1 1 1 1 1 1 1 1 0.061335765364064217 1 1 1 1 1 1 1 1 1 1 1 0.049811735870145334 0.063200270290017319 1 1 1 1 1 1 1 1 1 1 1 1 1 1 1 1 1 1 1 1 1 0.052406936945798156 1 0.050814988440240322 0.05546104685058427 1 1 0.048694487316738949 1 1 1 1 1 1 1 1 1 1 1 1 1 0.058035023552007674 1 1 1 1 1 1 1 0.050105230516858196 0.048989896795648649 1 1 1 1 1 1 1 1 0.051650683955597861 0.048269487150505011 1 1 1 0.047921858573853754 1 1 1 1 1 1 1 1 1 1 1 1 1 1 1 1 1 1 1 1 1 1 1 1 1 1 1 1 1 1 1 1 1 1 1 0.049179169070144801 1 1 0.050332256354897513 1 1 1 1 0.050629278585662317 1 1 1 0.050271904278330323 1 1 1 0.050065922611246642 1 1 0.050206291794072419 1 1 1 1 1 1 1 1 1 1 1 1 1 1 1 1 1 1 1 1 1 0.050411281833909846 1 1 1 0.050502533496124255 1 1 1 1 1 0.051405318992811672 1 1 1 1 1 1 0.050165240081826212 1 1 1 1 1 1 1 1 1 1 1 1 1 1 1 1 1 1 0.050074015811852973 1 1 1 1 1 1 1 1 1 1 1 1 1 1 1 1 1 1 1 1 1 0.050297022230764814 1 1 1 1 1 1 1 1 1 1 1 1 1 1 1 0.049299175213590667 1 1 1 1 1 1 1 1 1 1 1 1 1 1 1 1 1 1 0.045860163589188943 1 1 1 1 1 1 1 0.051090298337718859 1 1 1 1 1 1 1 1 1 1 1 1 1 1 1 1 1 1 1 1 1 0.04920091486634319 1 1 1 1 1 1 1 1 1 0.047536849451339222 1 1 1 1 1 1 1 1 0.083455299996849225 1 1 1 1 1 1 1 1 1 1 1 1 1 1 1 1 1 1 1 0.0035318120163540037 1 1 1 1 1 0.078670096968325123 1 1 1 0.050170028401892428 1 1 1 1 1 1 0.057289044467325113 1 1 1 1 1 1 1 1 1 1 0.047712375199783372 1 1 1 1 1 1 1 1 1 1 1 1 0.063991191158167371 1 0.042726953978461178 1 1 1 1 1 1 1 0.0076684126118671606 1 0.10296878938160781 1 1 1 1 1 1 1 1 1 1 1 1 1 1 1 1 1 1 1 1 1 1 1 1 1 1 1 1 1 1 1 1 1 1 1 1 1 1 1 1 1 1 1 1 1 0.056337262191318502 0.048761649361627683 1 1 0.050012894779039627 1 1 1 1 1 1 1 1 1 1 1 1 1 1 1 1 0.050595798167986372 1 1 1 1 0.013894614386114737 1 1 0.049483684304824999 1 1 1 1 1 1 0.02014060126588417 1 0.024401030397423154 1 1 0.05027865330606944 1 1 1 1 1 1 1 1 1 1 0.042010048436294328 1 1 1 1 1 0.049510151535449166 0.049911695002346254 1 1 1 1 0.035267428524555167 1 1 0.0315284484350477 1 0.069207522138545086 1 1 1 1 1 0.047369305914592805 1 1 0.049981150065738222 1 1 1 1 1 1 1 1 1 1 1 1 0.049833983910620633 1 1 1 1 1 1 1 1 1 1 1 1 1 1 1 0.044814805822428208 1 0.049998763236285187 1 0.052014775772962929 0.053298898259481732 1 0.044828341902753061 1 1 0.049965812350940934 1 1 1 1 1 1 0.063663958915369023 1 0.049740415170444877 1 1 0.068270561458504214 1 1 1 0.043531657331940914 1 1 0.050004441124737072 1 1 1 1 1 0.071394308010847229 1 1 0.049893356836457188 1 1 1 1 1 0.049947443291708388 1 0.041675267311201795 1 1 0.04252577023577582 1 1 0.053836798049121892 1 1 1 1 1 1 1 1 0.051487854623156526 1 1 1 1 1 1 1 1 1 1 0.049280919478556798 1 1 1 1 0.047676113428879889 1 1 0.048461211090045211 1 1 1 1 1 0.05146195773376834 1 1 1 1 1 0.04998765079316133 1 0.049700852558738719 1 1 1 1 1 1 0.049893423403569073 1 1 1 1 1 1 1 1 0.050109156426366104 0.042655808864978995 0.047197175273532774 1 1 1 1 0.05163815825016789 1 0.04657561589093661 1 1 1 0.0425409738595506 0.049974017529832118 1 1 1 0.047022119296719456 1 1 1 0.04203634999484341 1 0.052183526218800388 1 0.04597852955355769 0.045926205229312893 1 0.050011217725586858 1 1 1 1 0.039195061015959633 1 1 1 0.050225587605182476 1 0.038547731896528832 1 0.067110700676538779 1 1 1 1 1 1 1 0.050005350360372548 1 1 1 1 0.060339951925015803 1 1 1 1 1 1 1 1 0.050013099968662725 1 0.050019947824131397 0.050687382125910757 1 1 1 0.05204642969470695 1 1 1 1 0.054609631006660539 0.051573864429009159 1 1 0.056701545742879167 0.049692810735188962 1 1 1 1 1 0.049874001528648758 1 1 1 1 1 1 1 1 0.049921509469648406 1 0.049841270948640784 1 1 1 1 1 1 1 1 1 1 1 1 1 1 1 1 1 0.049871249583147079 1 1 1 1 1 1 1 1 1 1 1 1 1 1 1 1 1 1 1 1 1 1 1 1 1 0.050022799633935494 1 0.049638572187228391 1 1 1 1 1 0.05000414414893356 0.049995742874779169 1 1 1 1 0.05017192036723938 0.050017241328790388 1 0.049359170865802326 1 1 0.050992422494876954 1 1 0.04803435529382373 1 1 1 1 0.050311541422124857 0.050327185093929833 1 1 1 1 1 1 1 1 0.050008044733259815 1 1 0.050035590582950915 1 1 1 0.050299413156189188 1 1 0.050066730519455545 1 1 1 1 1 1 0.04963350216995481 1 1 1 1 1 1 0.053887182514018951 1 1 1 1 1 0.048856737123685712 1 1 0.043602428275530278 0.055847576429400587 1 1 0.053934692894881189 1 1 0.050017777552006149 1 1 1 1 1 1 1 1 1 1 1 1 0.043712138040607626 1 0.051006148165864774 1 1 0.050421238447392276 1 1 1 1 1 1 0.049992053028923275 1 1 1 0.051022233878447523 0.044673476773585477 0.049999388720112108 1 1 1 0.052673759121328864 0.049470634090310231 1 0.051315875696322205 0.043249924282637145 1 1 0.048102978004116823 1 1 0.050685207057667193 1 0.051471842091102379 1 0.048562653767838262 1 1 1 0.050147262004304513 0.050893726746011642 1 1 0.050258712747744932 0.050735313010969965 0.048275533098898843 0.048507777404744698 1 1 1 0.04988024838893737 0.049938169216093627 1 1 0.051916906301710863 0.044130197306839258 0.048657745777118538 1 0.052045444342657329 0.049605868717485638 1 1 0.0476835112491205 1 0.048582981572812607 0.052231681518728777 1 0.045332558562479287 1 1 0.050007960048716729 1 0.045622696501176438 0.049538952698289104 1 1 1 1 0.049732158902738299 0.046173760519908222 1 1 0.050014160968199453 1 1 1 0.050061456462747136 1 1 1 1 1 1 1 1 1 1 1 1 1 1 1 1 1 1 1 1 1 1 1 1 1 1 1 1 1 1 1 1 1 1 1 1 1 1 1 1 1 1 1 1 1 1 1 1 1 1 1 1 1 1 1 1 1 1 0.057339745551862747 1 0.052421532835004003 1 1 1 1 1 1 1 1 1 1 1 1 1 1 0.058735431738105734 1 1 1 1 1 1 1 1 1 1 0.052706250330966029 1 1 1 1 1 1 1 1 1 1 1 1 1 1 1 1 1 1 1 1 1 1 1 1 1 1 1 1 1 1 1 1 1 1 1 1 1 1 1 1 1 1 1 1 1 1 0.050158599039592369 1 1 1 0.050768818259861709 1 0.048864464166291435 1 1 1 1 1 0.046893077177397172 1 0.049596744775258605 1 1 1 1 1 1 1 1 1 1 1 1 1 1 1 1 1 1 1 1 1 1 1 1 1 0.049774843947334321 1 1 1 1 1 1 0.066481332980391147 1 0.055355338467949315 1 1 1 0.076592317292571974 1 1 0.078081921424608 1 1 1 1 1 1 1 1 1 1 1 1 1 1 1 1 1 1 1 1 1 1 1 1 1 1 1 1 1 1 1 1 1 1 1 1 1 0.045647278538420488 1 0.058998439635674083 1 1 1 1 1 1 1 1 1 1 0.049412869187784307 1 1 1 1 1 1 1 1 1 1 1 1 1 1 1 1 1 0.05616923918822482 1 1 1 0.049960806404670689 0.08345498002371475 1 0.06862339435484742 1 1 1 1 1 1 1 1 0.049038634500434435 1 1 1 1 0.049573036211242254 1 1 1 1 1 1 1 0.0503975733552307 1 1 0.063659517590038836 1 0.074720919724366133 1 1 0.049079769441783633 1 1 0.066728191830786571 0.049935834910131163 1 1 1 1 1 1 1 1 1 1 1 1 1 1 1 0.089771053946182441 1 0.05791745229914079 1 1 1 0.047535907080871721 1 0.050209954604769014 1 1 1 1 1 1 1 1 1 1 1 1 0.049723169456492911 1 0.04938156250608014 1 1 1 1 1 1 1 1 0.04927190188746107 1 1 0.051459694013070573 1 1 1 0.051043893754310371 0.052281919581981737 1 1 1 1 1 1 1 1 1 1 1 1 1 1 1 1 1 1 1 1 1 0.051340098681512042 1 1 1 1 1 0.050000077690523635 1 0.049861442547947457 1 1 1 1 0.049700877736609542 1 1 0.050431085957920112 1 1 1 1 1 0.051998675761776095 1 1 1 1 0.045684483465839337 1 1 1 1 1 1 1 0.051720074208485498 1 1 1 0.049245523626645374 1 1 1 1 1 1 1 1 1 1 1 0.049373365152012683 1 1 1 1 1 1 1 1 0.050138290182875161 1 1 1 1 1 1 0.050224279594400706 1 1 1 1 1 1 0.049921750583802438 1 1 1 1 1 1 1 1 1 1 1 0.052320512332582607 1 1 1 0.050136775872433967 1 1 1 0.049259170720050996 1 0.050339860162997609 1 1 1 1 1 1 0.049835761172276893 1 1 1 1 1 1 1 1 1 1 1 1 1 1 1 0.049060969108780682 1 1 1 1 1 0.044377134981615961 1 1 1 1 1 1 1 1 0.048036781273424367 1 1 1 1 1 1 1 1 1 1 1 1 1 1 1 1 0.050512927407711107 1 1 1 1 0.048913433398058433 1 1 1 1 1 1 1 1 1 1 1 1 1 1 1 1 1 1 1 1 1 1 1 1 1 1 0.057464625004128592 1 1 1 0.050037456955438625 1 0.049237727529102743 1 1 1 1 0.053143969565956684 1 0.049609440451901535 1 1 1 1 1 0.050465776202099945 1 1 1 1 1 1 1 1 1 0.058963048438274906 1 1 1 1 1 1 1 1 1 1 1 1 1 1 1 1 1 1 1 1 1 1 1 1 0.050884998674094906 0.050628982223955205 1 1 1 1 1 0.050781751479335724 1 1 1 0.052507613118453228 1 1 1 0.05151510417846978 1 1 0.047044848685563689 1 0.050862458231878849 1 1 1 1 0.049523855135741195 1 1 1 1 0.048395189865560156 0.049720697712862541 1 1 1 1 1 1 1 1 1 1 1 1 0.050912525453272434 1 1 1 1 0.049924203594324625 1 1 1 1 1 0.049903122672613709 1 1 0.05003260380739246 1 1 1 1 1 1 1 1 1 1 1 1 1 1 1 1 0.049815163529596543 1 1 0.049601948600286348 1 1 1 0.049295826701140723 1 1 1 1 1 1 1 1 1 1 1 0.049693878100854391 1 1 1 1 1 1 1 1 1 1 1 1 1 1 1 1 0.049553697804694818 1 1 0.041510237079065586 1 0.038652293928309531 1 1 0.042151594896937268 1 0.048619961110199346 1 0.039848531055007075 1 1 1 1 1 1 1 1 1 1 1 1 1 0.040902500478640691 1 0.042093461344737571 0.051794016767932473 1 1 0.038811969820764361 0.049857901835052967 1 1 0.050008661319460898 0.055487712369462774 1 1 1 0.037214455249384014 1 0.062122098026753461 1 1 0.039724229207665121 1 1 1 1 0.018853421264375107 0.027320395851096413 1 0.036332339786458764 1 1 0.055403355215156505 0.050004661836774024 1 1 0.05643273711548881 1 1 1 0.062744877571685467 1 1 1 0.043085175660196748 0.046547553695980168 0.061626162082119275 1 1 0.057696762988452721 1 0.059805854406315938 0.050003851759718027 1 1 1 1 1 1 1 1 1 1 1 0.050773604104274631 0.049769145624118855 1 0.066100009980615146 1 0.032711017628097833 1 0.05701648538359929 1 1 1 0.050365964413320932 1 1 1 1 1 0.04985212977362237 1 1 1 1 1 1 1 1 1 1 1 1 1 1 1 1 1 1 1 1 1 1 1 1 0.04809377590606792 1 1 1 1 1 1 1 1 1 1 1 1 1 1 1 1 1 1 0.057896400483111787 1 1 1 1 1 1 1 1 1 1 1 0.021780556747041185 1 1 1 1 1 0.061632465901824585 1 1 1 1 1 1 1 1 1 1 1 1 1 1 0.047048832466394616 1 1 1 1 1 1 1 1 1 1 1 1 1 1 0.058250669384139135 1 0.03643502126584966 1 1 1 1 0.041493744497374981 1 1 1 1 1 1 1 1 1 1 1 1 0.068808040985782859 1 0.049801018719335503 1 1 1 1 0.049972081382346337 1 1 1 1 1 1 1 0.039755496096532499 1 1 1 1 1 1 1 0.049989743052612071 1 1 1 0.069713091506589719 1 0.050009463108203839 1 1 1 1 1 1 1 1 1 0.061041390464838106 1 1 1 1 1 1 1 1 1 1 1 1 1 1 1 1 1 1 1 1 1 1 1 1 1 1 1 1 1 1 1 1 1 1 1 1 1 1 1 1 1 1 1 0.051897366202519862 1 1 0.049465240097043423 1 1 1 1 1 1 1 1 1 1 0.050609616457245543 1 1 1 1 1 0.047978477774548625 1 1 0.049946763282320499 1 1 1 1 1 1 0.065874921438831655 1 1 1 1 0.049918911960857515 1 1 0.062132508686369409 1 0.0556216461813007 1 1 1 1 1 1 1 1 1 1 1 0.053217604982438785 1 0.06152841211064649 1 1 1 1 0.051050298908776562 1 1 1 1 1 1 1 1 1 1 1 1 1 1 1 1 1 1 1 1 1 0.044614066616612734 1 1 1 1 0.048233729241216182 1 1 1 1 1 1 1 0.054585050968507791 1 1 1 1 1 0.039963641997100403 1 1 1 0.058478792832576405 1 1 1 0.043163140775115259 1 1 0.047827005374799635 1 1 1 0.060051388389704558 1 1 0.053691209131880441 1 1 1 1 1 1 1 1 1 1 1 1 1 1 1 1 1 1 1 1 1 1 1 1 1 1 1 1 1 1 1 0.048535546662932839 1 1 1 1 1 1 1 1 1 1 1 0.051126009832320123 1 1 1 1 1 1 1 1 1 1 1 1 1 1 1 0.053369085666348987 0.052674641919934734 1 1 1 0.045688059406885702 1 1 1 1 0.050805173599599393 1 1 0.045903917152412606 1 1 1 1 1 1 1 1 1 1 1 1 1 0.045076997848451913 0.048103116427256426 1 1 1 1 1 1 1 1 1 1 1 0.036197226447946124 1 1 0.044064257767930513 1 1 1 1 1 1 1 1 1 1 1 1 1 1 1 1 1 1 1 0.039832435172978811 1 1 1 0.049943131138363565 1 1 1 1 1 0.052446832174096694 1 1 1 1 1 1 1 1 1 1 1 1 1 1 1 1 1 1 1 1 0.046516153189366999 1 1 0.048223180106867561 1 1 1 1 1 1 1 1 1 1 1 1 1 1 1 1 1 1 1 0.046051187557439255 1 1 1 1 1 1 1 1 1 1 1 1 1 1 1 1 1 1 1 1 1 1 1 1 1 1 1 1 1 1 1 1 0.050275344700492101 1 1 1 1 1 1 0.057678321807527584 1 1 1 1 1 0.054716995564292326 1 1 1 1 0.051793270969840932 1 1 1 1 1 1 1 1 1 1 1 1 1 1 1 1 1 1 1 1 1 1 0.05041001110474766 1 1 1 1 1 1 1 0.050094433099942284 1 1 0.052870719088556201 1 1 0.050305060932747662 1 1 1 1 1 1 0.050943116356564302 1 1 1 1 1 1 1 1 1 1 0.065331780533869746 1 0.036359057875625427 1 1 1 1 1 1 1 1 0.050099961486139981 1 1 0.065864691748645815 1 1 1 0.040849178118210504 1 1 1 0.043881768012644276 1 1 1 0.049999858231022862 0.050085696211228395 1 1 0.052417287609787019 1 1 0.055406781971005958 1 1 0.050020907371912102 1 1 1 1 1 1 1 1 1 0.05002088258045842 1 1 1 0.058375332549925191 1 1 1 0.061325868291991048 1 1 1 0.050026604823675144 1 0.050076445926878703 1 1 0.045760880918804293 1 1 1 1 1 1 1 1 0.060149140060816488 1 1 0.051877238174213865 1 1 1 1 1 1 1 1 1 1 1 1 1 0.058578859437841642 1 0.050024140418728637 1 1 1 0.048656499337697556 0.045027352691018471 1 0.054339697089870735 1 1 1 1 0.05000130316283645 1 0.048996338864428036 1 1 1 1 1 1 1 1 1 0.04980105735351846 1 1 1 1 1 1 1 1 1 1 1 1 1 1 1 1 1 1 1 1 1 1 1 1 1 1 1 1 0.05071280269134637 1 1 1 1 1 1 0.049533579636348427 1 1 1 1 1 1 0.049628240375708933 1 1 1 1 1 1 0.049857003412388891 1 1 1 0.0498743384194303 1 1 1 0.050191509577507926 1 1 0.067881014627593911 1 1 1 1 1 1 0.042970337235455493 1 1 1 0.067475552999703994 0.049984734378601098 1 1 1 1 1 1 1 1 1 1 1 1 1 1 1 1 1 0.049920063919231705 1 1 1 1 1 1 1 0.050069833353148831 1 1 1 1 1 0.0560612292617233 1 1 1 1 1 0.049994857244388777 1 1 0.049327624710165899 1 1 1 1 0.049855933808181374 1 1 1 1 1 1 0.042484014758471217 1 0.06823226085844479 1 0.041944607589334326 0.056397191916195577 1 0.049823655661852623 1 1 1 0.0499163500767697 1 1 1 1 1 0.049827776403074356 1 1 1 0.049964288676406746 1 1 1 1 0.049877057196052343 0.05116690559346463 0.047811924115961843 1 1 1 1 0.049891727301237934 0.055701551998271231 1 0.054749487522203495 1 1 1 1 1 1 0.050000560876166056 1 0.049941494824066707 1 1 0.050460991178702751 1 1 1 0.04953370749467273 1 1 0.053673567265791727 1 1 1 1 1 1 1 1 1 1 1 1 0.050269986968504279 1 1 1 1 0.053154036214510203 1 1 1 1 0.055885678145829704 1 1 1 1 1 1 1 1 1 0.050829568696504249 0.047817903792457477 0.045256554934389133 1 1 1 0.049994747598796206 0.049941661964445758 1 1 0.051457191621387899 1 0.049379985774290563 1 1 1 1 1 1 1 0.058160676447180017 1 1 1 1 1 1 1 1 1 1 1 1 1 1 1 1 0.050197530515040223 1 1 1 1 1 1 1 1 1 0.050606744117242176 1 1 0.055002671471377843 1 0.054847260663781976 1 0.05189977412004898 1 1 0.059806377749019465 1 1 1 0.050000072128767774 0.043360075025846483 1 1 0.049592153270790022 1 1 1 0.059120563383526364 1 1 1 1 0.049844765924687458 1 1 1 1 1 1 1 1 1 1 1 0.055449233195206546 0.050004448695445999 1 1 1 1 1 1 1 1 1 1 1 1 1 1 1 1 1 1 1 1 1 1 1 1 1 1 1 1 1 1 1 1 0.049986101666559798 1 1 1 1 1 1 1 1 1 1 1 1 1 1 1 1 1 1 1 0.045957144455821074 1 1 1 1 1 1 0.050021238615921934 0.054889642120692132 1 1 0.053304164015229624 0.052694659055074283 1 1 1 0.0526077606013996 1 1 1 1 1 1 1 1 1 1 1 1 1 1 1 1 1 1 1 1 1 1 1 0.045810847377650316 1 0.061085933731914621 1 0.048595208714489815 1 1 1 1 1 1 0.050038663760467769 1 0.047639097432846084 0.049388541812127713 1 1 0.023111157934687696 1 1 1 1 1 1 0.050137711039958982 0.027381529594559886 1 1 0.041327428469839944 0.056685413431141751 1 1 0.052419548469162247 0.050042251790769571 1 1 1 1 1 1 1 1 0.050016343208818863 1 1 1 1 1 0.045795137702218838 1 1 0.026934579131758306 1 1 1 0.050068569731093165 1 1 1 1 1 1 1 1 1 1 1 1 1 1 1 1 1 1 1 1 1 1 1 1 1 1 1 1 1 1 1 1 1 1 0.049186629131946255 1 1 0.057279647663345 1 0.063706644630422721 0.047606201714808768 1 1 1 1 1 1 1 1 1 0.066369893381894349 1 1 1 1 1 0.06865934858980946 1 1 1 1 1 1 1 0.051635454881778661 1 1 1 1 1 1 1 1 0.054846588690993195 1 1 1 1 1 0.057864368211233079 1 1 1 1 1 1 1 1 1 1 1 1 1 1 1 1 1 1 1 1 1 1 1 1 1 1 1 1 1 1 0.050688510865244445 0.050442910561440478 1 1 1 1 1 1 1 0.049580903136273932 1 1 1 0.052242217256697893 1 0.051228008622092848 1 1 1 1 1 1 1 1 1 1 1 1 1 1 1 1 1 1 1 1 1 0.049862543651686839 1 1 1 1 1 1 0.056952135137026905 1 1 1 1 1 1 1 0.049920987214699043 1 1 0.049947509779262322 1 1 1 1 1 1 0.060886665784539523 1 1 1 0.046991608172815551 1 1 0.054985754751125354 0.051015311412336298 1 1 1 1 1 1 1 1 1 1 1 1 1 1 1 1 1 1 1 1 1 1 1 1 1 1 1 1 0.049762342673028363 1 1 1 1 1 1 1 1 1 1 1 1 1 1 1 1 1 1 1 0.051029728731237796 1 1 1 0.052862708303905659 0.049951046794971608 1 1 1 1 1 0.049967529934528847 1 1 1 0.050141558617655194 1 1 1 1 1 0.050425763353852557 1 1 1 1 1 1 1 1 1 1 1 1 1 1 1 1 1 1 1 1 1 0.049211637993911941 1 1 1 1 1 1 0.046766436379583082 1 1 1 1 1 1 1 1 1 1 1 1 0.050819437172786322 1 1 1 1 0.046671927266290318 1 0.050816260822471301 1 1 1 1 1 1 1 1 1 1 1 1 1 0.0424857488685767 1 1 1 1 1 0.038171726821280699 1 1 1 1 1 1 0.046679779417799216 1 1 1 1 1 1 1 1 1 1 1 1 0.049033974272942218 1 1 0.046480468682408974 1 1 0.052463128367397915 1 1 0.050785879129305475 1 1 1 1 1 1 1 1 1 1 0.044560823618747789 1 1 1 1 1 1 1 1 0.049997223181817416 1 1 1 0.049941785984453618 1 1 1 0.044752043077120218 1 1 0.041908965159707753 1 1 1 0.053440575662896367 1 1 1 1 1 0.04262119707224294 1 0.049999464297743948 1 1 1 1 0.050074174067753427 0.042046871983643694 1 1 1 0.023759926954565316 1 1 1 1 0.049841085446323818 1 1 1 1 1 1 1 1 1 1 1 1 1 1 1 0.049742430694863476 1 1 0.045296756207707234 0.055901810163771284 1 1 1 1 0.055491983441404949 1 1 1 1 1 1 0.04988124492199001 1 1 1 1 1 1 0.049962157884516675 1 1 1 1 1 1 1 1 0.05146023627174838 1 1 1 1 1 1 1 1 1 1 0.049817084325330302 1 1 0.053348840341989862 1 1 0.051907145971349863 1 1 1 1 1 0.037732642026776959 0.0500081946878441 1 1 0.050024920019026531 0.049613182542933058 1 0.048374621029098681 1 0.054313865157538985 1 0.055004342693943012 0.046651997868801864 1 1 0.044667421940656482 1 0.05075971067856884 1 0.051896585578688231 1 0.049862888052786603 1 0.050476038931517718 1 1 0.049987617014365507 1 0.042681950382016914 1 0.052262420010966842 1 1 1 1 1 1 0.048271383885744021 1 1 1 0.049984389058521692 1 1 1 1 1 1 1 1 1 0.049796930484331918 1 1 0.050260931154465914 1 0.049996409895165031 1 0.049076008235046098 1 1 1 0.00093830759826458998 0.049868893533271223 1 1 1 1 1 1 1 1 1 1 1 0.049729482802199812 1 1 1 1 1 0.049307805570706707 1 1 1 1 1 1 1 1 1 1 1 1 1 1 1 1 1 0.050142631075936209 1 1 1 1 1 1 0.052497742090086376 1 1 1 0.051663675965168993 1 1 0.049564700346796178 1 1 1 0.055822167431960307 1 0.060531175723420545 0.048615881397118504 1 1 1 1 1 1 1 1 1 0.052587930528090611 1 1 1 1 1 1 1 0.05002183675950661 1 0.050929478994019645 1 0.05031592690720002 1 1 1 1 1 1 1 1 1 1 1 1 1 1 1 1 1 1 1 1 1 1 1 1 1 1 1 1 1 1 1 1 1 1 1 1 1 0.034728706597724507 1 1 0.03518675005002609 0.061290987651108998 1 1 1 1 0.061194369988777919 1 1 1 1 1 0.057188654304464771 1 1 0.049966843157550137 0.027133809207912432 1 1 1 1 1 1 0.040477799623378025 1 0.049989420727364862 1 1 0.054069604785953074 0.049138043429820685 1 0.047469552695765145 1 1 1 0.048164938840675575 1 1 1 1 0.047248805475216885 1 1 1 0.054759827805590036 1 1 0.039807864537139817 0.050107623375147431 1 1 1 0.065440083052078588 1 1 1 1 0.049810278562255207 1 1 0.052896850757962355 1 1 1 0.04726452084364427 1 1 0.052339535478958234 1 1 1 0.039897393436451857 1 0.055539546691211333 1 1 0.057184459025877654 1 1 0.055497953977186494 0.049996612547315605 1 1 0.034223688879544134 1 0.049922398255677722 0.060860646207016512 1 1 1 1 0.040758425729677736 1 1 1 1 0.037288832419873852 1 1 1 1 1 1 1 1 1 1 1 1 0.070069852434630042 1 1 1 1 0.049996226815561581 1 0.04058522168696739 1 1 1 1 1 0.05675797974730204 0.050009188667007778 0.049895973643247937 1 1 1 1 1 1 1 1 0.059571393573009487 1 1 1 1 1 1 0.054933035635976069 1 1 1 1 0.059137616355685804 1 1 1 1 1 1 1 1 1 1 1 1 1 1 1 1 1 1 0.053796173242820648 1 0.033891370122717382 1 1 0.041984695852212206 0.041684261798366561 1 0.055970109666211257 1 1 0.049215883303943428 1 0.050959251525510771 1 0.053917866385789742 1 0.051224429661843193 1 1 1 1 0.050456429583631029 1 1 1 0.05241232133255537 1 1 1 1 1 1 1 1 1 1 1 1 1 1 1 1 1 1 1 1 1 1 1 1 1 0.050271068516494669 1 1 1 1 1 0.080740701171062829 1 1 1 1 1 1 1 1 1 1 1 0.050541645099927937 1 1 1 1 1 0.05025783651411328 1 1 0.049605262482538034 0.078086594215568045 1 1 1 0.058727046689624432 1 1 0.045944663547725813 0.060060824264699122 1 0.07405743514586427 1 1 1 1 1 1 1 1 1 1 1 1 1 1 1 1 0.050857908250506775 1 1 1 1 0.049113760037436963 1 1 1 1 1 1 1 1 0.04573703958837104 0.047990630814633228 1 1 0.050045731973325208 1 1 1 1 1 1 1 1 1 0.050219384633639987 0.047342008805967228 1 1 0.05000417728699029 1 1 1 0.049630917800429754 1 1 1 1 1 1 1 1 1 1 1 1 1 1 1 1 1 1 1 1 1 1 1 1 1 1 0.050284637879880051 1 1 1 1 1 1 1 1 1 1 1 1 1 1 1 1 1 1 1 1 0.037647672459526806 1 1 1 0.052478493954085673 0.050064475606930045 1 1 1 0.038145433797070687 1 1 0.049905426515933507 1 1 1 1 1 0.048987276585488432 1 0.051270339617603515 1 1 1 1 1 1 1 1 0.049611885205314087 1 1 1 0.044534221242227542 1 1 0.048616876222141517 1 0.050020339650718296 1 1 1 0.054463437860547019 1 1 1 0.063230848246642518 1 1 1 1 1 1 1 1 1 1 1 1 1 1 1 1 1 0.071207317639544021 1 1 1 1 1 1 1 1 1 0.050958059435461375 1 1 1 1 1 1 1 1 0.078216115435087691 1 1 1 1 1 1 1 1 1 1 1 1 1 0.049926282437727808 1 1 1 0.049855601582437653 1 1 1 1 1 1 1 1 1 1 1 1 1 1 1 1 1 1 1 0.052629400606557464 1 1 1 0.04559406652454695 1 0.049916140542274112 1 1 1 0.034398858200862518 1 1 1 0.049929694560996732 0.047871768588870475 1 1 1 1 1 1 1 1 1 1 1 1 1 1 1 1 1 1 1 1 1 1 0.050157480719736379 1 1 1 1 0.050406477673844485 1 1 1 1 0.050248996954108102 1 1 1 1 1 1 1 0.048056300256250052 1 1 1 1 0.048769596177635016 1 1 1 1 1 1 0.04955306697938866 1 1 1 1 1 1 0.049323617121483712 1 1 1 0.050012221064847352 1 1 1 1 1 1 1 1 1 0.050823082583300913 1 1 1 1 1 1 0.052306158993542462 1 1 1 1 1 1 1 1 1 1 1 0.050007111436170461 1 1 0.048474017400249952 1 1 1 1 1 0.050392108412263076 1 1 0.054131322941341306 1 1 1 1 1 1 1 0.03249788561084465 0.050694794322476845 1 1 1 1 0.049535816969704646 1 1 1 1 1 1 0.049994533565437489 1 1 1 1 1 1 1 1 1 1 0.048980223733108348 1 1 1 1 1 1 1 1 1 1 1 1 0.050808675369848816 1 0.050213276558793658 1 1 1 0.060728084024885123 1 1 0.022455929519341333 1 1 1 1 0.055890794946619311 1 1 1 1 1 0.021939543453636062 1 1 1 1 1 1 1 1 0.022122812259090244 1 1 1 1 0.0515533331914469 1 1 1 1 1 1 1 0.050555937105280627 1 1 1 1 1 1 1 1 1 1 0.051466153948555762 1 1 1 0.04959350319588722 1 0.048754440905414281 1 1 1 1 1 1 0.050100393042010367 1 0.045889255870283897 1 0.049857739419712235 1 1 1 1 0.051436447407623521 1 1 1 1 1 1 1 1 1 1 1 1 1 1 0.04973852152400414 1 0.039981398375952042 1 1 1 1 1 1 1 0.050443829826193935 1 1 1 1 1 1 1 1 1 1 1 1 1 0.037756043059960692 1 1 1 1 0.035088671301665417 1 1 1 1 1 1 1 1 1 1 1 1 1 1 1 1 1 1 1 1 1 1 1 1 0.049708565602106493 1 1 1 1 0.038616996398278577 1 1 1 0.049828901563771621 1 1 0.049998107829031198 1 1 0.049758945544647229 1 1 1 1 1 1 1 1 1 1 1 1 1 1 1 0.049916946061361385 1 1 0.049979882979897625 1 1 1 1 1 1 1 0.061030985486196968 1 1 1 1 1 0.065046774417280379 1 1 1 0.019001146250664361 1 1 1 0.014665965252020068 1 1 1 1 1 1 1 0.04609239276707984 1 1 1 0.04773087627840443 1 0.050317103646692368 0.055200495863558893 1 1 1 1 1 0.051471089929638308 1 1 1 1 1 1 1 1 1 1 0.05142123126631163 1 1 1 1 1 1 1 1 1 1 1 1 1 1 1 1 1 1 1 1 1 1 1 1 1 1 1 1 1 1 1 1 1 1 1 1 1 0.050043178403802166 1 1 1 1 1 1 1 1 1 1 1 1 1 1 1 1 0.049597699400678152 1 1 1 1 1 1 1 1 1 0.050043119494803903 1 1 1 1 1 1 1 0.049838753856030885 1 1 1 1 1 1 1 1 1 1 1 1 1 1 1 1 1 1 1 1 1 0.051269591743298461 1 1 1 1 1 1 1 1 1 1 1 1 1 1 1 1 1 0.050895904390695156 1 1 1 1 1 1 1 1 1 1 1 1 1 1 1 1 1 1 1 1 1 1 1 1 1 1 1 1 1 1 1 1 1 1 1 1 1 1 1 1 1 1 1 1 1 1 0.048740608484283812 1 1 1 1 1 1 1 1 1 1 1 1 1 0.047472797603749582 1 0.050012241915675049 1 1 1 1 1 0.050128495625038197 1 1 1 1 1 0.051105169049915869 0.05383158473445987 1 1 1 1 1 1 1 1 1 1 1 1 1 1 1 1 1 0.051003402914780019 0.048090852604293348 1 1 1 1 1 1 0.049440729464899608 1 0.048006092057899671 1 1 1 1 1 1 1 1 1 0.048661671010822548 1 1 1 1 1 1 1 1 1 1 1 1 1 1 1 1 1 1 1 0.05061971185773808 1 1 1 1 1 0.049201087857363976 1 0.04840707530721234 1 1 1 1 1 1 1 0.048490315961693134 1 1 1 0.049205987449848367 1 1 1 0.044426738192472871 1 1 0.045353228048384847 1 1 1 0.055868898303529521 1 1 0.054126768276455656 1 0.041555109145758447 1 0.052744508649347384 1 1 0.047869719218339123 1 1 1 1 1 1 1 1 1 1 1 1 1 1 1 1 1 1 1 1 1 0.050177330046075046 1 0.039198489691462696 1 1 1 1 1 1 1 0.04043234960137615 1 1 1 1 1 1 1 1 1 1 1 1 1 1 1 1 1 1 1 0.050189551110922388 1 1 1 0.050382345029043998 1 1 1 1 1 1 1 1 1 1 0.051558236905683889 1 1 1 1 0.052847055595222348 1 1 0.050741514814910516 1 1 1 1 1 0.048911387333732508 1 1 1 1 0.04930624742920868 1 0.051562442586601663 1 1 0.037053794054736321 1 1 1 1 1 1 1 0.037319705568621984 1 1 0.049686520428745169 1 0.038932523398118313 1 1 1 1 1 1 1 1 1 1 1 1 1 1 1 1 1 1 0.050286791446332885 1 1 1 1 1 1 1 0.051028801892678083 1 1 1 1 0.046145850618028783 1 1 1 1 1 1 1 1 1 0.050359169785866534 1 1 1 1 0.05157561013587135 1 1 1 1 1 1 1 1 1 1 1 1 0.049601905690055757 1 1 1 1 1 1 1 1 1 0.041537469040104635 1 1 1 1 1 1 1 1 1 1 1 1 0.045794050306777315 1 1 0.048987739045774567 1 1 1 1 1 1 1 1 1 0.05051722750861333 0.0064423530733546085 0.060795219179540325 1 1 1 0.049995817902858099 1 1 1 1 1 1 0.073143152455473301 1 1 1 0.053716760743085137 0.049886657129428046 1 1 1 1 1 1 1 1 1 1 1 1 0.037699517674219696 1 1 1 0.050098666583532701 0.077942769055459021 1 1 1 1 1 0.081046164583702687 1 1 1 1 0.079017473517461856 1 1 1 1 0.049793795727211126 1 1 1 1 1 0.017559192390237177 0.035516705878216467 0.056024121971652664 1 1 1 0.044665210779018361 0.042780204510995998 1 1 1 1 1 1 1 1 1 0.056557172459024148 0.050280555360991894 1 1 1 0.04946576972914811 0.050063439083837133 1 1 1 1 1 1 1 1 1 1 1 1 1 1 1 1 1 0.058136924319010623 1 0.05983786706551196 1 1 1 1 0.071819981761535923 1 1 1 1 1 1 1 0.070213124008898814 1 1 1 1 1 1 1 0.061779453436678969 1 1 0.035047267372720556 1 0.063410328670591182 0.071403800306024237 1 1 1 0.038681092733094537 0.050011544347265041 1 1 1 0.050031451096364657 0.049281330986242905 1 1 1 1 1 1 1 1 1 1 0.050246024505134781 1 1 1 1 1 1 1 0.045193600270666365 1 1 1 1 0.037504375899057377 1 1 1 1 1 1 0.073410359443399242 1 1 1 1 0.049696680832767098 1 0.067631336821708382 1 1 1 1 1 1 1 1 1 1 1 1 1 1 0.076311877672968362 1 1 1 1 1 1 1 0.076792336644004144 1 1 1 1 0.050045602747202676 1 1 1 0.044692985732975365 1 1 1 1 1 1 1 1 1 1 1 1 1 1 1 1 1 1 1 1 1 1 0.046395988612429551 1 0.048671649655835494 1 1 0.049167714682335897 1 1 1 0.048012420586766816 1 1 0.047565653382481733 1 1 1 1 1 1 1 1 1 1 1 1 1 1 1 1 1 1 1 1 0.046732341857829637 0.052121508978859032 0.051391232206646056 1 1 1 1 1 1 1 1 1 1 1 1 1 0.043639486724407379 1 1 1 0.053545276955752556 1 1 0.035675448024313973 1 1 1 1 0.041342969654819414 1 1 0.042831630701977298 0.050849773606054076 1 1 1 1 0.048542754922825671 1 1 0.052140911241786513 1 0.050683032938620115 1 1 1 1 1 1 1 1 1 1 1 1 0.053682838620302847 1 1 1 1 1 1 1 0.047049588452825197 1 0.050275560694357638 1 1 1 1 0.047207038667920788 1 1 1 1 1 1 1 1 1 1 1 1 1 1 1 1 1 1 1 1 1 1 1 0.045310002636360258 1 1 1 0.050417688715007264 1 0.060808162064996264 1 1 1 0.031171051660531499 1 1 1 1 1 0.050070738804532874 1 1 0.059924116351722685 1 1 1 1 1 1 1 1 0.049017050492595318 1 1 1 1 1 0.048185468755782439 1 1 1 1 1 1 1 1 1 1 1 1 1 1 0.048021915861132393 1 1 1 1 0.047706244841495306 1 1 1 1 1 1 1 1 1 1 1 1 0.050518409552949325 1 1 1 1 0.049637462700907298 1 1 1 1 1 1 1 1 1 1 1 1 1 0.053196933568720288 1 1 0.050332693734129998 1 1 1 0.049332721512232405 1 1 1 1 1 1 1 1 1 1 1 1 1 0.05086940393649883 0.037756837701247443 1 0.048272484247917517 0.045508970998164269 1 1 1 0.052292050803524996 0.016563764630788562 1 0.046167729671793334 1 0.04959911669133419 1 0.034437130803640609 1 1 1 0.05762243921020891 1 0.049992931083147521 1 1 1 1 0.03826510370696274 1 1 1 1 1 1 0.055986407778150324 1 1 1 1 1 0.013574955506188632 1 1 0.049986099824158435 1 1 0.062597268176023846 1 1 0.049771652185218403 1 1 1 1 1 0.071702438047372419 1 0.064316913394927719 1 1 1 1 1 1 1 1 1 1 1 1 1 0.051090726519539317 1 1 0.050928003847173685 1 1 1 1 1 1 1 1 1 0.053806548912160738 1 1 1 1 1 1 1 1 1 0.082088795115635244 1 1 0.051237393574556339 1 0.082441590209790236 1 1 1 1 1 1 1 0.056927215102663492 1 1 1 1 1 1 1 0.080732747650891057 1 0.043192461908790662 1 1 0.049731532125629009 1 1 1 0.049958862693277165 1 1 1 1 0.050107358441999761 1 1 1 1 1 0.049949681407002997 1 1 1 1 1 1 1 1 1 1 1 1 1 1 1 1 1 1 1 1 1 0.048736902940161357 1 1 0.048640696114761933 1 1 1 0.050720812715312591 1 1 1 1 0.049541255875507867 1 1 1 1 1 1 1 1 1 1 1 1 1 1 1 1 1 1 1 1 1 1 1 0.047183513685039653 1 1 1 1 1 1 0.042128623088480623 1 1 1 1 1 1 1 1 1 1 1 1 1 0.05007447001897173 1 0.021140062740940241 1 1 0.052678671979426661 1 1 1 1 0.016854176965133326 0.046549003154428815 1 0.048759050972085397 1 0.038217169586128752 1 1 1 1 1 0.011334439719809894 1 1 0.0017780203051065424 0.0023540928443616799 1 1 1 1 1 0.061167033577992552 1 1 0.049997509242637961 1 1 1 1 1 1 1 1 0.026452731648021734 0.058918255780556553 1 1 1 0.037585107081004897 1 0.049997453825876739 1 1 1 1 1 0.046023879267518046 1 0.060557636396047637 1 1 1 1 1 0.04765224116689909 0.049758072864343146 1 1 1 1 0.049957901944923735 1 1 1 1 0.049255193982708674 1 1 1 1 1 1 1 1 1 1 1 1 1 1 1 1 1 0.049289437380463423 1 1 0.049780592790230317 1 1 1 0.049828678080043966 1 1 1 1 1 1 1 1 1 1 1 1 1 1 1 1 1 1 1 0.048293076896749672 1 1 1 1 1 1 1 1 1 1 1 1 1 1 0.047013095835980748 0.050932619671374121 1 1 1 0.049927231615645121 1 1 1 1 1 0.048827858093219115 1 1 1 1 1 1 1 1 1 1 1 0.049736140057309954 1 1 0.049907461977266011 1 1 1 1 1 1 1 1 1 1 0.043912717442248991 1 1 1 0.038312838423878122 1 0.046312171958682528 1 0.053518298428640733 1 1 1 0.049988822330053098 0.054360121316481519 1 0.041829152051439944 1 1 0.050915735030192796 1 1 0.05291617873053403 0.03760851946145103 1 1 1 0.03788303486207123 1 1 0.057525592927846078 1 0.03867673378647029 1 1 1 0.059813720163013992 1 1 0.055900383925237079 0.058828560029768336 1 0.059248167084408353 1 1 0.06293974173506911 1 0.052058423032981554 1 1 1 1 1 1 1 1 1 0.050604626601005065 1 1 1 1 1 0.049099421642340629 1 1 1 1 1 1 1 1 1 1 0.06287712705967248 1 1 1 1 0.058369556381306364 0.06282212274952402 1 1 0.030168748039420573 1 0.027051827691835249 1 1 1 1 1 0.028402749917261393 1 1 0.062742242080547461 1 0.050002892317463736 1 1 1 1 1 1 1 0.063000251460855264 1 1 1 1 1 1 1 1 1 0.032957274550020961 1 0.050058624290235318 1 0.049960419821822019 1 0.056059384732130721 1 1 1 1 0.049818161315490703 1 1 1 1 1 0.049423874350892905 0.063302607223119547 1 1 1 1 1 1 0.050957604175493734 1 1 1 1 1 0.038260219646339653 1 1 1 1 0.03104448889433721 1 1 0.041780864879381707 1 0.033131799866196646 1 1 1 0.056514855243432194 1 0.027329491116258958 1 1 0.028741997080746113 0.050002642011665779 0.030910621575903168 1 1 1 1 1 1 0.049999175278333599 0.06732252772327986 0.052930351346084356 1 1 1 1 0.052759615850087753 1 0.046663527949741171 1 0.058014406199487493 1 1 1 1 1 1 0.049232392537984088 1 1 1 1 1 1 1 1 1 1 1 1 1 1 1 1 1 1 1 1 1 1 1 1 1 1 1 1 1 1 1 1 1 1 1 1 1 1 1 1 1 1 1 1 1 1 1 1 1 0.044496331865661598 1 1 1 0.035077717211950243 0.050054698131522829 1 1 1 1 1 1 1 1 1 1 1 1 1 1 1 1 1 1 1 0.059092214851571304 1 1 1 1 1 1 1 0.047976883068766088 1 1 0.063307529442648641 1 1 0.052590113282939221 1 1 0.041593237825622451 1 0.056785748916271271 1 1 0.05731749677069501 1 1 1 0.049862692794052393 1 0.039561346052817116 1 0.055996605449173897 0.054843672311111931 1 1 1 0.042319293254958562 0.049892201833848328 1 1 0.057310366318884351 1 1 0.039581863665220325 1 1 1 1 1 1 1 1 1 1 1 1 0.041823741361005314 1 1 1 1 0.043521101388579182 1 1 1 1 0.068948357100244495 1 1 1 1 1 1 1 1 1 0.05271097331729948 1 0.049988805183268425 1 1 1 1 0.056285146452904368 1 1 1 0.056625077086155287 1 1 1 1 1 1 0.065591331819128768 1 1 0.049520270068321076 1 1 1 0.027912000006175587 1 1 1 1 1 1 1 0.058452019931191278 1 1 1 1 1 0.054616372068301756 1 1 1 1 1 1 1 1 1 1 1 1 1 1 1 0.064412545568010932 1 1 1 1 1 0.052253336634394083 1 1 0.044137487539730159 1 0.055994711620237628 1 1 1 1 0.05096678275583795 0.050476075497557282 1 1 0.045283090445632702 1 1 1 1 1 1 1 1 1 1 1 0.04931618075594317 1 0.048091632825208508 1 1 1 1 1 0.049406425539900468 1 1 1 0.051876460783484221 1 1 1 0.05025427709287715 1 1 1 1 1 1 1 1 1 1 1 1 1 0.034093778385936566 1 1 1 1 1 1 1 0.056657591709280399 1 0.051273135203413735 1 1 1 1 1 1 1 0.05013288532890238 0.07855235975462177 1 1 1 1 1 1 1 1 1 0.049052177817536902 1 1 1 1 1 1 0.063770069123779652 0.050022635630972839 0.05000409639930601 1 0.070916124531388736 1 1 1 1 1 1 0.066120154274997234 1 0.05078125425175059 1 0.047661438498240824 1 0.078060837367814023 1 1 1 1 1 1 0.080572865566453225 1 1 0.050223904173160264 1 1 1 1 0.049119580804107638 1 1 1 1 1 1 1 1 1 1 1 1 1 1 1 1 1 1 1 1 1 0.0036914601830817725 1 0.051669313915641196 1 1 1 1 1 1 1 1 1 1 1 1 1 1 1 1 1 1 1 1 1 1 1 1 1 1 1 1 1 1 1 1 1 1 1 1 1 1 1 1 1 1 1 1 1 1 1 1 1 1 1 1 1 1 1 1 1 1 0.0497362264098693 1 1 1 1 1 1 1 1 1 1 1 1 1 1 1 1 1 1 1 1 1 1 1 0.04919558665629073 1 1 1 0.048511530511076838 1 0.050289847929119488 1 1 1 1 1 1 1 1 1 1 1 1 1 1 1 1 1 1 1 1 1 1 1 1 1 1 1 1 1 1 1 1 1 1 1 1 1 1 1 0.051188409177580885 1 0.047897888795375099 1 1 1 1 1 1 1 1 1 1 1 1 1 1 1 1 1 1 1 1 1 1 1 1 1 0.05728478878415974 1 1 1 1 1 1 1 1 1 1 1 1 1 1 1 1 1 1 1 1 1 1 1 1 1 1 1 1 1 1 1 1 1 1 1 1 1 1 1 1 1 1 1 1 1 1 1 1 1 1 1 1 1 1 1 1 1 1 1 1 1 1 1 1 1 1 1 1 1 0.086035824561299504 1 1 1 1 1 1 1 0.074554065328613361 1 1 0.051217819502002895 1 1 1 1 1 1 1 1 1 1 1 1 1 1 1 1 1 1 1 1 0.067564205743562755 1 1 1 1 1 1 1 1 1 1 1 1 1 1 1 1 1 1 1 1 1 1 1 1 1 1 1 1 1 1 1 1 0.05007729538226538 1 1 1 1 0.05394606258946677 1 0.049621449640985207 1 1 1 1 1 1 0.050055061341301804 1 1 0.050363525150825872 1 1 0.050134074626223719 0.050069921896477826 1 0.049941716564797956 1 1 1 0.050119867804902893 1 1 1 1 1 1 1 1 1 1 1 1 1 1 1 0.051587951477705084 1 1 1 1 1 1 1 1 0.050074154808076518 1 1 1 1 1 1 1 1 1 1 1 1 1 1 1 1 1 1 1 1 1 1 1 1 1 1 1 1 1 1 1 1 1 1 1 1 0.069253242137660057 1 1 1 1 1 1 1 0.045545370691616016 1 1 0.043926863554349882 1 0.073757912341532089 1 1 1 1 1 1 1 1 1 1 1 0.049996709299349816 0.049974794612249129 1 1 0.047701357306521822 1 1 0.049925757187329611 0.050363792077766076 1 1 1 1 0.052150367279110578 1 0.044030102751392436 1 1 0.052765868565889967 1 0.050463790194383039 0.046779675707887033 1 0.06925928424371533 1 0.048923022003716302 1 1 1 1 1 1 1 0.049788353647646229 1 0.050086347751390259 1 1 1 1 1 0.049978084029855735 1 1 1 0.066646722707623687 1 1 0.047930635302869486 1 0.050731174158187106 1 0.062756223066887398 0.050427223322408746 1 1 0.030475683774047774 1 1 1 1 1 1 0.059821418167843074 1 1 1 1 1 1 1 1 0.039540657014305459 0.049921682515120483 1 1 1 0.033898954194035283 1 1 1 1 0.051697615623958845 0.026408083659134302 1 0.034449449469301077 1 1 1 0.044380641607868199 1 1 1 1 1 1 1 1 1 1 1 1 1 1 1 1 0.046796083924207491 1 1 1 1 1 1 0.056299326510750383 1 0.060153977801051348 1 1 1 0.056137345273343978 0.063773258692473106 1 1 0.04992376864511662 1 0.050017263285915138 1 1 1 1 1 1 1 1 1 1 1 1 0.050020998827837899 0.049978440639608067 1 1 1 1 1 0.045598434845489907 1 1 1 1 1 1 1 0.044687964880216847 1 1 1 0.049999297093049212 1 0.064152304544743716 1 1 0.049899382422813651 1 1 1 1 1 1 1 1 1 0.047524230478374653 1 1 0.048986975240757361 1 1 1 1 1 1 1 1 1 1 1 0.055258316772599625 1 1 1 1 1 1 1 1 1 1 1 1 1 1 1 1 1 1 1 1 1 1 0.049477876139080654 1 1 1 1 1 1 1 1 1 1 1 0.049823758094217921 1 1 1 1 0.053463760567940805 1 1 1 1 1 1 1 1 1 1 1 0.050485821939857553 1 1 1 1 1 0.052210843559230474 1 0.050024983431261535 1 1 1 1 1 1 1 1 1 0.060216030969610923 1 1 0.067869547284552315 1 1 0.044188104048655225 1 1 1 1 0.048352315801074477 1 1 1 1 1 1 1 1 1 1 1 1 1 1 1 1 1 1 1 1 1 0.043496022855506779 1 1 0.06178721902523604 1 0.045410826731056862 1 1 1 1 1 1 1 1 1 0.058165563146387739 1 1 0.044648494276741779 0.050014444722331353 0.053725852699184951 1 1 1 0.049998409674996511 1 1 1 1 1 1 0.045875874652595863 0.050001495159423773 1 0.037846354111945479 1 1 0.035718806256587229 1 1 0.059478356446169861 1 1 1 1 0.058848506433809421 1 1 1 1 0.060244524439633712 1 1 1 1 1 1 1 1 1 1 1 0.05235991852515863 1 1 0.048249851172767581 1 0.059677545732136308 0.049755433727630236 1 1 0.049985404493092175 0.054640169193583096 0.048251747523866018 1 1 1 1 1 1 1 1 1 1 0.051080728944960352 1 1 1 1 1 1 1 1 1 0.052326629548346937 1 1 1 1 1 0.050362670447294242 1 1 1 1 1 1 1 1 1 1 0.053590786494605545 1 1 1 1 1 1 1 1 1 1 1 1 1 1 1 1 1 1 1 1 1 1 1 1 0.068864988878632988 0.0457054627359329 1 1 1 1 1 1 1 1 0.056776736098488427 1 1 1 1 1 1 1 1 1 1 1 1 1 1 1 1 0.051943230364115231 1 1 1 1 0.065583145614992538 1 1 1 0.035419640121230153 0.050024561108319668 1 1 1 1 1 1 0.050026873076707196 1 0.045339529982208832 1 1 1 0.052899024678223293 1 1 1 1 1 1 1 1 0.051071346577011789 1 0.066412823993244052 0.038865185616430951 1 1 1 1 1 1 1 1 1 1 1 1 0.046750822216821544 1 1 0.046417061725971383 1 0.048858262454776161 1 1 1 1 1 1 1 1 1 1 1 1 1 1 1 1 1 1 1 1 1 1 1 0.047890331476054177 1 1 1 1 1 0.07191416414676978 1 1 1 1 1 1 1 1 1 1 0.050772365773700284 1 1 1 0.050270015421692724 1 1 1 1 1 1 1 1 1 1 1 0.049833959463085192 0.06796917873787342 1 1 1 1 1 0.062525655779569936 1 1 1 0.058100698115336538 1 1 1 1 1 1 1 1 1 1 0.050181342561854123 1 1 1 1 1 1 1 0.049914370130252059 0.05895519009297151 1 0.041850393286049128 1 1 1 1 0.05237319702365556 1 1 1 1 1 0.056720263035124022 1 1 1 1 1 1 1 1 1 1 0.049979190521795655 1 1 1 1 1 1 1 1 1 1 0.055625306971113758 1 1 1 1 1 1 1 0.051728427078993569 1 1 1 1 1 1 1 1 1 1 1 1 1 1 1 1 1 1 1 1 0.049432045126286982 1 1 1 0.048237718445921438 1 1 1 1 1 1 1 1 1 1 1 1 1 0.046315018939062758 1 0.041556464911509307 0.055134015100158834 1 0.046480358652449198 0.062926562349659626 1 1 1 1 1 0.049846769645701956 1 1 1 1 1 1 1 0.053803833268243326 1 1 0.062824696841110417 1 1 0.040914998916724551 1 1 0.043540989933406229 1 1 0.054958294556129564 0.053071677616493451 0.047586238253786516 0.049132635647067324 1 1 0.051394818039693424 0.04989615061162328 1 1 0.041790065117802047 1 1 0.046663999539036771 1 1 1 1 0.055232414697905886 0.06299936824217231 0.052451868687296885 0.064241317032050868 1 1 1 0.04925130813377529 1 0.050099202081064997 1 0.04130801818806995 1 0.052263316738764665 0.043789187315395772 1 1 1 1 1 1 1 0.051391508651034021 1 1 0.075460633213797812 1 0.049648233991043442 1 1 0.054783467669123231 0.046896139907406174 1 1 1 1 1 1 1 1 1 1 1 1 1 1 1 1 1 0.05028273826606254 1 1 1 1 1 1 1 1 1 1 1 1 1 1 1 1 1 0.04947522548659658 1 1 1 1 1 1 1 1 1 1 1 1 1 1 0.033321805331456414 0.04790354884805878 1 1 1 1 0.049995375707355655 1 0.032889865115678533 1 1 1 0.054161239650236379 0.047610445471177043 1 0.050458603330334778 1 1 1 1 1 1 1 1 1 1 1 1 1 1 1 1 1 1 1 0.031276916710119548 1 0.049939286633306164 1 1 1 1 0.050284266233722008 1 1 1 1 1 1 1 1 1 1 1 1 1 1 1 1 1 1 1 1 0.050196828365884724 1 1 1 1 1 1 1 1 1 1 1 1 1 1 0.04936090794825311 1 1 1 1 1 1 1 1 1 1 1 1 1 1 1 1 1 1 1 1 1 1 1 1 1 1 1 1 1 1 1 1 1 1 1 1 1 1 1 1 1 1 1 1 1 1 1 1 1 1 1 1 1 1 1 1 1 1 1 1 1 1 0.058636570435730936 1 1 1 0.05745274542111381 1 1 0.053981385167850032 1 1 1 1 1 1 1 1 1 1 1 0.053471360253263794 1 1 1 1 0.048862734511925104 1 1 1 1 1 1 1 1 1 1 1 1 1 1 1 1 1 1 1 1 1 1 1 1 1 1 1 1 1 0.049790110279789149 1 1 1 1 0.049789918422967525 1 1 1 1 1 1 1 1 1 1 0.050589001128412095 1 1 0.051241636952282801 1 1 1 1 1 1 1 1 1 1 1 1 0.049132191318947568 1 1 1 1 1 1 1 1 0.05087384932023227 1 1 1 1 1 1 1 1 1 1 0.057136973355140445 1 0.047193728293471529 1 1 1 0.063455475106979992 1 1 1 0.047403312411286549 1 0.073124074687087773 1 0.06050701297112912 0.049788590429588303 1 1 1 1 1 0.049796577043953932 1 1 1 1 1 1 1 1 1 1 1 1 1 1 1 1 1 1 1 1 1 1 1 0.049768908723475572 1 1 0.046373814871531555 1 1 1 0.048993065101952463 1 0.049924290274082989 1 1 1 1 1 1 1 1 1 1 1 1 0.049758915107759885 1 1 1 1 1 1 1 1 1 1 1 1 1 1 1 1 1 1 1 0.049564772959993009 1 1 1 1 1 1 1 1 1 1 1 1 1 1 1 1 1 1 1 1 1 1 1 1 1 1 1 0.049745592503946841 1 1 1 1 1 1 1 1 1 1 1 1 1 1 1 1 1 1 0.0496257377844352 1 1 1 0.049422004950594754 1 1 1 0.050214265988154233 0.0499115845813521 1 1 1 1 1 0.050236218787736278 1 1 1 1 1 1 1 0.050813158742928105 0.050569002724173986 1 1 1 0.049752243082268124 1 0.049665937768389665 1 1 1 1 1 1 0.034192907971070913 0.044275321487605011 1 1 0.044545280410308544 0.0472584993289005 1 1 1 1 1 1 1 1 1 1 0.050028946549248367 1 1 1 1 1 1 0.049476476993435221 1 1 1 1 1 1 1 1 1 1 1 1 1 1 1 1 1 0.050088309282966613 1 1 1 1 0.055755289449825197 1 1 0.050275002815616948 1 1 1 1 1 1 1 1 1 1 1 0.047490633004613911 1 0.043780159182325223 1 0.04215366577572123 1 1 1 1 1 1 1 1 1 1 1 1 1 1 1 1 1 1 1 0.050827895588711661 1 1 0.052367659186865666 1 1 1 0.04997513251180824 1 1 0.048319363927802103 1 1 1 1 0.054835417157713742 1 1 1 1 1 1 1 0.055393869156326811 1 1 1 1 1 1 1 1 1 1 1 1 1 1 1 1 1 1 1 1 1 1 1 1 1 1 1 1 1 0.060722935087377652 1 1 1 1 1 1 1 1 1 1 1 1 1 1 1 1 1 1 1 1 1 1 1 1 1 1 1 1 1 1 1 1 1 1 1 1 1 0.047512896910336555 0.043450623350389052 0.056253695442570258 1 1 0.036063731719010589 1 1 1 0.049482421533277324 1 0.049943128175555976 1 1 1 1 1 0.049891633137007854 1 1 1 1 1 1 1 0.032617111376166436 1 1 1 1 1 1 1 1 1 1 1 1 1 1 0.046769206560081586 1 1 1 0.049953108603346452 1 0.029473710174529481 1 1 1 1 1 1 1 1 0.051629246654116737 1 1 1 1 1 1 1 0.050002704115951209 1 0.0498952369681923 1 0.042427455214826534 1 1 1 1 1 1 1 1 0.053301613043661933 1 1 0.051496862971792887 0.048902043655069699 0.054326550121627307 1 0.03165829098578514 1 0.059766293082915492 1 1 1 1 1 1 1 1 1 1 1 1 1 1 1 1 1 1 1 1 1 0.064924844609563825 1 1 0.045574208388349954 0.057032864739823733 1 1 1 0.050074382756493917 1 1 1 1 1 1 1 0.048896282065307967 1 0.049611933505684963 1 1 1 1 0.050016554825385459 1 1 0.047377634222236675 1 1 1 1 1 1 1 0.038579071007856236 1 1 0.038186329294564197 1 1 1 0.038279674488548521 1 1 1 1 1 1 1 1 1 0.048831523939970381 1 1 1 1 1 1 0.047328616443026994 1 1 0.0335263581307952 1 1 1 1 0.025137578845205517 1 1 1 1 1 1 0.052195486267043685 0.053112718756748077 0.044333298950122405 1 1 1 0.050087311698265594 1 0.050012597430256628 1 0.047538896854437546 1 1 1 1 1 1 0.042910953188980451 1 1 1 0.039510663930822407 1 1 1 0.048260060483326796 1 1 1 1 1 1 1 1 1 1 1 1 0.050185406392714411 1 1 1 0.049857710583885897 1 1 1 1 1 0.050552822147076654 0.041262172974626851 1 1 0.04975676931987856 1 0.041270980827068704 0.044974817383896859 0.056499780614777846 1 1 1 0.05013803881347155 1 1 1 1 1 0.031967898657813687 1 1 1 1 1 1 1 1 1 1 1 1 0.04993922988553974 1 1 1 1 1 1 0.057455923213503485 1 1 0.056653471867023325 1 1 0.049911110215062282 1 1 1 1 1 0.050297285647018977 1 1 0.04807051339508242 1 0.050105513054563761 1 0.049888287792311317 1 1 1 1 1 1 0.049827517677851055 1 1 1 1 0.0503505324348517 1 1 1 1 1 1 1 1 1 1 0.051054989780582177 1 1 1 1 1 0.051022997531046874 1 1 1 1 1 1 1 1 1 1 1 1 1 1 1 0.050765789515433798 1 1 1 1 1 0.052403984985479879 1 0.052148902978918985 1 1 1 1 1 0.048767810426042779 1 1 1 1 1 0.046857112703982365 1 1 1 1 1 0.050731780949853478 1 1 1 1 1 1 1 1 1 1 0.053504453397905147 1 0.050007303244479669 1 0.030231843372508754 1 1 0.058224653717509678 1 1 1 1 1 1 1 1 0.047363418944198182 1 0.05334732104311693 1 1 1 1 1 1 1 1 1 1 0.054366284110105426 1 1 1 1 1 1 1 1 1 1 0.050704189333330929 1 1 1 0.037320206310455024 1 0.052817526528886632 0.028836959507241723 1 1 1 0.047784389679785641 1 1 1 0.040633069411745742 0.050049505538571848 1 1 1 1 1 1 1 1 1 1 0.050002205767488511 0.050071991290190326 1 1 1 1 1 0.049945764978338573 1 1 1 1 1 1 1 1 1 1 0.040502209614664997 1 0.053275566794968171 0.047916304146354463 0.046593194336266103 1 1 1 1 1 1 1 1 0.04882061229215949 1 1 1 1 1 1 1 1 1 1 1 1 1 1 1 1 1 1 1 1 1 1 1 1 1 1 1 1 1 0.051910496212640503 1 1 1 1 0.050704129019850899 1 1 1 1 1 1 1 1 0.049164483016150846 1 1 1 1 1 1 1 1 0.051206877558765559 1 1 1 1 1 1 1 1 1 1 1 1 1 1 1 1 1 1 1 1 1 1 1 1 1 1 0.054355895909817507 1 1 1 1 1 1 0.062708988653463887 1 0.033699902232931248 1 1 0.051463250348334003 1 1 1 0.030792288714958999 1 0.054009050955749358 1 1 1 0.049844001104617133 1 1 1 0.038928909200127731 1 1 1 1 1 1 0.047002498029600874 1 1 1 1 1 1 1 1 1 1 1 1 1 1 1 1 1 1 1 1 1 1 1 1 1 1 1 0.046425712896191088 1 0.041418761186793558 1 1 1 1 0.044993048290602453 1 1 1 1 1 1 1 1 1 1 1 1 1 0.047714934900543217 1 1 0.04687941791669413 1 1 0.045901525002330829 1 1 1 1 1 0.038943326707693217 1 1 1 1 1 1 1 1 0.048662715372388643 1 0.045982513873949818 1 1 1 1 1 0.050465349626962128 0.052495703064222521 1 1 0.049534927750291086 1 1 1 0.04226272967511914 1 1 1 1 1 1 1 0.050469145289280051 1 1 1 1 1 1 1 1 1 1 1 1 1 1 1 1 0.046994981962404592 1 1 1 1 1 0.043883374787528309 1 0.04664184408800074 1 1 1 1 1 1 1 1 1 1 1 1 0.04633081726053543 1 0.046094109938455585 1 1 1 1 1 1 0.040723141674419358 0.049089286561007875 1 1 1 1 1 1 1 1 1 1 1 1 1 1 1 1 1 1 1 1 1 0.050280889243710811 1 1 0.050797321995086547 1 1 1 1 1 0.048287645629294662 1 1 1 1 1 1 0.050093442326587426 1 1 1 1 1 1 1 1 1 1 1 1 1 1 1 1 0.049403473908441242 1 1 0.044547353297936021 1 1 1 1 0.052341508958803601 1 1 1 1 1 1 1 1 1 1 1 0.051069493938861718 1 1 1 1 1 1 1 1 1 1 1 1 1 1 1 1 1 1 1 0.044629031735963776 1 1 1 1 1 1 1 1 1 1 1 1 0.049519240010459931 1 1 1 1 1 1 1 1 1 1 1 1 1 0.050215741726780255 0.0086270476159322068 1 1 1 1 1 1 0.030974167167478903 1 1 1 1 1 1 1 1 1 1 1 1 1 1 1 1 1 1 1 1 1 1 1 1 1 1 1 1 1 1 1 1 1 1 1 0.050333957714169028 1 1 1 1 1 1 1 1 0.050291657104958656 1 1 1 1 1 1 1 1 1 1 1 1 0.04969513101339991 1 1 1 1 0.032844034471900638 1 0.02036331981859342 1 1 1 1 1 1 1 1 0.051364396895664868 1 1 1 1 1 1 1 1 1 1 0.052636411915606765 1 1 1 0.060435271759914796 1 1 0.052085355276990097 1 1 1 1 0.065516555291079803 1 1 0.068020408728690682 1 1 1 1 1 1 1 1 0.056444255493793921 1 1 1 0.061076830011202052 1 1 1 1 1 1 1 0.03910295570281476 1 0.049835338547913791 1 0.025596696650987377 1 0.030486941677521258 0.020462294236939307 1 1 1 0.049732904343940995 0.050174484835337652 0.055357484565171075 1 1 0.026426742141221635 1 1 1 0.069068738573687269 1 1 1 1 0.049405056179109313 1 1 1 1 1 1 1 1 1 1 1 1 1 1 1 1 1 1 1 1 1 1 1 1 1 1 1 1 1 1 1 1 1 1 1 1 1 1 0.049609660904714734 1 1 1 1 1 1 1 1 0.053396926993116489 1 1 1 1 0.054070042291106971 1 1 0.051295175522336048 1 1 0.052868173082992277 1 1 1 1 0.051174975252296556 1 1 1 1 1 0.051517453611195023 1 1 1 1 1 1 1 1 1 1 1 1 1 0.055705693037666065 0.050454048839179255 1 1 1 0.052353107948269244 1 1 1 1 1 1 1 1 1 1 1 1 1 1 0.049152356070063859 1 1 1 1 1 1 0.049417335640294213 1 1 0.048936575650754183 1 1 1 1 1 1 1 1 1 1 0.047288218885198532 1 1 1 1 1 0.045312535168758439 1 1 1 1 1 1 1 1 1 1 0.056470157283151731 1 1 1 1 1 1 1 1 1 1 1 1 1 1 1 0.050044063327519803 1 1 1 1 1 1 1 1 1 1 1 1 1 1 1 1 1 1 1 1 1 1 1 0.049888465137131105 1 0.05359514495591948 1 1 1 0.049498126041845857 1 1 1 1 1 1 1 1 1 0.050988699701070825 1 1 1 0.056260288245843629 1 1 1 1 1 1 1 1 1 1 1 1 1 1 1 1 0.033585569326297991 1 1 1 1 1 0.057763171475889753 1 1 1 0.032395274448873558 1 0.049977683711248777 1 1 1 1 1 1 0.035178986980626339 1 1 1 1 1 1 1 1 1 1 1 1 1 1 1 1 1 1 1 1 1 1 1 1 1 1 1 0.05449553735165763 1 1 0.051424434524086952 1 1 1 1 1 1 1 0.049421295999520727 1 1 1 1 0.050292193791514492 1 1 0.050291238491378495 1 1 1 1 1 1 0.04984004817525875 1 1 1 0.049922583472605753 1 1 1 0.049922374950604878 1 1 1 1 1 0.047200705779095381 1 1 1 1 1 0.04286184374726254 1 1 1 1 1 1 1 1 0.037363632867705485 1 1 0.050504987233376361 1 1 1 1 0.051531679056725857 1 1 1 1 0.052650071208091051 1 1 1 1 0.034769542331585815 1 1 1 0.038956261202535078 1 0.049886603203085043 1 1 1 1 1 1 1 1 1 1 0.049782149989603827 1 1 1 1 1 1 1 0.049605140898917044 0.036112126362488763 1 1 1 1 1 0.032989412773538437 1 1 1 1 1 0.037796183350056578 1 1 1 0.048746669905045233 1 1 0.050085458989104395 1 1 0.052017501008491097 1 1 1 0.031894176255960027 1 1 1 1 1 1 0.04912244760534281 1 1 1 1 1 0.049861720600039974 1 1 1 1 1 0.049941959121047638 1 1 1 1 1 1 0.049492149829536737 1 1 1 1 0.056240464670310075 1 1 1 1 1 0.05052881930789202 1 1 1 1 1 1 1 1 1 1 0.056743814469637333 1 1 1 1 1 1 1 0.053371982427194091 1 1 1 1 0.050926160202859359 0.052636426677731551 1 1 0.040154557562242878 1 1 1 1 1 1 1 0.046609158674586051 1 1 1 1 1 1 1 0.0546749435545172 1 0.051349950436230703 1 1 0.052742144397825506 1 1 1 1 0.048541270927154878 1 0.052682431071669575 1 1 1 1 1 1 1 1 1 1 0.050179622313992853 1 1 1 1 1 0.050133085528362403 1 1 1 0.055534692709588489 1 1 1 1 0.05010274451053072 1 1 0.035271536867901923 1 1 1 1 1 0.04149752439779078 1 0.061628572397186505 1 0.050006831640316517 0.044347491162413495 1 1 1 1 0.056595298982469101 0.049113044204381097 1 1 1 1 1 1 1 1 1 1 1 1 1 0.049703930123245671 1 1 1 1 1 1 0.051160254859604654 0.050164121805779158 1 1 1 1 1 1 1 1 1 1 1 1 1 0.050635401286725994 1 1 1 1 1 1 1 1 1 1 1 1 1 1 1 1 1 1 1 1 1 1 1 1 1 1 1 1 1 1 1 1 1 0.050155149711704171 1 1 0.050484522117585778 1 1 1 1 1 1 1 0.050783421245060821 1 1 1 0.049795038617480691 1 1 0.039285328306752486 1 1 1 0.053809002469916177 0.050016385678382708 1 1 1 1 0.059518218589761002 0.050904299747267068 1 1 1 1 1 1 1 1 1 1 1 1 1 1 0.062747805651639746 1 1 0.050003297975598333 1 1 1 0.06430220879024158 1 1 1 1 0.049730635013534252 1 1 0.0774978704469272 1 1 1 1 1 1 1 1 1 1 1 0.092734769053578636 1 1 1 1 1 1 1 0.10396689825952667 1 1 1 1 1 1 1 1 1 1 1 1 1 1 1 1 1 1 0.048238098236474722 1 1 1 1 1 1 0.041995017782029326 1 0.05128431349630265 1 1 1 1 1 0.048121549874242213 1 1 0.043722141980036294 1 1 1 0.081242013423508563 1 1 1 0.049244519171392553 1 1 1 1 1 1 1 1 1 1 1 1 1 1 0.049321376405386988 1 1 1 1 0.04802724089576469 0.043973220473782756 1 1 1 1 1 1 1 1 1 1 1 1 1 1 1 1 1 1 1 0.05066742707457772 1 1 1 1 1 1 1 1 0.053974793026879991 1 0.052105384875345537 1 1 1 1 1 1 1 0.050008828595320257 1 0.050463904577090365 1 1 1 1 1 0.055904493739768614 1 1 1 1 1 1 0.050294824070393485 1 1 1 1 1 0.045177929135777561 0.041174021052547305 1 1 1 0.036600535046520666 0.061363861213307225 0.058351369861190758 1 1 1 1 1 0.036426005185234089 1 1 1 1 1 0.065866134234122187 1 1 1 1 0.060121153433142421 1 0.036324550519646982 0.044689555211736079 1 0.060500579341079629 0.052293560403590011 1 1 1 0.054091765169825397 1 1 1 0.06111993324659315 1 1 1 0.05624441315987571 1 1 1 0.058011234615901415 1 1 1 1 1 1 1 1 0.051858206234212931 1 1 1 0.053785958270925339 1 1 1 1 1 1 0.049879229701702811 1 1 1 1 1 1 0.057087681376946066 1 1 1 1 1 1 1 1 1 1 1 1 1 1 0.050396265948826513 1 0.037624075616175437 1 1 1 0.056449644537138188 1 1 0.049805574813034333 1 0.043434474864004993 1 0.047394539418933658 1 1 0.057850645382136627 1 1 1 1 1 1 0.045969426663296432 1 1 1 1 0.050171536471254184 1 1 1 1 1 1 0.048614852483463915 1 1 1 1 1 1 1 1 1 1 0.049148328004784504 1 1 1 1 1 1 1 1 1 1 1 1 1 1 1 1 1 1 1 0.027344535290283578 0.046959824565164759 1 1 1 0.032658150537922419 1 1 0.038067021995379438 1 1 0.036332448269246496 1 1 0.055755367354569457 1 1 0.045056899053116869 0.053158848576892702 1 1 1 1 0.032140168187195214 1 1 1 1 1 1 1 1 1 1 1 0.035901772754842687 0.056957693141351559 1 1 1 0.039571056416847036 1 0.049973495852448632 1 0.049975369895181504 1 1 1 1 1 0.049775560677268404 1 1 0.0476583834932513 1 0.045004581497184254 1 1 0.049980899014884915 0.045110903394186053 0.045453405363645824 1 1 1 1 0.047357159410902475 1 1 0.046749748342231751 1 0.040653161028805618 1 1 0.055696919371751905 1 1 1 1 1 1 1 1 0.0416196394830173 1 0.041897108280829432 0.046491752877838563 1 1 1 1 1 0.049870865062018752 0.044066878425601752 1 1 1 0.034278390554318097 0.039796270649033079 1 1 1 1 1 1 1 1 0.049940204283724615 1 0.045937983619549753 1 1 1 1 1 1 1 1 1 1 1 1 1 1 1 1 1 1 1 1 1 1 1 1 1 1 1 1 1 0.049800467168302651 1 1 1 1 1 1 1 1 1 1 1 1 1 1 1 0.0486978156181209 1 1 0.049872967260993648 1 1 1 1 1 0.049852147058220435 1 1 1 1 1 1 1 1 1 1 1 1 1 0.050020820202773202 1 1 1 1 1 1 1 1 1 0.050976460493482714 1 1 0.04362480306905045 1 1 1 1 0.050001941688269311 0.05153048233404077 0.036823646704775136 1 1 1 1 1 0.046114791705947067 1 1 1 
</DataArray>
</CellData>
</Piece>
</UnstructuredGrid>
</VTKFile>
